! Infineon Technologies AG 
! BGA715L7 Noise Paramater at Vcc=2.8V and PON=2.8V
! Schematics and reference plane
! Date: Thursday, January 29, 2009
! S2P File: S11, S21, S12, S22:
!
# GHz S MA R 50
!-----------------------------------------------------------------------------
!Freq         MagS11       AngS11       MagS21       AngS21       MagS12       AngS12       MagS22       AngS22
 0.2          0.66306      76.581       0.10542     -35.283       0.00013561   49.381       0.98274     -11.312      
 0.205        0.68279      73.187       0.11321     -35.843       0.00011457   11.466       0.98312     -11.581      
 0.21         0.69985      70.135       0.12047     -36.144       0.00020348  -118.57       0.98369     -11.889      
 0.215        0.71878      67.271       0.12869     -36.858       5.8082e-5    132.93       0.98366     -12.208      
 0.22         0.73501      64.443       0.13715     -37.504       4.573e-5    -52.112       0.98334     -12.524      
 0.225        0.75004      61.695       0.14543     -38.119       9.8275e-5   -37.949       0.98301     -12.825      
 0.23         0.76381      59.096       0.1534      -38.75        5.6674e-5   -10.071       0.98268     -13.114      
 0.235        0.77548      56.689       0.16113     -39.437       9.4637e-5   -151          0.9823      -13.4        
 0.24         0.78618      54.07        0.16903     -40.165       3.8282e-5    7.1007       0.98215     -13.672      
 0.245        0.79777      51.928       0.17794     -40.891       0.00010005  -38.575       0.98213     -13.953      
 0.25         0.808        49.817       0.18607     -41.651       0.00012778   5.3084       0.98201     -14.238      
 0.255        0.81644      47.715       0.19405     -42.413       0.00014291   47.661       0.98182     -14.516      
 0.26         0.82339      45.805       0.20364     -43.111       0.00017643  -154.33       0.98177     -14.772      
 0.265        0.83305      43.874       0.21215     -44.126       6.1856e-5   -105.93       0.98197     -15.059      
 0.27         0.8411       41.964       0.2211      -44.73        9.956e-5    -155.44       0.98172     -15.338      
 0.275        0.84789      40.194       0.22987     -45.393       9.1618e-5   -124.75       0.98148     -15.62       
 0.28         0.85328      38.525       0.23833     -46.163       0.00013486  -69.508       0.98132     -15.901      
 0.285        0.85733      36.85        0.24667     -46.914       0.0001153   -99.563       0.98114     -16.172      
 0.29         0.86206      35.254       0.25573     -47.73        6.908e-5    -176.81       0.98137     -16.453      
 0.295        0.86552      33.687       0.26522     -48.508       6.4504e-5   -156.62       0.98144     -16.742      
 0.3          0.86951      32.239       0.27455     -49.196       6.8477e-5   -139.71       0.98136     -17.021      
 0.305        0.87349      30.867       0.28366     -49.855       0.00010572  -146.15       0.98113     -17.296      
 0.31         0.87619      29.458       0.29282     -50.586       0.00021275  -144.81       0.98079     -17.581      
 0.315        0.87979      28.102       0.30268     -51.422       0.00013833  -104.53       0.98099     -17.871      
 0.32         0.8822       26.754       0.31152     -52.147       9.0556e-5   -105.24       0.98077     -18.147      
 0.325        0.88539      25.478       0.32133     -52.871       0.00010051  -172.22       0.98048     -18.425      
 0.33         0.88846      24.268       0.33144     -53.578       0.00015646   178.22       0.98025     -18.71       
 0.335        0.88959      23.07        0.34012     -54.229       0.00013536  -126.79       0.98005     -18.999      
 0.34         0.89142      21.81        0.34929     -54.966       9.9929e-5   -156.72       0.97972     -19.25       
 0.345        0.89336      20.673       0.3591      -55.672       0.00013033   177.75       0.9796      -19.552      
 0.35         0.89476      19.583       0.36935     -56.417       0.00013705   180          0.97939     -19.843      
 0.355        0.89571      18.509       0.37953     -57.156       9.4018e-5    177.28       0.97899     -20.127      
 0.36         0.89662      17.444       0.38913     -57.831       8.9619e-5    101.8        0.97847     -20.434      
 0.365        0.89758      16.404       0.39901     -58.702       0.00011211  -174.71       0.97807     -20.751      
 0.37         0.8993       15.398       0.40931     -59.34        0.00012446  -149.54       0.97747     -21.018      
 0.375        0.9002       14.396       0.41939     -59.985       0.00013641  -158.26       0.97712     -21.28       
 0.38         0.90071      13.447       0.42924     -60.667       0.00016556  -174.15       0.97676     -21.562      
 0.385        0.90172      12.603       0.4391      -61.338       0.00017127  -173.5        0.97595     -21.877      
 0.39         0.90091      11.627       0.44973     -62.017       0.00016917   161.45       0.97605     -22.19       
 0.395        0.90134      10.719       0.45958     -62.745       0.00014262  -159.55       0.97558     -22.456      
 0.4          0.90189      9.8308       0.46967     -63.438       0.0001697   -137.63       0.97499     -22.734      
 0.405        0.90239      8.9758       0.47988     -64.094       0.00014241  -142.98       0.97449     -23.032      
 0.41         0.9029       8.1796       0.48982     -64.747       7.4385e-5    177.52       0.97421     -23.335      
 0.415        0.90273      7.3462       0.50005     -65.465       0.00019636  -152.18       0.974       -23.602      
 0.42         0.90332      6.5496       0.51092     -66.098       0.00018368  -160.42       0.9738      -23.91       
 0.425        0.90291      5.7711       0.52137     -66.786       0.00024108  -168.2        0.9737      -24.235      
 0.43         0.90227      4.9947       0.53159     -67.51        0.00029994  -167.84       0.97332     -24.556      
 0.435        0.90282      4.2163       0.54209     -68.199       0.00022702  -164.23       0.97229     -24.859      
 0.44         0.90318      3.4894       0.5521      -68.823       0.00013445  -179.78       0.97171     -25.176      
 0.445        0.90223      2.7549       0.56205     -69.537       0.00020965  -152.37       0.97083     -25.474      
 0.45         0.90121      2.0724       0.57279     -70.187       0.00032756  -158.86       0.96994     -25.773      
 0.455        0.90048      1.3924       0.58368     -70.821       0.00038424  -169.83       0.96916     -26.069      
 0.46         0.90005      0.6557       0.59385     -71.521       0.00031789  -174.18       0.96857     -26.352      
 0.465        0.89859      0.041106     0.60429     -72.152       0.00040942  -169.59       0.96817     -26.651      
 0.47         0.89949     -0.66777      0.61456     -72.878       0.00037659  -178.71       0.96757     -26.929      
 0.475        0.89899     -1.3697       0.62457     -73.598       0.00036736   179.68       0.96702     -27.22       
 0.48         0.89769     -2.022        0.63497     -74.282       0.00038542  -171.29       0.96654     -27.524      
 0.485        0.89728     -2.6132       0.64625     -74.927       0.00041097  -160.29       0.9661      -27.831      
 0.49         0.89664     -3.2653       0.65617     -75.591       0.00038832  -171.79       0.96575     -28.114      
 0.495        0.89553     -3.8943       0.66645     -76.301       0.00040798  -169.69       0.96491     -28.417      
 0.5          0.89499     -4.5226       0.6767      -76.951       0.00040128  -170.14       0.96412     -28.718      
 0.505        0.89475     -5.1298       0.68687     -77.589       0.0004126   -169.33       0.96352     -29.014      
 0.51         0.89421     -5.7045       0.69693     -78.279       0.00049774  -163.05       0.96309     -29.308      
 0.515        0.8933      -6.3703       0.70595     -78.89        0.00053014  -168.07       0.96261     -29.596      
 0.52         0.8921      -6.9285       0.71591     -79.529       0.00057741  -172.01       0.96179     -29.893      
 0.525        0.89089     -7.5279       0.72628     -80.163       0.00058194  -177.33       0.96093     -30.181      
 0.53         0.89026     -8.1343       0.73667     -80.792       0.00055564  -178.94       0.96017     -30.464      
 0.535        0.89035     -8.6906       0.74664     -81.428       0.00053686  -171.81       0.95953     -30.749      
 0.54         0.8885      -9.3384       0.75526     -82.13        0.0006048   -177.22       0.95878     -31.034      
 0.545        0.88719     -9.8569       0.76523     -82.713       0.00064831  -176.31       0.95813     -31.319      
 0.55         0.88604     -10.414       0.77482     -83.339       0.00067792  -179.41       0.95763     -31.604      
 0.555        0.88473     -10.984       0.78383     -83.995       0.00070758   176.98       0.95721     -31.888      
 0.56         0.88319     -11.511       0.79252     -84.634       0.00072822   177.93       0.95677     -32.17       
 0.565        0.88295     -12.062       0.8015      -85.248       0.00065588  -176.8        0.9561      -32.469      
 0.57         0.88183     -12.604       0.81042     -85.83        0.00065598  -177.87       0.9555      -32.755      
 0.575        0.88062     -13.149       0.81925     -86.435       0.00069386   175.44       0.95497     -33.049      
 0.58         0.87947     -13.677       0.82806     -87.039       0.00075697   170.86       0.95435     -33.346      
 0.585        0.8784      -14.175       0.83683     -87.623       0.00081632   172.86       0.95352     -33.637      
 0.59         0.87735     -14.687       0.84511     -88.27        0.0008698    173.51       0.95301     -33.922      
 0.595        0.87633     -15.196       0.8536      -88.836       0.00085257   173.27       0.95222     -34.194      
 0.6          0.87454     -15.693       0.86118     -89.4         0.00086438   169.92       0.95182     -34.476      
 0.605        0.8731      -16.201       0.86848     -89.944       0.00085857   167.44       0.95131     -34.761      
 0.61         0.87293     -16.722       0.87628     -90.453       0.00079197   169.2        0.95026     -35.04       
 0.615        0.87162     -17.142       0.88393     -91.008       0.00085984   169.96       0.94988     -35.331      
 0.62         0.8707      -17.63        0.89183     -91.565       0.00093201   165.7        0.94934     -35.603      
 0.625        0.86931     -18.092       0.89974     -92.046       0.0010097    164.69       0.94887     -35.89       
 0.63         0.86792     -18.546       0.90735     -92.507       0.0010322    165.5        0.94857     -36.187      
 0.635        0.86702     -19.016       0.91447     -93.021       0.00097766   165.53       0.94846     -36.484      
 0.64         0.86558     -19.441       0.92148     -93.6         0.0010392    162.62       0.94828     -36.811      
 0.645        0.86459     -19.877       0.92851     -94.073       0.0010773    159.07       0.94768     -37.126      
 0.65         0.8636      -20.319       0.93542     -94.544       0.001117     159.3        0.94689     -37.449      
 0.655        0.86236     -20.74        0.94226     -94.993       0.001132     159.92       0.94596     -37.763      
 0.66         0.86073     -21.136       0.94885     -95.395       0.0011136    157.96       0.94498     -38.055      
 0.665        0.8591      -21.594       0.95395     -95.82        0.0011647    158.05       0.94425     -38.342      
 0.67         0.85802     -22.025       0.96077     -96.226       0.0011981    156.93       0.94342     -38.645      
 0.675        0.85644     -22.434       0.96702     -96.607       0.0012212    154.43       0.94262     -38.948      
 0.68         0.85506     -22.823       0.9727      -96.969       0.0012276    153.11       0.94186     -39.251      
 0.685        0.85436     -23.205       0.97827     -97.322       0.0012215    154.65       0.94112     -39.553      
 0.69         0.8526      -23.662       0.98399     -97.68        0.0012771    155.14       0.94026     -39.836      
 0.695        0.8511      -24.033       0.99039     -98.01        0.0013339    151.3        0.93936     -40.148      
 0.7          0.84944     -24.423       0.9969      -98.291       0.0013779    148.03       0.9388      -40.446      
 0.705        0.84793     -24.826       1.003       -98.561       0.0013803    146.59       0.93828     -40.737      
 0.71         0.84683     -25.218       1.0086      -98.841       0.0013537    147.41       0.93755     -41.03       
 0.715        0.84566     -25.591       1.0148      -99.035       0.0014733    149.83       0.93704     -41.32       
 0.72         0.84413     -25.948       1.0221      -99.295       0.0014516    148.42       0.93627     -41.648      
 0.725        0.84238     -26.319       1.0287      -99.531       0.0014424    146.34       0.93562     -41.952      
 0.73         0.84059     -26.71        1.035       -99.733       0.0014362    145.36       0.93506     -42.249      
 0.735        0.83901     -27.109       1.0415      -99.916       0.0014182    146.02       0.93455     -42.559      
 0.74         0.83819     -27.442       1.0487      -100.13       0.00146      145.66       0.93427     -42.872      
 0.745        0.8369      -27.806       1.0566      -100.31       0.0015248    143.59       0.93373     -43.178      
 0.75         0.83595     -28.187       1.0637      -100.47       0.001521     143.18       0.93314     -43.5        
 0.755        0.83463     -28.56        1.0706      -100.63       0.0015142    143.01       0.93261     -43.822      
 0.76         0.83254     -28.915       1.078       -100.8        0.0015572    141.87       0.93222     -44.134      
 0.765        0.83131     -29.286       1.0858      -100.92       0.001569     141.2        0.93194     -44.466      
 0.77         0.83012     -29.627       1.0922      -101.05       0.0015412    139.9        0.93129     -44.785      
 0.775        0.82898     -29.962       1.1004      -101.15       0.0015962    138.1        0.93064     -45.101      
 0.78         0.82748     -30.31        1.109       -101.22       0.001649     137.59       0.93008     -45.42       
 0.785        0.82556     -30.673       1.117       -101.3        0.0016345    138.28       0.92964     -45.747      
 0.79         0.82439     -30.987       1.1255      -101.42       0.0016489    134.62       0.92937     -46.075      
 0.795        0.82361     -31.311       1.1359      -101.49       0.0016684    134.02       0.92911     -46.397      
 0.8          0.82253     -31.62        1.1453      -101.52       0.0016561    133.67       0.92859     -46.728      
 0.805        0.82108     -31.934       1.1545      -101.57       0.0016422    133.63       0.92803     -47.059      
 0.81         0.81954     -32.267       1.1644      -101.69       0.0016577    133.82       0.92764     -47.384      
 0.815        0.81892     -32.59        1.1753      -101.74       0.0017135    132.67       0.92727     -47.715      
 0.82         0.81731     -32.862       1.1883      -101.72       0.001743     131.56       0.92729     -48.041      
 0.825        0.81647     -33.166       1.1998      -101.75       0.0017508    129.17       0.92726     -48.373      
 0.83         0.81567     -33.477       1.2109      -101.82       0.0017852    127.56       0.92712     -48.712      
 0.835        0.81431     -33.775       1.2231      -101.91       0.0018395    127.86       0.9269      -49.057      
 0.84         0.8131      -34.097       1.2362      -101.98       0.0017549    127.7        0.92684     -49.406      
 0.845        0.81304     -34.372       1.2494      -102.08       0.0017365    128.97       0.92672     -49.777      
 0.85         0.81229     -34.633       1.2638      -102.15       0.0017665    129.28       0.92664     -50.156      
 0.855        0.8111      -34.916       1.2776      -102.22       0.0017891    128.54       0.92638     -50.533      
 0.86         0.8099      -35.226       1.2902      -102.31       0.001792     126.99       0.92585     -50.908      
 0.865        0.80913     -35.482       1.3062      -102.4        0.0018853    125.15       0.92542     -51.311      
 0.87         0.80791     -35.817       1.3197      -102.48       0.0018624    124.12       0.92453     -51.675      
 0.875        0.80682     -36.138       1.3347      -102.57       0.0018736    122.74       0.92383     -52.038      
 0.88         0.80573     -36.433       1.3509      -102.66       0.0019012    121.74       0.92332     -52.41       
 0.885        0.80451     -36.707       1.3675      -102.73       0.0019115    122.01       0.92283     -52.791      
 0.89         0.8033      -36.989       1.384       -102.76       0.0018796    124.84       0.92197     -53.151      
 0.895        0.80241     -37.266       1.4016      -102.94       0.0018766    122.7        0.92132     -53.516      
 0.9          0.80096     -37.547       1.4193      -103.1        0.0018995    121.59       0.92093     -53.891      
 0.905        0.79934     -37.843       1.437       -103.23       0.001936     120.19       0.92044     -54.269      
 0.91         0.79785     -38.136       1.4546      -103.35       0.0019629    118.21       0.91971     -54.651      
 0.915        0.79638     -38.335       1.472       -103.51       0.0019137    119.22       0.91919     -55.051      
 0.92         0.79551     -38.626       1.4907      -103.67       0.0019159    117.23       0.91857     -55.441      
 0.925        0.79457     -38.882       1.51        -103.84       0.0019367    117.45       0.91777     -55.83       
 0.93         0.79345     -39.132       1.53        -104.02       0.0019603    117.6        0.91712     -56.227      
 0.935        0.7923      -39.411       1.5502      -104.2        0.0019774    116.68       0.9167      -56.632      
 0.94         0.79168     -39.731       1.5688      -104.39       0.0019853    117.75       0.91596     -57.024      
 0.945        0.79035     -39.981       1.5888      -104.6        0.0020049    116.26       0.91489     -57.433      
 0.95         0.7893      -40.228       1.6106      -104.8        0.002031     115.25       0.91422     -57.853      
 0.955        0.78833     -40.48        1.6327      -105.01       0.002044     114.32       0.9136      -58.274      
 0.96         0.78729     -40.739       1.6541      -105.24       0.0020329    113.55       0.91285     -58.689      
 0.965        0.78623     -41.014       1.6762      -105.44       0.0020007    114.72       0.9123      -59.097      
 0.97         0.78564     -41.309       1.6988      -105.7        0.0020356    115.46       0.91153     -59.502      
 0.975        0.78448     -41.573       1.7207      -105.95       0.0020038    114.93       0.91076     -59.925      
 0.98         0.78334     -41.818       1.7434      -106.19       0.0020051    112.8        0.90992     -60.351      
 0.985        0.78249     -42.065       1.7673      -106.41       0.0020626    110.61       0.90904     -60.773      
 0.99         0.78128     -42.35        1.7914      -106.64       0.0020054    112.81       0.90837     -61.197      
 0.995        0.78032     -42.559       1.8149      -106.91       0.0020601    113.12       0.90748     -61.635      
 1            0.77961     -42.799       1.8397      -107.19       0.0021043    112.06       0.90678     -62.079      
 1.005        0.77897     -43.054       1.8643      -107.48       0.0021019    110.76       0.90592     -62.522      
 1.01         0.7782      -43.301       1.8889      -107.8        0.0020698    110.09       0.90487     -62.965      
 1.015        0.77708     -43.518       1.9168      -108.11       0.0021143    110.76       0.90431     -63.415      
 1.02         0.77627     -43.767       1.9418      -108.37       0.0020845    111.28       0.90346     -63.874      
 1.025        0.77557     -43.994       1.9692      -108.66       0.002108     111.26       0.90265     -64.323      
 1.03         0.7747      -44.221       1.9965      -108.98       0.0021134    110.87       0.90169     -64.769      
 1.035        0.77377     -44.462       2.0233      -109.34       0.002092     110.22       0.90068     -65.225      
 1.04         0.77361     -44.706       2.0526      -109.67       0.0021633    109.32       0.9003      -65.718      
 1.045        0.77273     -44.952       2.0815      -110          0.0021368    109.27       0.89911     -66.184      
 1.05         0.77194     -45.17        2.1108      -110.35       0.0021525    109.02       0.8984      -66.665      
 1.055        0.77086     -45.393       2.141       -110.73       0.0021923    108.79       0.89787     -67.148      
 1.06         0.76959     -45.645       2.1716      -111.14       0.0022261    108.57       0.89717     -67.637      
 1.065        0.76917     -45.934       2.1996      -111.55       0.0022164    107.89       0.89594     -68.169      
 1.07         0.76829     -46.134       2.2304      -111.98       0.0022031    108.72       0.89474     -68.672      
 1.075        0.76725     -46.335       2.2611      -112.39       0.0022459    108.39       0.89339     -69.194      
 1.08         0.76653     -46.558       2.2911      -112.76       0.0022778    107.79       0.89191     -69.707      
 1.085        0.76597     -46.791       2.3205      -113.13       0.0022747    107.68       0.89049     -70.206      
 1.09         0.76434     -46.986       2.3499      -113.57       0.0022861    108.54       0.88958     -70.724      
 1.095        0.76306     -47.198       2.3814      -113.96       0.0022807    107.82       0.88804     -71.24       
 1.1          0.76243     -47.429       2.4136      -114.39       0.0023223    107.68       0.88672     -71.767      
 1.105        0.76181     -47.652       2.4461      -114.81       0.0023432    107.53       0.88542     -72.295      
 1.11         0.76086     -47.858       2.4788      -115.21       0.0023261    106.92       0.88404     -72.822      
 1.115        0.75971     -48.066       2.5131      -115.63       0.0023315    105.85       0.88274     -73.361      
 1.12         0.759       -48.303       2.5451      -116.09       0.0023636    106.05       0.8814      -73.927      
 1.125        0.75786     -48.507       2.5791      -116.52       0.0023619    105.56       0.87992     -74.481      
 1.13         0.7569      -48.695       2.6154      -116.96       0.0023691    105.62       0.87841     -75.041      
 1.135        0.7562      -48.887       2.6525      -117.41       0.0024014    106.29       0.87693     -75.606      
 1.14         0.75508     -49.115       2.6862      -117.9        0.0024345    105.89       0.87546     -76.149      
 1.145        0.75449     -49.297       2.7209      -118.38       0.002414     104.82       0.87344     -76.744      
 1.15         0.75391     -49.491       2.7588      -118.86       0.0024543    104.47       0.87176     -77.327      
 1.155        0.75319     -49.694       2.7961      -119.35       0.0024698    103.81       0.87009     -77.919      
 1.16         0.75241     -49.903       2.8328      -119.83       0.0024397    103.29       0.86831     -78.516      
 1.165        0.75192     -50.123       2.8741      -120.31       0.0024317    105.47       0.86663     -79.085      
 1.17         0.75133     -50.306       2.912       -120.84       0.0024598    104.58       0.86468     -79.701      
 1.175        0.75086     -50.517       2.9531      -121.33       0.0025066    103.38       0.86312     -80.317      
 1.18         0.75034     -50.711       2.9942      -121.86       0.0025296    102.81       0.86139     -80.944      
 1.185        0.74972     -50.885       3.0346      -122.41       0.0025407    103.13       0.85936     -81.58       
 1.19         0.74918     -51.089       3.0762      -122.94       0.0026213    103.93       0.85749     -82.21       
 1.195        0.74855     -51.294       3.1178      -123.48       0.0025129    103.45       0.85526     -82.843      
 1.2          0.74768     -51.468       3.1607      -124.03       0.0025016    102.6        0.85308     -83.501      
 1.205        0.74712     -51.66        3.2047      -124.63       0.0025298    102.51       0.85085     -84.168      
 1.21         0.74688     -51.88        3.2485      -125.27       0.0025656    102.98       0.84852     -84.838      
 1.215        0.74626     -52.099       3.2901      -125.86       0.0026126    102.38       0.84605     -85.51       
 1.22         0.74511     -52.313       3.3358      -126.45       0.0026367    101.87       0.84329     -86.216      
 1.225        0.74437     -52.489       3.3794      -127.06       0.0026552    101.48       0.84049     -86.902      
 1.23         0.74383     -52.656       3.4241      -127.66       0.0026755    101.37       0.83765     -87.591      
 1.235        0.74326     -52.833       3.4702      -128.25       0.0027035    101.51       0.83474     -88.295      
 1.24         0.74238     -53.033       3.515       -128.86       0.0027428    101.73       0.83168     -89.003      
 1.245        0.74159     -53.222       3.561       -129.5        0.0027558    101.78       0.82874     -89.723      
 1.25         0.74102     -53.427       3.6085      -130.14       0.0027176    100.96       0.82574     -90.457      
 1.255        0.74016     -53.618       3.656       -130.78       0.0027382    100.64       0.82259     -91.198      
 1.26         0.73923     -53.804       3.704       -131.44       0.0028158    100.93       0.81936     -91.949      
 1.265        0.73914     -54.025       3.7551      -132.12       0.0028373    100.65       0.81623     -92.722      
 1.27         0.73783     -54.204       3.8034      -132.78       0.0028527    100.51       0.81294     -93.482      
 1.275        0.73729     -54.413       3.853       -133.48       0.0028851    99.748       0.80941     -94.278      
 1.28         0.73665     -54.607       3.9017      -134.2        0.0029014    98.937       0.80562     -95.096      
 1.285        0.73568     -54.787       3.9495      -134.9        0.0028927    98.346       0.80176     -95.927      
 1.29         0.73484     -55.001       3.9989      -135.6        0.0028747    98.002       0.79815     -96.769      
 1.295        0.73339     -55.176       4.046       -136.32       0.0029468    99.188       0.79401     -97.61       
 1.3          0.73231     -55.343       4.0968      -137.01       0.0029912    98.518       0.78984     -98.469      
 1.305        0.73168     -55.518       4.151       -137.74       0.0030359    98.243       0.78553     -99.342      
 1.31         0.73117     -55.699       4.2053      -138.48       0.0030674    98.552       0.78102     -100.23      
 1.315        0.73001     -55.868       4.2536      -139.17       0.0030384    97.933       0.77632     -101.14      
 1.32         0.7296      -56.014       4.3079      -139.96       0.0030529    98.295       0.77174     -102.06      
 1.325        0.72882     -56.153       4.3617      -140.67       0.0031168    97.413       0.76695     -102.99      
 1.33         0.72818     -56.324       4.4172      -141.41       0.0031645    97.061       0.76207     -103.93      
 1.335        0.72758     -56.518       4.4734      -142.21       0.0031878    96.937       0.75702     -104.89      
 1.34         0.72644     -56.692       4.5271      -143.01       0.0032305    95.236       0.75157     -105.88      
 1.345        0.72582     -56.862       4.5864      -143.8        0.003264     96.643       0.74655     -106.86      
 1.35         0.72507     -57.023       4.641       -144.61       0.0033135    96.881       0.74102     -107.88      
 1.355        0.72437     -57.179       4.6965      -145.42       0.0033551    96.078       0.73526     -108.91      
 1.36         0.72372     -57.336       4.7535      -146.24       0.0033774    94.999       0.72949     -109.95      
 1.365        0.72295     -57.5         4.8089      -147.05       0.0033772    94.868       0.7238      -111         
 1.37         0.72233     -57.65        4.8656      -147.9        0.0034568    94.516       0.71772     -112.11      
 1.375        0.72134     -57.796       4.925       -148.76       0.0034828    93.783       0.71135     -113.21      
 1.38         0.72068     -57.958       4.9821      -149.63       0.0034753    93.205       0.70492     -114.33      
 1.385        0.72016     -58.122       5.0379      -150.52       0.0034858    93.014       0.69847     -115.47      
 1.39         0.71896     -58.248       5.0977      -151.39       0.0035847    93.184       0.69183     -116.65      
 1.395        0.71806     -58.386       5.1524      -152.27       0.0035949    92.457       0.68493     -117.83      
 1.4          0.71759     -58.517       5.211       -153.18       0.0036154    91.857       0.6776      -119.04      
 1.405        0.71675     -58.647       5.2669      -154.08       0.0036593    91.293       0.67021     -120.26      
 1.41         0.71574     -58.775       5.3228      -154.98       0.0037224    90.596       0.6629      -121.5       
 1.415        0.71542     -58.903       5.3869      -155.93       0.0037871    89.585       0.65563     -122.79      
 1.42         0.71444     -59.023       5.4449      -156.83       0.0038034    89.313       0.64778     -124.09      
 1.425        0.71385     -59.149       5.5004      -157.78       0.0038201    88.736       0.63997     -125.42      
 1.43         0.71315     -59.257       5.5588      -158.72       0.003847     88.407       0.63199     -126.77      
 1.435        0.71239     -59.378       5.6193      -159.66       0.0038716    88.028       0.6238      -128.14      
 1.44         0.712       -59.574       5.6769      -160.64       0.0038728    86.808       0.61557     -129.56      
 1.445        0.7112      -59.708       5.7361      -161.67       0.0039524    85.876       0.60708     -131.02      
 1.45         0.71051     -59.794       5.7964      -162.63       0.00402      84.921       0.59842     -132.51      
 1.455        0.70975     -59.904       5.8556      -163.62       0.0040401    84.225       0.58964     -134.04      
 1.46         0.70888     -60.045       5.913       -164.66       0.0040511    83.769       0.58071     -135.61      
 1.465        0.70798     -60.183       5.9686      -165.71       0.004129     83.359       0.57163     -137.24      
 1.47         0.70729     -60.292       6.0281      -166.7        0.004102     82.258       0.56239     -138.88      
 1.475        0.7066      -60.413       6.0855      -167.79       0.0041956    81.301       0.55295     -140.59      
 1.48         0.70603     -60.563       6.1404      -168.87       0.0042225    80.999       0.54329     -142.34      
 1.485        0.70542     -60.708       6.1948      -169.93       0.0041968    80.829       0.53347     -144.14      
 1.49         0.70449     -60.79        6.2521      -170.99       0.0042423    79.826       0.52361     -145.99      
 1.495        0.7041      -60.918       6.3046      -172.08       0.0042594    78.981       0.51336     -147.86      
 1.5          0.70371     -61.021       6.3592      -173.21       0.0042962    77.767       0.5031      -149.85      
 1.505        0.70318     -61.102       6.411       -174.31       0.0043362    76.81        0.49265     -151.87      
 1.51         0.70252     -61.196       6.4591      -175.43       0.0043649    76.163       0.48203     -153.92      
 1.515        0.70185     -61.343       6.5053      -176.59       0.0043719    75.58        0.47147     -156.04      
 1.52         0.70172     -61.467       6.5556      -177.7        0.0043669    74.915       0.46064     -158.15      
 1.525        0.70133     -61.528       6.6077      -178.84       0.0044077    74.239       0.45        -160.36      
 1.53         0.70121     -61.615       6.6542      -179.98       0.0044505    73.557       0.43944     -162.66      
 1.535        0.70114     -61.736       6.6965       178.86       0.0044724    72.667       0.4289      -165.05      
 1.54         0.70064     -61.853       6.7407       177.69       0.0044664    71.368       0.4184      -167.52      
 1.545        0.70086     -61.936       6.7882       176.48       0.004488     71.069       0.40797     -170.06      
 1.55         0.70085     -62.047       6.8259       175.29       0.0044908    70.279       0.39765     -172.7       
 1.555        0.70072     -62.162       6.8635       174.09       0.0045235    69.327       0.3874      -175.42      
 1.56         0.70062     -62.273       6.9018       172.89       0.0045631    68.342       0.37724     -178.25      
 1.565        0.70065     -62.375       6.9377       171.68       0.0045604    67.34        0.36731      178.8       
 1.57         0.70006     -62.453       6.9707       170.48       0.0045912    66.664       0.35754      175.73      
 1.575        0.70009     -62.577       7.0003       169.21       0.0045767    66.205       0.34803      172.54      
 1.58         0.69998     -62.713       7.0259       167.95       0.0045835    65.367       0.3389       169.23      
 1.585        0.69972     -62.838       7.0499       166.72       0.0045959    64.314       0.33013      165.81      
 1.59         0.69962     -62.935       7.0751       165.52       0.0045723    63.509       0.32167      162.28      
 1.595        0.69937     -62.992       7.0948       164.26       0.0046454    63.088       0.31378      158.61      
 1.6          0.69915     -63.077       7.1096       163.02       0.0046099    62.089       0.30631      154.81      
 1.605        0.6986      -63.163       7.1253       161.79       0.0046107    61.107       0.29942      150.88      
 1.61         0.69791     -63.265       7.1401       160.57       0.0046473    60.389       0.29324      146.83      
 1.615        0.69754     -63.408       7.1504       159.36       0.0046621    59.882       0.28788      142.67      
 1.62         0.69776     -63.488       7.1591       158.12       0.0046683    58.569       0.283        138.39      
 1.625        0.69753     -63.565       7.1665       156.89       0.0047126    57.934       0.27887      134.05      
 1.63         0.69725     -63.667       7.1733       155.66       0.0047062    57.427       0.27563      129.64      
 1.635        0.69706     -63.779       7.1782       154.41       0.0046886    56.709       0.27332      125.16      
 1.64         0.69692     -63.875       7.1795       153.17       0.0047299    55.586       0.27196      120.65      
 1.645        0.69664     -63.98        7.1765       151.94       0.0046598    54.043       0.2713       116.16      
 1.65         0.69637     -64.07        7.1688       150.73       0.0046489    53.377       0.27149      111.71      
 1.655        0.69579     -64.163       7.161        149.52       0.0046836    52.196       0.27265      107.24      
 1.66         0.69529     -64.266       7.1516       148.32       0.0047193    50.913       0.27478      102.82      
 1.665        0.69532     -64.378       7.1371       147.13       0.0046992    50.368       0.27771      98.523      
 1.67         0.69454     -64.516       7.1166       145.97       0.0046382    49.445       0.28128      94.329      
 1.675        0.69433     -64.582       7.1013       144.81       0.004599     48.839       0.28538      90.213      
 1.68         0.69399     -64.662       7.082        143.66       0.0045654    48.249       0.29023      86.243      
 1.685        0.6936      -64.762       7.0595       142.52       0.0045446    47.319       0.29577      82.411      
 1.69         0.69344     -64.86        7.0382       141.38       0.0045432    45.834       0.30189      78.683      
 1.695        0.69328     -64.938       7.0178       140.29       0.0044795    44.767       0.30831      75.093      
 1.7          0.69369     -65.038       6.9945       139.16       0.004456     43.874       0.31512      71.631      
 1.705        0.69349     -65.143       6.9688       138.05       0.004441     43.395       0.32238      68.328      
 1.71         0.69316     -65.231       6.9439       136.97       0.004427     42.969       0.32995      65.157      
 1.715        0.69353     -65.285       6.9226       135.88       0.0044144    42.184       0.33771      62.085      
 1.72         0.69388     -65.391       6.8936       134.8        0.004389     41.946       0.34557      59.157      
 1.725        0.69398     -65.533       6.8596       133.7        0.0043504    41.186       0.35366      56.337      
 1.73         0.69414     -65.645       6.8277       132.61       0.004322     40.641       0.36186      53.638      
 1.735        0.69444     -65.741       6.7963       131.55       0.0043127    40.095       0.37018      51.044      
 1.74         0.69482     -65.848       6.7619       130.5        0.0043235    39.168       0.37868      48.542      
 1.745        0.69475     -65.934       6.7246       129.47       0.004325     38.523       0.38703      46.134      
 1.75         0.69443     -65.995       6.6863       128.45       0.0042653    37.699       0.39536      43.82       
 1.755        0.69436     -66.101       6.6481       127.47       0.0042364    36.904       0.40384      41.599      
 1.76         0.69457     -66.223       6.6097       126.48       0.0042317    36.483       0.41236      39.469      
 1.765        0.69483     -66.318       6.5703       125.46       0.0042152    36.569       0.4208       37.423      
 1.77         0.69456     -66.442       6.5248       124.51       0.0041549    35.833       0.4292       35.429      
 1.775        0.69471     -66.524       6.484        123.56       0.0041444    35.213       0.43738      33.505      
 1.78         0.6946      -66.603       6.4432       122.62       0.0041316    34.55        0.44563      31.647      
 1.785        0.69445     -66.676       6.4024       121.7        0.0041271    33.84        0.4539       29.859      
 1.79         0.69464     -66.732       6.3628       120.79       0.0041476    33.166       0.46208      28.141      
 1.795        0.69505     -66.794       6.3235       119.91       0.004144     32.778       0.4701       26.495      
 1.8          0.69492     -66.89        6.279        119.04       0.0041132    31.81        0.47805      24.829      
 1.805        0.69491     -66.942       6.2392       118.17       0.0040941    31.354       0.48593      23.235      
 1.81         0.69502     -67.003       6.1999       117.29       0.0040849    30.912       0.49369      21.702      
 1.815        0.6951      -67.13        6.1558       116.41       0.0040729    29.789       0.50135      20.205      
 1.82         0.69479     -67.199       6.1164       115.56       0.0040308    28.675       0.50903      18.761      
 1.825        0.69496     -67.274       6.0717       114.71       0.0040039    27.607       0.51624      17.348      
 1.83         0.69519     -67.366       6.031        113.86       0.0039701    26.915       0.52345      15.976      
 1.835        0.6953      -67.462       5.9911       113.03       0.0039394    26.576       0.53063      14.647      
 1.84         0.69524     -67.542       5.9479       112.2        0.0039217    26.312       0.53761      13.358      
 1.845        0.69542     -67.615       5.9067       111.41       0.0038815    24.983       0.54434      12.081      
 1.85         0.69536     -67.714       5.86         110.59       0.003845     24.813       0.55098      10.875      
 1.855        0.69531     -67.822       5.8168       109.81       0.0038281    24.668       0.55752      9.6686      
 1.86         0.69517     -67.918       5.7758       109.05       0.0038131    23.919       0.564        8.4814      
 1.865        0.69483     -67.993       5.7336       108.3        0.003788     22.495       0.57039      7.3448      
 1.87         0.69479     -68.1         5.69         107.54       0.0037976    22.58        0.57657      6.2412      
 1.875        0.6948      -68.187       5.6494       106.84       0.0037447    22.38        0.58265      5.1861      
 1.88         0.69469     -68.312       5.6056       106.14       0.0036663    21.467       0.58874      4.1112      
 1.885        0.69452     -68.431       5.5629       105.43       0.0036099    20.591       0.5948       3.051       
 1.89         0.69444     -68.499       5.5254       104.73       0.0036054    20.444       0.60076      2.0434      
 1.895        0.69482     -68.585       5.4842       104.04       0.0036076    19.83        0.6064       1.0489      
 1.9          0.69504     -68.659       5.4418       103.33       0.0035375    19.602       0.61189      0.05689     
 1.905        0.69499     -68.782       5.4011       102.66       0.0035017    18.372       0.61743     -0.9224      
 1.91         0.69507     -68.89        5.3623       101.98       0.0034919    17.182       0.62279     -1.8854      
 1.915        0.69552     -68.93        5.3249       101.27       0.0034702    17.088       0.62782     -2.8297      
 1.92         0.69562     -69.02        5.2863       100.64       0.0033949    17.06        0.63282     -3.7462      
 1.925        0.6961      -69.169       5.2446       99.983       0.0033336    17.219       0.63756     -4.6492      
 1.93         0.69643     -69.263       5.2066       99.337       0.0033372    16.624       0.64219     -5.5318      
 1.935        0.69696     -69.342       5.1705       98.704       0.0033484    15.487       0.64681     -6.3938      
 1.94         0.69784     -69.444       5.1341       98.077       0.0033165    14.32        0.65141     -7.2334      
 1.945        0.69793     -69.499       5.0972       97.481       0.0033022    14.154       0.65558     -8.0386      
 1.95         0.69795     -69.599       5.0587       96.844       0.0032375    14.359       0.65991     -8.8288      
 1.955        0.69807     -69.691       5.021        96.252       0.0031892    13.606       0.66409     -9.6119      
 1.96         0.69842     -69.788       4.9851       95.665       0.0031584    12.95        0.66822     -10.391      
 1.965        0.69892     -69.898       4.9508       95.049       0.0031339    13.125       0.67245     -11.165      
 1.97         0.69884     -69.963       4.9136       94.485       0.0031174    11.768       0.67675     -11.929      
 1.975        0.69923     -70.097       4.8788       93.836       0.0030507    11.786       0.68085     -12.63       
 1.98         0.69972     -70.182       4.8457       93.252       0.0030323    11.506       0.68489     -13.335      
 1.985        0.69976     -70.251       4.8112       92.701       0.0030149    10.877       0.68887     -14.051      
 1.99         0.69918     -70.343       4.7748       92.125       0.0029559    10.324       0.69275     -14.773      
 1.995        0.69937     -70.429       4.7437       91.508       0.0029123    11.154       0.69642     -15.505      
 2            0.69965     -70.529       4.7086       90.923       0.0029318    9.9879       0.70019     -16.15       
 2.005        0.69994     -70.619       4.6724       90.328       0.0029429    9.2649       0.70376     -16.837      
 2.01         0.70008     -70.69        4.638        89.755       0.0029191    9.1546       0.70703     -17.516      
 2.015        0.70002     -70.753       4.6067       89.228       0.0028532    9.2742       0.71004     -18.144      
 2.02         0.69991     -70.855       4.5736       88.718       0.0027693    8.4514       0.71321     -18.807      
 2.025        0.69971     -70.952       4.541        88.198       0.0027736    8.6748       0.71617     -19.404      
 2.03         0.69979     -71.047       4.5067       87.648       0.002726     7.6729       0.71925     -20.006      
 2.035        0.69989     -71.143       4.4733       87.121       0.0026873    6.929        0.72232     -20.609      
 2.04         0.69969     -71.245       4.4421       86.638       0.0026929    7.6377       0.72524     -21.203      
 2.045        0.69901     -71.349       4.4089       86.093       0.0026203    8.0593       0.72816     -21.79       
 2.05         0.69974     -71.423       4.3812       85.56        0.0025995    6.9643       0.73105     -22.373      
 2.055        0.69993     -71.553       4.3511       85.025       0.0026085    5.5553       0.7341      -22.941      
 2.06         0.6996      -71.685       4.3197       84.51        0.0025986    5.0341       0.73705     -23.494      
 2.065        0.69904     -71.783       4.2885       84.023       0.0025493    5.6769       0.7398      -24.037      
 2.07         0.69866     -71.9         4.258        83.507       0.0025347    5.1541       0.74287     -24.588      
 2.075        0.69826     -72.044       4.227        82.98        0.0024952    4.6511       0.74556     -25.152      
 2.08         0.69788     -72.109       4.1949       82.526       0.0024696    4.477        0.74825     -25.695      
 2.085        0.69774     -72.18        4.1631       82.08        0.0024488    4.4762       0.75088     -26.228      
 2.09         0.69772     -72.311       4.1328       81.601       0.0024265    4.4595       0.75336     -26.761      
 2.095        0.69676     -72.392       4.102        81.148       0.0024203    4.3489       0.75573     -27.287      
 2.1          0.69664     -72.465       4.073        80.715       0.0024299    3.9866       0.758       -27.804      
 2.105        0.69657     -72.547       4.0433       80.248       0.0023961    3.3233       0.76046     -28.334      
 2.11         0.69647     -72.639       4.0138       79.805       0.0023522    3.0784       0.76274     -28.841      
 2.115        0.69638     -72.731       3.9854       79.411       0.0023352    3.3096       0.76471     -29.313      
 2.12         0.69655     -72.79        3.9593       78.97        0.0023688    1.9418       0.76702     -29.8        
 2.125        0.69646     -72.878       3.9331       78.553       0.0022801    2.808        0.76894     -30.275      
 2.13         0.69685     -72.961       3.905        78.12        0.0022122    3.3307       0.77105     -30.738      
 2.135        0.69694     -73.047       3.8769       77.702       0.0022043    3.3399       0.77323     -31.19       
 2.14         0.69654     -73.14        3.8502       77.312       0.002243     3.1744       0.77534     -31.634      
 2.145        0.69724     -73.219       3.8247       76.908       0.0022146    3.6459       0.77736     -32.072      
 2.15         0.69693     -73.234       3.8013       76.508       0.0021358    2.3452       0.77941     -32.555      
 2.155        0.69708     -73.319       3.7762       76.119       0.0021209    2.5409       0.78134     -32.995      
 2.16         0.69731     -73.41        3.7511       75.708       0.0021178    2.6454       0.78333     -33.429      
 2.165        0.69732     -73.473       3.727        75.276       0.002088     1.4855       0.78544     -33.886      
 2.17         0.69742     -73.574       3.7032       74.926       0.002057    -0.0020041    0.78732     -34.359      
 2.175        0.69727     -73.626       3.6787       74.475       0.0020589    0.71158      0.78893     -34.742      
 2.18         0.69753     -73.655       3.6539       74.095       0.0020256    0.95396      0.79071     -35.181      
 2.185        0.6975      -73.69        3.6299       73.745       0.0020156    0.61639      0.79255     -35.619      
 2.19         0.69703     -73.744       3.607        73.374       0.002032     0.23118      0.79424     -36.03       
 2.195        0.69745     -73.8         3.5839       72.943       0.0019332    1.2318       0.79552     -36.48       
 2.2          0.69744     -73.827       3.561        72.593       0.00194      1.8845       0.79698     -36.861      
 2.205        0.69739     -73.868       3.5377       72.217       0.0019326    1.0419       0.79831     -37.244      
 2.21         0.69723     -73.936       3.5145       71.865       0.0019366    0.12747      0.79972     -37.635      
 2.215        0.697       -74.018       3.4921       71.55        0.0019459   -0.14553      0.80126     -38.03       
 2.22         0.69714     -74.045       3.4712       71.19        0.00187     -1.0203       0.80251     -38.419      
 2.225        0.69701     -74.085       3.4518       70.84        0.0018636   -1.73         0.80392     -38.796      
 2.23         0.69703     -74.147       3.43         70.499       0.0018488   -0.70003      0.80521     -39.168      
 2.235        0.6971      -74.22        3.4089       70.154       0.0018431   -0.41984      0.80659     -39.541      
 2.24         0.69718     -74.292       3.3898       69.797       0.0018457   -1.5674       0.80807     -39.91       
 2.245        0.69736     -74.355       3.3695       69.433       0.0018083   -0.75711      0.80914     -40.243      
 2.25         0.69653     -74.421       3.3504       69.119       0.0018163   -1.6037       0.81064     -40.599      
 2.255        0.69655     -74.525       3.332        68.741       0.0018102   -1.5721       0.81207     -40.963      
 2.26         0.69674     -74.603       3.3123       68.369       0.0017796   -1.7136       0.81332     -41.329      
 2.265        0.69668     -74.649       3.2917       68.028       0.0017403   -2.5894       0.81444     -41.695      
 2.27         0.69664     -74.757       3.2747       67.648       0.001749    -3.3718       0.81569     -42.068      
 2.275        0.69674     -74.817       3.2557       67.376       0.0017296   -3.097        0.81719     -42.418      
 2.28         0.6965      -74.877       3.2379       67.031       0.0017193   -3.3195       0.81848     -42.783      
 2.285        0.69642     -74.959       3.2177       66.678       0.0017073   -3.71         0.81948     -43.134      
 2.29         0.69668     -75.056       3.196        66.332       0.0016908   -4.1408       0.82025     -43.47       
 2.295        0.6968      -75.113       3.1825       65.897       0.0016855   -5.0206       0.82118     -43.833      
 2.3          0.69683     -75.156       3.161        65.639       0.001675    -4.8812       0.82178     -44.139      
 2.305        0.69722     -75.247       3.144        65.317       0.0016346   -3.9176       0.82259     -44.476      
 2.31         0.69751     -75.331       3.1261       64.988       0.0015979   -3.1781       0.82337     -44.806      
 2.315        0.6976      -75.392       3.1056       64.683       0.0015866   -3.7547       0.82411     -45.111      
 2.32         0.69807     -75.481       3.0884       64.363       0.0016054   -6.6024       0.8252      -45.419      
 2.325        0.69776     -75.522       3.0712       64.088       0.001579    -5.8978       0.8259      -45.718      
 2.33         0.6977      -75.591       3.053        63.787       0.0015101   -6.1421       0.82701     -46.025      
 2.335        0.69801     -75.667       3.0363       63.494       0.0014629   -6.3161       0.82813     -46.332      
 2.34         0.6985      -75.733       3.0215       63.208       0.0014598   -6.6723       0.82917     -46.633      
 2.345        0.69858     -75.793       3.0058       62.873       0.0014611   -10.048       0.83049     -46.93       
 2.35         0.69865     -75.851       2.991        62.596       0.0014488   -9.6008       0.83153     -47.235      
 2.355        0.69927     -75.939       2.9772       62.227       0.0014155   -9.1583       0.83277     -47.559      
 2.36         0.69991     -76.028       2.963        61.881       0.0013943   -8.3756       0.83378     -47.876      
 2.365        0.70011     -76.096       2.9477       61.589       0.0013793   -7.4602       0.83457     -48.18       
 2.37         0.69955     -76.117       2.931        61.251       0.0013054   -7.5976       0.8357      -48.488      
 2.375        0.69953     -76.164       2.9132       60.97        0.0013208   -9.8671       0.83658     -48.785      
 2.38         0.69983     -76.235       2.8969       60.617       0.0013416   -11.358       0.83716     -49.096      
 2.385        0.70005     -76.308       2.8813       60.272       0.0013522   -11.739       0.83771     -49.397      
 2.39         0.70003     -76.36        2.8651       59.972       0.0013451   -10.936       0.83835     -49.68       
 2.395        0.69995     -76.367       2.8473       59.69        0.0013213   -8.9909       0.83904     -49.963      
 2.4          0.69991     -76.451       2.8323       59.396       0.0012748   -11.009       0.83955     -50.221      
 2.405        0.70005     -76.492       2.8176       59.09        0.0012411   -10.133       0.84014     -50.501      
 2.41         0.69994     -76.512       2.8032       58.816       0.0012168   -9.1422       0.84077     -50.767      
 2.415        0.69956     -76.541       2.7888       58.573       0.0011964   -9.5589       0.84148     -51.013      
 2.42         0.69942     -76.615       2.773        58.309       0.001176    -10.734       0.84234     -51.267      
 2.425        0.69947     -76.674       2.7584       58.019       0.0011698   -8.7811       0.84293     -51.533      
 2.43         0.69937     -76.688       2.7456       57.709       0.0011671   -8.995        0.84379     -51.791      
 2.435        0.69956     -76.751       2.7329       57.422       0.0011688   -9.2513       0.84456     -52.042      
 2.44         0.69994     -76.874       2.7199       57.141       0.0011566   -9.3199       0.84524     -52.292      
 2.445        0.69976     -76.962       2.7076       56.781       0.001088    -11.581       0.84617     -52.554      
 2.45         0.6995      -77.014       2.6926       56.498       0.0010863   -12.191       0.84719     -52.827      
 2.455        0.69858     -77.099       2.6765       56.23        0.0010972   -13.156       0.84778     -53.094      
 2.46         0.69837     -77.184       2.6629       55.943       0.0010733   -12.954       0.84837     -53.348      
 2.465        0.69886     -77.251       2.6516       55.637       0.0010146   -11.283       0.8491      -53.593      
 2.47         0.6985      -77.293       2.638        55.342       0.00097429  -9.4603       0.84974     -53.856      
 2.475        0.6982      -77.378       2.6238       55.025       0.00099479  -11.244       0.85038     -54.127      
 2.48         0.69783     -77.436       2.6078       54.816       0.00096771  -11.529       0.85116     -54.372      
 2.485        0.6977      -77.51        2.5936       54.563       0.00095367  -12.489       0.85185     -54.619      
 2.49         0.69787     -77.596       2.5814       54.248       0.00096297  -14.127       0.85242     -54.873      
 2.495        0.69813     -77.633       2.5681       53.999       0.00094803  -14.262       0.85304     -55.116      
 2.5          0.69784     -77.74        2.5541       53.718       0.00094817  -9.424        0.85362     -55.357      
 2.505        0.69784     -77.758       2.54         53.519       0.00095613  -13.178       0.8542      -55.6        
 2.51         0.69798     -77.781       2.5276       53.286       0.00094278  -14.623       0.85478     -55.823      
 2.515        0.69808     -77.847       2.5167       53.018       0.00090659  -12.465       0.85549     -56.036      
 2.52         0.69791     -77.93        2.5053       52.83        0.00088739  -15.39        0.85656     -56.28       
 2.525        0.69787     -77.99        2.4904       52.505       0.00090605  -15.292       0.85694     -56.517      
 2.53         0.69833     -78.029       2.4784       52.27        0.00085628  -12.567       0.85757     -56.748      
 2.535        0.69855     -78.054       2.4676       52.053       0.00081434  -9.794        0.85851     -56.962      
 2.54         0.6984      -78.098       2.4562       51.794       0.0008013   -10.252       0.8595      -57.174      
 2.545        0.6984      -78.217       2.4424       51.448       0.00079881  -16.791       0.86006     -57.42       
 2.55         0.69869     -78.253       2.4294       51.232       0.00084714  -15.116       0.86067     -57.635      
 2.555        0.69887     -78.309       2.4189       51.024       0.00081796  -14.493       0.8615      -57.849      
 2.56         0.69896     -78.331       2.408        50.789       0.00077321  -15.527       0.86229     -58.079      
 2.565        0.69891     -78.326       2.3962       50.535       0.00074916  -16.119       0.86299     -58.309      
 2.57         0.69864     -78.354       2.3854       50.31        0.00075882  -11.479       0.86376     -58.492      
 2.575        0.69937     -78.415       2.3751       50.029       0.00072304  -14.974       0.86487     -58.756      
 2.58         0.69963     -78.46        2.3643       49.79        0.00071437  -14.65        0.86558     -58.975      
 2.585        0.69971     -78.501       2.3531       49.546       0.00070911  -11.709       0.8661      -59.199      
 2.59         0.69965     -78.524       2.3419       49.307       0.00070263  -10.454       0.86658     -59.437      
 2.595        0.69931     -78.491       2.331        49.127       0.00070493  -17.439       0.86714     -59.662      
 2.6          0.69929     -78.556       2.3193       48.849       0.0006875   -16.84        0.8674      -59.9        
 2.605        0.6995      -78.565       2.3101       48.617       0.00067939  -17.439       0.86762     -60.113      
 2.61         0.69966     -78.583       2.2995       48.384       0.0006558   -17.162       0.8679      -60.324      
 2.615        0.6996      -78.619       2.2878       48.142       0.00062341  -15.737       0.8683      -60.536      
 2.62         0.69919     -78.644       2.2787       47.916       0.00061279  -14.662       0.86882     -60.741      
 2.625        0.69936     -78.669       2.2697       47.674       0.00062007  -15.881       0.86875     -60.946      
 2.63         0.69939     -78.714       2.2595       47.449       0.00058617  -19.192       0.86954     -61.15       
 2.635        0.69931     -78.754       2.2493       47.223       0.00058201  -18.69        0.86985     -61.344      
 2.64         0.69923     -78.797       2.2401       46.995       0.00059983  -15.037       0.86984     -61.536      
 2.645        0.69938     -78.869       2.2324       46.776       0.00057397  -13.824       0.87073     -61.74       
 2.65         0.69945     -78.923       2.2225       46.524       0.00053316  -20.435       0.87103     -61.941      
 2.655        0.69896     -78.99        2.2115       46.276       0.00053617  -17.238       0.87144     -62.144      
 2.66         0.69895     -79.038       2.2017       46.047       0.00054085  -14.693       0.87174     -62.34       
 2.665        0.69925     -79.073       2.1927       45.838       0.00052945  -13.808       0.87203     -62.533      
 2.67         0.6989      -79.13        2.1826       45.635       0.00050859  -9.7714       0.8726      -62.741      
 2.675        0.69843     -79.175       2.1731       45.368       0.00050297  -21.82        0.87298     -62.951      
 2.68         0.69857     -79.242       2.1642       45.151       0.00049483  -17.553       0.87325     -63.135      
 2.685        0.69874     -79.291       2.1548       44.932       0.00048922  -13.823       0.87352     -63.328      
 2.69         0.69885     -79.339       2.1457       44.688       0.00048544  -14.669       0.87393     -63.532      
 2.695        0.69907     -79.426       2.1385       44.417       0.00048533  -15.376       0.87457     -63.724      
 2.7          0.69905     -79.438       2.1285       44.263       0.0004449   -11.939       0.87456     -63.927      
 2.705        0.69916     -79.465       2.1199       44.06        0.00041878  -17.404       0.87472     -64.149      
 2.71         0.69921     -79.517       2.1098       43.841       0.00043522  -18.466       0.87505     -64.342      
 2.715        0.69932     -79.59        2.0992       43.621       0.00045056  -16.415       0.87542     -64.514      
 2.72         0.69979     -79.669       2.0908       43.405       0.00039181  -21.024       0.87566     -64.704      
 2.725        0.69956     -79.687       2.0819       43.149       0.00035865  -18.684       0.87584     -64.89       
 2.73         0.69975     -79.732       2.0728       42.958       0.00036009  -20.885       0.87611     -65.054      
 2.735        0.70002     -79.789       2.0647       42.767       0.00036877  -19.045       0.87654     -65.228      
 2.74         0.70032     -79.839       2.0568       42.559       0.00038839  -18.246       0.877       -65.408      
 2.745        0.70072     -79.859       2.0473       42.349       0.00043423  -27.504       0.8773      -65.577      
 2.75         0.70071     -79.897       2.0406       42.156       0.00033922  -23.291       0.87796     -65.743      
 2.755        0.70091     -79.914       2.0319       41.955       0.00031476  -24.008       0.87824     -65.912      
 2.76         0.70116     -79.956       2.0228       41.712       0.00030914  -23.441       0.87852     -66.079      
 2.765        0.70135     -80.004       2.0146       41.462       0.00030143  -21.738       0.87904     -66.254      
 2.77         0.7014      -80.006       2.0083       41.266       0.00028765  -23.538       0.87991     -66.456      
 2.775        0.70171     -80.04        2            41.017       0.00031113  -30.189       0.88039     -66.636      
 2.78         0.70179     -80.075       1.992        40.78        0.00024662  -26.937       0.8806      -66.813      
 2.785        0.70204     -80.104       1.9842       40.551       0.00020742  -27.131       0.88091     -67.006      
 2.79         0.70215     -80.12        1.9761       40.335       0.00023355  -33           0.88124     -67.2        
 2.795        0.7016      -80.122       1.9675       40.137       0.00030979  -35.149       0.88133     -67.371      
 2.8          0.70201     -80.166       1.9618       39.886       0.00019784  -42.499       0.88166     -67.558      
 2.805        0.70202     -80.213       1.9523       39.676       0.00021391  -33.266       0.88162     -67.73       
 2.81         0.70194     -80.258       1.9433       39.465       0.00024809  -32.665       0.8818      -67.894      
 2.815        0.70178     -80.299       1.9355       39.25        0.00023734  -36.305       0.88205     -68.059      
 2.82         0.70139     -80.334       1.9276       39.053       0.00015952  -32.857       0.88198     -68.233      
 2.825        0.70113     -80.352       1.9188       38.911       0.00018126  -49.079       0.88198     -68.385      
 2.83         0.70125     -80.365       1.9122       38.686       0.00021613  -38.969       0.88232     -68.552      
 2.835        0.7014      -80.397       1.9049       38.48        0.00020991  -37.375       0.88254     -68.71       
 2.84         0.70135     -80.446       1.8974       38.293       0.00017088  -47.123       0.8827      -68.859      
 2.845        0.70101     -80.498       1.8908       38.082       0.00014893  -60.751       0.8831      -69.007      
 2.85         0.70131     -80.536       1.8841       37.88        0.00017362  -55.408       0.88334     -69.191      
 2.855        0.70148     -80.564       1.8789       37.681       0.00013226  -38.559       0.88365     -69.351      
 2.86         0.70124     -80.597       1.8721       37.479       0.00010534  -40.02        0.88401     -69.518      
 2.865        0.70093     -80.649       1.8635       37.284       0.00010295  -58.199       0.8843      -69.688      
 2.87         0.70109     -80.725       1.8544       37.101       9.8427e-5   -56.029       0.88443     -69.849      
 2.875        0.70135     -80.748       1.849        36.873       8.937e-5    -66.292       0.88461     -70.004      
 2.88         0.7017      -80.773       1.8434       36.642       9.9016e-5   -72.408       0.88491     -70.189      
 2.885        0.70152     -80.84        1.8363       36.4         8.2392e-5   -71.86        0.88488     -70.363      
 2.89         0.70128     -80.904       1.8285       36.183       7.3006e-5   -76.789       0.88481     -70.521      
 2.895        0.70166     -80.905       1.8214       36.03        0.00012467  -89.241       0.88514     -70.674      
 2.9          0.70126     -80.994       1.8141       35.82        0.00011648  -85.738       0.88494     -70.841      
 2.905        0.70128     -81.016       1.8054       35.636       9.0406e-5   -103.42       0.88512     -70.984      
 2.91         0.70107     -81.036       1.7974       35.467       0.00012588  -93.788       0.8852      -71.114      
 2.915        0.70103     -81.067       1.7902       35.298       0.00015356  -88.217       0.88527     -71.243      
 2.92         0.70172     -81.103       1.7832       35.114       8.3121e-5   -126.59       0.88559     -71.383      
 2.925        0.70198     -81.144       1.7768       34.919       7.7736e-5   -129.88       0.88596     -71.497      
 2.93         0.7026      -81.195       1.7716       34.765       0.00015021  -134.22       0.88634     -71.646      
 2.935        0.70266     -81.238       1.7658       34.59        0.00019563  -136.94       0.88693     -71.788      
 2.94         0.70237     -81.252       1.7589       34.411       0.00020324  -136.49       0.88736     -71.929      
 2.945        0.70236     -81.226       1.7514       34.264       0.00019609  -130.48       0.88729     -72.084      
 2.95         0.70324     -81.29        1.7478       34.116       0.00017881  -142.63       0.88789     -72.208      
 2.955        0.70315     -81.317       1.741        33.872       0.0001932   -142.48       0.88834     -72.366      
 2.96         0.7031      -81.323       1.7349       33.675       0.00019199  -155.92       0.88884     -72.517      
 2.965        0.70326     -81.323       1.7292       33.509       0.00018909  -164.44       0.88925     -72.662      
 2.97         0.70354     -81.335       1.7228       33.314       0.00018868  -142.4        0.88934     -72.815      
 2.975        0.70391     -81.381       1.716        33.135       0.00019704  -149.86       0.88903     -72.95       
 2.98         0.70413     -81.407       1.7113       32.927       0.00022028  -143.71       0.88955     -73.101      
 2.985        0.70393     -81.44        1.7046       32.703       0.00022589  -150.23       0.88967     -73.252      
 2.99         0.70381     -81.47        1.697        32.488       0.00023389  -161.44       0.88943     -73.395      
 2.995        0.70425     -81.478       1.6912       32.308       0.00025429  -163.16       0.88933     -73.526      
 3            0.70408     -81.479       1.6874       32.142       0.00027817  -167.76       0.88994     -73.667      
 3.005        0.70396     -81.515       1.6801       31.951       0.00028739  -170.4        0.88982     -73.784      
 3.01         0.70398     -81.56        1.6735       31.765       0.00028155  -168.19       0.88991     -73.924      
 3.015        0.70409     -81.588       1.6682       31.583       0.00026679  -165.62       0.89019     -74.07       
 3.02         0.70416     -81.583       1.6631       31.404       0.00025568  -168.8        0.89036     -74.197      
 3.025        0.70405     -81.591       1.6567       31.293       0.00030613  -171.57       0.89002     -74.301      
 3.03         0.70403     -81.636       1.6521       31.088       0.0003261   -160.26       0.89058     -74.459      
 3.035        0.70394     -81.671       1.6466       30.887       0.00035589  -165.22       0.89081     -74.594      
 3.04         0.70399     -81.705       1.641        30.688       0.00037014  -173.44       0.89087     -74.725      
 3.045        0.70436     -81.758       1.6363       30.475       0.00033154  -169.92       0.89116     -74.886      
 3.05         0.70438     -81.792       1.6315       30.333       0.00036948  -164.23       0.89124     -75.007      
 3.055        0.70407     -81.816       1.625        30.156       0.00040429  -164.1        0.89129     -75.148      
 3.06         0.70409     -81.852       1.6195       29.945       0.00040883  -168.14       0.89161     -75.3        
 3.065        0.70424     -81.907       1.6144       29.742       0.0004199   -169.29       0.89195     -75.446      
 3.07         0.70418     -81.975       1.6085       29.576       0.00046765  -163.31       0.89201     -75.579      
 3.075        0.70415     -82.01        1.6037       29.346       0.00045904  -166.66       0.89208     -75.734      
 3.08         0.70436     -82.054       1.5976       29.174       0.00047123  -176          0.89194     -75.864      
 3.085        0.70475     -82.115       1.5927       28.976       0.00052756  -178.37       0.89197     -75.997      
 3.09         0.705       -82.158       1.5885       28.783       0.0005659   -178.05       0.89217     -76.134      
 3.095        0.70483     -82.16        1.5833       28.629       0.00053864   179.97       0.8924      -76.27       
 3.1          0.70439     -82.192       1.5755       28.44        0.00051273  -177.84       0.89243     -76.404      
 3.105        0.70489     -82.226       1.5699       28.281       0.00046278  -177.67       0.89253     -76.54       
 3.11         0.70511     -82.277       1.5646       28.11        0.0004955   -177.48       0.89262     -76.662      
 3.115        0.7049      -82.324       1.5594       27.926       0.00055486  -176.4        0.89269     -76.778      
 3.12         0.70456     -82.348       1.5541       27.742       0.0005692   -174.64       0.89278     -76.902      
 3.125        0.70526     -82.37        1.5492       27.608       0.00057616  -176.39       0.89312     -77.034      
 3.13         0.70535     -82.374       1.5432       27.436       0.0005872   -178.26       0.89332     -77.164      
 3.135        0.70544     -82.388       1.5386       27.274       0.00059321   178.27       0.89348     -77.289      
 3.14         0.70557     -82.406       1.534        27.131       0.00060346   178.4        0.89367     -77.414      
 3.145        0.70576     -82.418       1.528        26.992       0.00062219  -175.55       0.89391     -77.543      
 3.15         0.70631     -82.416       1.5239       26.768       0.00059306  -178.12       0.89392     -77.678      
 3.155        0.70601     -82.467       1.5189       26.592       0.00061993   177.52       0.8941      -77.808      
 3.16         0.70621     -82.491       1.5145       26.425       0.00063031   178.57       0.89417     -77.931      
 3.165        0.70651     -82.504       1.5101       26.25        0.00065156  -179.61       0.89421     -78.053      
 3.17         0.70648     -82.534       1.5052       26.054       0.00069908   179.02       0.89434     -78.179      
 3.175        0.70683     -82.558       1.5005       25.843       0.00065703  -179.32       0.89451     -78.311      
 3.18         0.70666     -82.57        1.4946       25.706       0.00067929   179.52       0.89451     -78.432      
 3.185        0.70646     -82.58        1.4899       25.533       0.00069502   179.49       0.89458     -78.549      
 3.19         0.70634     -82.585       1.4858       25.345       0.00069656   179.36       0.89468     -78.672      
 3.195        0.70636     -82.594       1.4814       25.171       0.0006981    178.15       0.89471     -78.805      
 3.2          0.70646     -82.644       1.477        24.982       0.00075273   179.16       0.89475     -78.931      
 3.205        0.70675     -82.646       1.4721       24.849       0.00075523   176.69       0.8947      -79.05       
 3.21         0.70664     -82.654       1.4677       24.699       0.00075448   178.07       0.89496     -79.178      
 3.215        0.70634     -82.681       1.4631       24.525       0.00078041   178.79       0.89521     -79.308      
 3.22         0.70616     -82.724       1.4581       24.336       0.00083001   175.65       0.89514     -79.432      
 3.225        0.70622     -82.736       1.4542       24.145       0.00078836   175.64       0.89503     -79.559      
 3.23         0.70625     -82.766       1.4498       23.995       0.00078546   178.56       0.89538     -79.673      
 3.235        0.70608     -82.768       1.4453       23.821       0.00081178   179.98       0.89534     -79.794      
 3.24         0.70589     -82.79        1.4411       23.628       0.00081669   179.36       0.89526     -79.916      
 3.245        0.7058      -82.858       1.4374       23.443       0.00078879   177.1        0.89545     -80.032      
 3.25         0.70559     -82.877       1.4328       23.319       0.00086757   175.46       0.89531     -80.151      
 3.255        0.7058      -82.899       1.4287       23.161       0.0009355    177.34       0.89536     -80.271      
 3.26         0.70608     -82.942       1.4244       22.996       0.00092754   177.93       0.89541     -80.404      
 3.265        0.70618     -82.975       1.4198       22.838       0.0009052    177.77       0.89541     -80.522      
 3.27         0.70599     -82.983       1.4146       22.684       0.00092123   177.53       0.89535     -80.616      
 3.275        0.70574     -83.017       1.4092       22.488       0.00093365   176.3        0.89536     -80.744      
 3.28         0.70571     -83.058       1.405        22.324       0.00095891   174.69       0.89545     -80.87       
 3.285        0.70595     -83.105       1.4015       22.176       0.00097928   175.01       0.89551     -80.982      
 3.29         0.70611     -83.139       1.398        22.02        0.0009898    175.45       0.89562     -81.092      
 3.295        0.70602     -83.153       1.3939       21.844       0.00099316   174.49       0.89579     -81.206      
 3.3          0.70639     -83.186       1.3892       21.677       0.0010096    172.68       0.8958      -81.313      
 3.305        0.7064      -83.212       1.3842       21.527       0.0010238    173.19       0.89601     -81.413      
 3.31         0.70668     -83.219       1.3804       21.416       0.0010418    171.75       0.89624     -81.528      
 3.315        0.7069      -83.236       1.3768       21.28        0.0010691    171.58       0.89634     -81.645      
 3.32         0.7068      -83.273       1.3725       21.092       0.0010989    173.83       0.89631     -81.754      
 3.325        0.70663     -83.258       1.3676       20.952       0.0010886    172.26       0.89653     -81.855      
 3.33         0.70667     -83.289       1.3633       20.768       0.001085     171.15       0.89685     -81.975      
 3.335        0.70699     -83.311       1.3601       20.622       0.0011148    173.39       0.89708     -82.072      
 3.34         0.70713     -83.318       1.3562       20.486       0.0011531    174.25       0.89731     -82.171      
 3.345        0.70698     -83.314       1.3514       20.339       0.0011679    171.97       0.89756     -82.29       
 3.35         0.70762     -83.315       1.3488       20.215       0.001132     173.59       0.89758     -82.409      
 3.355        0.70763     -83.344       1.3452       20.025       0.0011625    172.96       0.89784     -82.514      
 3.36         0.70791     -83.348       1.3415       19.884       0.0011956    172.5        0.89801     -82.617      
 3.365        0.70815     -83.358       1.338        19.726       0.0011935    171.71       0.89806     -82.724      
 3.37         0.70817     -83.392       1.3348       19.516       0.0011608    170.29       0.89805     -82.842      
 3.375        0.70846     -83.407       1.3309       19.351       0.0011999    169.52       0.89823     -82.971      
 3.38         0.70807     -83.378       1.3276       19.183       0.0012225    170.96       0.89827     -83.073      
 3.385        0.70796     -83.386       1.3241       19.037       0.0012414    172.17       0.89831     -83.194      
 3.39         0.70784     -83.413       1.3205       18.879       0.0012285    172.4        0.89843     -83.313      
 3.395        0.70763     -83.435       1.317        18.694       0.0011867    172.03       0.8986      -83.419      
 3.4          0.70797     -83.439       1.3137       18.524       0.0012016    173.81       0.89846     -83.536      
 3.405        0.70783     -83.481       1.3095       18.386       0.0012297    170.02       0.89847     -83.649      
 3.41         0.70763     -83.49        1.3061       18.235       0.0012568    170.22       0.8985      -83.753      
 3.415        0.70746     -83.491       1.3025       18.1         0.001269     171.05       0.89844     -83.862      
 3.42         0.70746     -83.505       1.2984       17.987       0.0012742    170.33       0.89828     -83.979      
 3.425        0.70795     -83.533       1.2963       17.823       0.0013253    170.48       0.89829     -84.071      
 3.43         0.70778     -83.572       1.2929       17.642       0.0013587    171.33       0.89852     -84.198      
 3.435        0.70787     -83.601       1.2894       17.488       0.0013817    170.34       0.89854     -84.298      
 3.44         0.7076      -83.634       1.2857       17.331       0.0014002    169.93       0.89868     -84.398      
 3.445        0.707       -83.672       1.2819       17.163       0.0014138    171.34       0.89904     -84.513      
 3.45         0.70776     -83.694       1.2791       17.021       0.0014107    172.89       0.8992      -84.629      
 3.455        0.70745     -83.705       1.2764       16.872       0.001395     171.25       0.89932     -84.744      
 3.46         0.70748     -83.744       1.2738       16.713       0.0013985    170.82       0.89959     -84.87       
 3.465        0.7078      -83.787       1.2703       16.538       0.0014099    170.31       0.89978     -84.992      
 3.47         0.7081      -83.82        1.266        16.35        0.001421     169.51       0.89981     -85.104      
 3.475        0.70783     -83.86        1.2628       16.181       0.0014328    171.11       0.89987     -85.227      
 3.48         0.70815     -83.859       1.2604       16.056       0.0015019    170.56       0.89994     -85.352      
 3.485        0.70804     -83.883       1.2571       15.893       0.0015187    170.08       0.89997     -85.471      
 3.49         0.70817     -83.93        1.2536       15.71        0.0015179    169.78       0.89996     -85.589      
 3.495        0.70875     -83.974       1.2503       15.541       0.0015203    169.28       0.89993     -85.709      
 3.5          0.70893     -83.956       1.2467       15.446       0.001502     167.38       0.89987     -85.832      
 3.505        0.70876     -83.962       1.2424       15.28        0.0015003    168.04       0.89965     -85.928      
 3.51         0.70892     -83.984       1.2389       15.112       0.0015264    167.79       0.89963     -86.041      
 3.515        0.70921     -84.016       1.236        14.95        0.0015647    168.12       0.89956     -86.154      
 3.52         0.70942     -84.049       1.2333       14.795       0.0015997    169.43       0.89938     -86.255      
 3.525        0.70951     -84.074       1.2307       14.644       0.0016154    169.97       0.89935     -86.345      
 3.53         0.70948     -84.081       1.2266       14.485       0.0016266    169.38       0.8993      -86.462      
 3.535        0.70952     -84.096       1.2232       14.363       0.0016235    168.29       0.89942     -86.563      
 3.54         0.70975     -84.103       1.2199       14.236       0.0016295    167.58       0.89955     -86.651      
 3.545        0.71014     -84.105       1.2168       14.078       0.0016508    167.41       0.89966     -86.74       
 3.55         0.71045     -84.136       1.2148       13.903       0.0016635    166.68       0.8999      -86.867      
 3.555        0.71065     -84.151       1.212        13.767       0.0016297    166.89       0.90034     -86.98       
 3.56         0.71071     -84.178       1.2092       13.583       0.001689     167.13       0.90029     -87.073      
 3.565        0.71082     -84.199       1.2064       13.398       0.0017424    166.99       0.90036     -87.179      
 3.57         0.71096     -84.212       1.2039       13.226       0.0017447    166.7        0.9007      -87.308      
 3.575        0.71075     -84.236       1.2011       13.026       0.001751     167.32       0.90066     -87.425      
 3.58         0.71084     -84.226       1.1986       12.881       0.0018181    166.98       0.9008      -87.544      
 3.585        0.71069     -84.245       1.1953       12.716       0.0018227    167.5        0.90073     -87.653      
 3.59         0.71053     -84.275       1.1916       12.55        0.0017968    167.59       0.90053     -87.762      
 3.595        0.71055     -84.304       1.1879       12.391       0.0017813    167.11       0.90026     -87.875      
 3.6          0.71088     -84.327       1.185        12.234       0.0018231    167.81       0.90005     -87.994      
 3.605        0.71016     -84.341       1.1822       12.053       0.0018255    166.26       0.90002     -88.107      
 3.61         0.71015     -84.364       1.18         11.909       0.0018587    165.87       0.89983     -88.2        
 3.615        0.7101      -84.392       1.1769       11.756       0.0018748    165.86       0.89957     -88.302      
 3.62         0.70986     -84.426       1.173        11.575       0.0018618    165.93       0.89935     -88.415      
 3.625        0.71023     -84.473       1.1699       11.397       0.0018622    166.66       0.89923     -88.5        
 3.63         0.71015     -84.486       1.168        11.318       0.0018366    166.09       0.89953     -88.591      
 3.635        0.70993     -84.503       1.165        11.164       0.0018585    164.97       0.89963     -88.689      
 3.64         0.70981     -84.516       1.1616       11.009       0.0018961    164.52       0.89963     -88.796      
 3.645        0.7099      -84.532       1.1585       10.873       0.0019226    164.61       0.89962     -88.912      
 3.65         0.71008     -84.572       1.1566       10.697       0.0019233    163.47       0.89961     -89.035      
 3.655        0.70995     -84.59        1.1541       10.573       0.0019619    164.43       0.89979     -89.137      
 3.66         0.7099      -84.618       1.1513       10.415       0.0019833    164.72       0.89987     -89.25       
 3.665        0.70989     -84.641       1.1482       10.24        0.0020026    164.97       0.89993     -89.37       
 3.67         0.70988     -84.657       1.145        10.07        0.0020071    165.11       0.89988     -89.487      
 3.675        0.70991     -84.684       1.1417       9.9267       0.0019463    164.09       0.89935     -89.58       
 3.68         0.71021     -84.722       1.1391       9.7657       0.0020186    164.91       0.89987     -89.721      
 3.685        0.71037     -84.736       1.1365       9.6344       0.0020466    163.54       0.89962     -89.834      
 3.69         0.71036     -84.743       1.1332       9.5068       0.0020527    163.08       0.89927     -89.932      
 3.695        0.71031     -84.757       1.1299       9.3587       0.0020643    163.51       0.89905     -90.028      
 3.7          0.71057     -84.793       1.1284       9.1696       0.002118     161.11       0.89857     -90.135      
 3.705        0.71072     -84.766       1.1242       9.0688       0.0021063    162.41       0.89864     -90.202      
 3.71         0.71056     -84.785       1.1219       8.9186       0.0020918    162.71       0.89891     -90.288      
 3.715        0.71048     -84.812       1.1198       8.7581       0.002101     162.97       0.899       -90.393      
 3.72         0.71065     -84.83        1.1173       8.6134       0.0021342    163.25       0.89891     -90.507      
 3.725        0.71101     -84.842       1.1146       8.4944       0.0021625    162.57       0.89896     -90.606      
 3.73         0.71131     -84.86        1.1127       8.3955       0.0021989    162.15       0.89859     -90.684      
 3.735        0.71121     -84.851       1.1104       8.2178       0.0021629    162.83       0.89881     -90.791      
 3.74         0.71107     -84.833       1.1073       8.0712       0.0021629    162.9        0.89895     -90.897      
 3.745        0.71115     -84.823       1.1042       7.9521       0.0022111    162.22       0.89881     -90.999      
 3.75         0.71151     -84.83        1.1033       7.736        0.0022177    162.3        0.89869     -91.121      
 3.755        0.71108     -84.855       1.1003       7.5859       0.0022028    162.63       0.89882     -91.256      
 3.76         0.7113      -84.863       1.0972       7.4352       0.0022093    161.65       0.89859     -91.358      
 3.765        0.71134     -84.884       1.0943       7.2699       0.002211     161.21       0.89849     -91.469      
 3.77         0.71099     -84.904       1.0916       7.0918       0.0022143    161.81       0.89852     -91.595      
 3.775        0.71072     -84.867       1.0886       6.9177       0.0022594    162.65       0.89824     -91.703      
 3.78         0.7108      -84.908       1.0868       6.8102       0.0022657    162.05       0.89771     -91.787      
 3.785        0.71085     -84.926       1.084        6.6524       0.002281     162          0.89758     -91.902      
 3.79         0.71066     -84.941       1.0816       6.4934       0.0022923    161.72       0.89754     -92.007      
 3.795        0.71023     -84.963       1.0796       6.355        0.0023061    161.4        0.89753     -92.093      
 3.8          0.7098      -84.998       1.0774       6.2324       0.0023455    161.97       0.89782     -92.187      
 3.805        0.71034     -85.014       1.075        6.1151       0.0023696    161.14       0.89773     -92.28       
 3.81         0.71024     -85.029       1.0728       5.9846       0.0023796    160.99       0.8976      -92.373      
 3.815        0.71003     -85.059       1.071        5.8075       0.0023758    161.42       0.89757     -92.483      
 3.82         0.70994     -85.102       1.0693       5.6166       0.0023726    162.02       0.89767     -92.607      
 3.825        0.70995     -85.142       1.0667       5.4999       0.0023952    162.13       0.89785     -92.721      
 3.83         0.7096      -85.18        1.0644       5.3109       0.0024408    161.67       0.89804     -92.807      
 3.835        0.70962     -85.195       1.0627       5.1687       0.0024428    161.82       0.89816     -92.925      
 3.84         0.70975     -85.21        1.0603       5.0347       0.0024546    161.24       0.89828     -93.046      
 3.845        0.70999     -85.237       1.0576       4.9025       0.0024798    160.42       0.89836     -93.159      
 3.85         0.71052     -85.279       1.0559       4.79         0.0024812    161.25       0.8982      -93.273      
 3.855        0.7102      -85.308       1.0537       4.6032       0.0025731    161.49       0.89833     -93.391      
 3.86         0.70991     -85.353       1.051        4.415        0.0025759    160.79       0.89814     -93.517      
 3.865        0.70986     -85.382       1.0487       4.2844       0.0025797    160.33       0.89802     -93.632      
 3.87         0.70997     -85.392       1.0464       4.1723       0.002597     160.43       0.89804     -93.745      
 3.875        0.70996     -85.402       1.0433       3.968        0.0025849    160.73       0.89803     -93.882      
 3.88         0.71022     -85.39        1.0414       3.8645       0.0026053    160.66       0.89809     -93.969      
 3.885        0.71027     -85.435       1.0391       3.7265       0.002618     160.26       0.89802     -94.088      
 3.89         0.71042     -85.456       1.0366       3.6094       0.0026292    160.3        0.8978      -94.186      
 3.895        0.71072     -85.448       1.0344       3.4971       0.0026412    160.33       0.89764     -94.271      
 3.9          0.7111      -85.46        1.0324       3.3257       0.0026546    159.21       0.89794     -94.396      
 3.905        0.71155     -85.47        1.0305       3.2156       0.0026888    160.17       0.89754     -94.491      
 3.91         0.71141     -85.482       1.028        3.1061       0.0027241    160.32       0.89757     -94.587      
 3.915        0.71134     -85.495       1.0257       2.9669       0.0027646    160.24       0.89774     -94.691      
 3.92         0.71157     -85.5         1.024        2.8081       0.0027936    159.97       0.89796     -94.805      
 3.925        0.71203     -85.485       1.0229       2.6676       0.0027828    159.25       0.89822     -94.929      
 3.93         0.71198     -85.507       1.02         2.5427       0.0027869    160.39       0.89779     -95.017      
 3.935        0.71182     -85.518       1.018        2.3523       0.0028256    159.58       0.89788     -95.157      
 3.94         0.71198     -85.513       1.0164       2.1798       0.0028266    158.94       0.89802     -95.282      
 3.945        0.71224     -85.506       1.0149       2.0285       0.0028169    158.94       0.89806     -95.384      
 3.95         0.71206     -85.523       1.013        1.8537       0.0028819    159.15       0.89809     -95.488      
 3.955        0.71256     -85.521       1.0108       1.7236       0.0029065    159.09       0.89788     -95.594      
 3.96         0.71238     -85.538       1.0091       1.5972       0.0029264    159.08       0.89775     -95.7        
 3.965        0.71214     -85.552       1.0072       1.4333       0.002943     158.97       0.89761     -95.805      
 3.97         0.71201     -85.562       1.0052       1.2616       0.0029687    158.56       0.89748     -95.917      
 3.975        0.7119      -85.579       1.0041       1.1478       0.0030175    157.68       0.89744     -96.043      
 3.98         0.71256     -85.589       1.0031       0.97679      0.0029851    157.99       0.89729     -96.153      
 3.985        0.71228     -85.631       1.0012       0.81205      0.0030212    157.64       0.89756     -96.268      
 3.99         0.71165     -85.675       0.9991       0.64428      0.0030328    157.42       0.8975      -96.387      
 3.995        0.71115     -85.693       0.99693      0.48773      0.0030089    157.39       0.89714     -96.503      
 4            0.71121     -85.67        0.99461      0.36252      0.0029883    157.25       0.89699     -96.61       

!Noise Parameters
!Freq(GHz)    NFmin(dB)    GammaOpt_Mag    GammaOpt_Phase    rn
 1.575        0.52         0.54      60       0.21    
