! Infineon Technologies AG 
! BGA715L7 Noise Paramater at Vcc=1.8V and PON=1.8V
! Schematics and reference plane
! Date: Thursday, January 29, 2009
! S2P File: S11, S21, S12, S22
!
# GHz S MA R 50
!-----------------------------------------------------------------------------
!Freq         MagS11       AngS11       MagS21       AngS21       MagS12       AngS12       MagS22       AngS22
 0.2          0.66218      76.482       0.10662     -35.647       6.5261e-5    65.866       0.98234     -11.326      
 0.205        0.68262      73.196       0.11357     -36.247       6.3229e-5    162.83       0.98296     -11.592      
 0.21         0.69974      70.16        0.1202      -36.217       0.00010308   120.7        0.98346     -11.902      
 0.215        0.71785      67.217       0.12844     -36.985       0.00013539   45.394       0.98348     -12.228      
 0.22         0.73467      64.415       0.13619     -37.71        0.00020939   77.655       0.98312     -12.547      
 0.225        0.74997      61.633       0.14398     -38.473       0.00018842   84.589       0.98279     -12.849      
 0.23         0.76371      58.955       0.15216     -39.142       9.62e-5      60.362       0.98246     -13.14       
 0.235        0.7757       56.553       0.16088     -39.537       9.3989e-5    54.636       0.9819      -13.434      
 0.24         0.78601      54.033       0.16885     -40.337       8.6486e-5    156.17       0.98177     -13.711      
 0.245        0.79646      51.842       0.17729     -40.977       5.3786e-5   -129.22       0.98177     -13.987      
 0.25         0.80665      49.72        0.18533     -41.706       6.1065e-5   -56.234       0.98164     -14.262      
 0.255        0.81614      47.648       0.19336     -42.512       3.1311e-5   -1.0235       0.98144     -14.537      
 0.26         0.82441      45.715       0.20234     -43.257       8.1918e-5    157.21       0.9814      -14.81       
 0.265        0.83367      43.779       0.21112     -44.014       0.00017725  -35.217       0.98148     -15.085      
 0.27         0.84068      41.862       0.22016     -44.861       0.00015689   16.63        0.98143     -15.361      
 0.275        0.84691      40.097       0.22908     -45.582       0.00013577   35.96        0.9813      -15.646      
 0.28         0.85249      38.431       0.23781     -46.252       3.4836e-5    4.7375       0.9811      -15.931      
 0.285        0.85727      36.731       0.24652     -47.044       0.00011925   179.53       0.98091     -16.203      
 0.29         0.8619       35.158       0.25547     -47.729       0.0001248   -104.35       0.9811      -16.485      
 0.295        0.86591      33.546       0.26458     -48.502       0.00010903  -106.45       0.98108     -16.769      
 0.3          0.86942      32.081       0.27363     -49.188       6.0341e-5   -108.36       0.98089     -17.029      
 0.305        0.87282      30.752       0.28268     -49.851       2.6873e-5   -168.24       0.98064     -17.295      
 0.31         0.87675      29.445       0.29194     -50.636       0.00013311   157.78       0.98048     -17.617      
 0.315        0.88028      28.001       0.30109     -51.536       6.2112e-5   -123.41       0.98049     -17.898      
 0.32         0.88215      26.628       0.31041     -52.221       2.6995e-5    134.84       0.98039     -18.184      
 0.325        0.8852       25.344       0.32006     -52.882       2.5708e-5   -155.08       0.98025     -18.467      
 0.33         0.88861      24.136       0.3299      -53.596       8.8154e-5   -131.89       0.98002     -18.748      
 0.335        0.89022      22.956       0.33957     -54.378       0.00015501   159.65       0.97967     -19.031      
 0.34         0.8916       21.715       0.34851     -55.111       4.0211e-5    167.86       0.97959     -19.322      
 0.345        0.89295      20.574       0.35822     -55.749       0.00010772   154.68       0.97936     -19.576      
 0.35         0.89424      19.462       0.36824     -56.426       0.00015441   156.47       0.97914     -19.856      
 0.355        0.89529      18.392       0.37816     -57.138       0.00013835   172.58       0.97889     -20.168      
 0.36         0.89599      17.39        0.38763     -57.846       0.00013166  -147.08       0.97851     -20.496      
 0.365        0.89762      16.301       0.3975      -58.672       7.7136e-5    153.66       0.97793     -20.8        
 0.37         0.89888      15.301       0.40794     -59.372       7.6359e-5   -176.61       0.9774      -21.059      
 0.375        0.89983      14.295       0.41793     -60.048       7.8866e-5   -149.83       0.97701     -21.326      
 0.38         0.90092      13.321       0.42773     -60.719       0.00011276  -152.72       0.97655     -21.626      
 0.385        0.90237      12.448       0.43802     -61.379       0.00024955  -164.61       0.97582     -21.955      
 0.39         0.90124      11.488       0.44809     -62.122       0.00019398  -170.13       0.97566     -22.2        
 0.395        0.90159      10.571       0.45839     -62.838       0.0002804   -156.87       0.97509     -22.489      
 0.4          0.90208      9.6507       0.46849     -63.458       0.0002512   -162.95       0.97453     -22.778      
 0.405        0.90254      8.7858       0.47856     -64.078       0.00018034  -173.52       0.97409     -23.059      
 0.41         0.90311      8.0434       0.489       -64.816       0.00022949  -147.04       0.97375     -23.343      
 0.415        0.903        7.1958       0.49916     -65.547       0.00022984  -154.8        0.97352     -23.642      
 0.42         0.90331      6.4255       0.50979     -66.247       0.00028801  -158.26       0.97359     -23.937      
 0.425        0.903        5.6452       0.51993     -66.945       0.00027486  -165.72       0.97348     -24.26       
 0.43         0.90262      4.8484       0.53003     -67.651       0.00021814  -175.69       0.97302     -24.594      
 0.435        0.903        4.0631       0.54082     -68.359       0.00019323  -172.51       0.97216     -24.908      
 0.44         0.90239      3.3281       0.55117     -68.973       0.00037933  -163.71       0.97118     -25.223      
 0.445        0.9016       2.5584       0.56098     -69.645       0.00035217  -170.18       0.9707      -25.555      
 0.45         0.90131      1.8616       0.57133     -70.304       0.00031218  -166.5        0.97005     -25.86       
 0.455        0.90122      1.1932       0.58203     -70.964       0.00035648  -158.17       0.96925     -26.148      
 0.46         0.90069      0.47713      0.59256     -71.656       0.00048759  -160.94       0.96851     -26.439      
 0.465        0.89849     -0.16847      0.60281     -72.345       0.0003908   -166.2        0.9678      -26.703      
 0.47         0.89946     -0.85198      0.61309     -73.068       0.00031357  -164.61       0.96716     -26.995      
 0.475        0.89962     -1.5519       0.62304     -73.747       0.00032381  -167.38       0.96663     -27.286      
 0.48         0.89866     -2.2177       0.63343     -74.414       0.00038147  -169.53       0.96607     -27.581      
 0.485        0.89744     -2.8074       0.64492     -75.113       0.0004141   -167.24       0.96542     -27.887      
 0.49         0.89663     -3.4405       0.65473     -75.777       0.00044253   176.73       0.96524     -28.161      
 0.495        0.89594     -4.1031       0.66495     -76.458       0.00046664   175.18       0.96472     -28.465      
 0.5          0.89554     -4.739        0.67541     -77.138       0.00047082  -179.96       0.96384     -28.764      
 0.505        0.89493     -5.3282       0.68564     -77.806       0.00050489  -175.94       0.96304     -29.057      
 0.51         0.89363     -5.8842       0.69523     -78.455       0.00058763  -176.61       0.96279     -29.354      
 0.515        0.89248     -6.5534       0.70414     -79.083       0.00053025  -161.31       0.96209     -29.646      
 0.52         0.89205     -7.1623       0.71422     -79.737       0.00053602  -167.43       0.96147     -29.945      
 0.525        0.89167     -7.7785       0.72461     -80.369       0.00056632  -175.81       0.9607      -30.23       
 0.53         0.89119     -8.3844       0.73512     -80.999       0.00062503  -179.18       0.95991     -30.511      
 0.535        0.89049     -8.9506       0.74547     -81.655       0.00070076  -177.3        0.95926     -30.804      
 0.54         0.88888     -9.5204       0.75362     -82.329       0.0006391    178.12       0.95854     -31.09       
 0.545        0.88726     -10.062       0.76377     -82.907       0.00066177   176.98       0.95799     -31.373      
 0.55         0.88617     -10.637       0.77307     -83.551       0.00072582   175.26       0.95739     -31.659      
 0.555        0.88509     -11.225       0.78167     -84.23        0.00077088   176.98       0.95686     -31.946      
 0.56         0.88355     -11.789       0.79042     -84.869       0.00075528  -175.5        0.95649     -32.231      
 0.565        0.88302     -12.327       0.79985     -85.462       0.00070172   179.99       0.95587     -32.521      
 0.57         0.88173     -12.815       0.8084      -86.055       0.00074665   174.66       0.95517     -32.802      
 0.575        0.8806      -13.349       0.81726     -86.675       0.00075776   172.54       0.95447     -33.094      
 0.58         0.87944     -13.907       0.82618     -87.299       0.00079196   173.64       0.95376     -33.389      
 0.585        0.878       -14.442       0.83463     -87.907       0.00090957   176.53       0.95303     -33.676      
 0.59         0.87756     -14.943       0.84295     -88.545       0.00089556   178.09       0.95245     -33.958      
 0.595        0.87642     -15.44        0.85111     -89.102       0.0009233    174.49       0.9518      -34.237      
 0.6          0.8749      -15.935       0.85863     -89.661       0.00091497   172.79       0.95127     -34.52       
 0.605        0.87327     -16.438       0.86589     -90.205       0.00090342   170.36       0.95067     -34.804      
 0.61         0.87189     -16.95        0.87332     -90.715       0.00094451   164.83       0.94984     -35.085      
 0.615        0.8713      -17.398       0.88046     -91.253       0.0010098    162.97       0.94946     -35.374      
 0.62         0.87052     -17.861       0.88846     -91.846       0.0010185    163.14       0.94887     -35.645      
 0.625        0.86902     -18.302       0.89615     -92.327       0.0010022    164.64       0.9484      -35.934      
 0.63         0.86751     -18.769       0.90359     -92.788       0.0010195    165.31       0.94819     -36.235      
 0.635        0.86664     -19.289       0.91098     -93.331       0.0011009    163.38       0.94819     -36.538      
 0.64         0.86521     -19.692       0.91737     -93.866       0.0011249    159.84       0.9476      -36.856      
 0.645        0.86426     -20.144       0.92471     -94.351       0.00114      158.81       0.94711     -37.179      
 0.65         0.86315     -20.574       0.93149     -94.85        0.001159     158.13       0.94631     -37.493      
 0.655        0.86171     -20.991       0.93801     -95.317       0.0011952    159.29       0.94538     -37.807      
 0.66         0.85996     -21.415       0.94452     -95.708       0.0012474    162.48       0.94458     -38.124      
 0.665        0.858       -21.841       0.94957     -96.104       0.0012312    161.05       0.94376     -38.404      
 0.67         0.85684     -22.275       0.95624     -96.54        0.001225     156.45       0.94279     -38.699      
 0.675        0.85585     -22.68        0.96246     -96.909       0.0012669    154.8        0.94215     -39.009      
 0.68         0.85496     -23.079       0.96802     -97.243       0.0013176    154.66       0.94157     -39.311      
 0.685        0.85408     -23.497       0.97327     -97.595       0.0013381    153.76       0.94076     -39.592      
 0.69         0.85241     -23.923       0.97922     -97.973       0.0013183    152.27       0.93974     -39.885      
 0.695        0.85098     -24.358       0.98561     -98.304       0.0013512    149.21       0.93902     -40.188      
 0.7          0.84904     -24.727       0.99149     -98.572       0.0013658    149.52       0.93852     -40.489      
 0.705        0.84733     -25.078       0.99732     -98.812       0.0013842    151.05       0.93795     -40.787      
 0.71         0.8465      -25.463       1.0035      -99.055       0.0014243    150.6        0.93714     -41.084      
 0.715        0.84557     -25.86        1.0094      -99.275       0.0014294    145.27       0.93655     -41.374      
 0.72         0.84379     -26.241       1.0165      -99.54        0.001467     146.99       0.93592     -41.7        
 0.725        0.84191     -26.626       1.023       -99.771       0.0014669    146.93       0.93525     -42.006      
 0.73         0.83996     -27.01        1.029       -99.97        0.0014771    145.91       0.93468     -42.303      
 0.735        0.83802     -27.382       1.0352      -100.15       0.0015248    145.35       0.93427     -42.61       
 0.74         0.83697     -27.735       1.0425      -100.32       0.0014955    142.97       0.93376     -42.917      
 0.745        0.83608     -28.09        1.0502      -100.52       0.0015171    143.34       0.93318     -43.232      
 0.75         0.83518     -28.458       1.0577      -100.68       0.0015375    140.41       0.93274     -43.55       
 0.755        0.83403     -28.833       1.065       -100.84       0.0015925    138.01       0.93237     -43.867      
 0.76         0.83245     -29.206       1.0722      -101.03       0.001676     138.78       0.93198     -44.185      
 0.765        0.8304      -29.566       1.0791      -101.08       0.0016512    137.26       0.93164     -44.525      
 0.77         0.82902     -29.911       1.0855      -101.21       0.0016786    135.2        0.93101     -44.844      
 0.775        0.82795     -30.249       1.0937      -101.31       0.001688     134.49       0.93035     -45.158      
 0.78         0.82653     -30.606       1.1021      -101.39       0.0016985    134.8        0.92977     -45.476      
 0.785        0.82468     -30.983       1.1097      -101.47       0.001713     135.21       0.92933     -45.804      
 0.79         0.82407     -31.284       1.1187      -101.58       0.001634     133.57       0.92901     -46.125      
 0.795        0.82301     -31.586       1.1291      -101.64       0.001666     132.79       0.92861     -46.448      
 0.8          0.82195     -31.912       1.1387      -101.66       0.0017134    130.78       0.92811     -46.783      
 0.805        0.82087     -32.246       1.1482      -101.7        0.0017376    129.49       0.92763     -47.118      
 0.81         0.8197      -32.569       1.1583      -101.8        0.0017315    129.99       0.92728     -47.443      
 0.815        0.81843     -32.862       1.1686      -101.83       0.0017772    129.71       0.9271      -47.775      
 0.82         0.81684     -33.152       1.1814      -101.82       0.0017921    129.03       0.92717     -48.101      
 0.825        0.81578     -33.453       1.1926      -101.84       0.001816     128.66       0.92699     -48.428      
 0.83         0.81476     -33.765       1.2039      -101.91       0.0018024    128.09       0.92685     -48.768      
 0.835        0.81346     -34.082       1.2166      -102          0.0017514    127.11       0.92691     -49.118      
 0.84         0.81252     -34.372       1.2299      -102.03       0.0018198    127.2        0.92672     -49.454      
 0.845        0.81224     -34.657       1.2433      -102.12       0.0018111    126.03       0.92656     -49.837      
 0.85         0.8112      -34.926       1.2581      -102.21       0.0018267    124.76       0.92659     -50.217      
 0.855        0.80996     -35.22        1.2721      -102.28       0.0018668    124.79       0.92639     -50.595      
 0.86         0.80902     -35.547       1.2846      -102.35       0.0019109    125.95       0.9258      -50.977      
 0.865        0.8082      -35.822       1.3004      -102.43       0.0019116    124.44       0.92551     -51.375      
 0.87         0.80697     -36.126       1.3145      -102.52       0.0019547    123.42       0.92443     -51.738      
 0.875        0.80601     -36.42        1.3294      -102.58       0.0019539    122.73       0.92374     -52.106      
 0.88         0.80508     -36.712       1.3456      -102.66       0.001937     122.21       0.92325     -52.481      
 0.885        0.80395     -37           1.3626      -102.76       0.0019378    121.7        0.92267     -52.861      
 0.89         0.80263     -37.243       1.3793      -102.81       0.0019761    121.12       0.92189     -53.225      
 0.895        0.80133     -37.574       1.3969      -102.97       0.0019219    121.75       0.92117     -53.597      
 0.9          0.80001     -37.856       1.4151      -103.12       0.0019584    119.77       0.92067     -53.969      
 0.905        0.79856     -38.135       1.4333      -103.25       0.0019968    118.78       0.92017     -54.348      
 0.91         0.79697     -38.433       1.451       -103.37       0.0019755    120.08       0.91953     -54.738      
 0.915        0.79542     -38.667       1.4685      -103.56       0.001971     118.71       0.91885     -55.134      
 0.92         0.79492     -38.92        1.4873      -103.71       0.0020013    116.98       0.91827     -55.523      
 0.925        0.79378     -39.189       1.5065      -103.88       0.0020159    117.3        0.91743     -55.916      
 0.93         0.79235     -39.458       1.5263      -104.06       0.002019     117.86       0.91677     -56.316      
 0.935        0.79111     -39.718       1.5467      -104.24       0.0020256    117.33       0.91642     -56.719      
 0.94         0.79043     -39.973       1.5662      -104.42       0.0020649    116.07       0.91571     -57.115      
 0.945        0.78952     -40.267       1.586       -104.64       0.0020299    116.04       0.91476     -57.519      
 0.95         0.78838     -40.523       1.6078      -104.84       0.0020564    115.71       0.91409     -57.933      
 0.955        0.78735     -40.771       1.6303      -105.04       0.0020993    114.72       0.91345     -58.352      
 0.96         0.78656     -41.036       1.6524      -105.26       0.002116     113.26       0.91266     -58.773      
 0.965        0.7856      -41.306       1.6741      -105.48       0.0020916    112.47       0.91189     -59.19       
 0.97         0.7848      -41.599       1.6973      -105.73       0.0020931    113.03       0.91108     -59.602      
 0.975        0.78376     -41.864       1.7192      -105.98       0.0020847    113.88       0.91037     -60.022      
 0.98         0.78263     -42.122       1.7418      -106.21       0.0020963    113.81       0.90951     -60.448      
 0.985        0.78158     -42.388       1.7662      -106.44       0.0021355    112.55       0.90848     -60.879      
 0.99         0.7808      -42.647       1.7905      -106.69       0.0021567    111.45       0.9077      -61.303      
 0.995        0.77974     -42.843       1.815       -106.94       0.0021336    110.32       0.90696     -61.74       
 1            0.77882     -43.092       1.8398      -107.21       0.0021019    110.99       0.90619     -62.188      
 1.005        0.77826     -43.372       1.8644      -107.52       0.0021184    111.26       0.90532     -62.638      
 1.01         0.77786     -43.641       1.8895      -107.84       0.0021754    110.47       0.90439     -63.083      
 1.015        0.77665     -43.837       1.9177      -108.15       0.0021455    111.26       0.90358     -63.52       
 1.02         0.77552     -44.109       1.9434      -108.46       0.0021765    109.56       0.90305     -63.991      
 1.025        0.77503     -44.336       1.9709      -108.74       0.0021794    110.01       0.90231     -64.45       
 1.03         0.77429     -44.553       1.9985      -109.05       0.0021674    109.6        0.90134     -64.902      
 1.035        0.77314     -44.786       2.0257      -109.41       0.0021591    107.91       0.90032     -65.36       
 1.04         0.77278     -45.026       2.0546      -109.73       0.002165     109.75       0.89981     -65.844      
 1.045        0.77188     -45.271       2.0844      -110.06       0.0021885    109.48       0.89853     -66.314      
 1.05         0.77095     -45.492       2.1142      -110.44       0.0022079    108.11       0.89772     -66.791      
 1.055        0.77009     -45.712       2.1448      -110.83       0.00223      107.34       0.89714     -67.281      
 1.06         0.76927     -45.95        2.1758      -111.23       0.0022436    107.46       0.8964      -67.789      
 1.065        0.76834     -46.208       2.2039      -111.64       0.0022112    106.43       0.89503     -68.323      
 1.07         0.7675      -46.448       2.2346      -112.07       0.0023012    107.27       0.89394     -68.822      
 1.075        0.76649     -46.656       2.2659      -112.48       0.002286     106.83       0.89282     -69.345      
 1.08         0.76549     -46.876       2.2963      -112.88       0.0022702    106.34       0.89136     -69.865      
 1.085        0.76463     -47.113       2.3259      -113.27       0.0023017    106.04       0.88971     -70.373      
 1.09         0.76395     -47.302       2.3569      -113.66       0.0023234    104.34       0.88868     -70.903      
 1.095        0.76252     -47.519       2.3888      -114.11       0.0022802    105.09       0.8871      -71.414      
 1.1          0.76188     -47.754       2.4207      -114.55       0.0022917    106.1        0.88576     -71.943      
 1.105        0.76138     -47.97        2.4534      -114.96       0.0023332    106.53       0.88442     -72.477      
 1.11         0.76049     -48.165       2.4871      -115.36       0.0023759    106.09       0.88302     -73.008      
 1.115        0.75894     -48.386       2.5208      -115.78       0.0023938    105.08       0.88175     -73.545      
 1.12         0.75804     -48.599       2.5547      -116.26       0.002373     105.2        0.88037     -74.122      
 1.125        0.75721     -48.825       2.5887      -116.72       0.0023868    105.03       0.87876     -74.685      
 1.13         0.75651     -49.027       2.6247      -117.15       0.0023951    104.97       0.87724     -75.252      
 1.135        0.75579     -49.208       2.6624      -117.59       0.0024025    105.06       0.87584     -75.824      
 1.14         0.75452     -49.431       2.6987      -118.12       0.0024798    104.84       0.87419     -76.367      
 1.145        0.75384     -49.612       2.7332      -118.57       0.0024266    104.69       0.87214     -76.966      
 1.15         0.75336     -49.804       2.7705      -119.03       0.0024571    103.94       0.87055     -77.55       
 1.155        0.75268     -50.003       2.8084      -119.52       0.002457     103.12       0.86886     -78.145      
 1.16         0.75186     -50.203       2.8469      -120.04       0.0024282    102.34       0.86692     -78.754      
 1.165        0.75153     -50.41        2.8882      -120.53       0.0025344    101.46       0.86507     -79.346      
 1.17         0.75105     -50.595       2.9282      -121.09       0.0025027    103.73       0.86325     -79.954      
 1.175        0.75065     -50.792       2.9703      -121.6        0.0025166    102.61       0.86157     -80.575      
 1.18         0.75003     -50.996       3.0115      -122.11       0.0025353    101.62       0.85973     -81.207      
 1.185        0.74927     -51.198       3.0519      -122.65       0.0025433    102.05       0.85765     -81.845      
 1.19         0.74885     -51.39        3.0954      -123.18       0.0025662    102.39       0.85555     -82.482      
 1.195        0.7483      -51.606       3.1367      -123.77       0.0026344    101.96       0.85339     -83.128      
 1.2          0.74734     -51.799       3.1806      -124.32       0.0026096    102.38       0.85103     -83.792      
 1.205        0.74666     -52.007       3.2251      -124.92       0.0025994    102.15       0.84873     -84.471      
 1.21         0.74633     -52.228       3.269       -125.56       0.0026362    100.99       0.84644     -85.157      
 1.215        0.74579     -52.416       3.3121      -126.15       0.002661     100.05       0.84371     -85.834      
 1.22         0.74449     -52.619       3.3578      -126.75       0.0026643    100.76       0.84099     -86.541      
 1.225        0.74395     -52.791       3.4027      -127.36       0.0026833    100.75       0.83798     -87.239      
 1.23         0.74349     -52.97        3.4486      -127.97       0.0027032    100.56       0.83505     -87.943      
 1.235        0.74271     -53.168       3.4956      -128.58       0.002728     100.42       0.83223     -88.658      
 1.24         0.74156     -53.366       3.5411      -129.21       0.0027816    100.21       0.82905     -89.38       
 1.245        0.74121     -53.57        3.5883      -129.85       0.0027901    99.557       0.82584     -90.102      
 1.25         0.7408      -53.755       3.6365      -130.51       0.0027925    99.891       0.82274     -90.846      
 1.255        0.74003     -53.948       3.6856      -131.18       0.002822     99.864       0.81951     -91.603      
 1.26         0.73906     -54.155       3.7356      -131.85       0.0028699    99.09        0.81616     -92.369      
 1.265        0.73848     -54.357       3.7866      -132.52       0.0028849    98.119       0.81289     -93.149      
 1.27         0.73736     -54.541       3.8364      -133.2        0.0029294    97.939       0.80931     -93.938      
 1.275        0.73671     -54.769       3.8866      -133.92       0.0029425    97.51        0.80565     -94.74       
 1.28         0.73605     -54.962       3.9358      -134.66       0.0029157    97.552       0.80174     -95.564      
 1.285        0.73524     -55.118       3.9845      -135.38       0.0028809    98.105       0.79771     -96.408      
 1.29         0.73447     -55.308       4.0347      -136.09       0.0029082    98.503       0.7939      -97.267      
 1.295        0.73286     -55.533       4.0837      -136.81       0.0029728    97.465       0.78939     -98.133      
 1.3          0.73206     -55.724       4.1363      -137.54       0.0030195    96.98        0.78508     -99.014      
 1.305        0.73142     -55.875       4.1912      -138.28       0.0030508    97.314       0.78056     -99.895      
 1.31         0.7306      -56.01        4.2456      -139.02       0.0030683    97.623       0.77577     -100.79      
 1.315        0.72951     -56.187       4.2952      -139.74       0.0030737    96.137       0.77094     -101.72      
 1.32         0.72864     -56.347       4.3504      -140.51       0.0031299    96.98        0.76624     -102.67      
 1.325        0.72799     -56.487       4.4056      -141.25       0.003142     96.979       0.76116     -103.61      
 1.33         0.72744     -56.653       4.4622      -142.02       0.0031722    96.354       0.75605     -104.58      
 1.335        0.72683     -56.841       4.5197      -142.84       0.0032167    95.447       0.75083     -105.57      
 1.34         0.72593     -57.004       4.5752      -143.65       0.0032161    94.666       0.74507     -106.57      
 1.345        0.7252      -57.195       4.635       -144.45       0.0032697    94.413       0.73971     -107.58      
 1.35         0.72461     -57.356       4.6914      -145.29       0.0033222    94.227       0.7339      -108.62      
 1.355        0.7241      -57.501       4.749       -146.12       0.0033434    93.865       0.72785     -109.68      
 1.36         0.7235      -57.647       4.8074      -146.95       0.0033589    93.464       0.72174     -110.74      
 1.365        0.72253     -57.806       4.8624      -147.8        0.0034351    93.453       0.71577     -111.82      
 1.37         0.7215      -57.979       4.9212      -148.68       0.0034556    92.916       0.70936     -112.96      
 1.375        0.72069     -58.132       4.981       -149.56       0.003462     93.119       0.70271     -114.09      
 1.38         0.72005     -58.3         5.0389      -150.45       0.0035071    92.967       0.69593     -115.24      
 1.385        0.71941     -58.466       5.0963      -151.35       0.0035919    92.51        0.68904     -116.41      
 1.39         0.71847     -58.582       5.157       -152.24       0.0036754    92.532       0.68192     -117.62      
 1.395        0.71778     -58.737       5.2123      -153.16       0.0036502    91.302       0.67464     -118.84      
 1.4          0.71699     -58.866       5.2705      -154.09       0.0036811    90.816       0.6671      -120.07      
 1.405        0.71616     -58.988       5.3272      -155.01       0.0037328    90.367       0.65929     -121.33      
 1.41         0.71539     -59.108       5.3846      -155.93       0.0037748    89.667       0.65144     -122.61      
 1.415        0.71486     -59.221       5.4499      -156.93       0.0037827    88.724       0.64393     -123.93      
 1.42         0.71408     -59.356       5.5085      -157.83       0.003844     88.04        0.63567     -125.26      
 1.425        0.71345     -59.481       5.5649      -158.81       0.0039152    87.513       0.62747     -126.63      
 1.43         0.71261     -59.6         5.6245      -159.78       0.0039481    86.767       0.61906     -128.04      
 1.435        0.71173     -59.738       5.6862      -160.75       0.0039657    86.012       0.61047     -129.47      
 1.44         0.71125     -59.926       5.7452      -161.75       0.0040299    85.788       0.60192     -130.93      
 1.445        0.71089     -60.043       5.8036      -162.79       0.0040052    84.328       0.59288     -132.45      
 1.45         0.70996     -60.121       5.8643      -163.79       0.0040583    84.002       0.58391     -133.99      
 1.455        0.7091      -60.244       5.9243      -164.82       0.0040953    83.15        0.57466     -135.57      
 1.46         0.70841     -60.403       5.9827      -165.88       0.0041032    81.789       0.56514     -137.21      
 1.465        0.70765     -60.529       6.0397      -166.95       0.004114     80.947       0.55561     -138.9       
 1.47         0.70689     -60.648       6.0969      -167.99       0.0041575    80.528       0.54575     -140.61      
 1.475        0.70651     -60.768       6.1547      -169.09       0.0041757    80.111       0.53584     -142.39      
 1.48         0.70595     -60.904       6.2093      -170.2        0.0041964    79.67        0.52583     -144.22      
 1.485        0.70504     -61.021       6.2632      -171.29       0.0042471    79.145       0.51568     -146.11      
 1.49         0.70393     -61.066       6.3219      -172.38       0.0043457    78.458       0.50538     -148.05      
 1.495        0.7036      -61.232       6.372       -173.51       0.0043197    77.22        0.49456     -150         
 1.5          0.70316     -61.348       6.4238      -174.66       0.0043135    76.436       0.48376     -152.09      
 1.505        0.70269     -61.442       6.4766      -175.79       0.0043322    75.873       0.4729      -154.22      
 1.51         0.70221     -61.546       6.5261      -176.93       0.0043586    75.358       0.46194     -156.38      
 1.515        0.70173     -61.689       6.5683      -178.12       0.0043683    74.702       0.45093     -158.62      
 1.52         0.70154     -61.758       6.6185      -179.28       0.0044475    73.365       0.43986     -160.91      
 1.525        0.70124     -61.835       6.6704       179.57       0.0044223    72.078       0.42879     -163.28      
 1.53         0.70105     -61.947       6.7154       178.41       0.0044255    71.37        0.41781     -165.72      
 1.535        0.70079     -62.065       6.7552       177.23       0.0044646    71.001       0.40692     -168.25      
 1.54         0.70025     -62.139       6.797        176.02       0.0044896    70.306       0.39621     -170.89      
 1.545        0.70094     -62.277       6.8431       174.78       0.0045243    69.556       0.38547     -173.64      
 1.55         0.70073     -62.38        6.879        173.55       0.0045255    68.665       0.37489     -176.49      
 1.555        0.7005      -62.493       6.9142       172.33       0.004538     67.779       0.36452     -179.43      
 1.56         0.7006      -62.615       6.9495       171.1        0.0045565    66.777       0.35436      177.5       
 1.565        0.70101     -62.723       6.9822       169.86       0.004556     65.503       0.34438      174.29      
 1.57         0.69992     -62.797       7.0117       168.61       0.0045626    65.391       0.33463      170.97      
 1.575        0.70008     -62.919       7.0356       167.34       0.0045385    64.286       0.32528      167.49      
 1.58         0.69999     -63.034       7.0578       166.07       0.0045738    63.135       0.31645      163.88      
 1.585        0.69957     -63.129       7.0803       164.82       0.0046173    62.394       0.30813      160.13      
 1.59         0.69932     -63.214       7.1035       163.59       0.0045689    62.082       0.30032      156.28      
 1.595        0.69906     -63.335       7.1171       162.31       0.0045451    60.717       0.29287      152.27      
 1.6          0.69892     -63.418       7.1277       161.05       0.0045969    60.014       0.2863       148.1       
 1.605        0.69845     -63.504       7.1405       159.81       0.0046513    59.44        0.2804       143.81      
 1.61         0.69792     -63.604       7.1519       158.57       0.0046681    58.738       0.27525      139.41      
 1.615        0.69781     -63.721       7.156        157.32       0.0046333    57.799       0.2711       134.9       
 1.62         0.69747     -63.833       7.1604       156.07       0.0046639    56.999       0.26762      130.32      
 1.625        0.69756     -63.894       7.1654       154.84       0.0046503    55.944       0.26493      125.7       
 1.63         0.69749     -63.985       7.1686       153.59       0.0046367    54.677       0.26328      121.01      
 1.635        0.69728     -64.1         7.1688       152.35       0.0046291    53.781       0.2627       116.29      
 1.64         0.69711     -64.201       7.1658       151.11       0.0046219    53.792       0.26313      111.6       
 1.645        0.69652     -64.289       7.1577       149.87       0.0046781    52.63        0.26436      106.95      
 1.65         0.69678     -64.401       7.1476       148.63       0.0046275    51.629       0.26635      102.41      
 1.655        0.69635     -64.52        7.1354       147.42       0.0046123    50.64        0.26926      97.926      
 1.66         0.69565     -64.641       7.1206       146.23       0.0046296    49.727       0.27307      93.541      
 1.665        0.69561     -64.761       7.1031       145.03       0.0046219    48.897       0.27766      89.303      
 1.67         0.695       -64.849       7.0815       143.85       0.0045582    47.428       0.28293      85.196      
 1.675        0.6947      -64.934       7.0601       142.7        0.0045098    46.752       0.28857      81.22       
 1.68         0.69441     -65.01        7.0362       141.55       0.0044877    46.095       0.29492      77.402      
 1.685        0.69411     -65.107       7.0108       140.41       0.0044862    45.46        0.30184      73.752      
 1.69         0.69387     -65.249       6.9856       139.27       0.0044893    44.991       0.30912      70.258      
 1.695        0.69369     -65.284       6.961        138.19       0.0044647    43.651       0.31671      66.879      
 1.7          0.69382     -65.403       6.9336       137.05       0.0044533    42.729       0.32465      63.638      
 1.705        0.69358     -65.515       6.9036       135.94       0.004416     42.409       0.33288      60.553      
 1.71         0.69343     -65.597       6.8747       134.87       0.004383     41.944       0.34132      57.599      
 1.715        0.69398     -65.659       6.8501       133.8        0.0043906    40.554       0.34991      54.746      
 1.72         0.69414     -65.782       6.8174       132.72       0.0043133    39.686       0.35846      52.005      
 1.725        0.69432     -65.895       6.7812       131.63       0.0042716    39.574       0.36715      49.398      
 1.73         0.69468     -66.005       6.7465       130.56       0.0042912    38.98        0.37593      46.911      
 1.735        0.69499     -66.115       6.7122       129.51       0.0043143    38.158       0.38475      44.511      
 1.74         0.69498     -66.223       6.6753       128.48       0.0042672    37.63        0.39363      42.173      
 1.745        0.695       -66.321       6.6357       127.45       0.0041832    36.618       0.4023       39.957      
 1.75         0.69482     -66.402       6.5956       126.44       0.0041686    36.28        0.41094      37.828      
 1.755        0.69479     -66.509       6.5536       125.47       0.0041565    35.61        0.4197       35.76       
 1.76         0.69501     -66.613       6.5119       124.5        0.0041549    34.682       0.42847      33.768      
 1.765        0.6954      -66.686       6.4725       123.48       0.0041776    33.909       0.4371       31.869      
 1.77         0.69509     -66.816       6.4257       122.56       0.0041379    33.573       0.4456       30.027      
 1.775        0.69502     -66.902       6.3823       121.63       0.004077     33.395       0.45399      28.228      
 1.78         0.69498     -66.991       6.3401       120.71       0.0040379    33.185       0.46226      26.503      
 1.785        0.69492     -67.07        6.2983       119.79       0.0040196    32.766       0.47044      24.841      
 1.79         0.69486     -67.126       6.2565       118.89       0.0040048    32.128       0.47861      23.226      
 1.795        0.69509     -67.223       6.2162       118.03       0.0039551    32.263       0.48668      21.645      
 1.8          0.69482     -67.291       6.1706       117.17       0.0039853    31.474       0.49447      20.147      
 1.805        0.69511     -67.353       6.129        116.31       0.0039856    29.932       0.50226      18.653      
 1.81         0.69553     -67.426       6.0882       115.45       0.0039628    28.65        0.51006      17.189      
 1.815        0.69548     -67.521       6.0436       114.58       0.0039438    28.475       0.51775      15.792      
 1.82         0.69553     -67.596       6.0035       113.75       0.0039245    27.657       0.52507      14.436      
 1.825        0.69542     -67.69        5.9585       112.9        0.0038643    26.921       0.53218      13.102      
 1.83         0.69533     -67.78        5.9167       112.07       0.0038224    26.313       0.53926      11.812      
 1.835        0.69531     -67.863       5.8753       111.25       0.0038173    25.612       0.54626      10.56       
 1.84         0.6954      -67.941       5.831        110.43       0.003837     24.685       0.55311      9.3371      
 1.845        0.69537     -68.034       5.7892       109.66       0.0037608    24.197       0.55977      8.1589      
 1.85         0.69573     -68.151       5.7432       108.88       0.0037359    23.783       0.56625      7.0251      
 1.855        0.69571     -68.267       5.6989       108.11       0.0036924    22.981       0.57265      5.878       
 1.86         0.69541     -68.359       5.6562       107.36       0.0036479    21.974       0.57896      4.7477      
 1.865        0.69509     -68.42        5.6136       106.63       0.0036239    21.176       0.58516      3.6707      
 1.87         0.69502     -68.528       5.5709       105.89       0.0035655    21.168       0.59125      2.6259      
 1.875        0.69488     -68.622       5.5306       105.21       0.0035565    20.416       0.59724      1.6203      
 1.88         0.69484     -68.736       5.4863       104.52       0.0035127    20.052       0.60302      0.6045      
 1.885        0.69491     -68.837       5.4437       103.82       0.0034689    19.582       0.60877     -0.40284     
 1.89         0.69505     -68.898       5.4072       103.14       0.003463     18.501       0.61459     -1.3742      
 1.895        0.69514     -68.988       5.3647       102.45       0.0034175    17.833       0.62008     -2.3096      
 1.9          0.69517     -69.067       5.3228       101.77       0.0033922    17.557       0.62542     -3.2563      
 1.905        0.69516     -69.194       5.2827       101.11       0.0033693    17.214       0.63075     -4.1804      
 1.91         0.69532     -69.32        5.244        100.44       0.0033598    17.094       0.63591     -5.0871      
 1.915        0.69571     -69.396       5.2061       99.764       0.0033598    17.302       0.64083     -5.9856      
 1.92         0.69584     -69.456       5.1683       99.127       0.0032776    16.459       0.64563     -6.8653      
 1.925        0.696       -69.601       5.1284       98.482       0.0032567    15.051       0.65026     -7.7233      
 1.93         0.69639     -69.685       5.0895       97.856       0.0032469    13.885       0.6547      -8.5684      
 1.935        0.69701     -69.747       5.0524       97.239       0.0032211    13.46        0.65902     -9.3913      
 1.94         0.69775     -69.844       5.0169       96.618       0.0031736    13.702       0.66327     -10.186      
 1.945        0.69802     -69.938       4.9793       96.025       0.003165     12.447       0.66743     -10.973      
 1.95         0.69805     -70.023       4.9434       95.424       0.0030914    12.789       0.67166     -11.726      
 1.955        0.69824     -70.113       4.9062       94.842       0.0030324    12.937       0.67574     -12.468      
 1.96         0.69862     -70.218       4.8699       94.258       0.0029841    12.815       0.67968     -13.204      
 1.965        0.69899     -70.329       4.8361       93.661       0.0029366    12.55        0.68355     -13.932      
 1.97         0.69865     -70.38        4.7997       93.109       0.0029143    11.751       0.68751     -14.644      
 1.975        0.69914     -70.518       4.7656       92.474       0.0029268    10.9         0.69151     -15.346      
 1.98         0.69946     -70.613       4.7345       91.897       0.0029127    10.789       0.69545     -16.024      
 1.985        0.69957     -70.678       4.7016       91.349       0.0028949    10.568       0.69931     -16.714      
 1.99         0.69961     -70.743       4.6646       90.781       0.002892     9.7751       0.70306     -17.434      
 1.995        0.69962     -70.833       4.633        90.184       0.0028508    10.302       0.70676     -18.111      
 2            0.69978     -70.957       4.5975       89.623       0.002841     9.0128       0.71014     -18.761      
 2.005        0.69998     -71.057       4.5623       89.042       0.0027976    8.2293       0.71329     -19.392      
 2.01         0.7         -71.133       4.5293       88.48        0.0027459    8.3978       0.71638     -20.029      
 2.015        0.6998      -71.198       4.4985       87.971       0.0027036    9.2664       0.71953     -20.673      
 2.02         0.70007     -71.276       4.4649       87.465       0.0026062    9.123        0.72229     -21.234      
 2.025        0.69954     -71.404       4.4329       86.945       0.0025815    8.4638       0.72521     -21.844      
 2.03         0.69955     -71.514       4.3998       86.408       0.0025862    8.6022       0.72828     -22.445      
 2.035        0.69972     -71.597       4.3671       85.891       0.0025913    8.4033       0.73124     -23.019      
 2.04         0.69951     -71.669       4.3356       85.413       0.0025867    7.3634       0.73398     -23.569      
 2.045        0.69883     -71.8         4.3028       84.91        0.0026116    8.0581       0.7369      -24.152      
 2.05         0.69949     -71.895       4.2761       84.373       0.0025032    7.7652       0.73964     -24.676      
 2.055        0.69942     -72.026       4.2469       83.835       0.0024652    5.7408       0.74252     -25.213      
 2.06         0.699       -72.14        4.2164       83.329       0.0024525    5.1866       0.74535     -25.754      
 2.065        0.6987      -72.211       4.1863       82.866       0.0024171    7.2494       0.74802     -26.29       
 2.07         0.69842     -72.333       4.1565       82.369       0.0024135    5.4714       0.75091     -26.827      
 2.075        0.69798     -72.45        4.1254       81.847       0.0023882    6.0984       0.75352     -27.352      
 2.08         0.69757     -72.545       4.0947       81.403       0.0023764    6.1997       0.75605     -27.878      
 2.085        0.69724     -72.638       4.0644       80.967       0.0023781    5.2276       0.75855     -28.398      
 2.09         0.69696     -72.744       4.0344       80.49        0.0023763    3.714        0.76098     -28.908      
 2.095        0.69636     -72.84        4.0027       80.03        0.002307     4.2768       0.76312     -29.417      
 2.1          0.69638     -72.927       3.9743       79.608       0.0022909    3.0087       0.76538     -29.921      
 2.105        0.69632     -73.019       3.9449       79.17        0.0022612    3.5425       0.76752     -30.421      
 2.11         0.69614     -73.097       3.9162       78.748       0.0022352    4.3665       0.76964     -30.902      
 2.115        0.696       -73.153       3.8895       78.352       0.0022157    4.1189       0.77177     -31.364      
 2.12         0.69636     -73.221       3.8644       77.914       0.0021463    3.4793       0.77378     -31.831      
 2.125        0.69638     -73.318       3.8384       77.502       0.0021354    3.7131       0.77587     -32.289      
 2.13         0.6965      -73.407       3.811        77.079       0.0021195    4.3839       0.77784     -32.739      
 2.135        0.69646     -73.488       3.7838       76.662       0.0021028    4.4065       0.77982     -33.185      
 2.14         0.69628     -73.566       3.758        76.26        0.0020791    3.5854       0.78186     -33.627      
 2.145        0.69673     -73.649       3.7343       75.846       0.0019981    4.143        0.78378     -34.051      
 2.15         0.6967      -73.693       3.7111       75.479       0.0020343    2.3058       0.78574     -34.504      
 2.155        0.69669     -73.767       3.6862       75.118       0.0020342    1.175        0.78762     -34.926      
 2.16         0.69678     -73.839       3.6613       74.713       0.002025     1.7229       0.78957     -35.339      
 2.165        0.69696     -73.891       3.6378       74.27        0.0020154    3.7185       0.7916      -35.764      
 2.17         0.69703     -73.965       3.6146       73.929       0.0019187    4.6181       0.79337     -36.199      
 2.175        0.69685     -74.06        3.5899       73.514       0.0019601    2.4135       0.79488     -36.606      
 2.18         0.69709     -74.101       3.5663       73.13        0.0018976    1.8606       0.79658     -37.028      
 2.185        0.69705     -74.134       3.5434       72.766       0.0018693    2.3402       0.79835     -37.445      
 2.19         0.69654     -74.187       3.5206       72.401       0.0019291    2.563        0.79999     -37.854      
 2.195        0.69681     -74.239       3.4981       72.023       0.0018766    0.73825      0.80122     -38.299      
 2.2          0.69704     -74.258       3.475        71.639       0.0018761    1.8879       0.80257     -38.664      
 2.205        0.69676     -74.314       3.4519       71.284       0.0018488    1.4583       0.80399     -39.063      
 2.21         0.69649     -74.383       3.4298       70.941       0.0018129    0.76585      0.80533     -39.456      
 2.215        0.69655     -74.439       3.4091       70.598       0.0017872    0.91577      0.80652     -39.82       
 2.22         0.69677     -74.472       3.389        70.26        0.0017796    1.5308       0.80762     -40.174      
 2.225        0.69638     -74.523       3.3699       69.916       0.0017586    1.8544       0.80921     -40.54       
 2.23         0.69637     -74.577       3.3485       69.583       0.0017708    1.304        0.81042     -40.903      
 2.235        0.69669     -74.653       3.3282       69.235       0.0017617    0.65329      0.81169     -41.263      
 2.24         0.69706     -74.745       3.3102       68.872       0.0017283    0.083125     0.81309     -41.617      
 2.245        0.69682     -74.793       3.2901       68.551       0.0017823   -1.3737       0.81394     -41.957      
 2.25         0.69652     -74.859       3.2719       68.236       0.0017918   -1.2796       0.81533     -42.301      
 2.255        0.69602     -74.948       3.2527       67.864       0.0017401   -1.2224       0.8167      -42.656      
 2.26         0.69579     -75.03        3.2333       67.497       0.001688    -0.084683     0.81801     -43.009      
 2.265        0.69594     -75.098       3.2146       67.153       0.0016716    1.441        0.81928     -43.355      
 2.27         0.69584     -75.18        3.1973       66.761       0.00167     -1.1454       0.8205      -43.71       
 2.275        0.69605     -75.25        3.1795       66.475       0.0016524   -1.8265       0.82175     -44.058      
 2.28         0.69604     -75.307       3.1625       66.121       0.0016515   -1.7535       0.82289     -44.421      
 2.285        0.69596     -75.379       3.1427       65.771       0.001634    -2.2857       0.82378     -44.768      
 2.29         0.69602     -75.474       3.1212       65.446       0.0015934   -3.7604       0.82446     -45.095      
 2.295        0.69644     -75.554       3.1074       65.066       0.0015715   -4.5762       0.82535     -45.441      
 2.3          0.6965      -75.603       3.0866       64.802       0.0015657   -4.491        0.82586     -45.749      
 2.305        0.69676     -75.691       3.0697       64.5         0.0015324   -3.0358       0.82664     -46.062      
 2.31         0.69685     -75.779       3.0519       64.18        0.0015074   -2.6971       0.82751     -46.383      
 2.315        0.6968      -75.846       3.0323       63.859       0.001501    -3.8525       0.82833     -46.702      
 2.32         0.69727     -75.909       3.0177       63.548       0.0014791   -2.9601       0.82909     -46.992      
 2.325        0.69701     -75.95        2.9996       63.278       0.001479    -2.0215       0.82967     -47.286      
 2.33         0.69722     -76.051       2.9821       62.975       0.0014603   -3.0351       0.8308      -47.575      
 2.335        0.69759     -76.109       2.9664       62.666       0.0014432   -4.0642       0.83194     -47.869      
 2.34         0.69783     -76.122       2.952        62.366       0.0014323   -4.0384       0.8329      -48.165      
 2.345        0.69789     -76.242       2.937        62.069       0.0014095   -3.5482       0.83407     -48.445      
 2.35         0.698       -76.303       2.9212       61.77        0.0013412   -5.043        0.83526     -48.76       
 2.355        0.69874     -76.37        2.9079       61.445       0.0013518   -5.826        0.83657     -49.084      
 2.36         0.69928     -76.434       2.8939       61.141       0.0013755   -6.6721       0.83769     -49.393      
 2.365        0.69922     -76.492       2.878        60.848       0.0013646   -7.351        0.83854     -49.684      
 2.37         0.69884     -76.549       2.8625       60.478       0.0013032   -5.6749       0.83944     -49.975      
 2.375        0.69885     -76.597       2.8464       60.172       0.0012702   -7.8725       0.84001     -50.271      
 2.38         0.69908     -76.669       2.8306       59.83        0.0012778   -7.7364       0.84043     -50.576      
 2.385        0.69933     -76.738       2.815        59.499       0.0012781   -6.4473       0.84096     -50.866      
 2.39         0.69941     -76.78        2.7993       59.203       0.0012689   -5.6718       0.84164     -51.135      
 2.395        0.69916     -76.787       2.7831       58.93        0.0013107   -7.5102       0.84222     -51.413      
 2.4          0.69939     -76.859       2.7675       58.632       0.0012106   -7.2982       0.84261     -51.672      
 2.405        0.69946     -76.918       2.7529       58.324       0.0011829   -7.2978       0.84321     -51.936      
 2.41         0.69947     -76.956       2.7388       58.063       0.0011783   -7.1859       0.8439      -52.193      
 2.415        0.69938     -76.985       2.7245       57.844       0.0011551   -7.504        0.84462     -52.441      
 2.42         0.69897     -77.037       2.7095       57.576       0.0010906   -10.229       0.84531     -52.687      
 2.425        0.69868     -77.087       2.6952       57.284       0.00107     -7.0089       0.8459      -52.945      
 2.43         0.6987      -77.147       2.6828       56.98        0.0010652   -8.1043       0.84679     -53.201      
 2.435        0.69909     -77.219       2.6704       56.702       0.0010925   -9.624        0.84754     -53.45       
 2.44         0.69947     -77.298       2.6574       56.428       0.0011191   -9.829        0.84813     -53.695      
 2.445        0.69892     -77.375       2.6445       56.067       0.0010536   -9.9901       0.84909     -53.952      
 2.45         0.69858     -77.453       2.6311       55.779       0.0010358   -8.5926       0.85028     -54.217      
 2.455        0.69808     -77.518       2.6159       55.519       0.0010242   -10.868       0.85067     -54.472      
 2.46         0.69792     -77.604       2.6024       55.245       0.0010222   -11.54        0.85122     -54.724      
 2.465        0.69811     -77.705       2.5907       54.943       0.0010216   -9.6996       0.8521      -54.976      
 2.47         0.69814     -77.776       2.5776       54.629       0.0010046   -9.5959       0.8526      -55.229      
 2.475        0.69774     -77.81        2.5642       54.331       0.00094968  -12.736       0.85311     -55.488      
 2.48         0.69698     -77.856       2.5491       54.1         0.00093978  -11.152       0.85376     -55.73       
 2.485        0.69693     -77.916       2.5353       53.851       0.00090066  -9.8064       0.85439     -55.971      
 2.49         0.6975      -77.987       2.5234       53.569       0.00084833  -9.9761       0.85499     -56.215      
 2.495        0.69728     -78.059       2.5106       53.316       0.00089924  -8.5984       0.85577     -56.454      
 2.5          0.69736     -78.15        2.4965       53.03        0.00088608  -11.192       0.85634     -56.695      
 2.505        0.69723     -78.177       2.4829       52.844       0.00088986  -11.672       0.85662     -56.917      
 2.51         0.69719     -78.215       2.4708       52.61        0.00085996  -11.32        0.85715     -57.136      
 2.515        0.6973      -78.282       2.4598       52.331       0.00081285  -10.506       0.85807     -57.363      
 2.52         0.69737     -78.329       2.4488       52.164       0.00083101  -8.8189       0.85913     -57.606      
 2.525        0.69712     -78.399       2.4348       51.842       0.00085224  -9.9235       0.85918     -57.839      
 2.53         0.69766     -78.451       2.4231       51.604       0.00081747  -8.7093       0.85994     -58.057      
 2.535        0.69805     -78.493       2.4125       51.379       0.00080054  -9.1336       0.8609      -58.264      
 2.54         0.69791     -78.548       2.4015       51.116       0.00079304  -10.767       0.86174     -58.476      
 2.545        0.69736     -78.645       2.3883       50.793       0.00070948  -8.673        0.86234     -58.716      
 2.55         0.69798     -78.658       2.3754       50.584       0.00074375  -9.2419       0.86297     -58.917      
 2.555        0.69806     -78.716       2.3649       50.374       0.00075545  -12.972       0.86374     -59.13       
 2.56         0.69819     -78.749       2.3548       50.141       0.000744    -13.796       0.86454     -59.353      
 2.565        0.69843     -78.75        2.344        49.89        0.00070603  -12.078       0.86529     -59.575      
 2.57         0.69829     -78.774       2.333        49.652       0.00064354  -14.29        0.86593     -59.779      
 2.575        0.69837     -78.831       2.3226       49.382       0.00067313  -12.297       0.86708     -60.021      
 2.58         0.69861     -78.875       2.3125       49.153       0.0007195   -11.13        0.86779     -60.237      
 2.585        0.69881     -78.908       2.3016       48.908       0.00068238  -14.004       0.86826     -60.464      
 2.59         0.69892     -78.928       2.2904       48.666       0.00060813  -18.434       0.86867     -60.701      
 2.595        0.69893     -78.933       2.2804       48.508       0.00064541  -13.505       0.86917     -60.917      
 2.6          0.69889     -78.991       2.2682       48.236       0.00064993  -8.9408       0.86955     -61.137      
 2.605        0.6986      -78.991       2.2592       47.988       0.0006285   -10.432       0.86967     -61.349      
 2.61         0.69857     -79.009       2.2492       47.753       0.00060445  -12.473       0.86983     -61.556      
 2.615        0.69876     -79.057       2.2382       47.526       0.0005978   -13.533       0.87023     -61.763      
 2.62         0.6987      -79.104       2.2298       47.307       0.00062436  -15.291       0.87094     -61.977      
 2.625        0.69837     -79.139       2.2202       47.06        0.00053897  -13.466       0.8708      -62.168      
 2.63         0.6983      -79.175       2.2099       46.835       0.00050952  -12.956       0.87138     -62.366      
 2.635        0.69814     -79.21        2.2001       46.609       0.00054302  -12.514       0.87162     -62.56       
 2.64         0.69802     -79.245       2.1912       46.379       0.00057633  -13.28        0.87168     -62.755      
 2.645        0.69834     -79.284       2.1831       46.16        0.00050371  -18.333       0.87261     -62.964      
 2.65         0.69818     -79.347       2.1736       45.928       0.00052933  -8.5712       0.87283     -63.156      
 2.655        0.69815     -79.396       2.1628       45.665       0.00046826  -6.795        0.87311     -63.345      
 2.66         0.69827     -79.443       2.1532       45.459       0.00044654  -10.704       0.87343     -63.537      
 2.665        0.6983      -79.5         2.1445       45.281       0.0004764   -15.454       0.87386     -63.735      
 2.67         0.69792     -79.579       2.135        45.019       0.00047871  -16.262       0.87449     -63.935      
 2.675        0.69771     -79.6         2.1255       44.769       0.00050427  -17.134       0.87488     -64.142      
 2.68         0.69774     -79.645       2.1171       44.559       0.00048957  -12.83        0.87514     -64.318      
 2.685        0.69761     -79.702       2.1083       44.341       0.00047128  -13.006       0.87538     -64.512      
 2.69         0.69757     -79.765       2.0996       44.091       0.0004593   -18.593       0.87568     -64.722      
 2.695        0.69822     -79.831       2.0922       43.815       0.00044649  -23.237       0.87607     -64.914      
 2.7          0.69858     -79.896       2.0819       43.679       0.00038842  -11.84        0.87617     -65.105      
 2.705        0.69857     -79.915       2.0737       43.474       0.0003739   -16.059       0.87654     -65.319      
 2.71         0.6984      -79.938       2.0643       43.246       0.00035019  -16.876       0.87687     -65.507      
 2.715        0.69826     -79.992       2.0542       43.026       0.00033136  -12.708       0.8771      -65.676      
 2.72         0.69832     -80.082       2.0459       42.838       0.00036305  -15.317       0.87736     -65.867      
 2.725        0.69855     -80.114       2.0373       42.585       0.00030611  -14.034       0.87754     -66.051      
 2.73         0.69882     -80.155       2.0287       42.391       0.00030703  -20.296       0.87777     -66.21       
 2.735        0.69894     -80.195       2.0203       42.191       0.00026511  -21.402       0.87807     -66.378      
 2.74         0.69921     -80.239       2.012        41.977       0.0002339   -19.846       0.87845     -66.557      
 2.745        0.7001      -80.294       2.0037       41.77        0.00033839  -25.686       0.87887     -66.726      
 2.75         0.69987     -80.305       1.9971       41.582       0.0002185   -13.233       0.87942     -66.886      
 2.755        0.69993     -80.338       1.9886       41.376       0.00023118  -8.8208       0.87969     -67.054      
 2.76         0.69992     -80.385       1.9798       41.139       0.00022759  -12.293       0.87998     -67.222      
 2.765        0.7         -80.424       1.972        40.904       0.0001954   -17.681       0.88052     -67.398      
 2.77         0.70052     -80.434       1.9664       40.721       0.00018278  -16.831       0.88142     -67.595      
 2.775        0.7006      -80.451       1.9579       40.433       0.00020599  -17.387       0.8818      -67.767      
 2.78         0.7008      -80.503       1.9497       40.214       0.00021621  -27.919       0.88205     -67.951      
 2.785        0.70105     -80.535       1.9422       39.986       0.00021181  -28.346       0.88242     -68.139      
 2.79         0.70111     -80.548       1.9346       39.76        0.00020234  -24.31        0.88277     -68.322      
 2.795        0.70074     -80.572       1.9263       39.584       0.00020873  -32.044       0.88284     -68.492      
 2.8          0.70097     -80.61        1.9202       39.333       0.00021328  -16.572       0.88317     -68.686      
 2.805        0.70093     -80.653       1.9106       39.116       0.00021805  -7.3722       0.88303     -68.845      
 2.81         0.70095     -80.676       1.9018       38.91        0.00019348  -12.286       0.88303     -69.005      
 2.815        0.70079     -80.701       1.8944       38.709       0.00015892  -24.713       0.8832      -69.176      
 2.82         0.70008     -80.764       1.8871       38.517       0.00013229  -20.534       0.8833      -69.35       
 2.825        0.70039     -80.769       1.879        38.366       0.00013532  -18.137       0.88332     -69.511      
 2.83         0.70049     -80.798       1.8725       38.134       0.00015134  -29.035       0.88354     -69.666      
 2.835        0.70058     -80.835       1.8652       37.926       9.7843e-5   -36.123       0.88375     -69.815      
 2.84         0.70051     -80.882       1.8576       37.74        4.1488e-5   -37.307       0.88396     -69.961      
 2.845        0.70008     -80.943       1.851        37.529       0.0001025   -26.772       0.88423     -70.111      
 2.85         0.70016     -80.957       1.844        37.334       8.1953e-5   -30.599       0.88456     -70.285      
 2.855        0.70029     -80.99        1.8391       37.126       6.3467e-5   -44.932       0.88487     -70.453      
 2.86         0.70033     -81.042       1.8329       36.92        6.8128e-5   -52.986       0.88514     -70.613      
 2.865        0.70019     -81.1         1.8249       36.73        7.0619e-5   -48.699       0.88539     -70.776      
 2.87         0.69988     -81.149       1.8164       36.563       4.0538e-5   -34.07        0.88567     -70.95       
 2.875        0.70024     -81.206       1.811        36.346       1.7574e-5   -130.19       0.88581     -71.103      
 2.88         0.70052     -81.22        1.8059       36.106       3.2266e-5   -33.626       0.8861      -71.287      
 2.885        0.70063     -81.265       1.7984       35.872       4.9387e-5   -37.016       0.88623     -71.452      
 2.89         0.70072     -81.322       1.7899       35.666       3.747e-5    -68.413       0.88618     -71.602      
 2.895        0.70096     -81.35        1.7835       35.496       2.988e-5    -141.27       0.88608     -71.758      
 2.9          0.70057     -81.405       1.7758       35.297       4.555e-5     177.45       0.886       -71.914      
 2.905        0.70056     -81.451       1.7677       35.109       9.8438e-5   -173.31       0.88628     -72.056      
 2.91         0.70039     -81.491       1.76         34.946       0.00011026  -176.41       0.88635     -72.188      
 2.915        0.70033     -81.523       1.753        34.787       9.8292e-5   -177.44       0.88631     -72.317      
 2.92         0.70082     -81.55        1.7467       34.6         0.00011242  -159.53       0.88646     -72.45       
 2.925        0.70124     -81.575       1.7397       34.394       0.00012047  -162.81       0.88676     -72.57       
 2.93         0.7018      -81.631       1.7345       34.24        0.00011572  -179.88       0.88732     -72.713      
 2.935        0.7018      -81.682       1.7289       34.066       0.00013157   178.83       0.88788     -72.854      
 2.94         0.70133     -81.689       1.7222       33.892       0.00014233   178.18       0.88823     -72.991      
 2.945        0.70091     -81.639       1.7149       33.762       0.00013438   157.09       0.88825     -73.129      
 2.95         0.70238     -81.712       1.7113       33.608       0.00015707   166.47       0.88877     -73.253      
 2.955        0.70224     -81.728       1.7049       33.362       0.00018682  -176.78       0.88921     -73.411      
 2.96         0.70216     -81.726       1.699        33.168       0.00018487  -174.38       0.88977     -73.566      
 2.965        0.70242     -81.737       1.6935       33.001       0.00016951   179.65       0.89025     -73.713      
 2.97         0.70288     -81.782       1.6875       32.795       0.00018454   177.34       0.89032     -73.857      
 2.975        0.70319     -81.775       1.6811       32.622       0.00022289  -179.6        0.88994     -73.996      
 2.98         0.70325     -81.79        1.676        32.414       0.00024583   176.61       0.89037     -74.153      
 2.985        0.70297     -81.834       1.6692       32.186       0.00025013   179.02       0.89054     -74.303      
 2.99         0.70282     -81.87        1.6622       31.972       0.00026417  -176.93       0.89036     -74.439      
 2.995        0.70321     -81.869       1.6568       31.803       0.00030682  -178.42       0.89013     -74.568      
 3            0.70319     -81.913       1.6523       31.639       0.00028571  -178.53       0.89078     -74.702      
 3.005        0.7028      -81.922       1.6456       31.441       0.0002917    177.3        0.89055     -74.828      
 3.01         0.70278     -81.976       1.6398       31.254       0.0002872    177.89       0.89068     -74.966      
 3.015        0.70301     -82.023       1.6345       31.07        0.00027928   178.11       0.89103     -75.106      
 3.02         0.70312     -82.002       1.6291       30.883       0.00029249   171.37       0.8911      -75.231      
 3.025        0.70292     -82.049       1.6231       30.797       0.00035745   169.41       0.89092     -75.336      
 3.03         0.70299     -82.073       1.6182       30.595       0.00036976   176.77       0.89144     -75.489      
 3.035        0.70303     -82.101       1.6129       30.403       0.00035721  -179.61       0.89164     -75.627      
 3.04         0.70304     -82.145       1.6075       30.213       0.00035533   179.68       0.89163     -75.758      
 3.045        0.70307     -82.206       1.6028       29.994       0.00039798   177.85       0.89176     -75.901      
 3.05         0.70346     -82.215       1.5985       29.824       0.00043922   179.3        0.89199     -76.033      
 3.055        0.70307     -82.245       1.5921       29.652       0.00043642  -176.36       0.892       -76.175      
 3.06         0.7031      -82.29        1.5868       29.444       0.00044276  -173.25       0.89224     -76.323      
 3.065        0.7033      -82.34        1.5818       29.247       0.00044272  -174.77       0.89255     -76.464      
 3.07         0.70317     -82.389       1.5762       29.098       0.00042879   178.61       0.89265     -76.594      
 3.075        0.70318     -82.43        1.5714       28.862       0.00048729  -177.21       0.89263     -76.755      
 3.08         0.70327     -82.484       1.5655       28.662       0.00048357   178.47       0.8926      -76.878      
 3.085        0.70354     -82.534       1.5605       28.462       0.00049751   177.25       0.8927      -77.015      
 3.09         0.70382     -82.565       1.556        28.284       0.00050751   178.27       0.89283     -77.154      
 3.095        0.70388     -82.574       1.5507       28.143       0.00049142   178.26       0.89286     -77.279      
 3.1          0.70344     -82.622       1.544        27.961       0.00053419   176.94       0.89302     -77.423      
 3.105        0.70389     -82.651       1.5387       27.801       0.00055374   173.68       0.8931      -77.543      
 3.11         0.70393     -82.689       1.5331       27.621       0.00054324   172.65       0.89322     -77.663      
 3.115        0.70378     -82.736       1.5275       27.438       0.00054371   173.93       0.89336     -77.786      
 3.12         0.70389     -82.776       1.5228       27.276       0.0005872    175.8        0.89348     -77.914      
 3.125        0.70424     -82.777       1.5186       27.121       0.00059486   173.86       0.89369     -78.046      
 3.13         0.70445     -82.781       1.5124       26.938       0.00059979   177.56       0.89385     -78.174      
 3.135        0.70455     -82.8         1.5077       26.783       0.0006162    179.86       0.89396     -78.292      
 3.14         0.70452     -82.823       1.5032       26.644       0.0006258    179.83       0.89412     -78.416      
 3.145        0.70443     -82.835       1.4978       26.492       0.00061409   178.31       0.89441     -78.555      
 3.15         0.70495     -82.84        1.4939       26.283       0.00059836   178          0.89451     -78.677      
 3.155        0.70499     -82.885       1.4887       26.121       0.00063095   173.29       0.89451     -78.81       
 3.16         0.70508     -82.92        1.4845       25.956       0.00067508   171.12       0.89449     -78.934      
 3.165        0.70525     -82.942       1.4803       25.772       0.00069649   172.53       0.89461     -79.056      
 3.17         0.70543     -82.957       1.4753       25.564       0.00068778   176.51       0.89489     -79.183      
 3.175        0.70554     -82.962       1.4703       25.361       0.00071621   176.09       0.89483     -79.309      
 3.18         0.70508     -82.977       1.4653       25.235       0.0007189    174.13       0.89483     -79.425      
 3.185        0.70502     -82.994       1.4606       25.057       0.00071636   176.21       0.89499     -79.543      
 3.19         0.70524     -83.012       1.4563       24.863       0.0007495    177.31       0.89519     -79.671      
 3.195        0.7054      -83.033       1.4521       24.695       0.00082474   173.77       0.89528     -79.806      
 3.2          0.70508     -83.062       1.4476       24.509       0.0008072    171.72       0.89517     -79.924      
 3.205        0.70548     -83.058       1.4429       24.384       0.00079991   174.79       0.89516     -80.041      
 3.21         0.70519     -83.072       1.4388       24.242       0.00078824   175.74       0.89537     -80.17       
 3.215        0.70472     -83.098       1.4344       24.069       0.00079134   173.86       0.89557     -80.301      
 3.22         0.70467     -83.123       1.4294       23.873       0.0008247    171.14       0.89562     -80.424      
 3.225        0.70489     -83.148       1.4256       23.688       0.00085015   173.85       0.89563     -80.546      
 3.23         0.70502     -83.182       1.4213       23.543       0.00083713   174.9        0.8958      -80.653      
 3.235        0.70502     -83.194       1.4172       23.363       0.00083445   175.23       0.89578     -80.77       
 3.24         0.70498     -83.218       1.4131       23.159       0.00086918   175.85       0.89567     -80.893      
 3.245        0.70492     -83.275       1.409        22.969       0.00093528   176.43       0.89563     -81.015      
 3.25         0.70466     -83.315       1.4047       22.865       0.00092638   172.44       0.89572     -81.132      
 3.255        0.7049      -83.333       1.4003       22.688       0.00092866   173.82       0.89578     -81.262      
 3.26         0.70499     -83.368       1.3961       22.529       0.00096593   173.07       0.89578     -81.387      
 3.265        0.70481     -83.398       1.3919       22.383       0.00099622   173.09       0.89574     -81.501      
 3.27         0.70446     -83.411       1.3872       22.226       0.0009929    175.48       0.89568     -81.611      
 3.275        0.70456     -83.44        1.3819       22.024       0.0010073    173.58       0.89573     -81.744      
 3.28         0.70476     -83.479       1.3779       21.868       0.00099506   172.2        0.89587     -81.848      
 3.285        0.70486     -83.506       1.3743       21.716       0.0010233    171.2        0.89591     -81.956      
 3.29         0.70482     -83.538       1.3707       21.559       0.0010536    170.94       0.89594     -82.072      
 3.295        0.70477     -83.579       1.3671       21.394       0.0010519    170.96       0.89607     -82.19       
 3.3          0.70521     -83.593       1.3627       21.223       0.0010421    168.45       0.89627     -82.292      
 3.305        0.7051      -83.629       1.3575       21.068       0.0010695    169.26       0.89625     -82.393      
 3.31         0.70538     -83.629       1.3538       20.964       0.0010925    170.29       0.89643     -82.507      
 3.315        0.70564     -83.641       1.3503       20.832       0.0011184    170.18       0.89659     -82.618      
 3.32         0.70561     -83.688       1.3459       20.634       0.0011406    168.84       0.89659     -82.718      
 3.325        0.70585     -83.686       1.3408       20.509       0.0010901    168.87       0.89677     -82.833      
 3.33         0.70554     -83.72        1.337        20.323       0.0011603    167.97       0.897       -82.949      
 3.335        0.70587     -83.725       1.3339       20.17        0.0011522    166.3        0.89727     -83.048      
 3.34         0.70599     -83.726       1.3302       20.037       0.001166     166.23       0.89754     -83.147      
 3.345        0.70556     -83.737       1.3257       19.904       0.0012504    168.22       0.89773     -83.258      
 3.35         0.70637     -83.715       1.3231       19.786       0.0012169    167.23       0.89779     -83.376      
 3.355        0.70654     -83.77        1.3198       19.577       0.0011851    168.02       0.89818     -83.49       
 3.36         0.70661     -83.781       1.3162       19.434       0.0011936    168.07       0.89826     -83.593      
 3.365        0.70672     -83.785       1.3125       19.281       0.0012148    167.99       0.89821     -83.699      
 3.37         0.7069      -83.809       1.3091       19.068       0.0012282    168.18       0.89826     -83.819      
 3.375        0.70704     -83.807       1.3059       18.881       0.001251     167.57       0.89849     -83.945      
 3.38         0.70678     -83.814       1.3018       18.725       0.0012659    167.19       0.8983      -84.043      
 3.385        0.70673     -83.823       1.2985       18.586       0.0012648    167.2        0.89834     -84.163      
 3.39         0.70664     -83.846       1.2951       18.432       0.0012644    168.39       0.89851     -84.283      
 3.395        0.70646     -83.878       1.2914       18.249       0.001286     170.03       0.89862     -84.389      
 3.4          0.70677     -83.854       1.2884       18.083       0.0013534    167.78       0.8985      -84.497      
 3.405        0.70668     -83.899       1.2844       17.936       0.0013029    167.54       0.89849     -84.615      
 3.41         0.70637     -83.91        1.2811       17.788       0.0012965    167.14       0.89844     -84.723      
 3.415        0.70612     -83.918       1.2774       17.656       0.0013299    167.02       0.89833     -84.834      
 3.42         0.70616     -83.942       1.2733       17.537       0.0013598    167.29       0.89825     -84.951      
 3.425        0.70664     -83.958       1.2716       17.367       0.0012878    166.97       0.89851     -85.039      
 3.43         0.70674     -83.997       1.2682       17.202       0.0013365    167.21       0.89864     -85.167      
 3.435        0.70669     -84.029       1.2648       17.042       0.0013766    166.46       0.89872     -85.263      
 3.44         0.70638     -84.06        1.2611       16.875       0.0013983    166.53       0.89885     -85.359      
 3.445        0.706       -84.096       1.2575       16.71        0.0014038    167.3        0.89904     -85.476      
 3.45         0.70648     -84.13        1.2553       16.601       0.0014007    164.16       0.89913     -85.594      
 3.455        0.7064      -84.147       1.2524       16.438       0.0013932    165.79       0.8994      -85.712      
 3.46         0.70628     -84.173       1.2495       16.273       0.0014135    166.43       0.8996      -85.827      
 3.465        0.70624     -84.208       1.246        16.099       0.0014342    166.95       0.89969     -85.948      
 3.47         0.70632     -84.246       1.242        15.912       0.0014448    167.84       0.89971     -86.074      
 3.475        0.70643     -84.27        1.239        15.724       0.0014741    167.73       0.8998      -86.191      
 3.48         0.7066      -84.299       1.2363       15.607       0.001487     165.68       0.89992     -86.313      
 3.485        0.70674     -84.327       1.2332       15.452       0.0015166    165.58       0.89999     -86.431      
 3.49         0.70707     -84.36        1.2299       15.265       0.0015243    166.12       0.9         -86.548      
 3.495        0.70753     -84.386       1.2267       15.087       0.0015106    166.29       0.89993     -86.668      
 3.5          0.70738     -84.36        1.223        15.01        0.0015572    166.14       0.89975     -86.794      
 3.505        0.70728     -84.373       1.2191       14.861       0.0015907    166.31       0.89958     -86.893      
 3.51         0.70759     -84.423       1.2156       14.684       0.0015874    165.88       0.89951     -86.995      
 3.515        0.7079      -84.457       1.2126       14.515       0.0015942    165.52       0.8995      -87.104      
 3.52         0.70802     -84.459       1.2098       14.366       0.0016235    165.74       0.89951     -87.214      
 3.525        0.70819     -84.474       1.2075       14.212       0.001621     166.61       0.89952     -87.299      
 3.53         0.70795     -84.486       1.2034       14.052       0.0016268    166.64       0.89926     -87.412      
 3.535        0.70825     -84.523       1.2001       13.935       0.0016331    166.35       0.89938     -87.518      
 3.54         0.70865     -84.534       1.197        13.807       0.0016457    166.27       0.89956     -87.61       
 3.545        0.70888     -84.513       1.1939       13.64        0.0016699    166.28       0.89966     -87.7        
 3.55         0.70902     -84.544       1.1917       13.46        0.0017096    165.08       0.89997     -87.818      
 3.555        0.70926     -84.57        1.1896       13.341       0.0016948    164.35       0.90028     -87.93       
 3.56         0.70938     -84.607       1.1868       13.163       0.0017216    164.25       0.90022     -88.024      
 3.565        0.70937     -84.609       1.1839       12.964       0.0017685    163.87       0.90035     -88.134      
 3.57         0.70938     -84.584       1.1813       12.773       0.0018129    163.6        0.90076     -88.265      
 3.575        0.70973     -84.637       1.1786       12.599       0.0018387    165.93       0.90078     -88.373      
 3.58         0.7094      -84.646       1.1762       12.46        0.0017907    165.31       0.90074     -88.49       
 3.585        0.70924     -84.676       1.173        12.286       0.0018028    163.97       0.90056     -88.606      
 3.59         0.70907     -84.711       1.1695       12.117       0.0018557    163.57       0.90034     -88.72       
 3.595        0.70891     -84.732       1.1661       11.966       0.0018985    163.96       0.90015     -88.833      
 3.6          0.70919     -84.722       1.163        11.805       0.0018429    162.62       0.89994     -88.95       
 3.605        0.70863     -84.759       1.1606       11.629       0.0018573    164.41       0.89971     -89.062      
 3.61         0.70876     -84.793       1.1583       11.492       0.0018866    164.56       0.89963     -89.151      
 3.615        0.70874     -84.824       1.1552       11.347       0.0018899    164.31       0.89953     -89.248      
 3.62         0.70845     -84.852       1.1513       11.175       0.0018839    164.31       0.89934     -89.358      
 3.625        0.70887     -84.876       1.1482       11.005       0.0019659    164.12       0.89905     -89.448      
 3.63         0.70864     -84.877       1.146        10.864       0.0019619    163.06       0.89922     -89.543      
 3.635        0.70847     -84.906       1.1433       10.726       0.00196      163.26       0.89942     -89.635      
 3.64         0.70838     -84.938       1.1404       10.586       0.0019798    163.09       0.8994      -89.747      
 3.645        0.70842     -84.961       1.1376       10.434       0.0020031    162.18       0.89925     -89.878      
 3.65         0.70869     -84.973       1.1351       10.251       0.0019628    161.8        0.89946     -90.001      
 3.655        0.70853     -85.02        1.1325       10.137       0.0019897    162.84       0.89981     -90.087      
 3.66         0.70866     -85.043       1.1299       9.9641       0.0020285    162.98       0.89988     -90.197      
 3.665        0.70871     -85.068       1.1273       9.7984       0.002053     162.64       0.89984     -90.314      
 3.67         0.70859     -85.105       1.1244       9.6617       0.0020456    162.41       0.89969     -90.428      
 3.675        0.70857     -85.139       1.1211       9.5177       0.0019971    163          0.8992      -90.53       
 3.68         0.70883     -85.14        1.1182       9.3394       0.0021       162.08       0.89962     -90.664      
 3.685        0.70881     -85.141       1.1156       9.1898       0.0021338    161.52       0.89935     -90.779      
 3.69         0.70882     -85.159       1.1124       9.0599       0.0021383    161.1        0.89898     -90.874      
 3.695        0.70895     -85.193       1.1092       8.9251       0.0021463    161.13       0.89873     -90.964      
 3.7          0.70903     -85.23        1.1075       8.745        0.0021769    162.4        0.89829     -91.083      
 3.705        0.70931     -85.207       1.1033       8.6382       0.0021535    161.77       0.89845     -91.151      
 3.71         0.70938     -85.217       1.1012       8.4846       0.0021691    160.99       0.89858     -91.241      
 3.715        0.70945     -85.242       1.0993       8.3222       0.0021704    161.07       0.89861     -91.345      
 3.72         0.70951     -85.263       1.0968       8.1788       0.0021689    161.46       0.89864     -91.451      
 3.725        0.70927     -85.263       1.0943       8.0698       0.0022505    159.88       0.89893     -91.548      
 3.73         0.71016     -85.258       1.0924       7.9739       0.0022383    160.11       0.89845     -91.629      
 3.735        0.70997     -85.264       1.0902       7.7797       0.0022421    160.26       0.89854     -91.739      
 3.74         0.70962     -85.263       1.0873       7.6345       0.0022611    160.91       0.8986      -91.845      
 3.745        0.70963     -85.259       1.0843       7.534        0.0022887    161.48       0.89847     -91.945      
 3.75         0.71005     -85.28        1.083        7.3132       0.0023115    160.17       0.89849     -92.071      
 3.755        0.70946     -85.266       1.08         7.1268       0.0023029    161.56       0.89864     -92.203      
 3.76         0.70933     -85.272       1.0771       6.9839       0.0023406    161.12       0.89828     -92.301      
 3.765        0.70933     -85.304       1.0744       6.8361       0.0023492    160.59       0.8981      -92.411      
 3.77         0.70922     -85.335       1.072        6.6672       0.0023324    160.39       0.89819     -92.538      
 3.775        0.70888     -85.311       1.0694       6.4924       0.0023721    159.78       0.89802     -92.65       
 3.78         0.70922     -85.341       1.0678       6.3699       0.0023352    160.21       0.89756     -92.738      
 3.785        0.70914     -85.357       1.0651       6.2189       0.0023682    160.9        0.89743     -92.85       
 3.79         0.70896     -85.377       1.0625       6.0686       0.0023719    161.08       0.89729     -92.954      
 3.795        0.7088      -85.405       1.0603       5.9315       0.0023599    160.6        0.89718     -93.04       
 3.8          0.70863     -85.425       1.0577       5.8028       0.0024482    159.94       0.89749     -93.123      
 3.805        0.70869     -85.445       1.0556       5.6829       0.0024246    159.29       0.89755     -93.231      
 3.81         0.7087      -85.457       1.0537       5.5527       0.002433     160.12       0.89749     -93.331      
 3.815        0.70859     -85.477       1.052        5.3837       0.0024744    160.43       0.89752     -93.438      
 3.82         0.70841     -85.511       1.0501       5.1992       0.0025192    160.13       0.89764     -93.553      
 3.825        0.70836     -85.555       1.0478       5.0662       0.0025148    160.72       0.89768     -93.669      
 3.83         0.70807     -85.594       1.0457       4.8879       0.0025824    159.94       0.89778     -93.763      
 3.835        0.70821     -85.636       1.0438       4.7545       0.002553     159.61       0.89798     -93.877      
 3.84         0.70831     -85.662       1.0415       4.6066       0.0025321    159.43       0.89794     -93.999      
 3.845        0.70834     -85.675       1.0388       4.4583       0.0025541    159.39       0.89777     -94.118      
 3.85         0.70857     -85.698       1.0367       4.3803       0.0025942    159.66       0.89791     -94.224      
 3.855        0.70846     -85.752       1.0347       4.1906       0.0025917    159.71       0.89809     -94.35       
 3.86         0.70824     -85.787       1.0323       4.0018       0.0026078    159.47       0.89812     -94.476      
 3.865        0.7082      -85.812       1.03         3.8591       0.0026273    159.41       0.898       -94.589      
 3.87         0.70832     -85.828       1.0277       3.7342       0.0026551    159.33       0.89787     -94.698      
 3.875        0.70832     -85.833       1.0248       3.5444       0.0027088    158.62       0.89791     -94.828      
 3.88         0.70854     -85.837       1.0228       3.4359       0.0026614    158.44       0.89792     -94.918      
 3.885        0.70856     -85.887       1.0208       3.3055       0.0026913    158.31       0.89792     -95.034      
 3.89         0.70875     -85.897       1.0184       3.1825       0.0027518    158.34       0.89767     -95.131      
 3.895        0.70915     -85.879       1.016        3.0647       0.0027939    158.4        0.8974      -95.22       
 3.9          0.70952     -85.908       1.0147       2.928        0.0027703    158.2        0.89768     -95.346      
 3.905        0.70981     -85.913       1.0119       2.7958       0.0027986    158.15       0.8975      -95.438      
 3.91         0.70982     -85.909       1.0094       2.6813       0.0028156    158.61       0.89737     -95.532      
 3.915        0.70973     -85.92        1.0075       2.5313       0.0028334    158.73       0.89746     -95.637      
 3.92         0.70975     -85.933       1.0063       2.3683       0.0028575    158.54       0.89775     -95.754      
 3.925        0.71009     -85.918       1.0054       2.2613       0.0028883    158.59       0.898       -95.88       
 3.93         0.71008     -85.928       1.0022       2.0881       0.0028902    157.54       0.89748     -95.96       
 3.935        0.7102      -85.941       1.0001       1.9216       0.0028823    156.93       0.89762     -96.1        
 3.94         0.71035     -85.954       0.99866      1.7594       0.002901     157.07       0.89772     -96.229      
 3.945        0.71041     -85.966       0.99733      1.597        0.0029429    157.41       0.8977      -96.334      
 3.95         0.71027     -85.978       0.99561      1.4303       0.00298      156.98       0.89778     -96.441      
 3.955        0.71079     -85.964       0.99346      1.3031       0.0030427    156.62       0.89757     -96.531      
 3.96         0.71059     -85.965       0.9914       1.1666       0.0030092    156.38       0.89754     -96.645      
 3.965        0.7104      -85.981       0.98925      0.9979       0.0029996    156.28       0.89748     -96.762      
 3.97         0.71036     -86.004       0.9875       0.82301      0.0030327    156.48       0.8973      -96.875      
 3.975        0.71023     -86.018       0.98686      0.69371      0.0030664    157.1        0.89704     -96.988      
 3.98         0.71048     -86.036       0.9854       0.54296      0.0030732    156.51       0.89702     -97.107      
 3.985        0.71025     -86.082       0.98356      0.36213      0.0030745    155.99       0.89727     -97.224      
 3.99         0.7099      -86.109       0.98138      0.18615      0.0031008    155.92       0.89716     -97.338      
 3.995        0.70966     -86.114       0.97916      0.043803     0.0031408    156.2        0.89679     -97.449      
 4            0.70965     -86.125       0.97733     -0.050777     0.0031611    156.51       0.89663     -97.559      
   

!Noise Parameters
!Freq(GHz)    NFmin(dB)    GammaOpt_Mag    GammaOpt_Phase    rn
 1.575        0.53         0.54       59       0.21     
