!  INFINEON TECHNOLOGIES Silicon Discrete Components								
!  BGA728L7								
!  Vcc=2.8V, Icc=5.94mA, High Gain Mode (Vpon=2.8V, VGS=0V), VHF application								
!  Date: April 2008	
# HZ  S  DB R  50 
!Freq	DBS11	AngS11	DBS21	AngS21	DBS12	AngS12	DBS22	AngS22
30000  -.0045   -.0329   -65.762   -110.11   -73.035   -116.65   -.0050   -.0398   
15029925  -.0728   -29.927   -22.295   -105.42   -74.576    143.73   -.3966   -15.263   
30029850  -.2691   -61.823   -8.419   -6.7017   -54.978   -153.4   -1.2628   -27.112   
45029775  -1.0074   -96.291    2.7679   -31.395   -42.433   -178.52   -2.0891   -35.685   
60029700  -2.3693   -131.01    8.1842   -59.569   -36.302    145.79   -2.7132   -43.448   
75029625  -4.0855   -163.52    11.067   -83.087   -33.258    119.28   -3.3909   -51.314   
90029550  -5.7179    167.27    12.652   -101.72   -31.618    98.63   -4.1591   -58.497   
105029475  -7.0045    141.61    13.568   -116.42   -30.492    82.625   -4.949   -64.719   
120029400  -7.8689    119.38    14.14   -128.24   -29.916    69.46   -5.7336   -69.958   
135029325  -8.4098    100.4    14.503   -137.94   -29.485    59.278   -6.505   -74.482   
150029250  -8.7206    84.379    14.767   -146.19   -29.134    50.793   -7.1978   -78.447   
165029175  -8.9024    70.845    14.953   -153.25   -29    43.506   -7.8473   -81.899   
180029100  -8.993    59.201    15.089   -159.5   -28.748    37.7   -8.4445   -85.088   
195029025  -9.0072    49.189    15.198   -165.05   -28.708    31.999   -8.9936   -87.914   
210028950  -9.0338    40.156    15.286   -170.17   -28.512    26.93   -9.5071   -90.336   
225028875  -9.0233    32.278    15.36   -174.86   -28.45    22.207   -9.9903   -92.843   
240028800  -9.0151    25.111    15.42   -179.17   -28.306    18.327   -10.418   -95.051   
255028725  -9.0037    18.524    15.476    176.68   -28.325    14.491   -10.822   -97.197   
270028650  -8.9622    12.52    15.506    172.81   -28.269    10.87   -11.192   -99.057   
285028575  -8.9517    6.9118    15.549    169.17   -28.241    7.3814   -11.537   -100.96   
300028500  -8.9366    1.5504    15.583    165.64   -28.212    4.7928   -11.835   -102.83   
315028425  -8.9314   -3.3824    15.613    162.26   -28.041    1.674   -12.131   -104.52   
330028350  -8.9196   -8.1216    15.642    159   -28.121   -.6797   -12.386   -105.81   
345028275  -8.907   -12.585    15.675    155.85   -28.035   -3.8081   -12.639   -107.54   
360028200  -8.9177   -16.924    15.694    152.72   -28.044   -5.7472   -12.876   -108.98   
375028125  -8.9041   -20.888    15.712    149.68   -27.937   -8.8879   -13.056   -110.36   
390028050  -8.911   -25.009    15.739    146.77   -27.919   -11.003   -13.241   -111.8   
405027975  -8.906   -28.904    15.76    143.85   -27.922   -12.934   -13.413   -113.19   
420027900  -8.9036   -32.484    15.784    141.03   -27.861   -15.669   -13.537   -114.31   
435027825  -8.9267   -36.123    15.802    138.24   -27.85   -17.424   -13.657   -115.55   
450027750  -8.9245   -39.743    15.825    135.48   -27.758   -19.391   -13.784   -116.77   
465027675  -8.9477   -43.179    15.851    132.76   -27.747   -21.882   -13.871   -117.77   
480027600  -8.9565   -46.601    15.871    130.04   -27.72   -23.976   -13.938   -118.61   
495027525  -8.9846   -49.8    15.885    127.38   -27.657   -25.847   -14.003   -119.9   
510027450  -9.0082   -53.08    15.916    124.71   -27.659   -27.842   -14.053   -120.85   
525027375  -9.0291   -56.088    15.945    122.01   -27.59   -29.788   -14.061   -122   
540027300  -9.0551   -59.248    15.949    119.37   -27.477   -32.584   -14.019   -123.08   
555027225  -9.0997   -62.181    15.978    116.77   -27.467   -34.077   -14.031   -123.99   
570027150  -9.1471   -65.016    15.997    114.11   -27.44   -35.809   -13.975   -125.09   
585027075  -9.192   -67.861    16.019    111.47   -27.39   -38.309   -13.926   -126.11   
600027000  -9.2431   -70.513    16.027    108.77   -27.381   -40.901   -13.863   -127.34   
615026925  -9.2811   -73.019    16.046    106.13   -27.277   -42.782   -13.773   -128.58   
630026850  -9.3278   -75.3    16.036    103.43   -27.349   -45.169   -13.62   -129.83   
645026775  -9.3131   -77.51    16.037    100.9   -27.379   -47.461   -13.56   -131.14   
660026700  -9.2736   -79.687    16.053    98.31   -27.393   -49.124   -13.368   -132.23   
675026625  -9.2017   -82.163    16.06    95.651   -27.428   -50.42   -13.159   -133.68   
690026550  -9.1329   -84.836    16.051    92.925   -27.385   -52.261   -12.938   -135.79   
705026475  -9.1196   -87.536    16.027    90.279   -27.355   -53.641   -12.776   -138.26   
720026400  -9.0972   -90.251    15.987    87.682   -27.291   -56.242   -12.646   -141.05   
735026325  -9.093   -93.002    15.963    85.195   -27.321   -58.236   -12.615   -143.6   
750026250  -9.0897   -95.478    15.945    82.697   -27.319   -59.667   -12.53   -145.92   
765026175  -9.0766   -98.225    15.9    80.211   -27.276   -60.919   -12.484   -148.61   
780026100  -9.071   -100.75    15.858    77.866   -27.308   -63.04   -12.457   -151.02   
795026025  -9.0606   -103.37    15.829    75.591   -27.271   -64.622   -12.472   -153.35   
810025950  -9.0798   -106.03    15.809    73.277   -27.262   -66.754   -12.486   -155.57   
825025875  -9.0809   -108.68    15.789    71.058   -27.218   -68.537   -12.499   -157.53   
840025800  -9.1066   -111.22    15.784    68.752   -27.226   -69.688   -12.518   -159.44   
855025725  -9.0996   -113.8    15.768    66.438   -27.278   -71.624   -12.495   -161.4   
870025650  -9.1296   -116.34    15.751    64.211   -27.19   -73.224   -12.513   -163.48   
885025575  -9.1551   -118.93    15.744    61.92   -27.171   -74.59   -12.526   -165.2   
900025500  -9.1803   -121.35    15.745    59.664   -27.19   -76.288   -12.526   -167.22   
915025425  -9.2183   -124.02    15.742    57.369   -27.049   -78.172   -12.514   -169.15   
930025350  -9.2429   -126.31    15.741    55.106   -27.118   -79.63   -12.494   -170.73   
945025275  -9.2868   -128.74    15.732    52.811   -27.066   -81.962   -12.488   -172.55   
960025200  -9.304   -131.17    15.729    50.44   -27.098   -83.05   -12.463   -174.61   
975025125  -9.3507   -133.61    15.72    48.143   -27.019   -84.898   -12.457   -176.43   
990025050  -9.4142   -135.98    15.719    45.865   -27.004   -86.76   -12.441   -178.18   
1005024975  -9.4267   -138.35    15.718    43.543   -26.944   -88.349   -12.419   -179.95   
1020024900  -9.485   -140.65    15.718    41.273   -26.917   -90.114   -12.396    178.19   
1035024825  -9.533   -143.03    15.714    38.882   -26.842   -91.758   -12.353    176.25   
1050024750  -9.573   -145.31    15.704    36.569   -26.79   -93.327   -12.326    174.34   
1065024675  -9.6333   -147.64    15.698    34.216   -26.781   -95.025   -12.31    172.33   
1080024600  -9.6725   -149.95    15.699    31.917   -26.831   -97.115   -12.312    170.55   
1095024525  -9.7211   -152.24    15.693    29.55   -26.728   -98.56   -12.274    168.56   
1110024450  -9.7725   -154.55    15.685    27.252   -26.686   -100.2   -12.239    166.6   
1125024375  -9.8416   -156.66    15.679    24.912   -26.706   -101.74   -12.226    164.54   
1140024300  -9.888   -158.93    15.67    22.532   -26.626   -103.81   -12.181    162.55   
1155024225  -9.9482   -161.13    15.659    20.226   -26.656   -105.83   -12.173    160.53   
1170024150  -10.015   -163.41    15.656    17.875   -26.568   -107.28   -12.143    158.6   
1185024075  -10.086   -165.58    15.647    15.491   -26.518   -109.43   -12.133    156.57   
1200024000  -10.151   -167.89    15.628    13.137   -26.504   -110.77   -12.114    154.52   
1215023925  -10.226   -170.01    15.623    10.808   -26.545   -112.59   -12.11    152.25   
1230023850  -10.289   -172.1    15.612    8.443   -26.475   -114.38   -12.087    150.15   
1245023775  -10.368   -174.28    15.597    6.0864   -26.392   -116.3   -12.066    147.84   
1260023700  -10.424   -176.41    15.584    3.7065   -26.422   -117.75   -12.066    145.74   
1275023625  -10.512   -178.54    15.568    1.3815   -26.321   -119.46   -12.046    143.58   
1290023550  -10.59    179.3    15.556   -.9805   -26.345   -121.51   -12.06    141.39   
1305023475  -10.67    177.32    15.54   -3.3577   -26.323   -123.2   -12.042    139.22   
1320023400  -10.756    175.16    15.522   -5.6964   -26.251   -124.87   -12.049    136.95   
1335023325  -10.829    173.09    15.505   -8.0763   -26.241   -126.66   -12.062    134.66   
1350023250  -10.909    170.9    15.488   -10.497   -26.227   -128.63   -12.062    132.2   
1365023175  -11    168.91    15.473   -12.827   -26.246   -130.51   -12.065    129.92   
1380023100  -11.108    166.74    15.46   -15.246   -26.201   -132.57   -12.073    127.4   
1395023025  -11.198    164.72    15.431   -17.549   -26.147   -134.09   -12.078    125.23   
1410022950  -11.305    162.74    15.412   -19.95   -26.125   -135.72   -12.089    122.64   
1425022875  -11.386    160.59    15.385   -22.324   -26.129   -137.84   -12.127    120.14   
1440022800  -11.503    158.43    15.364   -24.697   -26.136   -139.4   -12.151    117.66   
1455022725  -11.627    156.49    15.34   -27.069   -26.11   -141.65   -12.16    115.33   
1470022650  -11.716    154.52    15.317   -29.447   -26.113   -143.3   -12.216    112.63   
1485022575  -11.826    152.4    15.288   -31.869   -26.027   -145.07   -12.23    110.11   
1500022500  -11.935    150.41    15.261   -34.205   -26.047   -147.06   -12.255    107.39   
1515022425  -12.052    148.47    15.235   -36.59   -25.982   -148.7   -12.3    104.8   
1530022350  -12.187    146.47    15.204   -38.986   -25.957   -150.81   -12.337    102.22   
1545022275  -12.293    144.48    15.175   -41.38   -25.984   -152.9   -12.38    99.484   
1560022200  -12.439    142.41    15.15   -43.778   -25.896   -154.46   -12.419    96.743   
1575022125  -12.552    140.48    15.114   -46.16   -25.9   -156.35   -12.467    93.777   
1590022050  -12.693    138.54    15.082   -48.546   -25.909   -158.15   -12.5    91.07   
1605021975  -12.829    136.38    15.049   -50.929   -25.888   -160.17   -12.588    88.19   
1620021900  -12.978    134.5    15.02   -53.34   -25.871   -162.2   -12.62    85.303   
1635021825  -13.117    132.48    14.984   -55.742   -25.849   -164.05   -12.674    82.252   
1650021750  -13.269    130.51    14.943   -58.108   -25.897   -165.89   -12.718    79.126   
1665021675  -13.415    128.35    14.912   -60.524   -25.859   -167.75   -12.796    76.13   
1680021600  -13.577    126.5    14.874   -62.831   -25.789   -169.5   -12.83    73.062   
1695021525  -13.753    124.65    14.831   -65.271   -25.834   -171.81   -12.894    69.95   
1710021450  -13.93    122.71    14.792   -67.662   -25.837   -173.33   -12.971    66.849   
1725021375  -14.079    120.7    14.757   -70.008   -25.842   -175.07   -13.016    63.653   
1740021300  -14.25    118.87    14.71   -72.422   -25.841   -177.43   -13.062    60.289   
1755021225  -14.458    116.81    14.675   -74.876   -25.756   -179.51   -13.15    57.052   
1770021150  -14.614    114.87    14.626   -77.249   -25.741    179.06   -13.196    53.8   
1785021075  -14.83    112.84    14.577   -79.595   -25.789    176.61   -13.294    50.206   
1800021000  -15.013    111.17    14.526   -81.944   -25.799    175.02   -13.316    46.391   
1815020925  -15.235    109    14.48   -84.412   -25.797    172.83   -13.365    42.99   
1830020850  -15.426    107.19    14.436   -86.769   -25.764    171.01   -13.414    39.451   
1845020775  -15.656    105.36    14.377   -89.187   -25.746    168.88   -13.473    35.939   
1860020700  -15.878    103.28    14.332   -91.579   -25.753    167.05   -13.492    32.109   
1875020625  -16.092    101.3    14.277   -93.933   -25.787    165.11   -13.548    28.402   
1890020550  -16.336    99.536    14.226   -96.332   -25.776    163.31   -13.581    24.541   
1905020475  -16.56    97.579    14.173   -98.692   -25.74    161.19   -13.625    20.577   
1920020400  -16.835    95.602    14.118   -101.15   -25.787    159.27   -13.616    16.876   
1935020325  -17.122    93.834    14.059   -103.48   -25.751    157.35   -13.609    12.849   
1950020250  -17.351    91.685    13.995   -105.87   -25.778    155.05   -13.637    8.7946   
1965020175  -17.619    89.804    13.941   -108.21   -25.734    153.15   -13.623    5.0345   
1980020100  -17.89    87.707    13.888   -110.68   -25.882    151.51   -13.629    .9558   
1995020025  -18.224    86.107    13.819   -113.06   -25.866    149.58   -13.599   -2.9361   
2010019950  -18.523    84.453    13.757   -115.39   -25.778    148.03   -13.558   -7.0079   
2025019875  -18.813    82.152    13.692   -117.78   -25.847    145.45   -13.531   -11.173   
2040019800  -19.132    80.222    13.627   -120.13   -25.897    143.77   -13.437   -15.154   
2055019725  -19.489    78.162    13.563   -122.46   -25.86    141.5   -13.38   -19.491   
2070019650  -19.904    75.84    13.5   -124.84   -25.886    139.4   -13.295   -23.272   
2085019575  -20.227    73.725    13.429   -127.2   -25.92    137.76   -13.235   -27.473   
2100019500  -20.604    71.893    13.362   -129.55   -25.968    135.88   -13.126   -31.115   
2115019425  -20.996    69.972    13.281   -131.97   -25.906    134.25   -13.03   -35.195   
2130019350  -21.413    67.931    13.207   -134.28   -25.868    131.95   -12.889   -39.007   
2145019275  -21.911    65.205    13.141   -136.64   -25.994    129.76   -12.784   -42.93   
2160019200  -22.387    62.964    13.062   -139   -26.034    128.48   -12.645   -46.762   
2175019125  -22.823    61.668    12.987   -141.36   -26.089    125.72   -12.513   -50.684   
2190019050  -23.518    59.803    12.902   -143.71   -26.036    124.01   -12.405   -54.343   
2205018975  -23.965    57.395    12.826   -146.03   -26.024    121.77   -12.246   -57.921   
2220018900  -24.422    54.967    12.748   -148.34   -26.104    120.18   -12.096   -61.387   
2235018825  -25.01    51.818    12.676   -150.62   -26.133    117.66   -11.96   -65.045   
2250018750  -25.684    49.925    12.59   -152.95   -26.134    116.34   -11.785   -68.769   
2265018675  -26.548    46.859    12.501   -155.27   -26.159    113.75   -11.633   -72.364   
2280018600  -27.288    44.1    12.421   -157.64   -26.25    112.74   -11.466   -75.549   
2295018525  -28.046    40.847    12.326   -159.89   -26.317    110.64   -11.335   -79   
2310018450  -28.9    38.539    12.247   -162.17   -26.27    108.6   -11.14   -82.282   
2325018375  -29.908    32.558    12.161   -164.5   -26.26    106.43   -10.972   -85.515   
2340018300  -30.801    27.69    12.079   -166.77   -26.395    104.18   -10.841   -88.842   
2355018225  -32.024    23.336    11.991   -169.13   -26.345    102.65   -10.676   -91.927   
2370018150  -33.345    15.344    11.897   -171.39   -26.513    101.04   -10.502   -94.903   
2385018075  -34.776    9.4263    11.799   -173.67   -26.479    98.902   -10.349   -97.939   
2400018000  -36.084   -.6275    11.702   -175.95   -26.512    96.663   -10.191   -100.99   
2415017925  -36.987   -15.15    11.619   -178.16   -26.663    94.672   -10.007   -103.95   
2430017850  -38.378   -29.358    11.517    179.59   -26.673    93.389   -9.853   -106.94   
2445017775  -38.436   -50.412    11.433    177.3   -26.687    90.725   -9.6889   -109.82   
2460017700  -37.792   -71.227    11.329    175.09   -26.775    88.896   -9.5604   -112.51   
2475017625  -36.695   -82.242    11.222    172.87   -26.785    86.973   -9.3936   -115.53   
2490017550  -35.893   -94.978    11.133    170.6   -26.84    85.746   -9.2311   -118.11   
2505017475  -34.132   -105.04    11.024    168.38   -26.903    83.291   -9.0908   -120.74   
2520017400  -33.215   -111.31    10.923    166.25   -26.895    81.612   -8.9492   -123.53   
2535017325  -32.111   -117.68    10.829    164   -26.957    79.474   -8.8057   -126.12   
2550017250  -31.138   -123.05    10.719    161.82   -27.049    77.868   -8.6437   -128.78   
2565017175  -30.074   -126.82    10.617    159.62   -26.973    75.775   -8.5128   -131.3   
2580017100  -29.461   -130.47    10.513    157.46   -27.209    73.839   -8.3717   -133.78   
2595017025  -28.685   -133.3    10.408    155.29   -27.127    72.139   -8.2394   -136.1   
2610016950  -27.981   -135.88    10.298    153.12   -27.178    70.085   -8.0951   -138.74   
2625016875  -27.389   -139.63    10.195    151.01   -27.165    68.827   -7.9667   -141.06   
2640016800  -26.717   -141.17    10.09    148.85   -27.362    66.844   -7.829   -143.4   
2655016725  -26.232   -143.17    9.9973    146.75   -27.353    65.031   -7.7082   -145.67   
2670016650  -25.785   -145.83    9.893    144.53   -27.474    62.982   -7.5869   -148.11   
2685016575  -25.339   -147.72    9.7797    142.36   -27.48    61.302   -7.4668   -150.42   
2700016500  -24.942   -149.62    9.6721    140.3   -27.575    59.242   -7.3497   -152.66   
2715016425  -24.501   -151.17    9.569    138.21   -27.62    57.177   -7.2306   -155   
2730016350  -24.179   -153.38    9.4559    136.11   -27.614    55.749   -7.1237   -157.08   
2745016275  -23.809   -154.89    9.3448    134   -27.697    53.484   -7.0039   -159.34   
2760016200  -23.442   -156.55    9.2492    131.92   -27.739    51.173   -6.8913   -161.59   
2775016125  -23.149   -158.25    9.1399    129.82   -27.811    50.926   -6.784   -163.63   
2790016050  -22.853   -159.17    9.0305    127.78   -27.904    48.752   -6.6795   -165.8   
2805015975  -22.584   -160.73    8.9231    125.72   -27.838    46.349   -6.5937   -167.79   
2820015900  -22.337   -161.89    8.8101    123.63   -28.068    44.832   -6.5022   -169.98   
2835015825  -22.087   -163.51    8.7109    121.58   -27.982    43.065   -6.3993   -172.01   
2850015750  -21.841   -164.5    8.6004    119.54   -28.072    40.746   -6.2895   -174.05   
2865015675  -21.615   -166.34    8.4842    117.51   -28.103    40.119   -6.211   -176.12   
2880015600  -21.431   -167.01    8.373    115.43   -28.242    38.025   -6.1183   -178.12   
2895015525  -21.177   -168.2    8.2584    113.45   -28.263    36.469   -6.0283    179.94   
2910015450  -20.941   -169.43    8.1555    111.42   -28.301    35.338   -5.9564    177.85   
2925015375  -20.767   -170.53    8.0448    109.4   -28.281    32.454   -5.8679    175.99   
2940015300  -20.542   -171.44    7.9299    107.36   -28.478    30.84   -5.7979    174.01   
2955015225  -20.342   -172.67    7.83    105.37   -28.441    28.757   -5.7148    172.04   
2970015150  -20.14   -173.54    7.7105    103.34   -28.617    26.573   -5.6411    170.18   
2985015075  -20.022   -174.52    7.5945    101.35   -28.58    25.641   -5.5636    168.23   
3000015000  -19.783   -175.58    7.4937    99.41   -28.759    23.917   -5.4952    166.42   
3015014925  -19.657   -176.48    7.3749    97.425   -28.735    22.184   -5.3992    164.43   
3030014850  -19.537   -177.71    7.2682    95.488   -28.872    20.097   -5.3435    162.6   
3045014775  -19.352   -178.5    7.1442    93.496   -28.712    18.317   -5.2772    160.82   
3060014700  -19.187   -179.14    7.053    91.568   -28.777    16.918   -5.2114    159.12   
3075014625  -19.042    179.63    6.932    89.577   -28.791    14.918   -5.1349    157.15   
3090014550  -18.925    178.48    6.8175    87.63   -28.977    13.891   -5.0769    155.44   
3105014475  -18.776    177.67    6.7016    85.725   -29.097    11.209   -5.0147    153.54   
3120014400  -18.585    176.75    6.5975    83.745   -29.131    10.197   -4.9599    151.75   
3135014325  -18.487    175.94    6.4829    81.841   -29.332    8.226   -4.9006    150.06   
3150014250  -18.301    174.98    6.388    79.994   -29.292    6.5121   -4.8383    148.33   
3165014175  -18.212    174.08    6.2602    78.028   -29.255    4.4385   -4.7833    146.69   
3180014100  -18.061    173.51    6.142    76.17   -29.28    3.2492   -4.7355    144.86   
3195014025  -17.962    172.62    6.031    74.237   -29.345    1.5724   -4.6623    143.13   
3210013950  -17.793    172.08    5.9362    72.364   -29.446    .1689   -4.6296    141.46   
3225013875  -17.65    171.13    5.8197    70.466   -29.432   -1.4268   -4.5873    139.73   
3240013800  -17.605    170.12    5.711    68.568   -29.657   -4.1789   -4.5317    138   
3255013725  -17.367    169.15    5.5955    66.654   -29.57   -5.8612   -4.4765    136.35   
3270013650  -17.305    168.56    5.4739    64.762   -29.843   -8.0804   -4.4351    134.72   
3285013575  -17.163    168.02    5.3613    62.991   -29.815   -8.5707   -4.3772    133.08   
3300013500  -17.072    167.2    5.2531    61.103   -29.818   -11.056   -4.3446    131.44   
3315013425  -16.946    166.08    5.1448    59.279   -29.974   -12.023   -4.315    129.79   
3330013350  -16.797    165.29    5.0552    57.409   -29.904   -14.757   -4.2674    128.11   
3345013275  -16.679    164.62    4.9334    55.565   -29.812   -15.531   -4.2284    126.5   
3360013200  -16.605    163.94    4.806    53.7   -30.071   -16.705   -4.1772    124.86   
3375013125  -16.446    162.99    4.7083    51.761   -30.085   -18.94   -4.14    123.31   
3390013050  -16.369    162.41    4.596    49.992   -30.268   -20.516   -4.1097    121.77   
3405012975  -16.227    161.58    4.4866    48.259   -30.343   -21.87   -4.0728    120.13   
3420012900  -16.054    160.66    4.3821    46.338   -30.279   -23.751   -4.0347    118.5   
3435012825  -16.01    159.95    4.267    44.533   -30.453   -24.962   -4.0049    116.96   
3450012750  -15.852    159.13    4.1624    42.711   -30.414   -25.804   -3.9713    115.28   
3465012675  -15.741    158.59    4.0476    40.978   -30.499   -28.409   -3.9352    113.77   
3480012600  -15.652    157.74    3.9421    39.133   -30.556   -29.248   -3.9215    112.24   
3495012525  -15.481    157.23    3.8344    37.315   -30.413   -31.143   -3.8829    110.68   
3510012450  -15.407    156.15    3.7154    35.519   -30.532   -32.531   -3.8499    109.18   
3525012375  -15.286    155.43    3.6248    33.725   -30.814   -34.63   -3.8236    107.63   
3540012300  -15.198    154.52    3.5094    32.01   -30.758   -36.123   -3.7997    106.02   
3555012225  -15.088    153.82    3.3913    30.189   -30.744   -37.371   -3.7699    104.5   
3570012150  -14.968    152.93    3.2998    28.327   -30.735   -38.79   -3.7277    102.91   
3585012075  -14.835    152.51    3.2031    26.687   -30.955   -40.507   -3.7008    101.53   
3600012000  -14.699    151.49    3.0941    24.803   -31.069   -43.326   -3.6945    100.03   
3615011925  -14.656    150.66    2.9697    23.058   -31.013   -44.517   -3.6635    98.498   
3630011850  -14.526    149.81    2.8645    21.309   -31.031   -46.509   -3.6424    96.993   
3645011775  -14.427    149.49    2.7497    19.682   -31.121   -47.946   -3.6184    95.455   
3660011700  -14.281    148.47    2.6641    17.809   -31.28   -48.919   -3.5917    93.985   
3675011625  -14.179    147.93    2.5595    16.098   -31.086   -50.705   -3.5619    92.45   
3690011550  -14.073    146.61    2.4494    14.358   -31.409   -52.929   -3.5435    90.926   
3705011475  -14.002    145.88    2.3344    12.681   -31.338   -54.45   -3.5209    89.489   
3720011400  -13.858    145.29    2.2446    10.896   -31.362   -55.459   -3.4948    88.058   
3735011325  -13.762    144.47    2.1394    9.2079   -31.686   -55.992   -3.47    86.535   
3750011250  -13.636    143.77    2.0267    7.4954   -31.617   -58.811   -3.4644    85.071   
3765011175  -13.574    142.88    1.9164    5.7198   -31.548   -59.951   -3.4537    83.643   
3780011100  -13.471    142.17    1.8293    4.0718   -31.785   -61.125   -3.4214    82.141   
3795011025  -13.362    141.3    1.7244    2.2343   -31.842   -63.7   -3.4104    80.658   
3810010950  -13.241    140.48    1.6163    .5754   -31.696   -64.116   -3.3942    79.255   
3825010875  -13.149    139.62    1.506   -1.1646   -31.827   -65.939   -3.3788    77.756   
3840010800  -13.06    138.69    1.3827   -2.8825   -31.724   -67.567   -3.342    76.325   
3855010725  -12.944    137.84    1.2983   -4.5374   -32.035   -69.451   -3.3382    74.843   
3870010650  -12.83    136.92    1.1983   -6.1345   -31.948   -71.642   -3.3369    73.369   
3885010575  -12.737    136.08    1.0971   -7.9335   -31.963   -71.859   -3.3062    71.963   
3900010500  -12.647    135.12    1.002   -9.657   -31.828   -73.615   -3.286    70.462   
3915010425  -12.562    134.23    .9002   -11.396   -31.896   -74.8   -3.2719    68.939   
3930010350  -12.45    133.39    .7954   -13.101   -32.115   -78.043   -3.2701    67.527   
3945010275  -12.359    132.56    .6867   -14.694   -32.205   -79.102   -3.2621    66.061   
3960010200  -12.231    131.5    .5870   -16.452   -32.166   -80.52   -3.2519    64.622   
3975010125  -12.145    130.77    .5018   -17.937   -32.363   -82.297   -3.2331    63.147   
3990010050  -12.06    129.73    .4072   -19.696   -32.55   -83.892   -3.2286    61.751   
4005009975  -11.963    128.84    .3027   -21.495   -32.556   -84.247   -3.2036    60.267   
4020009900  -11.872    128.06    .2122   -23.161   -32.424   -87.433   -3.2161    58.726   
4035009825  -11.781    127.13    .1099   -24.866   -32.248   -87.821   -3.1995    57.45   
4050009750  -11.702    126.19    .0179   -26.347   -32.654   -89.723   -3.1859    55.872   
4065009675  -11.629    125.26   -.0942   -27.979   -32.594   -89.973   -3.1782    54.587   
4080009600  -11.532    124.44   -.1832   -29.693   -32.787   -92.944   -3.1623    53.017   
4095009525  -11.447    123.48   -.2719   -31.318   -32.578   -93.687   -3.1604    51.634   
4110009450  -11.352    122.49   -.3851   -33.089   -32.665   -96.395   -3.139    50.225   
4125009375  -11.282    121.79   -.4739   -34.588   -32.946   -96.567   -3.1466    48.609   
4140009300  -11.21    120.44   -.5874   -36.186   -32.924   -96.66   -3.1401    47.219   
4155009225  -11.129    119.61   -.6789   -37.8   -32.781   -100.09   -3.1254    45.762   
4170009150  -11.042    118.59   -.7740   -39.474   -33.049   -100.23   -3.1276    44.254   
4185009075  -10.935    117.71   -.8531   -41.17   -32.801   -103.44   -3.1164    42.827   
4200009000  -10.859    116.76   -.9523   -42.803   -32.977   -105.24   -3.1042    41.353   
4215008925  -10.805    115.96   -1.048   -44.444   -33.024   -106.94   -3.1021    39.875   
4230008850  -10.742    114.95   -1.1342   -46.078   -33.049   -107.7   -3.0968    38.503   
4245008775  -10.652    113.79   -1.2304   -47.608   -33.332   -107.92   -3.1057    37.002   
4260008700  -10.554    112.87   -1.3358   -49.303   -33.25   -111.93   -3.0955    35.549   
4275008625  -10.486    111.96   -1.4152   -50.905   -33.425   -113.48   -3.0914    34.073   
4290008550  -10.455    111.03   -1.5085   -52.537   -33.337   -113.77   -3.0922    32.562   
4305008475  -10.351    110.13   -1.5906   -54.165   -33.191   -115.66   -3.0821    31.036   
4320008400  -10.292    109.16   -1.6636   -55.889   -33.541   -115.77   -3.0812    29.689   
4335008325  -10.225    107.98   -1.7571   -57.452   -33.244   -117.26   -3.076    28.327   
4350008250  -10.172    107.07   -1.8613   -59.05   -33.287   -118.99   -3.0701    26.77   
4365008175  -10.098    106.22   -1.957   -60.761   -33.531   -122.04   -3.0594    25.351   
4380008100  -10.014    105.14   -2.0223   -62.336   -33.699   -122.54   -3.0627    23.883   
4395008025  -9.9563    104.05   -2.1279   -63.836   -33.698   -123.85   -3.0523    22.4   
4410007950  -9.888    103.24   -2.2023   -65.507   -33.479   -124.85   -3.0652    20.798   
4425007875  -9.8227    102.29   -2.2946   -67.12   -33.76   -126.47   -3.0527    19.352   
4440007800  -9.7657    101.22   -2.3689   -68.818   -33.625   -127.73   -3.0551    17.897   
4455007725  -9.7098    100.2   -2.4685   -70.394   -33.659   -129.53   -3.0488    16.5   
4470007650  -9.6465    99.29   -2.5376   -72.037   -33.68   -131.29   -3.052    14.951   
4485007575  -9.5917    98.34   -2.6243   -73.728   -33.792   -132.05   -3.05    13.462   
4500007500  -9.5366    97.44   -2.6904   -75.282   -33.798   -133.4   -3.055    12.011   
4515007425  -9.4704    96.398   -2.8133   -76.889   -33.735   -137.48   -3.049    10.366   
4530007350  -9.4099    95.423   -2.8813   -78.474   -33.649   -136.78   -3.061    8.8756   
4545007275  -9.3425    94.5   -2.9731   -80.078   -33.966   -139.41   -3.0526    7.457   
4560007200  -9.2925    93.468   -3.0589   -81.806   -33.931   -140.55   -3.0563    5.8516   
4575007125  -9.2271    92.472   -3.127   -83.448   -33.963   -140.97   -3.0512    4.3588   
4590007050  -9.1948    91.457   -3.2043   -85.044   -33.977   -142.64   -3.0657    2.9828   
4605006975  -9.1443    90.514   -3.2999   -86.67   -33.979   -142.8   -3.0595    1.4722   
4620006900  -9.0896    89.562   -3.3857   -88.161   -34.059   -147.09   -3.0465   -.0851   
4635006825  -9.0308    88.61   -3.4598   -89.808   -34.008   -146.52   -3.0725   -1.6081   
4650006750  -8.9786    87.713   -3.5307   -91.46   -33.963   -149.76   -3.0673   -3.1531   
4665006675  -8.9373    86.745   -3.6169   -92.998   -34.225   -149.18   -3.0649   -4.5731   
4680006600  -8.8686    85.656   -3.7118   -94.723   -34.511   -152.45   -3.0727   -6.1592   
4695006525  -8.8367    84.619   -3.7842   -96.305   -34.12   -152.55   -3.0862   -7.6987   
4710006450  -8.7617    83.558   -3.8673   -98.026   -34.447   -153.59   -3.0823   -9.2862   
4725006375  -8.7607    82.663   -3.953   -99.603   -34.242   -154.91   -3.0707   -10.871   
4740006300  -8.6783    81.667   -4.0432   -101.13   -34.49   -157.79   -3.0792   -12.366   
4755006225  -8.6474    80.7   -4.1098   -102.79   -34.252   -161.05   -3.103   -13.984   
4770006150  -8.5927    79.743   -4.2057   -104.39   -34.338   -161.25   -3.0915   -15.482   
4785006075  -8.5363    78.643   -4.2836   -106.08   -34.111   -163   -3.0897   -17.055   
4800006000  -8.4954    77.552   -4.3557   -107.71   -34.331   -165.14   -3.1159   -18.55   
4815005925  -8.4627    76.748   -4.4326   -109.27   -34.557   -164.51   -3.1037   -20.27   
4830005850  -8.4204    75.814   -4.5088   -110.98   -34.669   -167.09   -3.1202   -21.765   
4845005775  -8.3498    74.697   -4.5939   -112.66   -34.594   -166.41   -3.1256   -23.287   
4860005700  -8.3257    73.585   -4.6819   -114.26   -34.494   -168.59   -3.1097   -24.98   
4875005625  -8.2697    72.742   -4.7407   -115.76   -34.483   -171.93   -3.134   -26.481   
4890005550  -8.2303    71.76   -4.8192   -117.57   -34.651   -173.5   -3.1347   -28.32   
4905005475  -8.177    70.569   -4.8901   -119.23   -34.662   -172.14   -3.1321   -29.621   
4920005400  -8.136    69.6   -4.9776   -120.75   -34.51   -174.25   -3.1353   -31.322   
4935005325  -8.0979    68.579   -5.0893   -122.37   -34.912   -175.56   -3.1609   -32.996   
4950005250  -8.0437    67.573   -5.1858   -124.05   -34.72   -176.03   -3.1558   -34.518   
4965005175  -8.0339    66.47   -5.2572   -125.69   -34.873    179.74   -3.1521   -36.015   
4980005100  -7.9722    65.315   -5.3234   -127.34   -34.766    179.45   -3.1512   -37.807   
4995005025  -7.9523    64.449   -5.4099   -128.99   -34.677    176.74   -3.169   -39.501   
5010004950  -7.8943    63.206   -5.4733   -130.54   -34.845    176.05   -3.1817   -41.093   
5025004875  -7.8563    62.144   -5.5795   -132.31   -34.743    174.52   -3.1661   -42.617   
5040004800  -7.8183    61.057   -5.6495   -134.07   -34.82    174.62   -3.1922   -44.271   
5055004725  -7.7929    60.13   -5.76   -135.57   -35.057    172.25   -3.1899   -45.968   
5070004650  -7.7517    58.594   -5.8371   -137.13   -35.241    169.99   -3.1958   -47.62   
5085004575  -7.749    57.519   -5.9266   -138.74   -35.069    168.87   -3.1905   -49.175   
5100004500  -7.7268    56.227   -6.0149   -140.34   -35.073    168.91   -3.2059   -50.912   
5115004425  -7.7203    54.966   -6.1036   -141.94   -34.968    169.61   -3.2218   -52.666   
5130004350  -7.7274    53.718   -6.2228   -143.58   -35.051    168.39   -3.216   -54.227   
5145004275  -7.7849    52.493   -6.3149   -144.82   -34.998    165.22   -3.2322   -55.934   
5160004200  -7.8517    51.299   -6.4067   -146.29   -35.375    162.66   -3.2251   -57.583   
5175004125  -7.9046    50.582   -6.4752   -147.64   -34.963    162.05   -3.2586   -59.321   
5190004050  -7.9452    49.997   -6.5159   -148.99   -34.859    162.98   -3.2405   -60.894   
5205003975  -7.969    49.647   -6.5437   -150.62   -34.844    161.97   -3.2497   -62.519   
5220003900  -7.9143    49.054   -6.599   -152.17   -35.026    158.11   -3.2398   -64.289   
5235003825  -7.8723    48.657   -6.6523   -153.86   -34.819    156.31   -3.2597   -65.976   
5250003750  -7.8238    47.825   -6.7004   -155.64   -34.522    157.57   -3.2785   -67.475   
5265003675  -7.7794    46.892   -6.7765   -157.45   -34.686    153.87   -3.2871   -69.23   
5280003600  -7.7213    45.884   -6.8346   -159.09   -34.454    151.78   -3.3015   -70.929   
5295003525  -7.651    45.104   -6.9204   -160.71   -34.066    149.84   -3.2979   -72.659   
5310003450  -7.6341    44.07   -6.9563   -162.27   -34.295    148.68   -3.2899   -74.417   
5325003375  -7.5931    43.198   -7.0402   -164.07   -34.187    146.21   -3.3028   -76.045   
5340003300  -7.5744    42.134   -7.1168   -165.88   -34.273    143.45   -3.3207   -77.702   
5355003225  -7.5187    41.153   -7.204   -167.64   -33.865    141.84   -3.3189   -79.299   
5370003150  -7.4783    40.025   -7.2867   -169.14   -33.954    138.06   -3.3123   -81.111   
5385003075  -7.4698    39.177   -7.3765   -170.86   -33.895    137.37   -3.3053   -82.881   
5400003000  -7.4376    37.996   -7.4582   -172.61   -34.571    135.62   -3.313   -84.526   
5415002925  -7.3937    37.186   -7.5328   -174.23   -34.204    132.01   -3.3159   -86.266   
5430002850  -7.3835    36.167   -7.5956   -175.79   -34.391    132.1   -3.3228   -87.929   
5445002775  -7.3556    35.092   -7.686   -177.54   -34.265    128.24   -3.3051   -89.765   
5460002700  -7.3258    34.128   -7.7642   -179.23   -34.217    128.77   -3.3271   -91.496   
5475002625  -7.3116    32.999   -7.8486    179.01   -34.784    124.66   -3.3208   -93.251   
5490002550  -7.2833    31.936   -7.9199    177.34   -34.349    123.03   -3.3146   -94.93   
5505002475  -7.2605    30.887   -8.0169    175.92   -34.461    121.55   -3.3184   -96.66   
5520002400  -7.2509    29.976   -8.0962    174.2   -34.782    120.58   -3.3075   -98.521   
5535002325  -7.2174    28.876   -8.1817    172.58   -34.6    119.31   -3.315   -100.19   
5550002250  -7.2172    27.996   -8.2602    170.9   -34.993    118.3   -3.3304   -102.02   
5565002175  -7.1877    26.846   -8.3203    169.18   -35.014    117.12   -3.3163   -103.75   
5580002100  -7.1712    25.878   -8.3971    167.47   -34.763    113.96   -3.3288   -105.4   
5595002025  -7.1454    24.756   -8.4976    165.87   -34.872    112.65   -3.3121   -107.31   
5610001950  -7.1484    23.752   -8.5969    164.19   -34.968    110.65   -3.3088   -109.06   
5625001875  -7.1144    22.654   -8.6905    162.66   -34.769    107.55   -3.3095   -110.89   
5640001800  -7.1042    21.629   -8.7463    161.07   -34.95    104.24   -3.3059   -112.66   
5655001725  -7.0834    20.601   -8.8275    159.29   -35.149    103.46   -3.3264   -114.5   
5670001650  -7.0805    19.583   -8.9255    157.7   -34.882    100.59   -3.3004   -116.15   
5685001575  -7.0643    18.566   -8.9869    155.94   -35.403    101.01   -3.3078   -117.88   
5700001500  -7.0529    17.419   -9.0891    154.42   -35.344    100.67   -3.2929   -119.62   
5715001425  -7.0477    16.449   -9.1976    152.72   -35.454    97.424   -3.2946   -121.33   
5730001350  -7.028    15.385   -9.2733    151.17   -35.501    96.379   -3.2987   -123.13   
5745001275  -7.0039    14.285   -9.3246    149.53   -35.28    94.278   -3.2851   -124.92   
5760001200  -7.0123    13.27   -9.3942    147.96   -35.355    91.898   -3.2902   -126.64   
5775001125  -6.997    12.263   -9.4944    146.17   -35.517    90.769   -3.2843   -128.45   
5790001050  -6.9862    11.142   -9.5827    144.52   -35.38    87.106   -3.2706   -130.17   
5805000975  -6.9994    10.103   -9.6717    142.72   -35.746    85.629   -3.2818   -131.93   
5820000900  -6.9713    9.039   -9.7602    141.37   -35.968    87.623   -3.274   -133.68   
5835000825  -6.9626    7.9047   -9.8216    139.65   -35.771    82.634   -3.2616   -135.58   
5850000750  -6.9507    6.8253   -9.9487    138.19   -35.776    81.834   -3.2694   -137.23   
5865000675  -6.9674    5.9244   -10.017    136.44   -35.818    81.508   -3.2522   -139.01   
5880000600  -6.9361    4.6252   -10.106    134.78   -35.546    80.942   -3.2539   -140.8   
5895000525  -6.9428    3.6708   -10.178    133.21   -35.93    79.765   -3.2564   -142.52   
5910000450  -6.9396    2.5076   -10.28    131.53   -35.906    76.553   -3.234   -144.38   
5925000375  -6.9291    1.6301   -10.39    129.98   -36.242    73.324   -3.2325   -145.93   
5940000300  -6.9194    .4367   -10.439    128.31   -36.381    73.663   -3.215   -147.69   
5955000225  -6.9141   -.6248   -10.554    126.81   -36.23    69.64   -3.2156   -149.6   
5970000150  -6.9161   -1.7111   -10.631    125.24   -36.55    71.614   -3.2129   -151.21   
5985000075  -6.9148   -2.8139   -10.692    123.46   -36.458    67.169   -3.2126   -152.91   
6000000000  -6.9256   -3.9111   -10.796    121.73   -36.295    67.711   -3.1964   -154.81   

