!BGA751L7 Device Level S-Parameters 18.11.2008
!
!
# MHZ S MA R 50
!
!                           S11                    S21          	   S12                   S22
!       f	     mag         angle       mag        angle        mag        angle       mag         angle
  202.1678750	 0.866434528	-24.8	 0.041566073	 71.3	 0.041375700	 70.9	 0.822112801	-66.7	
  207.4801875	 0.863664076	-25.4	 0.042613242	 70.3	 0.041866290	 69.4	 0.820679521	-68.0	
  212.7925000	 0.862087456	-25.9	 0.042872207	 68.9	 0.042466417	 68.4	 0.818664137	-69.3	
  218.1048125	 0.858963528	-26.4	 0.043517617	 67.8	 0.042971722	 67.4	 0.816406891	-70.6	
  223.4171250	 0.856896945	-26.9	 0.043643017	 66.9	 0.043472575	 66.4	 0.814879415	-71.8	
  228.7294375	 0.854548371	-27.4	 0.044141553	 66.2	 0.043992191	 65.2	 0.812705151	-73.1	
  234.0417500	 0.851542380	-28.0	 0.044374798	 64.8	 0.044354044	 64.2	 0.811566973	-74.3	
  239.3540625	 0.850041549	-28.5	 0.045289011	 64.0	 0.045045370	 63.1	 0.810416087	-75.5	
  244.6663750	 0.848601517	-29.0	 0.045407244	 62.8	 0.045140268	 62.3	 0.808813555	-76.7	
  249.9786875	 0.846305515	-29.5	 0.045725839	 62.8	 0.045548808	 61.3	 0.807545657	-77.9	
  255.2910000	 0.843802142	-30.0	 0.045987597	 61.3	 0.045529973	 61.2	 0.806691532	-79.1	
  260.6033125	 0.840378858	-30.5	 0.046457595	 60.3	 0.045936540	 60.1	 0.805065016	-80.3	
  265.9156250	 0.838747076	-31.0	 0.046505315	 59.9	 0.045910329	 59.1	 0.804232644	-81.5	
  271.2279375	 0.836117667	-31.5	 0.046627059	 59.1	 0.046033659	 58.9	 0.803305618	-82.6	
  276.5402500	 0.835011475	-32.1	 0.046851784	 58.7	 0.046418238	 58.2	 0.802577284	-83.8	
  281.8525625	 0.833101668	-32.5	 0.046765983	 58.1	 0.046850186	 57.3	 0.801157797	-85.0	
  287.1648750	 0.830434247	-33.0	 0.047145671	 57.7	 0.046730831	 57.1	 0.801362600	-86.1	
  292.4771875	 0.827994744	-33.5	 0.047210628	 56.9	 0.046469662	 56.5	 0.799951678	-87.2	
  297.7895000	 0.827493800	-34.0	 0.047114703	 56.8	 0.047119214	 56.2	 0.800072564	-88.3	
  303.1018125	 0.824847758	-34.6	 0.047017320	 55.9	 0.047283457	 55.5	 0.798163872	-89.4	
  308.4141250	 0.822170503	-35.0	 0.047081155	 55.5	 0.047084795	 55.5	 0.798656339	-90.5	
  313.7264375	 0.820057321	-35.5	 0.047069653	 55.4	 0.047204785	 55.2	 0.797329524	-91.7	
  319.0387500	 0.818187910	-36.0	 0.047076679	 55.0	 0.046653980	 55.2	 0.796730178	-92.7	
  324.3510625	 0.816375166	-36.5	 0.047187528	 54.9	 0.047023980	 55.0	 0.796425670	-93.8	
  329.6633750	 0.815269083	-37.0	 0.046784192	 55.0	 0.046760058	 54.6	 0.795637488	-94.9	
  334.9756875	 0.812694457	-37.4	 0.047495792	 55.3	 0.046689077	 54.8	 0.795698838	-95.9	
  340.2880000	 0.810526490	-37.9	 0.046986274	 55.0	 0.046788393	 54.8	 0.795107087	-97.0	
  345.6003125	 0.808919259	-38.4	 0.047120440	 54.9	 0.046646333	 54.9	 0.795058230	-98.1	
  350.9126250	 0.807239771	-38.8	 0.046900147	 54.9	 0.046405590	 54.6	 0.794153664	-99.1	
  356.2249375	 0.804877824	-39.3	 0.046835365	 55.3	 0.046568885	 54.5	 0.794572211	-100.1	
  361.5372500	 0.803924104	-39.8	 0.046665160	 55.5	 0.046323321	 55.3	 0.793073324	-101.2	
  366.8495625	 0.801250192	-40.3	 0.046593706	 56.1	 0.046489827	 55.4	 0.793247973	-102.2	
  372.1618750	 0.799231098	-40.7	 0.046504042	 55.7	 0.046593319	 55.6	 0.792461579	-103.3	
  377.4741875	 0.797259300	-41.2	 0.046338129	 56.3	 0.046260568	 56.1	 0.792333776	-104.2	
  382.7865000	 0.795760579	-41.6	 0.046756984	 57.2	 0.046491332	 57.1	 0.791699433	-105.3	
  388.0988125	 0.793893556	-42.1	 0.046321499	 57.4	 0.046025226	 57.3	 0.790463632	-106.3	
  393.4111250	 0.792248829	-42.6	 0.046722662	 58.2	 0.046206798	 57.5	 0.790289590	-107.3	
  398.7234375	 0.790673555	-43.0	 0.046744332	 58.5	 0.046697595	 58.7	 0.790227846	-108.3	
  404.0357500	 0.787376756	-43.4	 0.046474958	 59.2	 0.046755038	 58.9	 0.789466700	-109.3	
  409.3480625	 0.786476117	-43.9	 0.046883593	 60.4	 0.046569003	 59.9	 0.788364455	-110.3	
  414.6603750	 0.783748396	-44.4	 0.046925717	 61.2	 0.046590100	 60.8	 0.788086185	-111.3	
  419.9726875	 0.781596356	-44.8	 0.047145483	 61.7	 0.046839925	 61.4	 0.786486244	-112.3	
  425.2850000	 0.779731316	-45.3	 0.047254554	 62.7	 0.047295768	 62.5	 0.786275861	-113.4	
  430.5973125	 0.777978638	-45.7	 0.047678496	 63.7	 0.047450255	 63.3	 0.786309028	-114.3	
  435.9096250	 0.775571345	-46.1	 0.047778780	 64.5	 0.048379981	 64.4	 0.784824611	-115.3	
  441.2219375	 0.773614153	-46.6	 0.048259815	 65.4	 0.048294074	 65.4	 0.784221673	-116.3	
  446.5342500	 0.772805251	-47.1	 0.049126967	 66.4	 0.048898556	 66.4	 0.783065825	-117.3	
  451.8465625	 0.770782376	-47.5	 0.049542660	 67.3	 0.049441710	 67.4	 0.782189142	-118.3	
  457.1588750	 0.768804551	-47.9	 0.050335408	 68.2	 0.049842423	 68.2	 0.781039289	-119.3	
  462.4711875	 0.766282072	-48.4	 0.050697000	 69.4	 0.050546219	 69.2	 0.780578210	-120.2	
  467.7835000	 0.764611430	-48.8	 0.051471065	 70.7	 0.051548680	 70.4	 0.779194119	-121.2	
  473.0958125	 0.762738652	-49.2	 0.052578894	 71.5	 0.052431676	 71.4	 0.778067575	-122.2	
  478.4081250	 0.760520694	-49.7	 0.053488826	 72.7	 0.053342917	 72.3	 0.776589466	-123.2	
  483.7204375	 0.758597459	-50.2	 0.054271779	 73.7	 0.054139178	 73.4	 0.775682633	-124.1	
  489.0327500	 0.757394226	-50.6	 0.055630771	 74.4	 0.055752258	 74.6	 0.774209313	-125.1	
  494.3450625	 0.753633818	-51.1	 0.056592665	 75.5	 0.057000765	 75.4	 0.772357336	-126.1	
  499.6573750	 0.751687088	-51.4	 0.058179946	 76.3	 0.058206755	 76.3	 0.770736665	-127.1	
  504.9696875	 0.750249359	-51.9	 0.059905777	 77.3	 0.059590171	 77.3	 0.769070132	-128.0	
  510.2820000	 0.748515643	-52.4	 0.061090605	 78.1	 0.060731779	 77.9	 0.767445321	-129.0	
  515.5943125	 0.746501765	-52.7	 0.062920463	 78.9	 0.062677403	 79.0	 0.764810666	-130.0	
  520.9066250	 0.743461206	-53.2	 0.064321105	 79.3	 0.064411010	 79.8	 0.763898118	-130.9	
  526.2189375	 0.741725791	-53.6	 0.066211771	 80.3	 0.066157273	 80.1	 0.761297236	-131.9	
  531.5312500	 0.740023143	-54.1	 0.068031496	 80.7	 0.068223526	 80.8	 0.759401335	-132.9	
  536.8435625	 0.738198155	-54.5	 0.070019541	 81.4	 0.070161046	 81.6	 0.756456125	-133.9	
  542.1558750	 0.735863017	-54.9	 0.071809934	 82.1	 0.072241022	 81.8	 0.754582075	-134.8	
  547.4681875	 0.733645824	-55.3	 0.074371651	 82.5	 0.074460277	 82.5	 0.752191587	-135.8	
  552.7805000	 0.731252547	-55.7	 0.077113627	 82.9	 0.076871166	 82.6	 0.749410171	-136.8	
  558.0928125	 0.728140763	-56.2	 0.079333638	 83.2	 0.079402563	 83.0	 0.746430135	-137.8	
  563.4051250	 0.726663743	-56.5	 0.081971474	 83.3	 0.082246170	 83.5	 0.742975866	-138.8	
  568.7174375	 0.724554819	-56.9	 0.084497916	 83.4	 0.084641346	 83.4	 0.739573947	-139.7	
  574.0297500	 0.722595188	-57.4	 0.087178556	 83.6	 0.087422610	 83.6	 0.736277080	-140.8	
  579.3420625	 0.719182357	-57.7	 0.090517707	 83.7	 0.090384568	 83.6	 0.732957057	-141.8	
  584.6543750	 0.717890224	-58.1	 0.093368472	 83.8	 0.093071504	 83.8	 0.728401544	-142.8	
  589.9666875	 0.715173667	-58.5	 0.096261229	 83.7	 0.096801545	 83.8	 0.724654222	-143.8	
  595.2790000	 0.713137552	-58.9	 0.099278800	 83.4	 0.099525882	 83.5	 0.720879614	-144.8	
  600.5913125	 0.709915596	-59.2	 0.102863983	 83.4	 0.102851699	 83.2	 0.716495053	-145.8	
  605.9036250	 0.708572899	-59.6	 0.106353610	 83.2	 0.106507449	 83.2	 0.712306849	-146.8	
  611.2159375	 0.705236832	-60.0	 0.109379015	 82.9	 0.110029430	 82.8	 0.706628941	-147.8	
  616.5282500	 0.702756462	-60.4	 0.113055436	 82.5	 0.113327640	 82.7	 0.701390137	-148.9	
  621.8405625	 0.700889594	-60.7	 0.116678298	 82.4	 0.117186959	 82.3	 0.696065254	-149.9	
  627.1528750	 0.697692269	-61.1	 0.120956145	 81.8	 0.121368173	 81.9	 0.689870716	-150.9	
  632.4651875	 0.695504013	-61.4	 0.124923647	 81.5	 0.125160729	 81.4	 0.684545472	-152.0	
  637.7775000	 0.693858106	-61.8	 0.129026114	 80.9	 0.129404858	 80.9	 0.678443137	-153.0	
  643.0898125	 0.690008567	-62.0	 0.133476474	 80.4	 0.133392779	 80.4	 0.671520064	-154.0	
  648.4021250	 0.688056217	-62.4	 0.137660323	 79.9	 0.137817597	 79.6	 0.664414089	-155.1	
  653.7144375	 0.685843680	-62.7	 0.141907903	 79.1	 0.142042323	 79.0	 0.657304842	-156.1	
  659.0267500	 0.683174914	-63.1	 0.146204346	 78.3	 0.146778672	 78.5	 0.650110962	-157.1	
  664.3390625	 0.681677750	-63.3	 0.150792458	 77.9	 0.151140496	 77.6	 0.641214287	-158.2	
  669.6513750	 0.678383490	-63.5	 0.155485879	 76.9	 0.155867623	 76.8	 0.632975762	-159.2	
  674.9636875	 0.675089728	-63.8	 0.160559502	 75.9	 0.161155755	 75.9	 0.624455307	-160.2	
  680.2760000	 0.673264042	-64.1	 0.165425496	 75.3	 0.165911107	 75.0	 0.615302230	-161.3	
  685.5883125	 0.671396823	-64.4	 0.171095606	 74.3	 0.170459882	 74.3	 0.605318479	-162.3	
  690.9006250	 0.667815097	-64.6	 0.174945684	 73.2	 0.175791149	 73.3	 0.595881444	-163.3	
  696.2129375	 0.666191429	-64.8	 0.180360965	 72.3	 0.181114008	 72.3	 0.584925095	-164.3	
  701.5252500	 0.663944659	-65.0	 0.185867202	 71.4	 0.186426578	 71.0	 0.574654281	-165.2	
  706.8375625	 0.661889125	-65.3	 0.190723771	 70.1	 0.191607445	 70.1	 0.563289540	-166.2	
  712.1498750	 0.659544652	-65.5	 0.196252073	 68.9	 0.197010071	 69.0	 0.551231186	-167.1	
  717.4621875	 0.656896636	-65.7	 0.202269609	 67.7	 0.202907076	 67.8	 0.539755800	-168.0	
  722.7745000	 0.655209332	-65.8	 0.207693221	 66.6	 0.207646746	 66.6	 0.526096740	-168.9	
  728.0868125	 0.653353389	-66.0	 0.212829818	 65.5	 0.213323678	 65.3	 0.514092056	-169.8	
  733.3991250	 0.651634662	-66.2	 0.219252724	 64.1	 0.219006960	 64.2	 0.500233942	-170.6	
  738.7114375	 0.649816057	-66.3	 0.224596483	 62.7	 0.224718091	 62.7	 0.485837307	-171.3	
  744.0237500	 0.648977710	-66.5	 0.229890556	 61.4	 0.229919442	 61.5	 0.471836804	-172.0	
  749.3360625	 0.646783782	-66.6	 0.235230986	 59.9	 0.236005610	 60.0	 0.455874290	-172.6	
  754.6483750	 0.645532887	-66.7	 0.240780029	 58.4	 0.241365426	 58.6	 0.441300322	-173.2	
  759.9606875	 0.645413205	-66.8	 0.246730435	 57.3	 0.247535193	 57.2	 0.425313804	-173.6	
  765.2730000	 0.645257748	-66.8	 0.252239028	 55.7	 0.252420345	 55.6	 0.409819500	-173.9	
  770.5853125	 0.642985916	-67.0	 0.258293187	 54.1	 0.258214725	 54.0	 0.393551438	-174.1	
  775.8976250	 0.643765601	-67.1	 0.263145082	 52.6	 0.263618531	 52.4	 0.377622822	-174.2	
  781.2099375	 0.642952224	-67.1	 0.267889257	 50.9	 0.269223977	 50.8	 0.360895273	-174.0	
  786.5222500	 0.643484605	-67.2	 0.273199740	 49.3	 0.273701162	 49.2	 0.344379779	-173.7	
  791.8345625	 0.642845681	-67.2	 0.277975246	 47.5	 0.279139475	 47.5	 0.328568557	-173.1	
  797.1468750	 0.644950011	-67.3	 0.283515338	 45.9	 0.283280963	 45.8	 0.312873393	-172.3	
  802.4591875	 0.645773515	-67.4	 0.287588242	 44.2	 0.288135941	 44.2	 0.296899196	-171.1	
  807.7715000	 0.645584702	-67.5	 0.292176991	 42.6	 0.292572255	 42.6	 0.282295682	-169.4	
  813.0838125	 0.646503689	-67.6	 0.296792616	 40.7	 0.297146793	 41.0	 0.268126432	-167.5	
  818.3961250	 0.648156315	-67.7	 0.300604880	 39.1	 0.301404713	 39.0	 0.255189085	-165.1	
  823.7084375	 0.651198508	-67.9	 0.304952900	 37.3	 0.305155599	 37.2	 0.244061219	-162.3	
  829.0207500	 0.651708688	-67.9	 0.308468303	 35.5	 0.308412214	 35.5	 0.234154804	-159.0	
  834.3330625	 0.655022672	-68.1	 0.311088237	 33.8	 0.312105289	 33.7	 0.226068915	-155.2	
  839.6453750	 0.656880192	-68.2	 0.314213372	 32.0	 0.315462513	 31.9	 0.219993137	-151.3	
  844.9576875	 0.659909119	-68.3	 0.318585202	 30.3	 0.318248287	 30.2	 0.217463809	-146.8	
  850.2700000	 0.661379099	-68.6	 0.320398095	 28.4	 0.320946089	 28.3	 0.216243043	-142.5	
  855.5823125	 0.663749932	-68.8	 0.322931519	 26.7	 0.323646068	 26.7	 0.218173382	-137.9	
  860.8946250	 0.666977839	-69.0	 0.324937309	 24.9	 0.325533555	 24.9	 0.222721362	-133.8	
  866.2069375	 0.669355513	-69.2	 0.327357693	 23.1	 0.327100044	 23.2	 0.229113520	-129.9	
  871.5192500	 0.672864075	-69.5	 0.328656057	 21.4	 0.328823728	 21.3	 0.237527256	-126.3	
  876.8315625	 0.675936399	-69.7	 0.329505477	 19.7	 0.330046661	 19.7	 0.248212516	-123.4	
  882.1438750	 0.678419950	-70.0	 0.330435137	 18.0	 0.331739039	 17.9	 0.259417883	-120.8	
  887.4561875	 0.681451647	-70.3	 0.331795863	 16.3	 0.331692443	 16.2	 0.272458909	-118.5	
  892.7685000	 0.684241982	-70.7	 0.332032264	 14.5	 0.332554895	 14.6	 0.285952411	-116.7	
  898.0808125	 0.688072951	-71.1	 0.332627183	 12.9	 0.332833889	 12.9	 0.299969331	-115.4	
  903.3931250	 0.691256656	-71.4	 0.332588536	 11.2	 0.333200587	 11.2	 0.314808008	-114.2	
  908.7054375	 0.694036716	-71.7	 0.332261700	  9.7	 0.332585959	  9.6	 0.330094913	-113.3	
  914.0177500	 0.697585505	-72.1	 0.332500318	  8.1	 0.332727840	  8.0	 0.345424787	-112.8	
  919.3300625	 0.699817271	-72.5	 0.331310806	  6.4	 0.331842353	  6.5	 0.360238052	-112.4	
  924.6423750	 0.702050820	-72.9	 0.330982263	  4.9	 0.331235201	  4.9	 0.375107724	-112.2	
  929.9546875	 0.704247764	-73.3	 0.329912935	  3.4	 0.330775177	  3.4	 0.390310829	-112.1	
  935.2670000	 0.707067158	-73.7	 0.328631475	  1.7	 0.329698231	  1.9	 0.405127985	-112.1	
  940.5793125	 0.710129637	-74.1	 0.328314445	  0.4	 0.328513841	  0.3	 0.420104149	-112.2	
  945.8916250	 0.712668943	-74.5	 0.327133688	 -1.1	 0.326983122	 -1.1	 0.434102580	-112.5	
  951.2039375	 0.714850941	-75.1	 0.324661281	 -2.5	 0.325394939	 -2.5	 0.447768055	-112.8	
  956.5162500	 0.716999618	-75.5	 0.323834929	 -4.0	 0.323425294	 -3.9	 0.461998181	-113.3	
  961.8285625	 0.718371998	-75.9	 0.322403582	 -5.3	 0.322558436	 -5.2	 0.475285274	-113.7	
  967.1408750	 0.721729714	-76.4	 0.320723178	 -6.6	 0.321185855	 -6.6	 0.488859997	-114.2	
  972.4531875	 0.723670139	-76.9	 0.318541390	 -7.9	 0.318898830	 -7.9	 0.500835961	-114.7	
  977.7655000	 0.725010473	-77.3	 0.316789488	 -9.1	 0.317231237	 -9.3	 0.513422079	-115.4	
  983.0778125	 0.726024226	-77.8	 0.314967190	-10.5	 0.315786957	-10.5	 0.525154937	-115.9	
  988.3901250	 0.728877199	-78.2	 0.313064605	-11.8	 0.313078344	-11.7	 0.536315192	-116.6	
  993.7024375	 0.730154850	-78.7	 0.310924333	-12.9	 0.310988313	-12.9	 0.547749733	-117.1	
  999.0147500	 0.731527682	-79.2	 0.308902679	-14.1	 0.309097310	-14.1	 0.558410352	-117.8	
 1004.3270625	 0.732579422	-79.7	 0.306229391	-15.2	 0.306835882	-15.2	 0.569197170	-118.4	
 1009.6393750	 0.734717849	-80.2	 0.304783544	-16.3	 0.304433484	-16.4	 0.579158110	-119.2	
 1014.9516875	 0.735944216	-80.6	 0.302493928	-17.5	 0.302324511	-17.5	 0.588483308	-119.7	
 1020.2640000	 0.735952077	-81.1	 0.300134807	-18.6	 0.300153213	-18.5	 0.598290131	-120.5	
 1025.5763125	 0.737651195	-81.6	 0.297523685	-19.7	 0.297706850	-19.6	 0.607212768	-121.1	
 1030.8886250	 0.738841202	-82.1	 0.295821074	-20.7	 0.295824522	-20.8	 0.616346991	-121.8	
 1036.2009375	 0.738896518	-82.5	 0.293393838	-21.7	 0.293592980	-21.7	 0.624440154	-122.5	
 1041.5132500	 0.741090328	-83.0	 0.291647310	-22.7	 0.290896757	-22.8	 0.632745534	-123.2	
 1046.8255625	 0.741170958	-83.5	 0.289307852	-23.8	 0.288802381	-23.8	 0.640703269	-123.8	
 1052.1378750	 0.742090789	-83.9	 0.286785055	-24.7	 0.286585844	-24.7	 0.648205833	-124.5	
 1057.4501875	 0.743110302	-84.4	 0.284961671	-25.6	 0.284312844	-25.7	 0.655424898	-125.1	
 1062.7625000	 0.743578874	-84.9	 0.282123411	-26.7	 0.282175333	-26.7	 0.662972764	-125.8	
 1068.0748125	 0.744619563	-85.4	 0.279835527	-27.6	 0.279907281	-27.6	 0.669752016	-126.5	
 1073.3871250	 0.745314207	-85.8	 0.277229317	-28.4	 0.277901249	-28.5	 0.676507078	-127.2	
 1078.6994375	 0.745711876	-86.3	 0.275760570	-29.4	 0.275462468	-29.4	 0.682922686	-127.8	
 1084.0117500	 0.746313759	-86.7	 0.273591593	-30.2	 0.273390933	-30.2	 0.688159603	-128.4	
 1089.3240625	 0.746330540	-87.2	 0.271484822	-31.1	 0.271008553	-31.1	 0.694755672	-129.1	
 1094.6363750	 0.746992897	-87.5	 0.269376285	-32.0	 0.268722811	-31.9	 0.700369349	-129.7	
 1099.9486875	 0.747566531	-88.0	 0.266763857	-32.8	 0.266710276	-32.6	 0.705569821	-130.3	
 1105.2610000	 0.747113922	-88.4	 0.264758184	-33.6	 0.264672110	-33.7	 0.711007573	-130.9	
 1110.5733125	 0.748231004	-89.0	 0.262447935	-34.3	 0.262533956	-34.3	 0.716795929	-131.6	
 1115.8856250	 0.748772739	-89.3	 0.260689058	-35.3	 0.260568206	-35.1	 0.721683947	-132.1	
 1121.1979375	 0.748257299	-89.8	 0.258172846	-35.9	 0.258159660	-36.0	 0.726643061	-132.7	
 1126.5102500	 0.748920703	-90.2	 0.256317172	-36.8	 0.256428821	-36.7	 0.731448293	-133.3	
 1131.8225625	 0.750498456	-90.6	 0.254510757	-37.4	 0.254215033	-37.5	 0.735685993	-133.9	
 1137.1348750	 0.749849046	-91.1	 0.251904129	-38.3	 0.252231206	-38.3	 0.740013984	-134.5	
 1142.4471875	 0.748703992	-91.5	 0.250174714	-38.9	 0.250260274	-38.9	 0.743502314	-135.0	
 1147.7595000	 0.750590336	-91.9	 0.248669714	-39.7	 0.248458455	-39.7	 0.747857874	-135.6	
 1153.0718125	 0.749968540	-92.4	 0.246633975	-40.4	 0.246154778	-40.4	 0.751842417	-136.2	
 1158.3841250	 0.750862581	-92.8	 0.244094148	-41.1	 0.243971695	-41.0	 0.756491146	-136.7	
 1163.6964375	 0.749777342	-93.2	 0.242414558	-41.6	 0.242378766	-41.7	 0.759789632	-137.2	
 1169.0087500	 0.749894301	-93.6	 0.240342408	-42.5	 0.240574353	-42.5	 0.763733518	-137.7	
 1174.3210625	 0.751320731	-94.0	 0.238297501	-43.1	 0.238587691	-43.1	 0.766394331	-138.3	
 1179.6333750	 0.750604035	-94.4	 0.236569586	-43.8	 0.236879162	-43.8	 0.770139741	-138.8	
 1184.9456875	 0.751023410	-94.9	 0.234642852	-44.5	 0.234674131	-44.4	 0.773672075	-139.3	
 1190.2580000	 0.750338400	-95.3	 0.232942875	-45.1	 0.233392314	-45.0	 0.776399324	-139.8	
 1195.5703125	 0.750820516	-95.7	 0.231224663	-45.8	 0.231057208	-45.7	 0.780518596	-140.3	
 1200.8826250	 0.751601322	-96.1	 0.230154974	-46.4	 0.229571967	-46.3	 0.783229874	-140.8	
 1206.1949375	 0.750739645	-96.5	 0.228238178	-46.9	 0.227561979	-46.9	 0.786223413	-141.3	
 1211.5072500	 0.750465975	-97.0	 0.226235635	-47.5	 0.225942387	-47.7	 0.788959378	-141.8	
 1216.8195625	 0.750592427	-97.3	 0.224745745	-48.2	 0.224700304	-48.1	 0.792158697	-142.2	
 1222.1318750	 0.750994771	-97.7	 0.223076430	-48.7	 0.222770392	-48.8	 0.794527767	-142.7	
 1227.4441875	 0.751424697	-98.1	 0.220926665	-49.4	 0.221060516	-49.4	 0.797728343	-143.2	
 1232.7565000	 0.750694429	-98.5	 0.219619247	-49.9	 0.219111771	-49.9	 0.799773365	-143.7	
 1238.0688125	 0.751404827	-98.9	 0.217685480	-50.5	 0.217701065	-50.5	 0.802409459	-144.1	
 1243.3811250	 0.750530949	-99.3	 0.216208833	-51.1	 0.216207209	-51.0	 0.805016606	-144.6	
 1248.6934375	 0.750356232	-99.6	 0.214847535	-51.6	 0.214715353	-51.7	 0.806922917	-145.0	
 1254.0057500	 0.751335985	-100.1	 0.213482606	-52.3	 0.213071715	-52.3	 0.809175717	-145.4	
 1259.3180625	 0.750679579	-100.4	 0.211492870	-52.8	 0.211602332	-52.8	 0.811431774	-145.9	
 1264.6303750	 0.751269061	-100.8	 0.209541847	-53.2	 0.210159958	-53.3	 0.813536412	-146.3	
 1269.9426875	 0.750647499	-101.1	 0.209035502	-53.8	 0.207915616	-53.8	 0.815397756	-146.8	
 1275.2550000	 0.749684368	-101.7	 0.207117123	-54.3	 0.207360619	-54.4	 0.817487930	-147.2	
 1280.5673125	 0.750148763	-102.0	 0.205767320	-55.0	 0.205522044	-55.0	 0.819043542	-147.6	
 1285.8796250	 0.750160738	-102.4	 0.203963521	-55.4	 0.204169677	-55.6	 0.821993380	-148.0	
 1291.1919375	 0.750880557	-102.7	 0.203093334	-56.2	 0.202512844	-56.0	 0.823544685	-148.5	
 1296.5042500	 0.750757952	-103.2	 0.201303255	-56.6	 0.201362495	-56.5	 0.825292857	-148.9	
 1301.8165625	 0.749987074	-103.5	 0.199867171	-57.1	 0.199626208	-57.0	 0.827712244	-149.2	
 1307.1288750	 0.750561013	-103.9	 0.198636297	-57.6	 0.198416629	-57.6	 0.829312563	-149.6	
 1312.4411875	 0.750965339	-104.3	 0.197126601	-58.1	 0.196730479	-58.2	 0.830751203	-150.1	
 1317.7535000	 0.749296981	-104.6	 0.195810542	-58.5	 0.195433114	-58.6	 0.832133655	-150.5	
 1323.0658125	 0.750604018	-105.0	 0.194669814	-59.0	 0.194060607	-59.1	 0.834352698	-150.8	
 1328.3781250	 0.749269476	-105.4	 0.193353947	-59.5	 0.192741349	-59.6	 0.835678796	-151.2	
 1333.6904375	 0.749883951	-105.8	 0.191562830	-60.0	 0.191392347	-60.1	 0.837188648	-151.6	
 1339.0027500	 0.750088920	-106.1	 0.190343240	-60.6	 0.189950935	-60.7	 0.837973391	-152.0	
 1344.3150625	 0.749613334	-106.5	 0.188836019	-61.1	 0.188403647	-61.2	 0.840036923	-152.3	
 1349.6273750	 0.749289643	-106.8	 0.187960865	-61.3	 0.187541442	-61.5	 0.841705458	-152.7	
 1354.9396875	 0.749739287	-107.2	 0.186215840	-62.0	 0.186041423	-61.9	 0.842584661	-153.1	
 1360.2520000	 0.749605728	-107.6	 0.185124436	-62.4	 0.184691840	-62.4	 0.844727994	-153.5	
 1365.5643125	 0.748934105	-108.0	 0.184075841	-62.9	 0.183883126	-62.9	 0.846108126	-153.8	
 1370.8766250	 0.749676586	-108.4	 0.182568304	-63.3	 0.182067327	-63.3	 0.847383844	-154.2	
 1376.1889375	 0.748639129	-108.6	 0.181143796	-63.8	 0.180932056	-63.8	 0.847935688	-154.5	
 1381.5012500	 0.749342904	-109.0	 0.180074067	-64.3	 0.179714431	-64.3	 0.850730196	-154.9	
 1386.8135625	 0.749279121	-109.4	 0.178925434	-64.8	 0.178785511	-64.8	 0.851541423	-155.2	
 1392.1258750	 0.748793336	-109.7	 0.177400221	-65.0	 0.177437730	-65.3	 0.852636712	-155.5	
 1397.4381875	 0.749322934	-110.1	 0.176320918	-65.6	 0.176597803	-65.7	 0.854059521	-155.8	
 1402.7505000	 0.749370653	-110.5	 0.175141996	-66.0	 0.175110739	-66.0	 0.855001945	-156.2	
 1408.0628125	 0.748998978	-110.9	 0.173686366	-66.5	 0.174312065	-66.6	 0.855760053	-156.5	
 1413.3751250	 0.748709584	-111.2	 0.172501352	-66.8	 0.173043670	-67.0	 0.857543382	-156.8	
 1418.6874375	 0.748765378	-111.5	 0.172041688	-67.3	 0.171582582	-67.5	 0.857611563	-157.2	
 1423.9997500	 0.748943154	-111.9	 0.170789482	-67.9	 0.170595430	-67.8	 0.859307360	-157.5	
 1429.3120625	 0.748644630	-112.3	 0.169016835	-68.3	 0.169199007	-68.4	 0.860087639	-157.8	
 1434.6243750	 0.749060504	-112.6	 0.168349705	-68.7	 0.168132465	-68.7	 0.862162008	-158.1	
 1439.9366875	 0.748468724	-113.0	 0.168062098	-69.0	 0.167052526	-69.2	 0.862224496	-158.4	
 1445.2490000	 0.748762962	-113.3	 0.166307122	-69.4	 0.166012571	-69.4	 0.863793537	-158.7	
 1450.5613125	 0.748358696	-113.7	 0.164615395	-69.8	 0.164749207	-70.0	 0.864890488	-159.0	
 1455.8736250	 0.749286831	-114.0	 0.164403475	-70.3	 0.163885559	-70.4	 0.865805754	-159.3	
 1461.1859375	 0.748271137	-114.4	 0.163191437	-70.7	 0.162786004	-70.8	 0.865895319	-159.6	
 1466.4982500	 0.748240820	-114.7	 0.161869316	-71.1	 0.161513024	-71.1	 0.867119659	-159.9	
 1471.8105625	 0.748547374	-115.2	 0.161080649	-71.6	 0.160729079	-71.6	 0.868439898	-160.3	
 1477.1228750	 0.749450251	-115.4	 0.159705424	-72.0	 0.159509196	-72.2	 0.869147988	-160.6	
 1482.4351875	 0.748390875	-115.8	 0.158632520	-72.2	 0.158503591	-72.4	 0.869896606	-160.8	
 1487.7475000	 0.748804357	-116.1	 0.157665695	-72.7	 0.157682002	-72.9	 0.870811458	-161.1	
 1493.0598125	 0.748682910	-116.5	 0.156917916	-73.1	 0.156405684	-73.4	 0.871954970	-161.4	
 1498.3721250	 0.747773076	-116.8	 0.155550563	-73.5	 0.155271264	-73.7	 0.872529458	-161.7	
 1503.6844375	 0.748843795	-117.1	 0.154537252	-73.9	 0.154146562	-74.0	 0.874149433	-161.9	
 1508.9967500	 0.749598830	-117.5	 0.153593319	-74.4	 0.153383805	-74.3	 0.874572154	-162.3	
 1514.3090625	 0.748873314	-117.9	 0.152453546	-74.9	 0.152480012	-74.9	 0.874620835	-162.5	
 1519.6213750	 0.748894227	-118.1	 0.151997207	-75.2	 0.151494042	-75.0	 0.876439968	-162.8	
 1524.9336875	 0.750036432	-118.4	 0.150980604	-75.5	 0.150362936	-75.6	 0.876521865	-163.1	
 1530.2460000	 0.748692445	-118.8	 0.149890190	-75.8	 0.149511106	-76.0	 0.877463825	-163.3	
 1535.5583125	 0.749763545	-119.1	 0.148838782	-76.4	 0.148276811	-76.5	 0.878060771	-163.7	
 1540.8706250	 0.748676988	-119.5	 0.147567614	-76.7	 0.147762650	-76.9	 0.878863584	-163.9	
 1546.1829375	 0.749116476	-119.8	 0.146944087	-77.1	 0.146616985	-77.3	 0.879515520	-164.2	
 1551.4952500	 0.749765058	-120.1	 0.145838184	-77.5	 0.145529684	-77.6	 0.880169532	-164.5	
 1556.8075625	 0.748805362	-120.4	 0.145068367	-77.7	 0.145170215	-77.8	 0.880721660	-164.7	
 1562.1198750	 0.749600143	-120.8	 0.143942962	-78.2	 0.143934293	-78.3	 0.881361922	-164.9	
 1567.4321875	 0.749283985	-121.1	 0.143375036	-78.5	 0.142963110	-78.8	 0.882260499	-165.2	
 1572.7445000	 0.750578231	-121.5	 0.142570057	-78.9	 0.141983932	-79.1	 0.882767493	-165.5	
 1578.0568125	 0.749405721	-121.7	 0.141040032	-79.1	 0.141004700	-79.3	 0.883198380	-165.7	
 1583.3691250	 0.749958375	-122.1	 0.140490608	-79.6	 0.140202613	-79.9	 0.883580937	-166.0	
 1588.6814375	 0.750624066	-122.5	 0.139544294	-80.1	 0.139497905	-80.2	 0.884502950	-166.2	
 1593.9937500	 0.749384676	-122.8	 0.138578853	-80.4	 0.138628286	-80.6	 0.884836982	-166.5	
 1599.3060625	 0.750305562	-123.1	 0.138032367	-80.7	 0.137711241	-80.9	 0.886111042	-166.8	
 1604.6183750	 0.750053325	-123.5	 0.137523138	-81.0	 0.136510871	-81.4	 0.886642381	-167.0	
 1609.9306875	 0.750817601	-123.7	 0.136426818	-81.4	 0.135941117	-81.6	 0.886861698	-167.2	
 1615.2430000	 0.750613172	-124.1	 0.135704417	-82.0	 0.134797876	-82.1	 0.887576765	-167.4	
 1620.5553125	 0.749955512	-124.4	 0.134037490	-82.2	 0.134125067	-82.2	 0.887407799	-167.7	
 1625.8676250	 0.750089451	-124.8	 0.133418171	-82.6	 0.133094418	-82.7	 0.888583046	-167.9	
 1631.1799375	 0.750433708	-125.0	 0.132589636	-83.0	 0.132404043	-83.1	 0.889937841	-168.2	
 1636.4922500	 0.750983884	-125.3	 0.132218795	-83.3	 0.131380225	-83.7	 0.889980153	-168.4	
 1641.8045625	 0.751172694	-125.7	 0.130963265	-83.6	 0.131175360	-83.8	 0.890520063	-168.6	
 1647.1168750	 0.750366976	-126.1	 0.129851472	-83.9	 0.129400841	-84.1	 0.891174675	-168.9	
 1652.4291875	 0.750220930	-126.4	 0.128985497	-84.4	 0.129286203	-84.6	 0.891290517	-169.1	
 1657.7415000	 0.750421773	-126.7	 0.128269532	-84.6	 0.128437215	-84.8	 0.891117203	-169.3	
 1663.0538125	 0.751165536	-127.0	 0.127466020	-85.1	 0.127332919	-85.2	 0.891771617	-169.5	
 1668.3661250	 0.752080657	-127.3	 0.126750412	-85.2	 0.126811887	-85.5	 0.893425512	-169.8	
 1673.6784375	 0.751556668	-127.6	 0.126107724	-85.9	 0.125551882	-85.9	 0.893624684	-170.0	
 1678.9907500	 0.752237956	-127.9	 0.125485388	-86.2	 0.125017668	-86.3	 0.893758598	-170.2	
 1684.3030625	 0.752166180	-128.2	 0.124384096	-86.5	 0.123949281	-86.5	 0.894151964	-170.5	
 1689.6153750	 0.752005524	-128.6	 0.123497197	-86.9	 0.123385425	-87.0	 0.893994118	-170.7	
 1694.9276875	 0.752668378	-128.9	 0.122889458	-87.4	 0.122958827	-87.3	 0.895950223	-170.8	
 1700.2400000	 0.751754502	-129.2	 0.121573704	-87.5	 0.121573560	-87.7	 0.895425406	-171.1	
 1705.5523125	 0.752725657	-129.5	 0.121296996	-87.8	 0.121198657	-88.2	 0.895910865	-171.2	
 1710.8646250	 0.753481689	-129.8	 0.120243979	-88.3	 0.120466311	-88.3	 0.896532237	-171.5	
 1716.1769375	 0.752755171	-130.1	 0.119453349	-88.6	 0.119742154	-88.7	 0.896058516	-171.7	
 1721.4892500	 0.754113738	-130.4	 0.118800984	-89.2	 0.118494991	-88.9	 0.897382304	-171.9	
 1726.8015625	 0.753336617	-130.7	 0.118242646	-89.2	 0.118047253	-89.3	 0.896571697	-172.1	
 1732.1138750	 0.753645671	-130.9	 0.117682202	-89.6	 0.117656103	-89.8	 0.896808597	-172.3	
 1737.4261875	 0.753808883	-131.3	 0.116932234	-89.8	 0.116714706	-90.1	 0.897654808	-172.5	
 1742.7385000	 0.753166175	-131.6	 0.115794818	-90.5	 0.115944153	-90.3	 0.898438617	-172.8	
 1748.0508125	 0.754585294	-131.9	 0.115247661	-90.6	 0.115443721	-90.6	 0.898803025	-173.0	
 1753.3631250	 0.754389505	-132.2	 0.114381028	-90.8	 0.114476989	-91.1	 0.899844521	-173.2	
 1758.6754375	 0.754556862	-132.5	 0.113576449	-91.3	 0.113593838	-91.3	 0.900414105	-173.4	
 1763.9877500	 0.754494603	-132.7	 0.112730704	-91.4	 0.112794069	-91.5	 0.900806437	-173.6	
 1769.3000625	 0.755367192	-133.1	 0.112517946	-91.9	 0.112068289	-92.1	 0.899947924	-173.8	
 1774.6123750	 0.755025175	-133.5	 0.111771150	-92.3	 0.111397820	-92.3	 0.900237612	-174.0	
 1779.9246875	 0.755202368	-133.6	 0.110884290	-92.7	 0.110870200	-92.5	 0.900847712	-174.2	
 1785.2370000	 0.755010912	-134.0	 0.110067438	-92.9	 0.109938469	-93.0	 0.901603496	-174.3	
 1790.5493125	 0.756112143	-134.3	 0.109661676	-93.2	 0.109317769	-93.4	 0.901993127	-174.5	
 1795.8616250	 0.754969005	-134.7	 0.108926389	-93.4	 0.108716938	-93.5	 0.902587420	-174.7	
 1801.1739375	 0.755941418	-134.9	 0.107707102	-94.0	 0.108087973	-94.0	 0.902373786	-175.0	
 1806.4862500	 0.755623655	-135.2	 0.107184644	-94.1	 0.107039117	-94.3	 0.903499648	-175.1	
 1811.7985625	 0.756394858	-135.5	 0.106620641	-94.6	 0.106752966	-94.7	 0.903438051	-175.3	
 1817.1108750	 0.756447903	-135.8	 0.105692518	-95.0	 0.105891391	-95.0	 0.903520176	-175.6	
 1822.4231875	 0.755668406	-136.2	 0.105568525	-95.5	 0.104914033	-95.3	 0.904040958	-175.7	
 1827.7355000	 0.755950749	-136.4	 0.104439751	-95.7	 0.104344012	-95.6	 0.904207064	-175.9	
 1833.0478125	 0.757725914	-136.8	 0.103666817	-96.0	 0.103841146	-96.0	 0.904316711	-176.1	
 1838.3601250	 0.757484991	-137.0	 0.103311933	-96.2	 0.103383748	-96.2	 0.904401570	-176.3	
 1843.6724375	 0.757585047	-137.4	 0.102230687	-96.5	 0.102767866	-96.8	 0.905396765	-176.5	
 1848.9847500	 0.758469091	-137.7	 0.101787018	-96.9	 0.101747323	-96.9	 0.905038744	-176.7	
 1854.2970625	 0.757374090	-137.9	 0.100990795	-97.1	 0.100930947	-97.2	 0.904970418	-176.8	
 1859.6093750	 0.758622892	-138.3	 0.100772876	-97.5	 0.100630613	-97.4	 0.904983418	-177.0	
 1864.9216875	 0.758095445	-138.6	 0.100113253	-97.9	 0.100060241	-98.0	 0.906887840	-177.2	
 1870.2340000	 0.759342916	-138.8	 0.099171356	-98.1	 0.099278132	-98.4	 0.906858553	-177.4	
 1875.5463125	 0.758980678	-139.1	 0.098870873	-98.5	 0.098738496	-98.8	 0.906619371	-177.7	
 1880.8586250	 0.759985174	-139.4	 0.098144677	-98.8	 0.097934880	-98.7	 0.906907032	-177.7	
 1886.1709375	 0.759718939	-139.7	 0.097605370	-99.1	 0.097479198	-99.5	 0.906948689	-178.0	
 1891.4832500	 0.759890987	-139.9	 0.096412538	-99.6	 0.096628667	-99.5	 0.907870579	-178.1	
 1896.7955625	 0.760186013	-140.3	 0.096186039	-99.9	 0.096269608	-100.1	 0.907315875	-178.3	
 1902.1078750	 0.761565272	-140.6	 0.095705977	-100.1	 0.095364645	-100.2	 0.907869229	-178.4	
 1907.4201875	 0.761234178	-140.8	 0.094721988	-100.5	 0.094883556	-100.6	 0.907634458	-178.7	
 1912.7325000	 0.761336686	-141.1	 0.094423487	-100.8	 0.094226209	-101.0	 0.907851670	-178.9	
 1918.0448125	 0.761147489	-141.3	 0.093632776	-101.2	 0.093850302	-101.2	 0.908702313	-179.0	
 1923.3571250	 0.762624321	-141.7	 0.093171688	-101.4	 0.092862858	-101.6	 0.908404164	-179.2	
 1928.6694375	 0.762073219	-141.9	 0.092209742	-101.6	 0.092124579	-101.8	 0.909188363	-179.3	
 1933.9817500	 0.763241333	-142.2	 0.092289294	-102.2	 0.091905689	-102.1	 0.909420192	-179.5	
 1939.2940625	 0.762731863	-142.5	 0.091382198	-102.5	 0.091386376	-102.4	 0.909521106	-179.6	
 1944.6063750	 0.762592352	-142.8	 0.090436923	-103.0	 0.090674533	-102.6	 0.909659727	-179.9	
 1949.9186875	 0.762845551	-143.0	 0.089843975	-103.0	 0.089762362	-103.3	 0.910177590	 180.0	
 1955.2310000	 0.763546744	-143.2	 0.089512624	-103.3	 0.089569211	-103.5	 0.909738771	 179.8	
 1960.5433125	 0.763276515	-143.6	 0.088757254	-103.7	 0.088866573	-103.9	 0.909594610	 179.6	
 1965.8556250	 0.764080482	-143.8	 0.088213615	-104.1	 0.088357115	-104.2	 0.911246420	 179.5	
 1971.1679375	 0.763509180	-144.2	 0.087696128	-104.2	 0.087624214	-104.4	 0.910506836	 179.3	
 1976.4802500	 0.764685675	-144.4	 0.087242987	-104.8	 0.086775892	-104.8	 0.910919101	 179.2	
 1981.7925625	 0.765212985	-144.7	 0.086746946	-105.1	 0.086522491	-105.0	 0.912020078	 179.0	
 1987.1048750	 0.765202958	-145.1	 0.085547023	-105.2	 0.085774110	-105.4	 0.912497477	 178.8	
 1992.4171875	 0.765528802	-145.3	 0.085198200	-105.9	 0.085288318	-105.6	 0.912683883	 178.6	
 1997.7295000	 0.765776727	-145.5	 0.084516173	-105.7	 0.084677801	-106.1	 0.912456890	 178.5	
 2003.0418125	 0.765330642	-145.8	 0.084354861	-106.5	 0.084303659	-106.4	 0.911297902	 178.3	
 2008.3541250	 0.765692703	-146.1	 0.083648408	-106.5	 0.083379652	-106.9	 0.912271321	 178.2	
 2013.6664375	 0.766644230	-146.4	 0.083348390	-106.9	 0.082733826	-107.4	 0.911674584	 178.0	
 2018.9787500	 0.766187691	-146.6	 0.082352601	-107.6	 0.082465694	-107.2	 0.912990278	 177.9	
 2024.2910625	 0.765785130	-146.9	 0.081926514	-107.5	 0.082012677	-108.0	 0.912840097	 177.7	
 2029.6033750	 0.766766021	-147.2	 0.081365363	-108.1	 0.081321744	-107.9	 0.912480425	 177.6	
 2034.9156875	 0.767754088	-147.6	 0.080967646	-108.1	 0.080582623	-108.5	 0.912948037	 177.4	
 2040.2280000	 0.767985360	-147.8	 0.079868759	-108.3	 0.079574163	-108.8	 0.913744742	 177.2	
 2045.5403125	 0.769025106	-148.1	 0.079325933	-108.9	 0.079484790	-108.9	 0.913680525	 177.1	
 2050.8526250	 0.768776989	-148.3	 0.078864849	-109.2	 0.079071584	-109.2	 0.913829243	 176.9	
 2056.1649375	 0.770567802	-148.6	 0.078595119	-109.7	 0.078470322	-109.8	 0.913896170	 176.8	
 2061.4772500	 0.770590761	-148.9	 0.077834224	-109.9	 0.077993028	-110.1	 0.914225303	 176.7	
 2066.7895625	 0.769554657	-149.2	 0.077400408	-109.8	 0.077152524	-110.4	 0.914859391	 176.5	
 2072.1018750	 0.769444232	-149.4	 0.076570729	-110.6	 0.076640091	-110.6	 0.914669766	 176.3	
 2077.4141875	 0.770314232	-149.7	 0.076285942	-111.2	 0.076523968	-110.8	 0.914169864	 176.2	
 2082.7265000	 0.770829492	-149.9	 0.075806333	-111.0	 0.075671342	-111.4	 0.913851604	 176.0	
 2088.0388125	 0.772611868	-150.2	 0.075138891	-111.4	 0.075339226	-111.7	 0.914412593	 175.9	
 2093.3511250	 0.771205017	-150.4	 0.074687061	-112.1	 0.074533645	-111.8	 0.914381911	 175.8	
 2098.6634375	 0.772336881	-150.7	 0.074139664	-112.4	 0.073974612	-112.2	 0.913831032	 175.6	
 2103.9757500	 0.771709713	-151.0	 0.073266262	-112.5	 0.073486222	-112.8	 0.914908854	 175.4	
 2109.2880625	 0.772158946	-151.3	 0.072999111	-113.1	 0.072912750	-112.9	 0.915500560	 175.3	
 2114.6003750	 0.772924971	-151.6	 0.072480449	-113.3	 0.072410178	-113.2	 0.914973792	 175.2	
 2119.9126875	 0.772342084	-151.8	 0.071710990	-113.6	 0.072277596	-113.5	 0.915439009	 175.0	
 2125.2250000	 0.774222424	-152.0	 0.071107651	-113.5	 0.071656394	-113.7	 0.915154032	 174.9	
 2130.5373125	 0.773623373	-152.3	 0.070848068	-113.9	 0.070903887	-113.9	 0.915625972	 174.7	
 2135.8496250	 0.774487993	-152.6	 0.070244941	-114.8	 0.070481441	-114.6	 0.915584268	 174.6	
 2141.1619375	 0.773974784	-152.9	 0.069918511	-115.0	 0.069875256	-114.9	 0.916653078	 174.4	
 2146.4742500	 0.775174805	-153.1	 0.069396978	-115.4	 0.069193576	-115.2	 0.915801051	 174.2	
 2151.7865625	 0.774282622	-153.3	 0.068796680	-115.6	 0.069060128	-115.4	 0.916589027	 174.1	
 2157.0988750	 0.775494228	-153.6	 0.068456606	-115.7	 0.068321465	-115.6	 0.915572841	 174.0	
 2162.4111875	 0.774909030	-153.8	 0.067903283	-116.5	 0.067781350	-116.1	 0.915443518	 173.9	
 2167.7235000	 0.774016878	-154.1	 0.067492347	-116.6	 0.067314369	-116.5	 0.916593324	 173.7	
 2173.0358125	 0.775814582	-154.4	 0.066722802	-117.0	 0.066844258	-116.7	 0.916612261	 173.5	
 2178.3481250	 0.775803036	-154.8	 0.066186447	-117.1	 0.066407708	-117.2	 0.916963186	 173.4	
 2183.6604375	 0.776898612	-155.0	 0.065732048	-117.6	 0.065752386	-117.6	 0.916545648	 173.3	
 2188.9727500	 0.777005245	-155.3	 0.065346352	-118.2	 0.065503305	-117.5	 0.916337867	 173.1	
 2194.2850625	 0.777058413	-155.5	 0.064785957	-118.1	 0.064637852	-118.3	 0.916485318	 173.0	
 2199.5973750	 0.777845312	-155.8	 0.064188153	-118.8	 0.064219682	-118.5	 0.916930694	 172.8	
 2204.9096875	 0.777756490	-156.0	 0.063883270	-118.6	 0.063975285	-118.8	 0.916716814	 172.7	
 2210.2220000	 0.776828005	-156.4	 0.063446689	-119.5	 0.063388057	-119.1	 0.916049404	 172.6	
 2215.5343125	 0.779078073	-156.6	 0.062834990	-119.8	 0.062342210	-119.5	 0.917635780	 172.4	
 2220.8466250	 0.778522944	-156.8	 0.062411071	-120.2	 0.062070529	-120.0	 0.917174828	 172.3	
 2226.1589375	 0.778893296	-157.2	 0.061904779	-120.5	 0.061705136	-120.3	 0.917518174	 172.2	
 2231.4712500	 0.779230180	-157.5	 0.061118978	-120.8	 0.061404892	-120.6	 0.917330083	 172.0	
 2236.7835625	 0.779210322	-157.7	 0.061080956	-120.9	 0.060847837	-121.1	 0.917656048	 171.9	
 2242.0958750	 0.780717199	-158.0	 0.060371646	-121.3	 0.060494524	-121.4	 0.917094317	 171.7	
 2247.4081875	 0.780322562	-158.4	 0.059778597	-121.8	 0.059861859	-121.7	 0.918204025	 171.6	
 2252.7205000	 0.780709146	-158.6	 0.059493913	-122.0	 0.059241998	-122.0	 0.917514402	 171.5	
 2258.0328125	 0.781150309	-158.8	 0.059188835	-122.7	 0.059040617	-122.2	 0.917151076	 171.3	
 2263.3451250	 0.781583350	-159.1	 0.058498873	-122.9	 0.058588188	-122.8	 0.917354013	 171.2	
 2268.6574375	 0.782059842	-159.3	 0.057833323	-123.1	 0.057920055	-123.1	 0.917839601	 171.1	
 2273.9697500	 0.782621186	-159.6	 0.057862053	-123.7	 0.057772970	-123.6	 0.918063612	 170.9	
 2279.2820625	 0.782768973	-159.9	 0.056818585	-123.9	 0.056950301	-123.7	 0.918243265	 170.8	
 2284.5943750	 0.783570678	-160.2	 0.056723151	-124.1	 0.056499188	-124.2	 0.917827669	 170.7	
 2289.9066875	 0.782890118	-160.4	 0.055903366	-124.7	 0.055980222	-124.6	 0.918563354	 170.5	
 2295.2190000	 0.783425276	-160.7	 0.055320005	-124.6	 0.055611545	-124.7	 0.918407460	 170.4	
 2300.5313125	 0.783794740	-160.9	 0.055154617	-125.5	 0.055206694	-125.5	 0.918375008	 170.2	
 2305.8436250	 0.784507492	-161.2	 0.054681701	-126.0	 0.055043806	-125.6	 0.918930324	 170.1	
 2311.1559375	 0.785074806	-161.5	 0.053866249	-126.3	 0.054445022	-126.0	 0.917947997	 170.0	
 2316.4682500	 0.784960927	-161.7	 0.053645865	-126.6	 0.053494618	-126.1	 0.918654813	 169.9	
 2321.7805625	 0.785238956	-161.9	 0.052725048	-126.9	 0.053093485	-126.7	 0.919550402	 169.7	
 2327.0928750	 0.785994948	-162.3	 0.052522103	-127.8	 0.052616131	-127.2	 0.918160372	 169.6	
 2332.4051875	 0.786780785	-162.6	 0.051938748	-127.5	 0.052165387	-127.7	 0.919081958	 169.5	
 2337.7175000	 0.786093330	-162.9	 0.051830907	-127.8	 0.051743566	-127.7	 0.918650992	 169.4	
 2343.0298125	 0.787126239	-163.0	 0.051634995	-128.9	 0.051455045	-128.1	 0.918791524	 169.2	
 2348.3421250	 0.787055832	-163.3	 0.050915360	-128.5	 0.050651012	-128.6	 0.918598561	 169.1	
 2353.6544375	 0.787182213	-163.5	 0.050806002	-129.0	 0.050608822	-129.1	 0.918285499	 168.9	
 2358.9667500	 0.788456246	-163.8	 0.049830262	-129.7	 0.049899220	-129.7	 0.918999673	 168.8	
 2364.2790625	 0.788327240	-164.0	 0.049147750	-130.0	 0.049455471	-129.9	 0.918449804	 168.8	
 2369.5913750	 0.788266513	-164.3	 0.049415475	-130.2	 0.049123721	-130.0	 0.919126040	 168.6	
 2374.9036875	 0.788839222	-164.5	 0.048704849	-130.7	 0.048404000	-130.4	 0.919363096	 168.5	
 2380.2160000	 0.788284253	-164.8	 0.048215629	-130.4	 0.048183068	-131.0	 0.919768855	 168.4	
 2385.5283125	 0.789123685	-165.1	 0.047580594	-131.3	 0.047849879	-131.1	 0.918757792	 168.2	
 2390.8406250	 0.788758669	-165.3	 0.047302599	-131.9	 0.046998427	-132.1	 0.919571220	 168.1	
 2396.1529375	 0.789766115	-165.6	 0.046763175	-132.6	 0.046612351	-132.2	 0.919097206	 168.0	
 2401.4652500	 0.790790512	-165.9	 0.046631631	-132.8	 0.046435565	-132.5	 0.918705229	 167.8	
 2406.7775625	 0.789344289	-166.2	 0.045667278	-133.2	 0.045868183	-132.7	 0.919531325	 167.8	
 2412.0898750	 0.790743510	-166.4	 0.045692832	-133.2	 0.045262921	-133.3	 0.918454255	 167.6	
 2417.4021875	 0.790070923	-166.7	 0.044924029	-134.3	 0.044814893	-133.5	 0.918393374	 167.5	
 2422.7145000	 0.791195923	-167.0	 0.044280864	-134.3	 0.044280095	-134.0	 0.918731868	 167.4	
 2428.0268125	 0.791327048	-167.4	 0.044023851	-134.6	 0.044036253	-134.9	 0.918444121	 167.3	
 2433.3391250	 0.791598497	-167.5	 0.043971682	-135.2	 0.043535040	-134.8	 0.918772047	 167.2	
 2438.6514375	 0.792225025	-167.8	 0.043461539	-135.4	 0.043608842	-135.3	 0.918683763	 167.0	
 2443.9637500	 0.792769613	-168.1	 0.042843879	-135.8	 0.042806883	-135.6	 0.918832193	 166.9	
 2449.2760625	 0.792422350	-168.4	 0.042618571	-136.2	 0.042382815	-136.7	 0.919437563	 166.8	
 2454.5883750	 0.792890837	-168.6	 0.042007598	-137.2	 0.042349031	-136.7	 0.919013771	 166.7	
 2459.9006875	 0.793124618	-169.0	 0.041689590	-137.4	 0.041587155	-137.3	 0.919480336	 166.5	
 2465.2130000	 0.794102745	-169.2	 0.040993432	-137.8	 0.040826941	-137.9	 0.919720851	 166.4	
 2470.5253125	 0.792795114	-169.5	 0.040670244	-138.5	 0.040674285	-137.9	 0.918864420	 166.3	
 2475.8376250	 0.794573728	-169.8	 0.040483836	-138.8	 0.040171528	-138.3	 0.919592339	 166.2	
 2481.1499375	 0.794654836	-170.1	 0.039618325	-139.5	 0.039811345	-139.0	 0.918795599	 166.1	
 2486.4622500	 0.795266729	-170.3	 0.039210016	-139.4	 0.039289031	-138.9	 0.919163663	 165.9	
 2491.7745625	 0.796177437	-170.6	 0.039083073	-140.2	 0.038885245	-140.3	 0.918980604	 165.8	
 2497.0868750	 0.796362788	-170.8	 0.038324879	-140.7	 0.038244319	-140.5	 0.918662353	 165.7	
 2502.3991875	 0.796462767	-171.1	 0.038240487	-140.9	 0.037976671	-140.5	 0.918975646	 165.6	
 2507.7115000	 0.796921364	-171.3	 0.037837995	-141.3	 0.037423340	-141.3	 0.919586274	 165.5	
 2513.0238125	 0.797027222	-171.6	 0.037075617	-141.7	 0.037238183	-141.5	 0.919180546	 165.4	
 2518.3361250	 0.797524927	-171.9	 0.036969968	-142.4	 0.036771521	-141.6	 0.919259174	 165.3	
 2523.6484375	 0.797481961	-172.1	 0.036424669	-143.1	 0.036610726	-142.6	 0.918875626	 165.1	
 2528.9607500	 0.798425620	-172.4	 0.036044677	-143.3	 0.035882809	-143.5	 0.918510530	 165.0	
 2534.2730625	 0.797827440	-172.7	 0.035418698	-144.1	 0.035506132	-143.7	 0.918675291	 165.0	
 2539.5853750	 0.798512713	-172.9	 0.035140537	-145.0	 0.035344610	-144.5	 0.919314451	 164.8	
 2544.8976875	 0.799354879	-173.2	 0.034634295	-144.8	 0.035115976	-144.9	 0.919136944	 164.7	
 2550.2100000	 0.799734060	-173.4	 0.034286560	-145.4	 0.034048149	-145.7	 0.919131079	 164.6	
 2555.5223125	 0.799498419	-173.6	 0.033734723	-146.3	 0.033860127	-145.6	 0.919281192	 164.4	
 2560.8346250	 0.800881302	-173.9	 0.033488052	-146.5	 0.033342210	-146.5	 0.919614609	 164.3	
 2566.1469375	 0.799955223	-174.1	 0.033328135	-146.6	 0.032963839	-146.8	 0.918274587	 164.3	
 2571.4592500	 0.800993340	-174.3	 0.032558478	-147.8	 0.032539778	-146.7	 0.918223102	 164.2	
 2576.7715625	 0.800339022	-174.7	 0.032242044	-148.3	 0.032389798	-147.7	 0.919403302	 164.0	
 2582.0838750	 0.800469838	-175.0	 0.032283551	-149.0	 0.031948281	-148.0	 0.918963061	 163.9	
 2587.3961875	 0.801555915	-175.2	 0.031843391	-149.8	 0.031509198	-149.1	 0.919651543	 163.8	
 2592.7085000	 0.802285371	-175.4	 0.030962590	-149.8	 0.031128341	-149.6	 0.918820991	 163.7	
 2598.0208125	 0.801187485	-175.7	 0.030735074	-149.5	 0.030790971	-150.1	 0.919560684	 163.6	
 2603.3331250	 0.803103243	-176.0	 0.030332055	-151.1	 0.030306497	-151.1	 0.919672073	 163.5	
 2608.6454375	 0.802425961	-176.3	 0.030092329	-152.4	 0.029803033	-151.6	 0.918458028	 163.4	
 2613.9577500	 0.802796666	-176.5	 0.029621566	-152.1	 0.029324073	-151.3	 0.918253721	 163.2	
 2619.2700625	 0.802942037	-176.8	 0.029043077	-153.2	 0.029232571	-153.1	 0.919069065	 163.2	
 2624.5823750	 0.803053104	-177.0	 0.028884907	-153.3	 0.028819125	-153.5	 0.918593823	 163.0	
 2629.8946875	 0.802779880	-177.3	 0.028455476	-154.3	 0.028584733	-154.1	 0.917699809	 162.9	
 2635.2070000	 0.805169789	-177.6	 0.028480547	-154.9	 0.028296913	-154.7	 0.918284711	 162.8	
 2640.5193125	 0.803893640	-177.9	 0.027323549	-155.2	 0.027273186	-155.4	 0.918295481	 162.7	
 2645.8316250	 0.803718993	-178.1	 0.027562595	-156.2	 0.027068564	-156.5	 0.918321349	 162.6	
 2651.1439375	 0.804530202	-178.4	 0.026984479	-156.4	 0.026438220	-157.0	 0.918308803	 162.4	
 2656.4562500	 0.804583819	-178.7	 0.026704674	-157.7	 0.026138862	-157.1	 0.918161116	 162.3	
 2661.7685625	 0.805543149	-178.9	 0.026322368	-159.0	 0.026006409	-157.5	 0.918345666	 162.2	
 2667.0808750	 0.806056436	-179.2	 0.025791578	-159.0	 0.025548972	-159.2	 0.917608455	 162.1	
 2672.3931875	 0.804577933	-179.5	 0.025233444	-160.0	 0.025347637	-159.7	 0.917534157	 162.1	
 2677.7055000	 0.805805247	-179.7	 0.025063285	-160.6	 0.025120865	-160.0	 0.917797348	 162.0	
 2683.0178125	 0.807056114	 180.0	 0.024778942	-162.6	 0.024729554	-160.4	 0.917268317	 161.8	
 2688.3301250	 0.806500405	 179.6	 0.023872618	-161.3	 0.024146646	-161.1	 0.916814802	 161.7	
 2693.6424375	 0.806943022	 179.5	 0.024259970	-162.4	 0.023780906	-162.4	 0.917765000	 161.5	
 2698.9547500	 0.807428986	 179.2	 0.023772261	-163.8	 0.023632784	-163.3	 0.917166744	 161.5	
 2704.2670625	 0.807203994	 178.9	 0.023091992	-164.3	 0.023340511	-163.2	 0.917239532	 161.3	
 2709.5793750	 0.806765564	 178.8	 0.022978332	-164.5	 0.022880784	-165.2	 0.917588909	 161.2	
 2714.8916875	 0.807451045	 178.4	 0.022693119	-166.9	 0.022493725	-166.1	 0.917367865	 161.1	
 2720.2040000	 0.808424646	 178.1	 0.022095073	-167.2	 0.022310957	-166.3	 0.916769506	 161.1	
 2725.5163125	 0.808593526	 177.9	 0.021887538	-168.7	 0.021817472	-167.9	 0.917243234	 161.0	
 2730.8286250	 0.806964947	 177.6	 0.021485449	-169.7	 0.021663733	-168.7	 0.916797968	 160.8	
 2736.1409375	 0.808313830	 177.4	 0.021074323	-170.9	 0.021231830	-169.4	 0.917418115	 160.7	
 2741.4532500	 0.807084429	 177.1	 0.021045739	-170.9	 0.021046337	-171.1	 0.916679586	 160.6	
 2746.7655625	 0.809926565	 176.9	 0.020767475	-171.5	 0.020549367	-170.2	 0.915951778	 160.6	
 2752.0778750	 0.809543289	 176.6	 0.020049993	-172.9	 0.020303984	-172.6	 0.916539122	 160.4	
 2757.3901875	 0.808854556	 176.4	 0.019561004	-174.5	 0.019685906	-173.3	 0.916448999	 160.3	
 2762.7025000	 0.808271689	 176.1	 0.019915165	-174.9	 0.019634013	-174.7	 0.916533438	 160.2	
 2768.0148125	 0.809282087	 176.0	 0.019130820	-176.1	 0.019160384	-175.9	 0.916332040	 160.1	
 2773.3271250	 0.810833360	 175.6	 0.019292726	-177.2	 0.018477125	-175.8	 0.916551784	 160.0	
 2778.6394375	 0.809260575	 175.4	 0.018537429	-178.5	 0.018783368	-177.8	 0.916409421	 159.9	
 2783.9517500	 0.809820441	 175.0	 0.018399917	-178.6	 0.018299841	-179.5	 0.916181229	 159.8	
 2789.2640625	 0.810273191	 174.9	 0.017456502	 178.9	 0.017674876	 179.7	 0.915892862	 159.7	
 2794.5763750	 0.809878574	 174.5	 0.017977109	 178.4	 0.017653327	 179.3	 0.915456607	 159.6	
 2799.8886875	 0.811259692	 174.2	 0.017420853	 177.8	 0.017588953	 177.4	 0.915995414	 159.5	
 2805.2010000	 0.810591801	 174.0	 0.017106659	 175.9	 0.017253446	 177.1	 0.915620999	 159.4	
 2810.5133125	 0.810255409	 173.9	 0.017071751	 174.4	 0.016860669	 174.2	 0.915546566	 159.3	
 2815.8256250	 0.810912807	 173.6	 0.016562939	 173.8	 0.016802297	 173.6	 0.915816550	 159.2	
 2821.1379375	 0.811137250	 173.3	 0.016128370	 171.5	 0.016273761	 172.0	 0.915447435	 159.1	
 2826.4502500	 0.811413395	 173.0	 0.016004393	 169.8	 0.016186983	 171.4	 0.916007276	 159.0	
 2831.7625625	 0.811316774	 172.7	 0.015561336	 170.5	 0.015517567	 170.3	 0.915051135	 158.9	
 2837.0748750	 0.810964534	 172.5	 0.015694547	 167.9	 0.015686560	 168.3	 0.914269610	 158.8	
 2842.3871875	 0.810690267	 172.2	 0.015519356	 166.7	 0.015436577	 166.9	 0.914815393	 158.6	
 2847.6995000	 0.810997160	 171.9	 0.015064683	 164.9	 0.015170843	 164.8	 0.914756773	 158.6	
 2853.0118125	 0.810066365	 171.7	 0.015063101	 162.8	 0.014631639	 163.8	 0.914838390	 158.5	
 2858.3241250	 0.810113862	 171.4	 0.014687124	 160.9	 0.014428017	 161.4	 0.914741872	 158.4	
 2863.6364375	 0.811313494	 171.1	 0.014672912	 159.2	 0.014447439	 160.2	 0.914135077	 158.3	
 2868.9487500	 0.811728489	 170.8	 0.014496672	 157.7	 0.014145954	 159.2	 0.913876749	 158.2	
 2874.2610625	 0.811552148	 170.5	 0.014307684	 155.4	 0.014384317	 157.3	 0.914209060	 158.1	
 2879.5733750	 0.811323940	 170.3	 0.014182701	 154.1	 0.013877994	 155.7	 0.914472096	 158.0	
 2884.8856875	 0.812499288	 169.9	 0.013722065	 153.2	 0.013585845	 153.0	 0.913800884	 157.9	
 2890.1980000	 0.811079351	 169.7	 0.013711154	 152.0	 0.013632338	 152.2	 0.913953170	 157.8	
 2895.5103125	 0.811925906	 169.4	 0.013714598	 150.0	 0.013567319	 149.4	 0.913052896	 157.6	
 2900.8226250	 0.812362406	 169.1	 0.013617654	 146.1	 0.013303939	 147.3	 0.913809379	 157.6	
 2906.1349375	 0.811873287	 168.9	 0.013247375	 143.5	 0.013230105	 146.3	 0.913299208	 157.5	
 2911.4472500	 0.812329010	 168.7	 0.013527800	 144.0	 0.013331961	 144.1	 0.913046641	 157.4	
 2916.7595625	 0.811950005	 168.3	 0.012931105	 140.8	 0.012942315	 140.2	 0.913638589	 157.3	
 2922.0718750	 0.811880316	 168.1	 0.012927651	 139.8	 0.013397319	 139.4	 0.912829275	 157.1	
 2927.3841875	 0.812839274	 167.8	 0.013143944	 138.0	 0.013111027	 136.6	 0.912552610	 157.1	
 2932.6965000	 0.811414561	 167.6	 0.012825897	 134.5	 0.012727342	 134.9	 0.912432050	 157.0	
 2938.0088125	 0.811884324	 167.3	 0.012689351	 133.1	 0.012984501	 134.1	 0.912769918	 156.9	
 2943.3211250	 0.811871135	 167.0	 0.012658075	 132.1	 0.012544259	 129.3	 0.912590045	 156.8	
 2948.6334375	 0.812148306	 166.8	 0.012557813	 131.2	 0.012675995	 129.3	 0.911979180	 156.7	
 2953.9457500	 0.811696716	 166.5	 0.012812056	 127.7	 0.012466543	 126.6	 0.911657176	 156.6	
 2959.2580625	 0.812261778	 166.3	 0.013062245	 125.0	 0.012734868	 124.5	 0.911736663	 156.5	
 2964.5703750	 0.810883817	 166.0	 0.013171487	 125.2	 0.012382505	 123.7	 0.910923381	 156.4	
 2969.8826875	 0.812578307	 165.8	 0.012396534	 121.7	 0.012748379	 122.1	 0.911291549	 156.3	
 2975.1950000	 0.811733310	 165.5	 0.013090396	 119.6	 0.012685323	 117.9	 0.910943659	 156.1	
 2980.5073125	 0.811236790	 165.2	 0.012632742	 116.5	 0.012765416	 116.9	 0.911059767	 156.0	
 2985.8196250	 0.811271410	 164.9	 0.012801375	 113.4	 0.012613141	 116.1	 0.910163378	 156.0	
 2991.1319375	 0.811385339	 164.6	 0.013045201	 113.2	 0.013037255	 113.0	 0.910034611	 155.9	
 2996.4442500	 0.810377012	 164.3	 0.013049379	 110.6	 0.013102150	 109.5	 0.910508796	 155.8	
 3001.7565625	 0.810535283	 164.1	 0.013189320	 108.9	 0.013016821	 110.5	 0.910123797	 155.6	
 3007.0688750	 0.811180791	 163.7	 0.013462207	 106.5	 0.013340291	 107.7	 0.910459800	 155.5	
 3012.3811875	 0.809532395	 163.5	 0.013472963	 105.6	 0.013399484	 105.2	 0.910066072	 155.5	
 3017.6935000	 0.809675038	 163.2	 0.013365824	 103.5	 0.013573810	 105.0	 0.910217252	 155.3	
 3023.0058125	 0.810180245	 162.8	 0.013986570	 101.7	 0.013787812	 101.9	 0.909398232	 155.2	
 3028.3181250	 0.810551415	 162.6	 0.013530764	 99.2	 0.013825803	 100.3	 0.909372290	 155.1	
 3033.6304375	 0.809874363	 162.3	 0.014244289	 97.6	 0.013969481	 97.0	 0.908458148	 155.1	
 3038.9427500	 0.808761731	 162.0	 0.014147491	 96.6	 0.013868933	 97.7	 0.908708519	 155.0	
 3044.2550625	 0.808426503	 161.7	 0.014458216	 93.2	 0.014318322	 95.5	 0.908547540	 154.9	
 3049.5673750	 0.808091151	 161.5	 0.014752678	 92.1	 0.014397146	 92.9	 0.909073451	 154.7	
 3054.8796875	 0.808087056	 161.2	 0.014975853	 91.9	 0.014704811	 92.5	 0.907410137	 154.6	
 3060.1920000	 0.809469199	 160.9	 0.014663640	 89.3	 0.014944019	 90.3	 0.908024092	 154.6	
 3065.5043125	 0.807727233	 160.6	 0.015472050	 88.5	 0.015482770	 89.8	 0.908099349	 154.4	
 3070.8166250	 0.808239480	 160.3	 0.015215501	 87.1	 0.015349351	 86.9	 0.907677887	 154.4	
 3076.1289375	 0.808086584	 160.0	 0.015404240	 85.2	 0.015605151	 85.6	 0.907129538	 154.3	
 3081.4412500	 0.807304460	 159.7	 0.015980575	 84.7	 0.015667668	 83.4	 0.906873276	 154.2	
 3086.7535625	 0.807942410	 159.4	 0.016351216	 82.2	 0.016107495	 82.1	 0.906995871	 154.0	
 3092.0658750	 0.806803253	 159.2	 0.016327259	 81.4	 0.016536925	 80.4	 0.906270057	 154.0	
 3097.3781875	 0.806765892	 158.9	 0.016590964	 79.2	 0.016415554	 79.3	 0.906323564	 153.9	
 3102.6905000	 0.807211292	 158.5	 0.016881941	 78.0	 0.016855204	 79.3	 0.906523340	 153.8	
 3108.0028125	 0.807355912	 158.3	 0.017267214	 75.9	 0.017035194	 77.8	 0.906123592	 153.7	
 3113.3151250	 0.806219210	 158.0	 0.017151673	 76.9	 0.017371431	 75.3	 0.905814603	 153.6	
 3118.6274375	 0.805549941	 157.8	 0.017800855	 75.0	 0.017799846	 76.3	 0.905453597	 153.5	
 3123.9397500	 0.805313485	 157.5	 0.018198479	 74.2	 0.017756717	 73.7	 0.905482323	 153.4	
 3129.2520625	 0.805462674	 157.2	 0.018387686	 73.8	 0.018211623	 73.2	 0.905519989	 153.3	
 3134.5643750	 0.805302761	 156.9	 0.018368330	 72.1	 0.018605561	 70.8	 0.905155683	 153.2	
 3139.8766875	 0.803790909	 156.6	 0.019096836	 70.4	 0.018605829	 70.9	 0.904855952	 153.1	
 3145.1890000	 0.804443605	 156.3	 0.018745233	 70.2	 0.018945516	 69.4	 0.904777985	 153.0	
 3150.5013125	 0.804483532	 156.0	 0.019161398	 68.2	 0.019512939	 68.0	 0.903783305	 152.9	
 3155.8136250	 0.802620157	 155.8	 0.019587796	 67.9	 0.019760727	 67.3	 0.904678622	 152.8	
 3161.1259375	 0.803517319	 155.6	 0.019647145	 65.8	 0.019732646	 66.3	 0.904062358	 152.7	
 3166.4382500	 0.802120342	 155.3	 0.020069687	 65.2	 0.020348046	 65.2	 0.904454564	 152.6	
 3171.7505625	 0.802693204	 155.0	 0.020452215	 64.2	 0.020603928	 64.1	 0.903058777	 152.5	
 3177.0628750	 0.801714564	 154.8	 0.020937713	 63.7	 0.020760249	 64.6	 0.902460133	 152.4	
 3182.3751875	 0.801028080	 154.4	 0.020948436	 62.6	 0.020966849	 62.3	 0.902230405	 152.3	
 3187.6875000	 0.800464132	 154.1	 0.021234763	 61.4	 0.021129540	 62.2	 0.902617752	 152.2	
 3192.9998125	 0.800169503	 153.9	 0.021559685	 60.6	 0.021776147	 60.4	 0.902310038	 152.1	
 3198.3121250	 0.800418362	 153.4	 0.022128296	 60.6	 0.021668852	 60.0	 0.902263092	 152.0	
 3203.6244375	 0.799110725	 153.2	 0.022030705	 59.1	 0.021990676	 58.5	 0.902526624	 152.0	
 3208.9367500	 0.798735361	 152.9	 0.023100308	 58.5	 0.022654781	 58.2	 0.902105471	 151.9	
 3214.2490625	 0.799078650	 152.6	 0.023179633	 57.9	 0.022775146	 57.4	 0.902070379	 151.8	
 3219.5613750	 0.798258656	 152.3	 0.023459655	 56.9	 0.023132726	 56.4	 0.902265446	 151.7	
 3224.8736875	 0.795902752	 152.0	 0.023333348	 55.8	 0.023502874	 56.2	 0.900802956	 151.6	
 3230.1860000	 0.796068509	 151.7	 0.023868343	 54.6	 0.024018497	 55.2	 0.900732727	 151.5	
 3235.4983125	 0.796109556	 151.3	 0.024359571	 54.0	 0.024230602	 53.4	 0.900949183	 151.4	
 3240.8106250	 0.794009268	 151.0	 0.024700760	 53.0	 0.024737031	 53.2	 0.900194039	 151.3	
 3246.1229375	 0.795055398	 150.8	 0.024903184	 52.3	 0.024775419	 52.7	 0.899747183	 151.2	
 3251.4352500	 0.792920907	 150.4	 0.025366223	 52.1	 0.024928692	 51.4	 0.898933139	 151.1	
 3256.7475625	 0.792262801	 150.1	 0.025297204	 50.8	 0.025406704	 51.1	 0.899017906	 151.0	
 3262.0598750	 0.793282120	 149.8	 0.025968712	 50.6	 0.026095234	 50.0	 0.899202303	 151.0	
 3267.3721875	 0.792962670	 149.5	 0.026093061	 49.7	 0.025904604	 49.6	 0.897889060	 150.8	
 3272.6845000	 0.791693228	 149.2	 0.026677937	 48.5	 0.026438630	 49.6	 0.898376015	 150.7	
 3277.9968125	 0.790677101	 148.8	 0.026800580	 48.3	 0.026841135	 48.6	 0.897628624	 150.6	
 3283.3091250	 0.790510550	 148.5	 0.027304986	 47.6	 0.027174098	 47.8	 0.897833969	 150.6	
 3288.6214375	 0.789016301	 148.3	 0.027355585	 47.2	 0.027251628	 46.2	 0.896464086	 150.5	
 3293.9337500	 0.788792068	 147.9	 0.027549487	 46.1	 0.027709733	 46.0	 0.896413458	 150.4	
 3299.2460625	 0.789007309	 147.7	 0.027878956	 45.8	 0.027888573	 45.5	 0.895360214	 150.3	
 3304.5583750	 0.788245769	 147.4	 0.028532301	 45.0	 0.027991031	 44.8	 0.896062215	 150.2	
 3309.8706875	 0.787070626	 147.1	 0.028569488	 44.9	 0.028733961	 44.1	 0.895392267	 150.1	
 3315.1830000	 0.786803179	 146.8	 0.028900102	 43.1	 0.029129733	 43.9	 0.895383198	 150.0	
 3320.4953125	 0.785031522	 146.5	 0.029176109	 43.1	 0.029234907	 43.2	 0.895491846	 150.0	
 3325.8076250	 0.784932706	 146.2	 0.029650185	 43.2	 0.029711637	 42.3	 0.895239492	 149.9	
 3331.1199375	 0.783924657	 145.9	 0.029944578	 41.6	 0.030182319	 41.9	 0.895068824	 149.8	
 3336.4322500	 0.783122160	 145.6	 0.030257642	 41.7	 0.030229950	 41.7	 0.894886417	 149.7	
 3341.7445625	 0.782860981	 145.3	 0.030560193	 40.4	 0.030095093	 40.5	 0.893683817	 149.6	
 3347.0568750	 0.781241301	 145.1	 0.031126715	 39.9	 0.030845674	 39.5	 0.893373017	 149.4	
 3352.3691875	 0.781234271	 144.8	 0.031308897	 39.5	 0.031405938	 39.6	 0.893288648	 149.4	
 3357.6815000	 0.779686343	 144.4	 0.031480049	 39.3	 0.031487000	 39.3	 0.893275497	 149.3	
 3362.9938125	 0.779100470	 144.1	 0.031865100	 38.0	 0.031776440	 38.7	 0.892688610	 149.2	
 3368.3061250	 0.778173397	 143.9	 0.032319864	 38.2	 0.032123498	 38.2	 0.891918299	 149.1	
 3373.6184375	 0.777445815	 143.6	 0.032684952	 37.4	 0.032484546	 38.2	 0.891942125	 149.1	
 3378.9307500	 0.776405272	 143.3	 0.033069116	 37.1	 0.032684632	 36.9	 0.891724798	 149.0	
 3384.2430625	 0.775096640	 143.1	 0.033343133	 36.4	 0.033146718	 36.5	 0.891039184	 148.9	
 3389.5553750	 0.773519853	 142.8	 0.033872463	 35.3	 0.033578938	 35.7	 0.890059377	 148.8	
 3394.8676875	 0.773194759	 142.4	 0.033939896	 34.9	 0.033962698	 35.4	 0.890228756	 148.8	
 3400.1800000	 0.771934483	 142.1	 0.033861693	 34.9	 0.034120602	 35.1	 0.889721854	 148.6	
 3405.4923125	 0.770806182	 141.8	 0.034776992	 34.3	 0.034692616	 33.9	 0.889053601	 148.5	
 3410.8046250	 0.769275268	 141.6	 0.034593286	 33.6	 0.035099968	 33.3	 0.889528290	 148.4	
 3416.1169375	 0.768456015	 141.2	 0.035152611	 33.5	 0.035440553	 33.5	 0.888930652	 148.4	
 3421.4292500	 0.766673297	 140.9	 0.035660820	 32.8	 0.035825971	 32.8	 0.887895189	 148.3	
 3426.7415625	 0.765821233	 140.6	 0.036051866	 32.3	 0.035725828	 32.8	 0.887815912	 148.2	
 3432.0538750	 0.765516811	 140.2	 0.036209095	 31.4	 0.036220865	 31.7	 0.887915124	 148.1	
 3437.3661875	 0.764040430	 140.0	 0.036330024	 31.0	 0.036508306	 31.2	 0.887009208	 148.0	
 3442.6785000	 0.761384548	 139.7	 0.036660543	 30.6	 0.036775706	 30.6	 0.887437088	 148.0	
 3447.9908125	 0.760762250	 139.3	 0.037273490	 30.2	 0.037087133	 30.3	 0.885475854	 147.9	
 3453.3031250	 0.760095104	 139.0	 0.037562964	 29.7	 0.037506219	 29.7	 0.886755507	 147.8	
 3458.6154375	 0.759388142	 138.7	 0.037810930	 29.5	 0.037700141	 29.5	 0.886102975	 147.7	
 3463.9277500	 0.758666316	 138.3	 0.038031383	 28.8	 0.037957784	 28.8	 0.885721835	 147.6	
 3469.2400625	 0.756201317	 138.0	 0.038454401	 28.3	 0.038657058	 28.6	 0.884660006	 147.6	
 3474.5523750	 0.755318057	 137.7	 0.038796937	 27.8	 0.038518420	 27.9	 0.885019150	 147.5	
 3479.8646875	 0.752813232	 137.4	 0.038908645	 27.5	 0.039304101	 27.8	 0.884215775	 147.4	
 3485.1770000	 0.752801167	 137.1	 0.039717805	 27.0	 0.039373912	 27.1	 0.883512672	 147.4	
 3490.4893125	 0.749823746	 136.7	 0.039855907	 26.4	 0.039772399	 26.0	 0.883656196	 147.2	
 3495.8016250	 0.749973149	 136.4	 0.039726753	 25.9	 0.040032453	 26.2	 0.883427366	 147.2	
 3501.1139375	 0.748753919	 136.1	 0.040350087	 25.4	 0.040260419	 25.8	 0.882601167	 147.1	
 3506.4262500	 0.747046032	 135.8	 0.040535995	 24.9	 0.040943280	 25.1	 0.882633048	 147.1	
 3511.7385625	 0.745603887	 135.5	 0.041284150	 24.4	 0.041115749	 24.8	 0.882029097	 146.9	
 3517.0508750	 0.743494142	 135.2	 0.041088538	 24.3	 0.041452611	 24.0	 0.881090320	 146.9	
 3522.3631875	 0.742980652	 135.0	 0.041395336	 23.9	 0.041626264	 23.9	 0.881049128	 146.8	
 3527.6755000	 0.741725803	 134.6	 0.041785500	 23.7	 0.041783964	 23.1	 0.880312831	 146.7	
 3532.9878125	 0.739946647	 134.2	 0.042629523	 22.8	 0.042494394	 22.7	 0.879939066	 146.6	
 3538.3001250	 0.738865913	 134.0	 0.042688440	 22.2	 0.042332913	 22.4	 0.879428678	 146.6	
 3543.6124375	 0.738541581	 133.6	 0.043022392	 21.8	 0.043213256	 21.9	 0.879211610	 146.5	
 3548.9247500	 0.735616015	 133.5	 0.043174462	 21.5	 0.043386451	 21.5	 0.878656082	 146.4	
 3554.2370625	 0.735013871	 133.2	 0.043786660	 21.6	 0.043665993	 21.4	 0.878177026	 146.3	
 3559.5493750	 0.732345731	 132.8	 0.043702929	 20.8	 0.044059615	 20.7	 0.877877928	 146.2	
 3564.8616875	 0.730911130	 132.5	 0.043961345	 20.3	 0.044360636	 20.0	 0.877497579	 146.1	
 3570.1740000	 0.728765509	 132.2	 0.044734127	 19.8	 0.044328013	 19.8	 0.876254932	 146.1	
 3575.4863125	 0.727653765	 132.0	 0.045117291	 19.3	 0.044614545	 19.1	 0.876484738	 146.0	
 3580.7986250	 0.727244967	 131.6	 0.045211221	 19.0	 0.045338327	 19.0	 0.875438549	 145.9	
 3586.1109375	 0.724293238	 131.3	 0.045607249	 18.9	 0.045433401	 18.6	 0.875663199	 145.8	
 3591.4232500	 0.722794234	 131.1	 0.045952933	 18.5	 0.045947314	 18.3	 0.875436041	 145.7	
 3596.7355625	 0.720808992	 130.8	 0.045864331	 17.5	 0.046459195	 17.8	 0.873835294	 145.6	
 3602.0478750	 0.719266418	 130.5	 0.046904111	 17.1	 0.046762639	 17.2	 0.874271635	 145.6	
 3607.3601875	 0.716737348	 130.2	 0.046906127	 16.5	 0.046899006	 17.0	 0.873143278	 145.5	
 3612.6725000	 0.716388851	 129.8	 0.047324074	 16.4	 0.047312306	 16.4	 0.873323876	 145.4	
 3617.9848125	 0.713724243	 129.5	 0.047604738	 16.2	 0.047878541	 16.1	 0.873237324	 145.3	
 3623.2971250	 0.711706509	 129.2	 0.047732757	 15.4	 0.047748583	 15.9	 0.872591632	 145.2	
 3628.6094375	 0.710075273	 128.9	 0.047874512	 15.4	 0.048256131	 15.2	 0.872116558	 145.2	
 3633.9217500	 0.707457706	 128.6	 0.048336402	 14.1	 0.048786071	 15.1	 0.871071516	 145.2	
 3639.2340625	 0.704988953	 128.3	 0.049151354	 14.2	 0.048980325	 14.3	 0.870843252	 145.0	
 3644.5463750	 0.703046348	 127.9	 0.048928467	 13.9	 0.049167288	 13.9	 0.870594358	 145.0	
 3649.8586875	 0.702199041	 127.6	 0.049459950	 13.6	 0.049586930	 13.5	 0.869994943	 144.9	
 3655.1710000	 0.700418790	 127.3	 0.049716003	 13.0	 0.049780860	 12.8	 0.869227540	 144.9	
 3660.4833125	 0.699128819	 127.0	 0.050215739	 12.7	 0.050109990	 12.6	 0.868907074	 144.8	
 3665.7956250	 0.696030493	 126.6	 0.050711301	 11.7	 0.050679555	 12.3	 0.869063619	 144.7	
 3671.1079375	 0.694023142	 126.3	 0.050826198	 11.4	 0.050891103	 11.7	 0.867759287	 144.6	
 3676.4202500	 0.692715362	 126.0	 0.051072045	 11.6	 0.051006739	 11.4	 0.867607690	 144.6	
 3681.7325625	 0.690013373	 125.7	 0.051754088	 10.8	 0.051741254	 11.1	 0.867108928	 144.5	
 3687.0448750	 0.687840384	 125.4	 0.051752128	 10.9	 0.051655874	 10.2	 0.867011412	 144.4	
 3692.3571875	 0.687229134	 125.1	 0.052162063	 10.3	 0.052226354	  9.9	 0.865623948	 144.3	
 3697.6695000	 0.684306434	 124.8	 0.052482312	  9.7	 0.052564899	  9.5	 0.865870851	 144.3	
 3702.9818125	 0.681831397	 124.4	 0.052720984	  9.3	 0.052839424	  9.1	 0.865830107	 144.2	
 3708.2941250	 0.680212523	 124.2	 0.053038056	  8.7	 0.053106555	  8.8	 0.865272863	 144.1	
 3713.6064375	 0.678401251	 123.8	 0.053608555	  7.7	 0.053355712	  8.3	 0.864188521	 144.0	
 3718.9187500	 0.675559128	 123.5	 0.053947298	  7.8	 0.053618626	  8.0	 0.863209200	 143.9	
 3724.2310625	 0.673976772	 123.2	 0.054521827	  7.5	 0.054337968	  7.5	 0.863489645	 143.9	
 3729.5433750	 0.672122154	 122.9	 0.054520316	  7.2	 0.054639596	  7.1	 0.863538385	 143.9	
 3734.8556875	 0.669034952	 122.7	 0.055052522	  6.4	 0.054795938	  6.5	 0.863795740	 143.8	
 3740.1680000	 0.667024942	 122.4	 0.054870339	  6.3	 0.055151733	  6.0	 0.862061194	 143.7	
 3745.4803125	 0.664850089	 122.1	 0.055371189	  5.4	 0.055457475	  6.1	 0.861162430	 143.6	
 3750.7926250	 0.662695421	 121.8	 0.055790507	  5.4	 0.055679020	  5.4	 0.861729093	 143.5	
 3756.1049375	 0.660086948	 121.4	 0.055743929	  4.8	 0.055760429	  5.1	 0.860780944	 143.5	
 3761.4172500	 0.658861130	 121.2	 0.056653453	  4.7	 0.056292759	  4.3	 0.860451588	 143.4	
 3766.7295625	 0.655832007	 120.9	 0.056902340	  3.9	 0.056541190	  3.7	 0.860807238	 143.3	
 3772.0418750	 0.653353341	 120.6	 0.057038583	  3.5	 0.057027349	  3.7	 0.859879785	 143.3	
 3777.3541875	 0.650473299	 120.3	 0.057362194	  3.2	 0.057477562	  3.1	 0.858966672	 143.3	
 3782.6665000	 0.647481641	 120.0	 0.057658587	  2.9	 0.057614975	  2.7	 0.858938779	 143.2	
 3787.9788125	 0.645705525	 119.8	 0.058068832	  2.4	 0.057825051	  2.5	 0.858889581	 143.1	
 3793.2911250	 0.643478286	 119.4	 0.058276675	  2.3	 0.058432818	  2.1	 0.858470347	 143.1	
 3798.6034375	 0.640871995	 119.1	 0.058381901	  1.4	 0.058541956	  1.4	 0.857820136	 143.0	
 3803.9157500	 0.638172692	 118.9	 0.058592482	  0.5	 0.058872609	  0.8	 0.857170446	 143.0	
 3809.2280625	 0.635231642	 118.6	 0.058968461	  0.8	 0.059263072	  0.6	 0.857180662	 142.9	
 3814.5403750	 0.633735029	 118.3	 0.059617221	  0.1	 0.059550529	  0.2	 0.856590235	 142.8	
 3819.8526875	 0.630955007	 118.0	 0.059776035	 -0.3	 0.059616781	 -0.2	 0.856029541	 142.8	
 3825.1650000	 0.628303253	 117.7	 0.059970784	 -0.7	 0.059883291	 -0.4	 0.855491615	 142.7	
 3830.4773125	 0.624781920	 117.3	 0.060113442	 -1.3	 0.060368554	 -1.3	 0.856112234	 142.6	
 3835.7896250	 0.622501800	 117.1	 0.060536520	 -1.9	 0.060565727	 -1.5	 0.855300421	 142.6	
 3841.1019375	 0.620158290	 116.7	 0.060865317	 -2.2	 0.060843364	 -1.9	 0.854895693	 142.5	
 3846.4142500	 0.617583705	 116.5	 0.061032310	 -2.7	 0.061285869	 -2.5	 0.854579563	 142.4	
 3851.7265625	 0.615084365	 116.2	 0.061320618	 -3.0	 0.061600338	 -2.9	 0.854463831	 142.4	
 3857.0388750	 0.612020510	 116.0	 0.061892057	 -3.1	 0.061836143	 -3.3	 0.854281130	 142.3	
 3862.3511875	 0.609093915	 115.5	 0.061999936	 -3.7	 0.062072125	 -3.6	 0.853786254	 142.2	
 3867.6635000	 0.606767034	 115.2	 0.062430749	 -4.4	 0.062272165	 -4.2	 0.853530493	 142.1	
 3872.9758125	 0.604273249	 114.9	 0.062560082	 -4.6	 0.062576126	 -4.9	 0.853981410	 142.1	
 3878.2881250	 0.601568607	 114.6	 0.062753232	 -5.1	 0.062939480	 -5.0	 0.853367726	 142.1	
 3883.6004375	 0.598722031	 114.3	 0.062980075	 -5.7	 0.063111991	 -5.5	 0.852778679	 142.0	
 3888.9127500	 0.596589016	 114.0	 0.063308416	 -5.8	 0.063372928	 -5.9	 0.853755533	 142.0	
 3894.2250625	 0.593977181	 113.7	 0.063722525	 -6.4	 0.063462518	 -6.5	 0.853562102	 142.0	
 3899.5373750	 0.590405789	 113.4	 0.063626352	 -6.7	 0.063828186	 -7.0	 0.853214065	 141.9	
 3904.8496875	 0.588600873	 113.2	 0.063963829	 -7.3	 0.064265568	 -7.2	 0.852880258	 141.8	
 3910.1620000	 0.585648269	 112.8	 0.064215566	 -7.5	 0.064334249	 -7.7	 0.853000142	 141.8	
 3915.4743125	 0.582301362	 112.6	 0.064365103	 -8.0	 0.064417865	 -8.1	 0.852293246	 141.7	
 3920.7866250	 0.579943002	 112.3	 0.064726882	 -8.6	 0.064716274	 -8.6	 0.852063327	 141.7	
 3926.0989375	 0.577561914	 112.0	 0.065140019	 -9.0	 0.064936236	 -9.0	 0.852079312	 141.6	
 3931.4112500	 0.574385870	 111.7	 0.065148439	 -9.3	 0.065149608	 -9.6	 0.851952325	 141.6	
 3936.7235625	 0.571834861	 111.4	 0.065305387	-10.0	 0.065471956	 -9.7	 0.852289174	 141.5	
 3942.0358750	 0.569391127	 111.2	 0.065678356	-10.2	 0.065873161	-10.2	 0.852090443	 141.5	
 3947.3481875	 0.566956102	 111.0	 0.065682355	-10.7	 0.065712720	-10.6	 0.851870355	 141.4	
 3952.6605000	 0.563862200	 110.6	 0.066004994	-11.0	 0.066424713	-11.3	 0.851467720	 141.4	
 3957.9728125	 0.561207416	 110.4	 0.066346926	-11.6	 0.066384775	-11.4	 0.851422607	 141.3	
 3963.2851250	 0.557912133	 110.2	 0.066541751	-11.8	 0.066666028	-11.7	 0.851867855	 141.3	
 3968.5974375	 0.554574547	 109.9	 0.066661305	-12.5	 0.066964170	-12.2	 0.851378996	 141.2	
 3973.9097500	 0.552161825	 109.5	 0.066917044	-12.7	 0.066975176	-12.8	 0.851551047	 141.2	
 3979.2220625	 0.549234343	 109.4	 0.067402482	-13.3	 0.067167997	-13.2	 0.850834905	 141.1	
 3984.5343750	 0.546367071	 109.0	 0.067542883	-13.7	 0.067325738	-13.8	 0.851714609	 141.1	
 3989.8466875	 0.543714012	 108.7	 0.067778571	-13.9	 0.067974455	-13.9	 0.851253669	 141.0	
 3995.1590000	 0.539809790	 108.4	 0.067941241	-14.4	 0.067867050	-14.2	 0.850978587	 141.0	
 4000.4713125	 0.538223917	 108.3	 0.067832090	-14.9	 0.068401120	-14.8	 0.851372089	 140.9	
 4005.7836250	 0.534092649	 108.0	 0.068372410	-15.0	 0.068367149	-15.1	 0.851151040	 140.8	
 4011.0959375	 0.531377404	 107.8	 0.068559585	-15.3	 0.068881562	-15.7	 0.851354648	 140.8	
 4016.4082500	 0.528149112	 107.5	 0.068849406	-16.1	 0.068771735	-16.0	 0.851978000	 140.8	
 4021.7205625	 0.525202797	 107.2	 0.069052696	-16.2	 0.069129866	-16.5	 0.851519356	 140.7	
 4027.0328750	 0.521710992	 106.9	 0.069527678	-17.1	 0.069142956	-17.0	 0.851405978	 140.6	
 4032.3451875	 0.519566480	 106.6	 0.069536345	-17.2	 0.069565638	-17.5	 0.851518682	 140.6	
 4037.6575000	 0.516336941	 106.4	 0.069555924	-17.6	 0.069947181	-17.6	 0.851562553	 140.5	
 4042.9698125	 0.513012260	 106.1	 0.069888114	-18.1	 0.069804741	-17.9	 0.851099232	 140.5	
 4048.2821250	 0.509905022	 105.9	 0.070484947	-18.6	 0.070118640	-18.8	 0.852054698	 140.4	
 4053.5944375	 0.506689649	 105.6	 0.070338037	-19.0	 0.070559967	-19.0	 0.851403944	 140.4	
 4058.9067500	 0.503978549	 105.4	 0.070736957	-19.4	 0.070911108	-19.5	 0.851792443	 140.3	
 4064.2190625	 0.500871276	 105.1	 0.070770812	-19.8	 0.070800754	-19.9	 0.851116785	 140.3	
 4069.5313750	 0.497627644	 104.9	 0.071153651	-20.6	 0.071186815	-20.2	 0.851375337	 140.2	
 4074.8436875	 0.494930337	 104.5	 0.071430250	-20.7	 0.071441807	-20.8	 0.851736793	 140.2	
 4080.1560000	 0.492621584	 104.3	 0.071301073	-21.3	 0.071359681	-21.1	 0.852185389	 140.1	
 4085.4683125	 0.488958718	 104.1	 0.071809164	-21.5	 0.071763322	-21.7	 0.851664443	 140.0	
 4090.7806250	 0.485904110	 103.8	 0.072062942	-22.0	 0.071991600	-22.5	 0.852430889	 140.0	
 4096.0929375	 0.483091547	 103.6	 0.072100736	-22.5	 0.072114147	-22.8	 0.852516043	 139.9	
 4101.4052500	 0.480078885	 103.4	 0.072303764	-22.7	 0.071977873	-23.0	 0.851857722	 139.9	
 4106.7175625	 0.476776628	 103.2	 0.072196372	-23.4	 0.072322185	-23.3	 0.853157886	 139.9	
 4112.0298750	 0.474222797	 102.8	 0.072425943	-23.8	 0.072461667	-23.9	 0.852437281	 139.8	
 4117.3421875	 0.470218183	 102.7	 0.072563591	-24.2	 0.072840976	-24.1	 0.852749487	 139.7	
 4122.6545000	 0.467749094	 102.5	 0.072685031	-24.8	 0.072629016	-24.7	 0.853221327	 139.7	
 4127.9668125	 0.464543559	 102.3	 0.073097563	-24.9	 0.072975136	-25.1	 0.852884545	 139.6	
 4133.2791250	 0.462040911	 102.0	 0.072723538	-25.4	 0.073276173	-25.5	 0.853184518	 139.6	
 4138.5914375	 0.458528827	 101.8	 0.073199756	-26.1	 0.073063587	-25.9	 0.853670450	 139.5	
 4143.9037500	 0.454729344	 101.6	 0.073538940	-26.2	 0.073593226	-26.5	 0.854011187	 139.5	
 4149.2160625	 0.452418018	 101.4	 0.073645919	-26.8	 0.073456301	-27.0	 0.854359017	 139.4	
 4154.5283750	 0.448840459	 101.1	 0.074065874	-27.2	 0.073648835	-27.3	 0.854172611	 139.4	
 4159.8406875	 0.445329680	 100.9	 0.073858198	-27.7	 0.073841870	-27.7	 0.853742892	 139.3	
 4165.1530000	 0.442590647	 100.8	 0.074089808	-28.0	 0.073902693	-28.2	 0.854125639	 139.3	
 4170.4653125	 0.439152024	 100.7	 0.074028309	-28.5	 0.074364959	-28.4	 0.855817055	 139.2	
 4175.7776250	 0.436034982	 100.5	 0.074494308	-29.0	 0.074411110	-28.7	 0.854883901	 139.2	
 4181.0899375	 0.432881447	 100.3	 0.074369345	-29.4	 0.074371414	-29.2	 0.855943931	 139.1	
 4186.4022500	 0.429828725	 100.0	 0.074886410	-29.6	 0.074379653	-30.1	 0.855510502	 139.0	
 4191.7145625	 0.426293856	 99.8	 0.074684079	-30.5	 0.074551978	-30.3	 0.855294347	 138.9	
 4197.0268750	 0.423243761	 99.8	 0.074582953	-30.7	 0.074964886	-30.5	 0.854859513	 139.0	
 4202.3391875	 0.419428168	 99.6	 0.075192892	-31.0	 0.074822910	-31.1	 0.855962945	 138.9	
 4207.6515000	 0.415874757	 99.4	 0.074741242	-31.5	 0.074908204	-31.4	 0.856172161	 138.9	
 4212.9638125	 0.413259930	 99.2	 0.074881492	-31.9	 0.075249447	-31.7	 0.856094549	 138.7	
 4218.2761250	 0.409745564	 99.0	 0.074960356	-32.4	 0.075430317	-32.3	 0.857037417	 138.7	
 4223.5884375	 0.406179362	 98.9	 0.075217207	-32.7	 0.075485612	-32.9	 0.857170002	 138.7	
 4228.9007500	 0.402968862	 98.7	 0.075279547	-33.0	 0.075722463	-32.8	 0.857773214	 138.6	
 4234.2130625	 0.399475295	 98.5	 0.075583288	-33.6	 0.075521788	-33.3	 0.857054457	 138.5	
 4239.5253750	 0.396097720	 98.4	 0.075529541	-34.0	 0.075618362	-34.0	 0.857765539	 138.4	
 4244.8376875	 0.392422646	 98.2	 0.075646351	-34.4	 0.075541629	-34.4	 0.858574223	 138.4	
 4250.1500000	 0.390310288	 98.1	 0.075150889	-34.2	 0.075880962	-34.7	 0.858119120	 138.3	
 4255.4623125	 0.385707225	 97.8	 0.075642329	-34.9	 0.076052733	-35.1	 0.859281879	 138.3	
 4260.7746250	 0.381948147	 97.8	 0.076228151	-35.8	 0.075802148	-35.7	 0.859885823	 138.2	
 4266.0869375	 0.379931020	 97.5	 0.075880504	-36.4	 0.075657986	-36.2	 0.859186249	 138.2	
 4271.3992500	 0.374306119	 97.2	 0.075906551	-36.3	 0.075865356	-36.4	 0.859309595	 138.0	
 4276.7115625	 0.373157804	 97.3	 0.076304381	-37.2	 0.076271362	-37.0	 0.860295470	 138.0	
 4282.0238750	 0.367231617	 97.1	 0.076517040	-37.1	 0.076142954	-37.3	 0.861113135	 137.9	
 4287.3361875	 0.364797367	 96.9	 0.076617512	-37.8	 0.076389010	-37.4	 0.861009482	 137.9	
 4292.6485000	 0.362406837	 97.1	 0.076782830	-37.9	 0.076224635	-38.4	 0.860727844	 137.8	
 4297.9608125	 0.358640929	 96.7	 0.075855756	-37.8	 0.076765800	-38.4	 0.861733176	 137.7	
 4303.2731250	 0.354776698	 96.7	 0.076789668	-39.0	 0.076809937	-38.6	 0.862495676	 137.7	
 4308.5854375	 0.352291346	 96.7	 0.076909484	-39.3	 0.077238084	-38.8	 0.860919506	 137.6	
 4313.8977500	 0.349063271	 96.6	 0.077012266	-40.0	 0.076735309	-39.4	 0.862635157	 137.5	
 4319.2100625	 0.344176326	 96.4	 0.076868676	-40.2	 0.076606249	-39.6	 0.863370778	 137.5	
 4324.5223750	 0.341551329	 96.4	 0.077572504	-40.3	 0.077056870	-40.4	 0.864231927	 137.4	
 4329.8346875	 0.338063127	 96.5	 0.077274183	-40.4	 0.076711723	-40.7	 0.862744441	 137.3	
 4335.1470000	 0.335068086	 96.6	 0.077078390	-41.0	 0.077396530	-41.0	 0.864724586	 137.1	
 4340.4593125	 0.331093050	 96.5	 0.077486687	-41.5	 0.077054866	-41.4	 0.864319673	 137.0	
 4345.7716250	 0.327133123	 96.5	 0.077098488	-41.6	 0.077404808	-41.8	 0.865266180	 137.1	
 4351.0839375	 0.324401668	 96.4	 0.076830315	-42.5	 0.077417818	-42.3	 0.867455105	 137.1	
 4356.3962500	 0.320599054	 96.6	 0.077866733	-42.2	 0.077785208	-42.2	 0.862739337	 136.9	
 4361.7085625	 0.317391486	 96.8	 0.078202250	-42.9	 0.077776184	-43.0	 0.865681319	 136.8	
 4367.0208750	 0.314091976	 96.9	 0.078051811	-43.1	 0.077751975	-43.2	 0.864707700	 136.8	
 4372.3331875	 0.311144950	 96.9	 0.077303993	-43.1	 0.077865520	-43.6	 0.866990889	 136.8	
 4377.6455000	 0.307956941	 96.9	 0.077668009	-45.0	 0.078100152	-44.3	 0.867290186	 136.7	
 4382.9578125	 0.304205046	 97.4	 0.077411012	-44.3	 0.078077430	-44.4	 0.866374838	 136.5	
 4388.2701250	 0.301306160	 97.4	 0.078631530	-44.9	 0.078003713	-45.2	 0.867415550	 136.5	
 4393.5824375	 0.297449997	 97.6	 0.077995889	-46.0	 0.078453534	-45.1	 0.868290771	 136.4	
 4398.8947500	 0.295059476	 97.6	 0.078483697	-46.0	 0.078730343	-45.8	 0.868867681	 136.3	
 4404.2070625	 0.292456889	 97.8	 0.079207469	-46.7	 0.079196820	-46.0	 0.869023765	 136.2	
 4409.5193750	 0.288825692	 98.1	 0.078998554	-47.0	 0.079141016	-46.3	 0.869352906	 136.1	
 4414.8316875	 0.286429454	 98.4	 0.078036383	-47.7	 0.078810679	-47.0	 0.869538638	 136.1	
 4420.1440000	 0.283012374	 98.6	 0.079227046	-47.3	 0.079255092	-47.4	 0.869338990	 135.9	
 4425.4563125	 0.280595934	 98.6	 0.079330574	-48.0	 0.078661682	-48.2	 0.870886850	 135.9	
 4430.7686250	 0.278283596	 99.0	 0.080032347	-48.5	 0.079030949	-48.4	 0.869828938	 135.8	
 4436.0809375	 0.273666752	 99.1	 0.079769604	-49.0	 0.079710998	-49.0	 0.870434108	 135.7	
 4441.3932500	 0.272658571	 99.1	 0.078709690	-49.7	 0.079771804	-49.8	 0.872404256	 135.6	
 4446.7055625	 0.270529913	 99.4	 0.079978098	-49.8	 0.079710813	-50.1	 0.871560988	 135.4	
 4452.0178750	 0.267170589	 99.9	 0.080218578	-50.4	 0.079460358	-50.2	 0.871662470	 135.6	
 4457.3301875	 0.265096315	 99.7	 0.079442271	-51.4	 0.079580130	-51.1	 0.871438409	 135.4	
 4462.6425000	 0.262110913	 100.1	 0.080159757	-51.4	 0.079614149	-51.7	 0.872227596	 135.3	
 4467.9548125	 0.259205843	 100.2	 0.079296400	-52.2	 0.079773944	-52.0	 0.874072224	 135.2	
 4473.2671250	 0.257411897	 100.4	 0.079385419	-52.3	 0.079914462	-52.4	 0.871352001	 135.2	
 4478.5794375	 0.255430138	 100.5	 0.079414907	-53.5	 0.080026164	-52.9	 0.874142151	 135.0	
 4483.8917500	 0.252564385	 100.9	 0.080143438	-53.6	 0.079561892	-53.6	 0.873226178	 134.9	
 4489.2040625	 0.250154632	 101.1	 0.079677668	-53.7	 0.080045339	-53.9	 0.873743496	 134.8	
 4494.5163750	 0.247315769	 101.3	 0.079364653	-54.1	 0.079493124	-54.5	 0.875425099	 134.8	
 4499.8286875	 0.245574141	 101.7	 0.079339258	-54.7	 0.079396531	-55.1	 0.874647103	 134.6	
 4505.1410000	 0.243288473	 101.9	 0.079440029	-54.8	 0.079095148	-55.3	 0.875355113	 134.5	
 4510.4533125	 0.241469322	 102.2	 0.079736306	-55.5	 0.079814187	-55.8	 0.874004078	 134.6	
 4515.7656250	 0.238120809	 102.6	 0.079294336	-56.6	 0.079712071	-56.3	 0.874290249	 134.3	
 4521.0779375	 0.236970008	 102.8	 0.078785169	-57.0	 0.079472544	-57.4	 0.875492636	 134.2	
 4526.3902500	 0.234868020	 103.0	 0.079403782	-57.3	 0.079099477	-57.3	 0.874111678	 134.2	
 4531.7025625	 0.232558042	 103.5	 0.079423500	-57.7	 0.079946437	-57.6	 0.875868334	 134.1	
 4537.0148750	 0.230723495	 103.8	 0.078795475	-58.3	 0.079318489	-58.4	 0.874622472	 134.0	
 4542.3271875	 0.228549149	 104.2	 0.079386206	-58.6	 0.079341469	-58.8	 0.876620031	 133.9	
 4547.6395000	 0.226464727	 104.4	 0.078373099	-59.4	 0.079400066	-59.1	 0.876704568	 133.8	
 4552.9518125	 0.224452192	 104.8	 0.079007688	-59.4	 0.079011612	-59.6	 0.877030905	 133.7	
 4558.2641250	 0.222480616	 105.1	 0.078551571	-60.5	 0.079373869	-60.0	 0.877029199	 133.6	
 4563.5764375	 0.220501716	 105.5	 0.078739695	-60.6	 0.078858037	-60.3	 0.877043608	 133.6	
 4568.8887500	 0.218816444	 106.1	 0.078170055	-61.1	 0.078691742	-61.2	 0.877812341	 133.5	
 4574.2010625	 0.216944690	 106.3	 0.078788883	-61.8	 0.078580693	-61.5	 0.877819603	 133.4	
 4579.5133750	 0.215264991	 106.7	 0.078397434	-61.8	 0.078357379	-62.0	 0.878040140	 133.3	
 4584.8256875	 0.212995100	 107.2	 0.078543719	-62.3	 0.078291648	-62.5	 0.879222619	 133.2	
 4590.1380000	 0.211511070	 107.7	 0.077963440	-62.9	 0.078307233	-63.1	 0.880077197	 133.1	
 4595.4503125	 0.209573010	 108.1	 0.077999367	-63.5	 0.078186134	-63.2	 0.879624894	 133.0	
 4600.7626250	 0.208052390	 108.5	 0.077758473	-63.8	 0.078256206	-63.6	 0.880302613	 133.0	
 4606.0749375	 0.205863972	 109.0	 0.077473807	-64.3	 0.078262797	-64.3	 0.879759133	 132.9	
 4611.3872500	 0.204478480	 109.6	 0.077401006	-64.9	 0.078221259	-64.9	 0.880184378	 132.8	
 4616.6995625	 0.202551869	 110.3	 0.077393225	-65.5	 0.077906425	-65.4	 0.881597490	 132.7	
 4622.0118750	 0.200540864	 110.4	 0.077707171	-65.6	 0.077457922	-65.7	 0.881687545	 132.6	
 4627.3241875	 0.199469757	 110.9	 0.076822781	-66.0	 0.077595995	-66.2	 0.881333028	 132.5	
 4632.6365000	 0.197692682	 111.6	 0.076945037	-66.6	 0.077421661	-66.6	 0.880966124	 132.4	
 4637.9488125	 0.196715412	 112.1	 0.076850061	-67.0	 0.076895804	-67.2	 0.881137171	 132.3	
 4643.2611250	 0.195281306	 112.5	 0.076464479	-67.3	 0.077099969	-67.5	 0.882452306	 132.3	
 4648.5734375	 0.193695615	 113.0	 0.076550704	-67.7	 0.076935317	-67.8	 0.882033959	 132.1	
 4653.8857500	 0.192173785	 113.5	 0.076355459	-68.5	 0.076639999	-68.0	 0.881153570	 132.1	
 4659.1980625	 0.190880554	 114.0	 0.076178493	-68.6	 0.076565163	-69.0	 0.882056484	 132.0	
 4664.5103750	 0.189185932	 114.7	 0.076273953	-69.4	 0.076466763	-69.0	 0.882210681	 131.9	
 4669.8226875	 0.188507467	 115.2	 0.075836936	-69.7	 0.076281435	-69.8	 0.882969781	 131.8	
 4675.1350000	 0.186802974	 115.7	 0.076186362	-70.0	 0.076062876	-70.4	 0.882802215	 131.7	
 4680.4473125	 0.185713070	 116.1	 0.075639766	-70.4	 0.076053861	-70.6	 0.882796539	 131.6	
 4685.7596250	 0.184998632	 116.7	 0.075441818	-71.1	 0.075490519	-71.0	 0.882851625	 131.6	
 4691.0719375	 0.183688108	 117.4	 0.075216691	-71.2	 0.075589237	-71.3	 0.882813739	 131.4	
 4696.3842500	 0.183302268	 117.9	 0.074723212	-71.4	 0.075831588	-71.7	 0.883847345	 131.3	
 4701.6965625	 0.181820149	 118.4	 0.074899752	-72.2	 0.075236984	-72.3	 0.883678959	 131.3	
 4707.0088750	 0.181201014	 119.1	 0.074769659	-72.1	 0.075037317	-72.4	 0.884697291	 131.2	
 4712.3211875	 0.180248998	 119.6	 0.074535871	-73.0	 0.074768796	-73.3	 0.884730593	 131.0	
 4717.6335000	 0.179170882	 120.3	 0.074512607	-73.6	 0.074696988	-73.5	 0.885012118	 131.0	
 4722.9458125	 0.178942450	 120.8	 0.074325535	-73.8	 0.074437736	-73.9	 0.885202016	 130.9	
 4728.2581250	 0.177871553	 121.4	 0.073893372	-74.2	 0.074115461	-74.4	 0.885357073	 130.8	
 4733.5704375	 0.177332345	 121.9	 0.073626921	-74.4	 0.073785693	-74.7	 0.885894215	 130.7	
 4738.8827500	 0.176893800	 122.9	 0.073721107	-75.0	 0.073711752	-75.2	 0.886195805	 130.6	
 4744.1950625	 0.175963346	 123.4	 0.073502377	-75.6	 0.073406781	-75.5	 0.886124715	 130.5	
 4749.5073750	 0.175983454	 124.1	 0.073172380	-75.7	 0.073488727	-75.8	 0.886824727	 130.4	
 4754.8196875	 0.175637447	 124.7	 0.072726383	-76.3	 0.073116618	-76.3	 0.886169566	 130.3	
 4760.1320000	 0.175227443	 125.4	 0.072622184	-76.6	 0.072664310	-76.6	 0.886245677	 130.3	
 4765.4443125	 0.174631733	 126.0	 0.072270492	-77.2	 0.072814054	-77.1	 0.886903504	 130.2	
 4770.7566250	 0.174020766	 126.9	 0.072509178	-77.3	 0.072683363	-77.4	 0.887264245	 130.1	
 4776.0689375	 0.173792170	 127.4	 0.071944941	-77.6	 0.072364273	-77.6	 0.887096902	 129.9	
 4781.3812500	 0.173363086	 128.3	 0.071845260	-78.2	 0.072362627	-78.0	 0.887555133	 129.8	
 4786.6935625	 0.173273666	 129.0	 0.071842315	-78.9	 0.072077157	-78.4	 0.887203150	 129.7	
 4792.0058750	 0.173332214	 129.5	 0.071577001	-79.1	 0.071426581	-79.1	 0.887840522	 129.7	
 4797.3181875	 0.173244863	 130.1	 0.071333096	-79.0	 0.071372641	-79.1	 0.888440298	 129.6	
 4802.6305000	 0.172875729	 131.0	 0.071235911	-79.6	 0.071282477	-79.6	 0.888484265	 129.5	
 4807.9428125	 0.173123334	 131.7	 0.070667999	-80.0	 0.070978387	-80.0	 0.888506918	 129.4	
 4813.2551250	 0.172846658	 132.4	 0.070512928	-80.3	 0.070975653	-80.3	 0.889124708	 129.3	
 4818.5674375	 0.172386111	 133.0	 0.070566257	-80.5	 0.070868001	-80.8	 0.889554012	 129.2	
 4823.8797500	 0.173121174	 133.7	 0.070139508	-81.1	 0.070602702	-81.0	 0.889001485	 129.2	
 4829.1920625	 0.173024188	 134.4	 0.069953443	-81.4	 0.070331762	-81.3	 0.889593855	 129.0	
 4834.5043750	 0.173393739	 135.1	 0.070042842	-81.7	 0.069910750	-81.8	 0.889847338	 128.9	
 4839.8166875	 0.173593003	 135.6	 0.069817969	-82.2	 0.070086912	-82.0	 0.890109989	 128.9	
 4845.1290000	 0.173732493	 136.3	 0.069576409	-82.5	 0.070166920	-82.8	 0.889499803	 128.7	
 4850.4413125	 0.173899595	 136.7	 0.069352548	-83.0	 0.069815637	-83.0	 0.890154756	 128.7	
 4855.7536250	 0.174278036	 137.6	 0.069705633	-83.2	 0.069377109	-83.1	 0.891252894	 128.6	
 4861.0659375	 0.174520967	 138.1	 0.068671375	-83.6	 0.069279155	-83.6	 0.890518053	 128.4	
 4866.3782500	 0.174617659	 138.9	 0.069031415	-84.0	 0.069041021	-84.0	 0.890653012	 128.4	
 4871.6905625	 0.175380783	 139.4	 0.068574488	-84.3	 0.068616940	-84.3	 0.891609614	 128.2	
 4877.0028750	 0.175698247	 140.1	 0.068515157	-84.6	 0.068799958	-84.8	 0.891376764	 128.2	
 4882.3151875	 0.176407293	 140.7	 0.068141971	-85.1	 0.068323829	-84.9	 0.891265543	 128.0	
 4887.6275000	 0.176708424	 141.2	 0.067857593	-85.4	 0.068529489	-85.4	 0.891669448	 127.9	
 4892.9398125	 0.177321751	 141.8	 0.067850515	-85.5	 0.068145316	-85.8	 0.892181686	 127.8	
 4898.2521250	 0.178169836	 142.3	 0.067740154	-86.4	 0.068168427	-86.2	 0.892098727	 127.8	
 4903.5644375	 0.179094439	 142.9	 0.067433784	-86.5	 0.067886534	-86.4	 0.892175610	 127.6	
 4908.8767500	 0.179612952	 143.4	 0.067315666	-87.1	 0.067623729	-86.8	 0.891523756	 127.6	
 4914.1890625	 0.180617152	 144.0	 0.067048949	-87.2	 0.067264233	-87.1	 0.892344817	 127.5	
 4919.5013750	 0.181825481	 144.5	 0.067070839	-87.8	 0.066994250	-87.6	 0.892357448	 127.4	
 4924.8136875	 0.182031581	 145.0	 0.067006694	-88.0	 0.066801018	-88.1	 0.892381926	 127.3	
 4930.1260000	 0.183312436	 145.5	 0.066992078	-88.6	 0.066612209	-88.3	 0.891887508	 127.1	
 4935.4383125	 0.184502094	 145.9	 0.066297123	-88.5	 0.066702942	-88.8	 0.893517022	 127.0	
 4940.7506250	 0.185010695	 146.4	 0.066243531	-89.0	 0.066172171	-89.3	 0.893911461	 127.0	
 4946.0629375	 0.186754470	 147.0	 0.066035875	-89.5	 0.066276461	-89.4	 0.892917089	 126.8	
 4951.3752500	 0.187596809	 147.3	 0.065637977	-89.8	 0.066024527	-90.1	 0.893663742	 126.8	
 4956.6875625	 0.188642450	 147.8	 0.065561175	-90.2	 0.066057255	-90.2	 0.893869278	 126.6	
 4961.9998750	 0.189500220	 148.5	 0.065469993	-90.6	 0.065253667	-90.6	 0.894176023	 126.5	
 4967.3121875	 0.190941035	 148.7	 0.065302389	-91.0	 0.065474896	-90.7	 0.894272504	 126.5	
 4972.6245000	 0.192260177	 149.2	 0.064615740	-91.4	 0.064822632	-91.2	 0.894305953	 126.4	
 4977.9368125	 0.193218304	 149.5	 0.064835557	-91.7	 0.064738200	-91.4	 0.894892424	 126.3	
 4983.2491250	 0.195026206	 150.0	 0.064319312	-91.9	 0.064642908	-91.6	 0.895254303	 126.1	
 4988.5614375	 0.195593864	 150.5	 0.064320204	-92.3	 0.064398750	-92.3	 0.894950421	 126.1	
 4993.8737500	 0.196801624	 150.9	 0.063856947	-92.8	 0.064196302	-92.5	 0.895175007	 126.0	
 4999.1860625	 0.198099712	 151.5	 0.063898108	-92.9	 0.064144209	-93.0	 0.895850715	 125.8	
 5004.4983750	 0.199872041	 151.5	 0.063537546	-93.1	 0.063758033	-93.0	 0.895367916	 125.8	
 5009.8106875	 0.201080355	 152.1	 0.063684016	-93.4	 0.063662070	-93.6	 0.895369286	 125.6	
 5015.1230000	 0.202147406	 152.5	 0.063273071	-94.1	 0.063347376	-93.8	 0.895733529	 125.5	
 5020.4353125	 0.203986788	 152.8	 0.063479981	-94.1	 0.063385005	-94.2	 0.895395819	 125.5	
 5025.7476250	 0.204569725	 153.3	 0.062595250	-94.5	 0.062627755	-94.6	 0.896184129	 125.3	
 5031.0599375	 0.206217072	 153.6	 0.063005149	-94.9	 0.062679321	-95.1	 0.895975717	 125.3	
 5036.3722500	 0.207389285	 153.9	 0.062628093	-95.2	 0.062707779	-95.4	 0.895771839	 125.2	
 5041.6845625	 0.209196090	 154.3	 0.062411421	-95.6	 0.062357883	-95.8	 0.896417209	 125.1	
 5046.9968750	 0.210059499	 154.6	 0.062144398	-96.0	 0.061996944	-96.2	 0.895955529	 124.9	
 5052.3091875	 0.211191046	 154.9	 0.061725059	-96.3	 0.061479043	-96.1	 0.895823735	 124.8	
 5057.6215000	 0.212984395	 155.3	 0.061439608	-96.5	 0.062073426	-96.7	 0.896882613	 124.7	
 5062.9338125	 0.214155297	 155.6	 0.061460604	-96.7	 0.061626428	-97.0	 0.896884000	 124.6	
 5068.2461250	 0.215898211	 155.7	 0.061677229	-97.4	 0.061292744	-97.4	 0.896878174	 124.4	
 5073.5584375	 0.217210556	 156.0	 0.061114907	-97.3	 0.061219023	-97.8	 0.896511489	 124.4	
 5078.8707500	 0.218679696	 156.5	 0.060673701	-98.1	 0.061015344	-98.1	 0.896953713	 124.3	
 5084.1830625	 0.220064354	 156.5	 0.060893449	-98.6	 0.060810190	-98.6	 0.897046202	 124.1	
 5089.4953750	 0.221270865	 156.9	 0.060594965	-98.5	 0.060723598	-99.2	 0.897190819	 124.0	
 5094.8076875	 0.222315965	 157.0	 0.060212270	-99.3	 0.060572770	-99.0	 0.896944175	 123.9	
 5100.1200000	 0.223977297	 157.2	 0.060225521	-99.9	 0.060253212	-99.1	 0.896661472	 123.9	
 5105.4323125	 0.225751854	 157.3	 0.059678761	-99.9	 0.059481625	-99.8	 0.897119921	 123.7	
 5110.7446250	 0.227105786	 157.6	 0.059612419	-100.7	 0.059599320	-100.3	 0.897231634	 123.6	
 5116.0569375	 0.228958208	 157.8	 0.059768504	-100.8	 0.059545475	-100.4	 0.898018970	 123.5	
 5121.3692500	 0.230376380	 158.0	 0.059015499	-100.8	 0.059406109	-100.9	 0.898244299	 123.4	
 5126.6815625	 0.231954530	 158.3	 0.059282959	-101.1	 0.059198374	-101.2	 0.898565820	 123.3	
 5131.9938750	 0.233929997	 158.4	 0.058671758	-101.9	 0.058682408	-101.6	 0.898597966	 123.3	
 5137.3061875	 0.235708224	 158.5	 0.058439866	-101.9	 0.058427978	-102.4	 0.898402106	 123.1	
 5142.6185000	 0.236958744	 158.7	 0.058216116	-102.2	 0.058839606	-102.0	 0.898577061	 123.1	
 5147.9308125	 0.239085677	 158.9	 0.058237245	-102.3	 0.058385278	-102.7	 0.898763840	 122.9	
 5153.2431250	 0.241132886	 159.1	 0.058075006	-102.9	 0.058050767	-102.8	 0.898637865	 122.9	
 5158.5554375	 0.242116017	 159.2	 0.057445177	-103.3	 0.057841849	-103.2	 0.899576535	 122.8	
 5163.8677500	 0.243827984	 159.4	 0.057533587	-103.8	 0.057760384	-103.8	 0.899476646	 122.6	
 5169.1800625	 0.245690360	 159.6	 0.056849641	-104.0	 0.057716037	-104.0	 0.898656183	 122.6	
 5174.4923750	 0.247575069	 159.6	 0.057327826	-104.3	 0.057225063	-104.1	 0.899799705	 122.4	
 5179.8046875	 0.249481274	 159.9	 0.057123116	-104.7	 0.056732839	-104.6	 0.899288643	 122.4	
 5185.1170000	 0.250791379	 160.0	 0.056940513	-105.1	 0.056637414	-105.0	 0.899355418	 122.2	
 5190.4293125	 0.252590908	 160.2	 0.056501575	-105.4	 0.056285324	-105.3	 0.899870173	 122.2	
 5195.7416250	 0.254696392	 160.3	 0.056191042	-105.7	 0.056119091	-105.7	 0.899637487	 122.0	
 5201.0539375	 0.255939575	 160.5	 0.055914057	-106.1	 0.055985346	-105.9	 0.899713034	 121.9	
 5206.3662500	 0.257266666	 160.7	 0.055582465	-106.4	 0.055927097	-106.0	 0.899914687	 121.9	
 5211.6785625	 0.259410002	 160.8	 0.055377105	-106.5	 0.056086615	-106.6	 0.900197566	 121.7	
 5216.9908750	 0.260699652	 160.8	 0.055426434	-107.1	 0.055263630	-106.6	 0.899035959	 121.6	
 5222.3031875	 0.262399948	 161.1	 0.054643141	-107.3	 0.055023014	-107.1	 0.899998272	 121.6	
 5227.6155000	 0.263784701	 161.2	 0.054759460	-107.5	 0.054913385	-107.4	 0.901545108	 121.5	
 5232.9278125	 0.266149410	 161.3	 0.054621366	-108.0	 0.054627192	-107.7	 0.900976242	 121.3	
 5238.2401250	 0.267020538	 161.5	 0.054525367	-107.8	 0.054334735	-107.8	 0.901426470	 121.2	
 5243.5524375	 0.269053097	 161.6	 0.054113022	-108.7	 0.054199248	-108.5	 0.900294508	 121.1	
 5248.8647500	 0.270849792	 161.8	 0.054062628	-108.8	 0.054203619	-109.0	 0.900834749	 121.0	
 5254.1770625	 0.271456352	 161.8	 0.053536967	-109.2	 0.053694390	-109.3	 0.901498525	 120.9	
 5259.4893750	 0.273508851	 162.0	 0.053306179	-109.6	 0.053322032	-109.5	 0.900339381	 120.8	
 5264.8016875	 0.275369901	 162.0	 0.053151436	-109.6	 0.053404836	-109.7	 0.901922833	 120.6	
 5270.1140000	 0.276320259	 162.1	 0.052920376	-110.5	 0.052960698	-110.1	 0.901304714	 120.7	
 5275.4263125	 0.277506957	 162.2	 0.052840908	-110.3	 0.052955601	-110.0	 0.900820332	 120.4	
 5280.7386250	 0.278973972	 162.1	 0.052692019	-110.5	 0.052876763	-110.4	 0.901596002	 120.4	
 5286.0509375	 0.280612561	 162.3	 0.052163392	-111.0	 0.052150881	-111.2	 0.901907465	 120.2	
 5291.3632500	 0.281998705	 162.3	 0.052183349	-111.3	 0.052120104	-111.0	 0.902957020	 120.1	
 5296.6755625	 0.283144774	 162.4	 0.051906500	-111.9	 0.051623314	-111.8	 0.902241126	 120.1	
 5301.9878750	 0.285154049	 162.4	 0.051498704	-112.0	 0.051896311	-111.9	 0.901938333	 119.9	
 5307.3001875	 0.286431813	 162.4	 0.051591591	-112.1	 0.051379310	-112.3	 0.901605107	 119.8	
 5312.6125000	 0.288092594	 162.5	 0.051406276	-112.5	 0.051151313	-112.3	 0.902021821	 119.7	
 5317.9248125	 0.289175011	 162.5	 0.050968449	-113.0	 0.051212842	-112.8	 0.901670146	 119.6	
 5323.2371250	 0.291080971	 162.5	 0.050443385	-113.1	 0.051188032	-113.5	 0.902346595	 119.5	
 5328.5494375	 0.292579711	 162.6	 0.050549528	-113.4	 0.050802854	-113.6	 0.902745138	 119.4	
 5333.8617500	 0.294110101	 162.6	 0.050534351	-113.6	 0.050299023	-113.5	 0.902384775	 119.2	
 5339.1740625	 0.295367348	 162.5	 0.050378294	-114.4	 0.050498338	-113.7	 0.902941137	 119.2	
 5344.4863750	 0.297437204	 162.6	 0.050205188	-114.2	 0.049898009	-113.9	 0.902533543	 119.0	
 5349.7986875	 0.298848050	 162.7	 0.049938472	-114.2	 0.049401192	-114.5	 0.902714139	 118.9	
 5355.1110000	 0.300515741	 162.7	 0.049894769	-114.5	 0.049552966	-114.7	 0.903260920	 118.8	
 5360.4233125	 0.302110691	 162.7	 0.049390850	-114.9	 0.049633529	-114.9	 0.902818450	 118.7	
 5365.7356250	 0.304074896	 162.8	 0.049002579	-115.1	 0.049309853	-115.0	 0.903070463	 118.7	
 5371.0479375	 0.305283061	 162.8	 0.049122978	-115.7	 0.049044693	-115.3	 0.902495204	 118.5	
 5376.3602500	 0.307507265	 162.8	 0.048931621	-116.0	 0.048798135	-115.9	 0.902669091	 118.5	
 5381.6725625	 0.309012787	 162.9	 0.048739212	-115.9	 0.048723454	-115.7	 0.903026320	 118.3	
 5386.9848750	 0.310530344	 162.9	 0.048658384	-116.5	 0.048546993	-116.6	 0.903709236	 118.3	
 5392.2971875	 0.312384428	 162.9	 0.047973689	-116.9	 0.048586987	-116.8	 0.903770598	 118.2	
 5397.6095000	 0.313685240	 162.9	 0.048216799	-116.9	 0.048330545	-117.1	 0.904021600	 118.0	
 5402.9218125	 0.315929377	 163.0	 0.048117157	-117.3	 0.047907708	-117.4	 0.904135589	 117.9	
 5408.2341250	 0.316989424	 163.0	 0.047946720	-117.3	 0.047882268	-117.8	 0.903369958	 117.9	
 5413.5464375	 0.318385279	 163.1	 0.047698344	-117.9	 0.048135750	-118.0	 0.903814041	 117.8	
 5418.8587500	 0.319989795	 163.1	 0.047511059	-118.6	 0.047173207	-117.9	 0.903190997	 117.6	
 5424.1710625	 0.321884771	 163.2	 0.047395150	-118.3	 0.047185096	-118.2	 0.904394891	 117.5	
 5429.4833750	 0.323287666	 163.1	 0.046704352	-118.7	 0.046822519	-119.0	 0.903719237	 117.4	
 5434.7956875	 0.324777394	 163.1	 0.046849700	-119.3	 0.046723435	-118.7	 0.904094597	 117.3	
 5440.1080000	 0.326622549	 163.1	 0.047098734	-119.6	 0.047053122	-119.4	 0.904048587	 117.2	
 5445.4203125	 0.328321856	 163.2	 0.046669607	-120.0	 0.046289863	-119.8	 0.904037432	 117.0	
 5450.7326250	 0.329043917	 163.2	 0.046273583	-120.0	 0.046301469	-120.0	 0.904669882	 117.0	
 5456.0449375	 0.331007723	 163.2	 0.046151866	-120.3	 0.046273996	-120.3	 0.903571585	 116.8	
 5461.3572500	 0.332276232	 163.2	 0.046293146	-120.8	 0.046091163	-120.7	 0.903716959	 116.8	
 5466.6695625	 0.333874470	 163.3	 0.045888613	-121.0	 0.045725586	-120.8	 0.904244860	 116.6	
 5471.9818750	 0.334989584	 163.1	 0.045718747	-121.3	 0.045449139	-121.0	 0.904048821	 116.5	
 5477.2941875	 0.336475964	 163.2	 0.045762492	-121.7	 0.045506349	-121.5	 0.903998399	 116.4	
 5482.6065000	 0.338002032	 163.2	 0.045329538	-122.3	 0.045214338	-121.6	 0.903839301	 116.3	
 5487.9188125	 0.339291947	 163.1	 0.045605625	-122.7	 0.045282434	-122.4	 0.904590686	 116.2	
 5493.2311250	 0.340217290	 163.1	 0.044872426	-122.8	 0.045074391	-122.6	 0.904244806	 116.1	
 5498.5434375	 0.342254239	 163.1	 0.045189769	-122.9	 0.044593237	-123.1	 0.905035255	 116.0	
 5503.8557500	 0.343468036	 163.1	 0.044554021	-123.1	 0.044228475	-123.2	 0.904459094	 115.9	
 5509.1680625	 0.344525357	 163.0	 0.044064207	-123.9	 0.044498543	-123.4	 0.903824532	 115.8	
 5514.4803750	 0.345950398	 162.9	 0.044324897	-123.8	 0.043976248	-123.5	 0.904267349	 115.7	
 5519.7926875	 0.347192482	 162.8	 0.043940592	-124.4	 0.044157881	-124.4	 0.905063305	 115.5	
 5525.1050000	 0.349344525	 162.8	 0.043797098	-124.2	 0.043379900	-124.3	 0.904448827	 115.4	
 5530.4173125	 0.350202445	 162.7	 0.043929859	-124.7	 0.043492711	-124.9	 0.904551050	 115.3	
 5535.7296250	 0.352068850	 162.7	 0.043489501	-125.3	 0.043313638	-125.3	 0.904901199	 115.2	
 5541.0419375	 0.353756825	 162.6	 0.043171582	-124.8	 0.043426027	-125.4	 0.904353060	 115.1	
 5546.3542500	 0.354917410	 162.7	 0.043410075	-125.5	 0.043323451	-125.8	 0.905095781	 115.0	
 5551.6665625	 0.356789362	 162.5	 0.042590772	-126.2	 0.042427089	-126.0	 0.904656804	 114.9	
 5556.9788750	 0.358059382	 162.5	 0.042871285	-126.1	 0.042681066	-126.4	 0.904575316	 114.8	
 5562.2911875	 0.358765659	 162.6	 0.042579369	-126.3	 0.042832070	-126.2	 0.905314867	 114.6	
 5567.6035000	 0.360920169	 162.4	 0.042708531	-127.1	 0.042335111	-126.7	 0.904133980	 114.6	
 5572.9158125	 0.362132258	 162.4	 0.042699835	-127.4	 0.042372422	-127.5	 0.905223006	 114.4	
 5578.2281250	 0.364312169	 162.3	 0.042437144	-127.6	 0.042019126	-127.5	 0.906236816	 114.4	
 5583.5404375	 0.366055165	 162.2	 0.041926840	-127.7	 0.041990037	-128.4	 0.906147274	 114.3	
 5588.8527500	 0.367481308	 162.2	 0.041740874	-128.6	 0.041724601	-128.4	 0.905643349	 114.2	
 5594.1650625	 0.368520605	 162.1	 0.041437106	-128.1	 0.041618343	-128.6	 0.906360933	 114.1	
 5599.4773750	 0.369887078	 162.0	 0.041405758	-128.9	 0.041198273	-128.9	 0.905615368	 114.0	
 5604.7896875	 0.371938621	 162.1	 0.041737983	-129.4	 0.041283546	-129.5	 0.905409915	 113.9	
 5610.1020000	 0.373791567	 162.0	 0.040914414	-129.8	 0.041128725	-129.8	 0.905956622	 113.8	
 5615.4143125	 0.374753683	 162.0	 0.041129952	-129.8	 0.040690397	-130.1	 0.906346304	 113.7	
 5620.7266250	 0.376139768	 161.9	 0.040655285	-130.5	 0.040813160	-130.5	 0.906049547	 113.6	
 5626.0389375	 0.377515379	 161.8	 0.040488081	-130.9	 0.040992234	-130.5	 0.905306907	 113.5	
 5631.3512500	 0.379209470	 161.9	 0.040522046	-131.3	 0.040224250	-130.9	 0.906506347	 113.3	
 5636.6635625	 0.380980172	 161.8	 0.039803054	-131.2	 0.040092730	-131.1	 0.905833884	 113.3	
 5641.9758750	 0.381852584	 161.8	 0.040262622	-131.9	 0.039857813	-132.0	 0.905347975	 113.1	
 5647.2881875	 0.382914198	 161.7	 0.039958412	-132.0	 0.039710547	-132.2	 0.906170687	 113.0	
 5652.6005000	 0.385129933	 161.7	 0.039583900	-132.9	 0.039799826	-131.9	 0.905570207	 112.9	
 5657.9128125	 0.386432233	 161.6	 0.039530505	-132.6	 0.039423288	-133.2	 0.905246883	 112.8	
 5663.2251250	 0.387492952	 161.6	 0.039138221	-132.7	 0.039355962	-133.1	 0.905826591	 112.7	
 5668.5374375	 0.388420633	 161.5	 0.038914778	-133.3	 0.039026043	-133.8	 0.905533385	 112.6	
 5673.8497500	 0.389815812	 161.5	 0.038997391	-133.4	 0.038832864	-133.8	 0.906514022	 112.5	
 5679.1620625	 0.391625937	 161.4	 0.038813309	-134.9	 0.039161531	-134.2	 0.905444250	 112.3	
 5684.4743750	 0.392537979	 161.3	 0.038845628	-134.2	 0.038331846	-135.0	 0.906559537	 112.2	
 5689.7866875	 0.393738766	 161.3	 0.038146479	-135.2	 0.038199687	-134.7	 0.906313297	 112.0	
 5695.0990000	 0.394978237	 161.2	 0.038308975	-134.8	 0.038128311	-135.2	 0.905980500	 112.0	
 5700.4113125	 0.395767811	 161.2	 0.038067432	-135.7	 0.038316037	-135.5	 0.906969258	 111.9	
 5705.7236250	 0.397400272	 161.1	 0.038097604	-136.0	 0.037978371	-136.1	 0.907478121	 111.7	
 5711.0359375	 0.398413303	 160.9	 0.037503919	-136.0	 0.037312359	-136.7	 0.906826600	 111.7	
 5716.3482500	 0.399821543	 160.9	 0.037864575	-137.1	 0.037379891	-137.0	 0.906352125	 111.5	
 5721.6605625	 0.400881302	 160.7	 0.037505241	-136.7	 0.037058298	-136.9	 0.907256482	 111.4	
 5726.9728750	 0.401891879	 160.8	 0.036688965	-137.2	 0.037559602	-137.6	 0.907128771	 111.3	
 5732.2851875	 0.402973502	 160.5	 0.037091000	-137.6	 0.037099452	-137.7	 0.907897608	 111.2	
 5737.5975000	 0.404312145	 160.4	 0.036434730	-138.0	 0.037299264	-138.1	 0.906950417	 111.1	
 5742.9098125	 0.404888555	 160.4	 0.036870413	-138.2	 0.036724743	-138.4	 0.907536814	 111.0	
 5748.2221250	 0.406953876	 160.2	 0.036516971	-138.9	 0.036174739	-139.1	 0.906706595	 111.0	
 5753.5344375	 0.407185657	 160.2	 0.035942574	-139.5	 0.036557091	-139.4	 0.907611497	 110.8	
 5758.8467500	 0.409811245	 159.9	 0.036494453	-139.5	 0.035854488	-139.7	 0.907863115	 110.7	
 5764.1590625	 0.410229586	 160.0	 0.036109406	-140.1	 0.036236748	-140.1	 0.907906197	 110.6	
 5769.4713750	 0.411753505	 159.9	 0.035822278	-140.9	 0.035345550	-140.7	 0.907639961	 110.4	
 5774.7836875	 0.413304771	 159.7	 0.035719883	-140.8	 0.035138254	-141.1	 0.908039617	 110.4	
 5780.0960000	 0.414453456	 159.6	 0.035336373	-140.6	 0.035373679	-141.2	 0.908411382	 110.2	
 5785.4083125	 0.415828260	 159.6	 0.035250212	-142.2	 0.035350887	-142.0	 0.907986001	 110.2	
 5790.7206250	 0.417637358	 159.5	 0.034966840	-142.3	 0.034769393	-141.6	 0.908274875	 110.1	
 5796.0329375	 0.418299180	 159.4	 0.034658872	-142.9	 0.034799716	-142.7	 0.908148452	 110.0	
 5801.3452500	 0.419587406	 159.3	 0.034568601	-142.9	 0.034442236	-143.0	 0.907640581	 109.8	
 5806.6575625	 0.420801985	 159.2	 0.033918113	-143.4	 0.034512692	-143.7	 0.908757047	 109.8	
 5811.9698750	 0.421964156	 159.2	 0.034096494	-143.7	 0.034052724	-143.6	 0.907874777	 109.6	
 5817.2821875	 0.423433549	 159.1	 0.033530828	-143.8	 0.033585119	-144.0	 0.908510690	 109.6	
 5822.5945000	 0.423866648	 159.1	 0.033227915	-144.6	 0.033214625	-144.6	 0.908342884	 109.4	
 5827.9068125	 0.425661144	 159.0	 0.033720897	-144.9	 0.033420327	-146.3	 0.908726534	 109.4	
 5833.2191250	 0.426499520	 158.9	 0.033030920	-145.2	 0.032974117	-146.2	 0.907378242	 109.3	
 5838.5314375	 0.427439648	 159.0	 0.032899623	-145.8	 0.032986645	-145.1	 0.909008247	 109.2	
 5843.8437500	 0.428823567	 158.9	 0.032628323	-146.5	 0.032449029	-146.0	 0.908464584	 109.1	
 5849.1560625	 0.429584337	 158.8	 0.032450993	-146.8	 0.032496461	-146.5	 0.908705879	 109.0	
 5854.4683750	 0.430456848	 158.8	 0.032343865	-146.9	 0.031960830	-146.5	 0.908190441	 108.8	
 5859.7806875	 0.431487967	 158.8	 0.031982196	-146.7	 0.031762544	-146.8	 0.908867990	 108.7	
 5865.0930000	 0.432392493	 158.8	 0.031995938	-147.6	 0.031972557	-147.2	 0.909488893	 108.7	
 5870.4053125	 0.433251009	 158.8	 0.031616872	-147.0	 0.031736316	-148.0	 0.909055230	 108.5	
 5875.7176250	 0.434475941	 158.8	 0.031610331	-148.1	 0.031117654	-148.1	 0.909642088	 108.4	
 5881.0299375	 0.435920826	 158.7	 0.030719815	-148.2	 0.031015064	-148.7	 0.908970017	 108.3	
 5886.3422500	 0.436184546	 158.7	 0.030718018	-149.0	 0.031145027	-149.2	 0.909220123	 108.2	
 5891.6545625	 0.437226521	 158.5	 0.030892092	-149.2	 0.031042370	-150.0	 0.909665561	 108.1	
 5896.9668750	 0.438292408	 158.6	 0.030021910	-149.7	 0.030624581	-149.3	 0.909335963	 108.0	
 5902.2791875	 0.439492940	 158.6	 0.030037273	-149.4	 0.030089278	-149.5	 0.909361570	 107.9	
 5907.5915000	 0.440253258	 158.6	 0.029847680	-149.5	 0.029977895	-150.1	 0.910183407	 107.8	
 5912.9038125	 0.441793844	 158.5	 0.029553615	-150.3	 0.029686257	-149.8	 0.909900969	 107.7	
 5918.2161250	 0.442782711	 158.5	 0.029696328	-150.6	 0.029806526	-150.3	 0.909049385	 107.6	
 5923.5284375	 0.443270336	 158.4	 0.029300268	-150.9	 0.029188894	-150.8	 0.909700571	 107.4	
 5928.8407500	 0.444954401	 158.4	 0.028949144	-150.6	 0.029157175	-150.3	 0.909886532	 107.3	
 5934.1530625	 0.447232279	 158.3	 0.028735475	-151.3	 0.029362125	-150.4	 0.909347815	 107.2	
 5939.4653750	 0.447940366	 158.2	 0.028773063	-151.0	 0.029095864	-151.3	 0.910176033	 107.1	
 5944.7776875	 0.449385720	 158.2	 0.028999674	-151.1	 0.028690925	-151.4	 0.910831189	 107.0	
 5950.0900000	 0.450582771	 158.1	 0.028697031	-151.1	 0.028522562	-152.1	 0.909882064	 106.8	
 5955.4023125	 0.451846938	 157.9	 0.028654700	-152.5	 0.028406966	-152.3	 0.910728395	 106.9	
 5960.7146250	 0.453582385	 158.0	 0.028187768	-152.4	 0.028393483	-153.2	 0.910418558	 106.7	
 5966.0269375	 0.454886075	 157.8	 0.028158497	-152.2	 0.028259860	-151.8	 0.911605461	 106.6	
 5971.3392500	 0.455452771	 157.7	 0.027800896	-152.6	 0.027938553	-153.0	 0.911540808	 106.5	
 5976.6515625	 0.457984009	 157.7	 0.027690784	-153.1	 0.027876917	-153.5	 0.911002971	 106.4	
 5981.9638750	 0.459187172	 157.6	 0.027794413	-153.8	 0.027698011	-154.5	 0.911523557	 106.4	
 5987.2761875	 0.461240635	 157.5	 0.028078420	-153.0	 0.027434834	-153.7	 0.910863680	 106.2	
 5992.5885000	 0.461772573	 157.4	 0.027235230	-153.6	 0.027298063	-154.2	 0.910556869	 106.1	
 5997.9008125	 0.463853465	 157.4	 0.026782086	-153.9	 0.027666169	-154.9	 0.910733171	 106.0	
 6003.2131250	 0.465062874	 157.3	 0.027574406	-155.0	 0.027256534	-155.2	 0.910254414	 106.0	
 6008.5254375	 0.466269802	 157.1	 0.026977067	-154.5	 0.027119769	-154.8	 0.911185751	 105.9	
 6013.8377500	 0.467424146	 157.1	 0.026638910	-155.2	 0.026521450	-156.4	 0.911450798	 105.8	
 6019.1500625	 0.469099209	 157.1	 0.026721077	-155.3	 0.026820813	-156.1	 0.910837591	 105.7	
 6024.4623750	 0.470421193	 157.0	 0.026417780	-155.8	 0.026284573	-155.6	 0.911602518	 105.6	
 6029.7746875	 0.472288612	 156.9	 0.026450953	-156.8	 0.026151183	-157.4	 0.911198965	 105.6	
 6035.0870000	 0.473741188	 156.9	 0.026212930	-156.1	 0.026166846	-157.2	 0.911477141	 105.5	
 6040.3993125	 0.474627162	 156.9	 0.025987109	-156.7	 0.026349538	-156.9	 0.911907088	 105.4	
 6045.7116250	 0.476129082	 156.8	 0.026209653	-157.1	 0.026031704	-156.8	 0.911554315	 105.3	
 6051.0239375	 0.476980181	 156.9	 0.025959016	-156.8	 0.026208876	-157.7	 0.911612238	 105.2	
 6056.3362500	 0.477648730	 156.7	 0.025507507	-158.6	 0.026040096	-157.6	 0.911817468	 105.1	
 6061.6485625	 0.480068174	 156.7	 0.025640521	-157.7	 0.025731956	-158.3	 0.911525444	 105.0	
 6066.9608750	 0.480600438	 156.8	 0.025766323	-158.7	 0.025446770	-158.0	 0.911378225	 104.9	
 6072.2731875	 0.480868058	 156.6	 0.025375299	-159.0	 0.025513273	-158.9	 0.911202103	 104.8	
 6077.5855000	 0.482529126	 156.6	 0.025261171	-159.0	 0.025643843	-159.7	 0.911610410	 104.7	
 6082.8978125	 0.483338824	 156.5	 0.025160817	-159.7	 0.025125205	-158.9	 0.912385344	 104.6	
 6088.2101250	 0.483530220	 156.5	 0.025331329	-159.8	 0.025097283	-160.2	 0.911553620	 104.6	
 6093.5224375	 0.485061221	 156.3	 0.025178569	-160.0	 0.024810696	-160.8	 0.911691023	 104.4	
 6098.8347500	 0.486744497	 156.4	 0.024719005	-161.2	 0.024834903	-160.9	 0.912068248	 104.3	
 6104.1470625	 0.487987627	 156.3	 0.024874437	-160.9	 0.024626883	-160.8	 0.912014201	 104.2	
 6109.4593750	 0.487963279	 156.2	 0.024213311	-161.9	 0.024891743	-162.6	 0.912127993	 104.1	
 6114.7716875	 0.489713825	 156.2	 0.024024937	-162.2	 0.024696584	-161.7	 0.912076889	 104.0	
 6120.0840000	 0.491144950	 156.2	 0.024234968	-162.8	 0.023877801	-163.1	 0.913240051	 103.9	
 6125.3963125	 0.491279555	 155.9	 0.024434725	-161.6	 0.024403088	-163.2	 0.911871774	 103.8	
 6130.7086250	 0.492684673	 155.8	 0.023921269	-162.5	 0.024067570	-163.7	 0.912764475	 103.8	
 6136.0209375	 0.493576192	 155.8	 0.023984226	-164.0	 0.023866640	-164.0	 0.912376863	 103.6	
 6141.3332500	 0.494969417	 155.7	 0.024055159	-163.7	 0.023653159	-165.0	 0.913200473	 103.6	
 6146.6455625	 0.496933822	 155.6	 0.023804569	-164.7	 0.023892667	-163.2	 0.913083464	 103.5	
 6151.9578750	 0.496993638	 155.6	 0.023616803	-164.9	 0.023610594	-165.2	 0.912421649	 103.4	
 6157.2701875	 0.498608508	 155.4	 0.023410389	-165.7	 0.023623278	-165.9	 0.912917148	 103.3	
 6162.5825000	 0.499803282	 155.3	 0.023353408	-166.6	 0.023366889	-164.8	 0.912515350	 103.2	
 6167.8948125	 0.500684017	 155.3	 0.023105348	-166.3	 0.023364218	-166.0	 0.912497073	 103.1	
 6173.2071250	 0.500371151	 155.1	 0.022962837	-166.9	 0.022922069	-165.3	 0.912252447	 103.0	
 6178.5194375	 0.502174741	 155.1	 0.022668160	-166.3	 0.022989855	-167.4	 0.911791353	 103.0	
 6183.8317500	 0.502925243	 154.8	 0.022609342	-166.9	 0.023015324	-167.4	 0.912020769	 102.9	
 6189.1440625	 0.504739479	 154.7	 0.022525116	-167.6	 0.023265541	-167.9	 0.912413884	 102.8	
 6194.4563750	 0.505724000	 154.7	 0.022925582	-167.6	 0.022754201	-167.6	 0.911864581	 102.7	
 6199.7686875	 0.507806233	 154.6	 0.022464578	-168.7	 0.022453933	-168.2	 0.912175776	 102.7	
 6205.0810000	 0.508551102	 154.5	 0.022145064	-169.4	 0.022302539	-169.0	 0.912039542	 102.5	
 6210.3933125	 0.509441236	 154.5	 0.022280454	-169.7	 0.021974657	-169.3	 0.912855194	 102.5	
 6215.7056250	 0.510351319	 154.5	 0.021685895	-170.8	 0.022208428	-169.9	 0.912326257	 102.5	
 6221.0179375	 0.511532532	 154.4	 0.021896419	-169.4	 0.021835924	-169.4	 0.912704204	 102.3	
 6226.3302500	 0.512670826	 154.1	 0.021580825	-171.5	 0.021744551	-170.5	 0.913023452	 102.3	
 6231.6425625	 0.514038319	 154.1	 0.021729461	-171.1	 0.021736983	-171.8	 0.912791093	 102.3	
 6236.9548750	 0.514846497	 154.1	 0.021473138	-170.8	 0.021708613	-171.1	 0.912357831	 102.2	
 6242.2671875	 0.515733029	 154.0	 0.021483218	-171.1	 0.021465909	-171.8	 0.912382579	 102.0	
 6247.5795000	 0.517088315	 154.0	 0.021368403	-171.2	 0.021716195	-173.2	 0.912703526	 102.0	
 6252.8918125	 0.518335133	 153.9	 0.021046419	-172.0	 0.021158594	-172.2	 0.913063712	 101.9	
 6258.2041250	 0.519122445	 153.8	 0.021070244	-172.3	 0.020995190	-172.7	 0.912336616	 101.8	
 6263.5164375	 0.520553238	 153.9	 0.020774185	-173.3	 0.020522350	-173.6	 0.913875454	 101.7	
 6268.8287500	 0.521191845	 153.7	 0.020899639	-174.5	 0.020752521	-173.4	 0.912954690	 101.6	
 6274.1410625	 0.522429372	 153.7	 0.020413229	-173.8	 0.021088363	-175.4	 0.912324151	 101.5	
 6279.4533750	 0.523607324	 153.6	 0.020742630	-174.9	 0.020937163	-173.3	 0.913768540	 101.5	
 6284.7656875	 0.523532510	 153.6	 0.020566864	-174.8	 0.020678278	-174.5	 0.912704159	 101.4	
 6290.0780000	 0.525355175	 153.6	 0.019783501	-175.2	 0.020310877	-175.4	 0.912510665	 101.3	
 6295.3903125	 0.525282721	 153.5	 0.020860185	-176.0	 0.020048938	-176.5	 0.912966120	 101.3	
 6300.7026250	 0.526546074	 153.5	 0.020317468	-176.3	 0.020419893	-176.8	 0.912063140	 101.1	
 6306.0149375	 0.526732085	 153.3	 0.019899230	-176.8	 0.020447823	-178.1	 0.912705989	 101.0	
 6311.3272500	 0.529537917	 153.4	 0.020337850	-177.4	 0.019967396	-176.1	 0.912612329	 100.8	
 6316.6395625	 0.529472870	 153.3	 0.020121264	-178.0	 0.019665465	-177.8	 0.912260684	 100.8	
 6321.9518750	 0.530866694	 153.1	 0.019539253	-178.5	 0.019456391	-179.0	 0.912558968	 100.7	
 6327.2641875	 0.530713050	 153.0	 0.019552263	-178.1	 0.019526429	 179.9	 0.912368078	 100.6	
 6332.5765000	 0.532618711	 153.0	 0.019676410	-179.3	 0.019543722	-179.5	 0.912390213	 100.5	
 6337.8888125	 0.532121533	 153.0	 0.019146605	 179.5	 0.019211318	 179.8	 0.912690397	 100.5	
 6343.2011250	 0.533953589	 152.8	 0.018983300	-179.8	 0.019758087	-179.6	 0.911996045	 100.3	
 6348.5134375	 0.535383891	 152.8	 0.019634016	 179.7	 0.019492406	 179.6	 0.912629122	 100.2	
 6353.8257500	 0.535322662	 152.6	 0.019191529	 178.7	 0.018793467	 178.3	 0.912570792	 100.1	
 6359.1380625	 0.536139877	 152.8	 0.019007465	 178.2	 0.019298553	 176.7	 0.913318580	 100.0	
 6364.4503750	 0.536700754	 152.5	 0.018745941	 177.2	 0.019312166	 178.0	 0.912542296	 100.0	
 6369.7626875	 0.538854291	 152.5	 0.018999836	 177.4	 0.018526489	 176.5	 0.912911108	 99.9	
 6375.0750000	 0.539978610	 152.4	 0.018580783	 175.6	 0.018381232	 176.0	 0.913286972	 99.8	
 6380.3873125	 0.540395766	 152.2	 0.018907617	 176.4	 0.018722115	 175.1	 0.913338167	 99.7	
 6385.6996250	 0.540079430	 152.2	 0.018359199	 176.0	 0.018371296	 176.3	 0.913114255	 99.7	
 6391.0119375	 0.542260705	 152.1	 0.018655651	 175.0	 0.018621977	 175.5	 0.912928228	 99.5	
 6396.3242500	 0.542762315	 151.9	 0.018120338	 173.5	 0.018392245	 173.2	 0.913483171	 99.5	
 6401.6365625	 0.544305901	 152.0	 0.018370286	 174.1	 0.018006430	 174.5	 0.912832516	 99.4	
 6406.9488750	 0.545201657	 151.7	 0.018308083	 173.7	 0.018613349	 174.4	 0.914384014	 99.3	
 6412.2611875	 0.545336007	 151.7	 0.018068504	 172.7	 0.017964666	 173.7	 0.913663949	 99.2	
 6417.5735000	 0.546738904	 151.7	 0.017505141	 172.3	 0.017848049	 172.2	 0.913322950	 99.2	
 6422.8858125	 0.547256723	 151.6	 0.017199700	 172.1	 0.017528552	 172.7	 0.913632403	 99.1	
 6428.1981250	 0.548690260	 151.5	 0.017527538	 171.2	 0.017783457	 172.4	 0.913910552	 99.0	
 6433.5104375	 0.548993615	 151.6	 0.017474029	 170.0	 0.017757846	 171.2	 0.913933910	 98.9	
 6438.8227500	 0.550214321	 151.5	 0.017496118	 170.3	 0.017285922	 170.5	 0.911949349	 98.9	
 6444.1350625	 0.551283807	 151.4	 0.017254529	 170.8	 0.017571984	 170.2	 0.913282785	 98.8	
 6449.4473750	 0.553119820	 151.2	 0.016958069	 168.7	 0.017353293	 168.2	 0.912737758	 98.7	
 6454.7596875	 0.553847802	 151.2	 0.017403979	 168.2	 0.017201987	 168.4	 0.913620720	 98.6	
 6460.0720000	 0.553876270	 151.2	 0.017173614	 168.2	 0.017512355	 167.8	 0.913864506	 98.6	
 6465.3843125	 0.555416935	 151.2	 0.017351658	 168.6	 0.017387411	 168.1	 0.914021528	 98.6	
 6470.6966250	 0.556478845	 151.1	 0.016582438	 166.2	 0.017227599	 167.4	 0.913200134	 98.4	
 6476.0089375	 0.557156408	 151.1	 0.016494532	 165.1	 0.016546006	 166.7	 0.913337569	 98.3	
 6481.3212500	 0.559666742	 150.9	 0.016850575	 165.0	 0.016921314	 166.6	 0.913480282	 98.3	
 6486.6335625	 0.558999711	 150.8	 0.016629817	 164.8	 0.016992754	 164.8	 0.913282465	 98.2	
 6491.9458750	 0.560126025	 150.7	 0.016633911	 164.9	 0.016588776	 164.7	 0.913123018	 98.1	
 6497.2581875	 0.559791280	 150.7	 0.016612637	 165.5	 0.016275656	 165.2	 0.913723667	 98.0	
 6502.5705000	 0.561016686	 150.6	 0.016084512	 162.7	 0.016442517	 162.2	 0.913767098	 97.9	
 6507.8828125	 0.561758014	 150.6	 0.015834326	 165.1	 0.016204877	 163.0	 0.913860851	 97.9	
 6513.1951250	 0.562012748	 150.7	 0.015872147	 162.1	 0.016382284	 163.6	 0.913282522	 97.8	
 6518.5074375	 0.563655504	 150.5	 0.016045608	 162.5	 0.016861950	 162.7	 0.913324106	 97.8	
 6523.8197500	 0.565156204	 150.4	 0.016078247	 161.6	 0.016147257	 161.4	 0.914478283	 97.6	
 6529.1320625	 0.565940986	 150.4	 0.015993210	 161.2	 0.016029960	 160.7	 0.914318780	 97.6	
 6534.4443750	 0.564950206	 150.4	 0.015300357	 159.5	 0.016138156	 159.6	 0.913924441	 97.5	
 6539.7566875	 0.565795300	 150.1	 0.015659035	 160.1	 0.015803182	 159.1	 0.913978756	 97.4	
 6545.0690000	 0.567448371	 150.1	 0.015986196	 157.5	 0.015528672	 161.0	 0.913474208	 97.3	
 6550.3813125	 0.567583572	 150.1	 0.015965522	 157.5	 0.015803867	 158.5	 0.914393406	 97.2	
 6555.6936250	 0.568751623	 150.0	 0.015576972	 158.1	 0.016027639	 157.8	 0.912953112	 97.1	
 6561.0059375	 0.569299166	 149.8	 0.015490482	 155.0	 0.015599461	 158.5	 0.913892418	 97.1	
 6566.3182500	 0.570636533	 149.7	 0.015493445	 156.7	 0.015529789	 157.3	 0.913562530	 97.0	
 6571.6305625	 0.571319083	 149.8	 0.015567157	 155.0	 0.015109591	 155.6	 0.915146387	 96.9	
 6576.9428750	 0.572999213	 149.5	 0.015240124	 155.5	 0.014890244	 156.9	 0.913462120	 96.8	
 6582.2551875	 0.572204702	 149.5	 0.014763110	 153.4	 0.015265738	 155.5	 0.914011044	 96.7	
 6587.5675000	 0.573151549	 149.5	 0.015518051	 153.7	 0.015355009	 153.3	 0.913226957	 96.7	
 6592.8798125	 0.573824528	 149.3	 0.015497661	 152.5	 0.015439634	 153.8	 0.913884278	 96.5	
 6598.1921250	 0.573891389	 149.2	 0.015233709	 151.8	 0.015152676	 152.8	 0.913772450	 96.5	
 6603.5044375	 0.575539069	 149.2	 0.014781513	 151.0	 0.015012795	 152.5	 0.912721380	 96.4	
 6608.8167500	 0.577285486	 149.1	 0.014949906	 151.0	 0.014939541	 150.3	 0.914088907	 96.3	
 6614.1290625	 0.577174786	 149.1	 0.014122892	 150.7	 0.014796295	 151.0	 0.913380626	 96.3	
 6619.4413750	 0.578046088	 148.9	 0.014777733	 149.3	 0.015068285	 149.1	 0.913595281	 96.2	
 6624.7536875	 0.579627686	 148.8	 0.014758595	 149.3	 0.015043298	 150.1	 0.914256432	 96.1	
 6630.0660000	 0.579550305	 148.8	 0.015451689	 147.9	 0.015049894	 149.4	 0.914019593	 96.1	
 6635.3783125	 0.581096026	 148.8	 0.014477121	 145.7	 0.014593991	 146.8	 0.913931174	 96.0	
 6640.6906250	 0.583326325	 148.7	 0.014680509	 146.9	 0.014448051	 148.6	 0.914432463	 96.0	
 6646.0029375	 0.582028122	 148.5	 0.014264602	 146.2	 0.014539869	 146.1	 0.914460992	 95.9	
 6651.3152500	 0.583777780	 148.6	 0.014438095	 145.0	 0.014514885	 147.4	 0.914670272	 95.8	
 6656.6275625	 0.582176671	 148.5	 0.014065793	 143.6	 0.014389381	 144.7	 0.913080181	 95.8	
 6661.9398750	 0.583648360	 148.5	 0.014483893	 143.9	 0.014260177	 144.7	 0.913558202	 95.7	
 6667.2521875	 0.584031443	 148.3	 0.014380552	 142.8	 0.013976715	 145.2	 0.913496629	 95.7	
 6672.5645000	 0.584719596	 148.3	 0.014303063	 142.5	 0.014180545	 143.2	 0.914664055	 95.6	
 6677.8768125	 0.586226627	 148.2	 0.014222522	 141.0	 0.013750014	 142.2	 0.914125292	 95.5	
 6683.1891250	 0.586753848	 148.1	 0.014001037	 140.6	 0.013953270	 142.3	 0.914701168	 95.5	
 6688.5014375	 0.587859331	 148.1	 0.014135581	 140.0	 0.013680853	 142.6	 0.913767253	 95.4	
 6693.8137500	 0.587576057	 148.0	 0.013751626	 139.3	 0.013766498	 139.8	 0.915313952	 95.3	
 6699.1260625	 0.589070727	 148.0	 0.013746004	 138.3	 0.014252930	 140.6	 0.914328539	 95.2	
 6704.4383750	 0.589268791	 147.9	 0.013525339	 138.6	 0.013563766	 137.4	 0.914594491	 95.2	
 6709.7506875	 0.589244993	 147.9	 0.013217334	 139.3	 0.013553748	 137.4	 0.915450876	 95.1	
 6715.0630000	 0.591651696	 147.8	 0.013566873	 135.2	 0.013276236	 136.0	 0.915175686	 95.1	
 6720.3753125	 0.592156145	 147.8	 0.013236579	 136.5	 0.013345081	 138.8	 0.914438921	 95.0	
 6725.6876250	 0.590876343	 147.6	 0.013461646	 136.4	 0.013772047	 137.5	 0.914250085	 95.0	
 6730.9999375	 0.593018042	 147.6	 0.013396773	 136.6	 0.013180774	 135.8	 0.914321207	 95.0	
 6736.3122500	 0.592443071	 147.7	 0.013305122	 135.2	 0.013006293	 135.7	 0.913899500	 94.8	
 6741.6245625	 0.594057170	 147.4	 0.013103585	 130.9	 0.013146006	 134.9	 0.914719535	 94.8	
 6746.9368750	 0.593673474	 147.4	 0.013385861	 133.8	 0.013017614	 134.6	 0.914071914	 94.7	
 6752.2491875	 0.594820012	 147.4	 0.013271952	 131.6	 0.013093504	 133.1	 0.913200851	 94.6	
 6757.5615000	 0.594849584	 147.2	 0.012968471	 131.9	 0.012809515	 131.1	 0.913793459	 94.6	
 6762.8738125	 0.596368718	 147.1	 0.012900190	 131.3	 0.013149604	 130.9	 0.913886229	 94.5	
 6768.1861250	 0.596083581	 147.0	 0.012709828	 131.6	 0.013114074	 129.7	 0.913886890	 94.4	
 6773.4984375	 0.596978685	 146.9	 0.013008929	 130.2	 0.012687668	 130.5	 0.913941951	 94.3	
 6778.8107500	 0.598023537	 146.9	 0.013165131	 128.9	 0.013114016	 129.0	 0.914017628	 94.3	
 6784.1230625	 0.597465333	 146.8	 0.013233973	 129.3	 0.012818403	 127.8	 0.914104472	 94.2	
 6789.4353750	 0.599029607	 146.7	 0.013168522	 127.8	 0.012922174	 129.0	 0.913927231	 94.1	
 6794.7476875	 0.600124067	 146.6	 0.013235904	 126.0	 0.012934987	 128.8	 0.913410414	 94.1	
 6800.0600000	 0.599156163	 146.6	 0.013238613	 127.4	 0.012864441	 126.4	 0.913481000	 94.0	
 6805.3723125	 0.601341207	 146.4	 0.013181165	 127.4	 0.012745566	 125.1	 0.913571631	 93.9	
 6810.6846250	 0.602400029	 146.4	 0.012563775	 125.4	 0.012787885	 125.0	 0.914463253	 93.9	
 6815.9969375	 0.602219899	 146.3	 0.012679396	 125.5	 0.012888161	 125.4	 0.914120463	 93.7	
 6821.3092500	 0.603557465	 146.1	 0.012890090	 122.1	 0.012795079	 123.2	 0.913749774	 93.8	
 6826.6215625	 0.603646614	 146.1	 0.012932094	 123.7	 0.012843383	 124.0	 0.913554613	 93.8	
 6831.9338750	 0.603550679	 146.1	 0.012665127	 125.7	 0.012936571	 124.4	 0.914139815	 93.6	
 6837.2461875	 0.605790006	 146.1	 0.012258088	 122.8	 0.012964623	 123.0	 0.914004710	 93.6	
 6842.5585000	 0.607182446	 146.0	 0.012899963	 120.9	 0.012686503	 123.3	 0.913969089	 93.5	
 6847.8708125	 0.605814766	 145.9	 0.012924335	 122.8	 0.012547469	 120.7	 0.914279386	 93.5	
 6853.1831250	 0.606889756	 145.9	 0.012499140	 121.5	 0.012864570	 120.3	 0.915827381	 93.4	
 6858.4954375	 0.609201363	 145.8	 0.012745542	 119.3	 0.012527305	 117.9	 0.914230773	 93.4	
 6863.8077500	 0.610030004	 145.8	 0.012538417	 119.6	 0.012596010	 118.3	 0.914749646	 93.3	
 6869.1200625	 0.609054284	 145.8	 0.012638956	 118.6	 0.013481595	 117.0	 0.913798645	 93.3	
 6874.4323750	 0.611419776	 145.6	 0.012878475	 115.0	 0.012950642	 116.7	 0.914782296	 93.2	
 6879.7446875	 0.612617585	 145.5	 0.012774037	 116.8	 0.012584868	 116.8	 0.915214198	 93.1	
 6885.0570000	 0.612535115	 145.4	 0.013109350	 114.7	 0.013215688	 116.0	 0.912962598	 93.1	
 6890.3693125	 0.612958413	 145.4	 0.012763216	 115.5	 0.012874223	 113.7	 0.914396688	 93.1	
 6895.6816250	 0.614119951	 145.4	 0.012542955	 114.3	 0.012897568	 117.5	 0.914443660	 93.0	
 6900.9939375	 0.615739900	 145.3	 0.012870359	 113.9	 0.012758769	 114.7	 0.913869272	 92.9	
 6906.3062500	 0.615601978	 145.3	 0.012649892	 111.7	 0.012680194	 112.6	 0.913288914	 93.0	
 6911.6185625	 0.616627301	 145.2	 0.012986197	 111.7	 0.012955140	 112.3	 0.913561022	 92.8	
 6916.9308750	 0.616593275	 145.1	 0.012654294	 113.3	 0.013017647	 109.7	 0.913206430	 92.8	
 6922.2431875	 0.617110008	 145.1	 0.012868378	 111.2	 0.012861854	 111.8	 0.913571946	 92.7	
 6927.5555000	 0.617458435	 145.1	 0.012699282	 110.6	 0.012803803	 108.0	 0.914099788	 92.7	
 6932.8678125	 0.618143332	 145.1	 0.013187853	 109.2	 0.012932428	 107.3	 0.914169675	 92.6	
 6938.1801250	 0.618349769	 144.9	 0.012791699	 105.8	 0.012956388	 109.2	 0.913303798	 92.5	
 6943.4924375	 0.618497053	 144.8	 0.013338533	 108.3	 0.012744295	 105.0	 0.914141152	 92.5	
 6948.8047500	 0.619693990	 144.8	 0.013146200	 106.1	 0.013088893	 107.0	 0.913915454	 92.4	
 6954.1170625	 0.619309381	 144.7	 0.013347577	 104.3	 0.012902542	 105.3	 0.914170197	 92.3	
 6959.4293750	 0.620682566	 144.7	 0.012935551	 105.8	 0.013378929	 103.2	 0.914233188	 92.3	
 6964.7416875	 0.622129004	 144.7	 0.013231159	 104.8	 0.012920742	 103.7	 0.914891214	 92.2	
 6970.0540000	 0.621972637	 144.6	 0.012824659	 103.9	 0.013562727	 104.9	 0.913916135	 92.2	
 6975.3663125	 0.623408742	 144.6	 0.013380689	 100.7	 0.013058184	 102.9	 0.913275748	 92.1	
 6980.6786250	 0.624144145	 144.4	 0.013177756	 100.5	 0.012948925	 103.9	 0.914380409	 92.1	
 6985.9909375	 0.623850654	 144.4	 0.012843711	 100.4	 0.013395145	 102.0	 0.913898573	 92.0	
 6991.3032500	 0.624440572	 144.3	 0.013444002	 101.9	 0.013264373	 100.1	 0.913756072	 92.0	
 6996.6155625	 0.625084088	 144.1	 0.013429522	 100.3	 0.013467325	 98.9	 0.913119442	 92.0	
 7001.9278750	 0.626383246	 144.0	 0.013120676	 98.4	 0.013524891	 98.0	 0.914120476	 91.9	
 7007.2401875	 0.625303480	 144.1	 0.013256960	 97.7	 0.013421967	 98.4	 0.913959783	 91.8	
 7012.5525000	 0.626054214	 144.0	 0.013236411	 97.4	 0.013533875	 96.1	 0.913101947	 91.8	
 7017.8648125	 0.626243166	 143.9	 0.013561037	 97.1	 0.013501845	 97.8	 0.913233570	 91.7	
 7023.1771250	 0.627346039	 143.9	 0.013446199	 96.7	 0.013830032	 96.5	 0.913373106	 91.7	
 7028.4894375	 0.628753630	 143.7	 0.013395177	 96.4	 0.013152489	 94.7	 0.913684386	 91.6	
 7033.8017500	 0.628834957	 143.7	 0.013297733	 93.8	 0.013450053	 94.6	 0.912857622	 91.5	
 7039.1140625	 0.629846129	 143.7	 0.013424117	 94.2	 0.013039925	 93.3	 0.913463694	 91.4	
 7044.4263750	 0.629904814	 143.5	 0.014228947	 94.7	 0.013429228	 94.3	 0.914259797	 91.4	
 7049.7386875	 0.631088103	 143.5	 0.013126946	 90.5	 0.013577624	 91.5	 0.912402405	 91.3	
 7055.0510000	 0.631907981	 143.4	 0.013610525	 92.1	 0.013536488	 93.4	 0.912735106	 91.3	
 7060.3633125	 0.631268119	 143.4	 0.013265307	 92.8	 0.013312752	 93.7	 0.914397418	 91.2	
 7065.6756250	 0.630919818	 143.4	 0.013758275	 88.6	 0.013594920	 89.5	 0.913907764	 91.1	
 7070.9879375	 0.632956623	 143.3	 0.013545230	 89.3	 0.013794147	 88.5	 0.913470814	 91.1	
 7076.3002500	 0.633433789	 143.1	 0.013453925	 88.8	 0.013636478	 87.9	 0.914390321	 91.1	
 7081.6125625	 0.634649318	 143.1	 0.013670478	 88.1	 0.013447818	 88.7	 0.913720736	 91.0	
 7086.9248750	 0.634559900	 143.1	 0.013719388	 87.7	 0.013899887	 87.9	 0.912717303	 90.9	
 7092.2371875	 0.635302977	 143.0	 0.014018373	 86.8	 0.014166405	 84.8	 0.913046078	 90.9	
 7097.5495000	 0.636051271	 143.0	 0.013431769	 87.9	 0.013782366	 83.3	 0.913454289	 90.9	
 7102.8618125	 0.636504441	 142.9	 0.014142193	 84.8	 0.014185079	 86.8	 0.912712583	 90.7	
 7108.1741250	 0.636402128	 142.9	 0.014266299	 84.4	 0.014293704	 85.7	 0.913401693	 90.7	
 7113.4864375	 0.637021706	 142.9	 0.014369367	 83.5	 0.014264288	 84.8	 0.913287906	 90.7	
 7118.7987500	 0.636808313	 142.7	 0.013958341	 83.9	 0.014347514	 83.0	 0.913652749	 90.7	
 7124.1110625	 0.637781118	 142.7	 0.013985595	 82.2	 0.014107675	 82.5	 0.913168405	 90.6	
 7129.4233750	 0.637967855	 142.6	 0.014361568	 80.7	 0.014750507	 81.6	 0.912951597	 90.5	
 7134.7356875	 0.638304749	 142.4	 0.014698590	 79.8	 0.014203234	 79.1	 0.912467620	 90.5	
 7140.0480000	 0.640633867	 142.5	 0.014634071	 80.6	 0.014416745	 80.1	 0.912937570	 90.4	
 7145.3603125	 0.639916747	 142.3	 0.014779693	 79.7	 0.014418288	 79.8	 0.913147576	 90.3	
 7150.6726250	 0.639428636	 142.3	 0.015104033	 78.5	 0.014435596	 78.6	 0.913083132	 90.3	
 7155.9849375	 0.641134311	 142.3	 0.014719421	 77.6	 0.015152627	 77.8	 0.912569206	 90.2	
 7161.2972500	 0.639720331	 142.1	 0.014415288	 75.9	 0.014860789	 77.4	 0.911984812	 90.1	
 7166.6095625	 0.641307994	 142.0	 0.014663712	 75.9	 0.014585533	 77.4	 0.912941143	 90.1	
 7171.9218750	 0.641610281	 142.0	 0.014972331	 75.9	 0.014609566	 75.4	 0.912833131	 90.0	
 7177.2341875	 0.642749699	 141.9	 0.014778370	 75.2	 0.014815067	 74.3	 0.913873788	 90.0	
 7182.5465000	 0.642762816	 141.9	 0.015228860	 75.0	 0.015421560	 74.5	 0.913951918	 89.8	
 7187.8588125	 0.643151688	 141.7	 0.015683290	 76.2	 0.014792247	 72.7	 0.912780552	 89.8	
 7193.1711250	 0.644188870	 141.8	 0.015926617	 70.0	 0.014977481	 72.1	 0.913448316	 89.8	
 7198.4834375	 0.643289656	 141.7	 0.015251890	 69.7	 0.015601566	 71.6	 0.913179138	 89.7	
 7203.7957500	 0.644548283	 141.6	 0.015381068	 72.3	 0.015672829	 71.6	 0.912669133	 89.6	
 7209.1080625	 0.644105586	 141.5	 0.015619241	 68.8	 0.015907507	 70.1	 0.912388689	 89.6	
 7214.4203750	 0.644306924	 141.4	 0.015266799	 69.3	 0.015586171	 70.5	 0.913465881	 89.6	
 7219.7326875	 0.644485459	 141.4	 0.015304002	 68.8	 0.015665281	 69.8	 0.913591836	 89.6	
 7225.0450000	 0.646812131	 141.4	 0.015963935	 68.1	 0.015233827	 69.3	 0.913814197	 89.5	
 7230.3573125	 0.646177670	 141.2	 0.015509678	 66.5	 0.015880762	 66.9	 0.914467936	 89.5	
 7235.6696250	 0.646522260	 141.1	 0.015547664	 66.8	 0.016066123	 66.6	 0.913711972	 89.4	
 7240.9819375	 0.646475534	 141.1	 0.015814339	 64.9	 0.016291259	 65.0	 0.913378178	 89.4	
 7246.2942500	 0.647534231	 141.1	 0.015913103	 66.3	 0.015687766	 65.4	 0.912966795	 89.3	
 7251.6065625	 0.647434926	 141.0	 0.015893088	 64.6	 0.016374073	 63.4	 0.914243010	 89.2	
 7256.9188750	 0.647818995	 140.9	 0.016482957	 62.8	 0.015932351	 63.5	 0.912653161	 89.2	
 7262.2311875	 0.647250591	 141.0	 0.015971304	 62.5	 0.016477740	 62.5	 0.912472674	 89.1	
 7267.5435000	 0.648696181	 140.9	 0.016326148	 62.2	 0.016574744	 61.4	 0.912587868	 89.1	
 7272.8558125	 0.648037427	 140.8	 0.016475016	 60.4	 0.016513827	 60.6	 0.911860499	 89.0	
 7278.1681250	 0.648640880	 140.7	 0.015980097	 61.7	 0.016419281	 60.5	 0.912482351	 88.9	
 7283.4804375	 0.649010735	 140.6	 0.016563106	 59.1	 0.016921351	 58.8	 0.911773707	 89.0	
 7288.7927500	 0.648952022	 140.7	 0.016064354	 59.8	 0.016683276	 57.2	 0.911727451	 88.9	
 7294.1050625	 0.648793363	 140.6	 0.016506898	 59.3	 0.016420327	 58.4	 0.911863358	 88.8	
 7299.4173750	 0.649688609	 140.6	 0.016464754	 57.4	 0.016827432	 56.8	 0.913346874	 88.7	
 7304.7296875	 0.649534270	 140.5	 0.016783610	 57.6	 0.016769804	 57.1	 0.911421918	 88.7	
 7310.0420000	 0.651237596	 140.4	 0.016715392	 55.9	 0.017027239	 55.4	 0.911429893	 88.6	
 7315.3543125	 0.649013780	 140.2	 0.016837853	 54.5	 0.016899357	 54.2	 0.911956556	 88.5	
 7320.6666250	 0.652068772	 140.3	 0.017454708	 53.5	 0.016874899	 54.5	 0.912623083	 88.4	
 7325.9789375	 0.649993906	 140.3	 0.017068092	 53.5	 0.017304834	 53.7	 0.912104718	 88.5	
 7331.2912500	 0.651894292	 140.1	 0.016895090	 50.8	 0.016890652	 53.7	 0.912638461	 88.4	
 7336.6035625	 0.651999489	 140.1	 0.017343926	 52.9	 0.017155149	 52.8	 0.912507944	 88.4	
 7341.9158750	 0.650210310	 140.0	 0.016802389	 52.5	 0.017467768	 52.0	 0.912843633	 88.2	
 7347.2281875	 0.654196874	 140.1	 0.017392687	 50.8	 0.017198436	 50.2	 0.912400406	 88.2	
 7352.5405000	 0.652596393	 139.9	 0.016769499	 50.0	 0.017499098	 50.2	 0.912333304	 88.2	
 7357.8528125	 0.652906928	 139.8	 0.017177370	 49.3	 0.017695519	 50.2	 0.912774159	 88.1	
 7363.1651250	 0.653978578	 139.8	 0.017328773	 49.3	 0.017448884	 47.1	 0.911904256	 88.0	
 7368.4774375	 0.653973202	 139.8	 0.018091173	 49.1	 0.017427801	 48.7	 0.911946053	 88.0	
 7373.7897500	 0.655014908	 139.7	 0.017522306	 48.6	 0.017661911	 48.3	 0.912056487	 88.0	
 7379.1020625	 0.654473328	 139.5	 0.017102767	 47.3	 0.018172799	 48.1	 0.911903604	 87.9	
 7384.4143750	 0.654527864	 139.6	 0.018105726	 45.5	 0.017743139	 47.2	 0.912023513	 87.9	
 7389.7266875	 0.653971720	 139.5	 0.018191521	 45.8	 0.017935780	 46.2	 0.911568086	 87.9	
 7395.0390000	 0.654664293	 139.5	 0.018361468	 45.6	 0.018352368	 45.5	 0.911281794	 87.7	
 7400.3513125	 0.654470650	 139.4	 0.018507110	 45.6	 0.018172352	 44.5	 0.911917850	 87.8	
 7405.6636250	 0.655008529	 139.4	 0.018149810	 44.3	 0.018079030	 43.7	 0.910536378	 87.7	
 7410.9759375	 0.655782812	 139.3	 0.018192506	 43.2	 0.018488244	 44.3	 0.911867009	 87.8	
 7416.2882500	 0.656034444	 139.2	 0.018060525	 42.9	 0.018128734	 42.2	 0.910850038	 87.7	
 7421.6005625	 0.654997761	 139.2	 0.018645892	 41.1	 0.018399768	 41.0	 0.909981226	 87.6	
 7426.9128750	 0.656197845	 139.1	 0.018651565	 41.4	 0.018567731	 40.1	 0.911528428	 87.6	
 7432.2251875	 0.656158182	 139.0	 0.018228704	 39.6	 0.018655803	 41.2	 0.909719803	 87.5	
 7437.5375000	 0.657679694	 139.0	 0.018819207	 40.2	 0.019053805	 38.8	 0.910073522	 87.4	
 7442.8498125	 0.658651159	 138.9	 0.018460215	 39.4	 0.018957993	 38.8	 0.910373700	 87.4	
 7448.1621250	 0.657911485	 138.9	 0.018434194	 38.9	 0.018628112	 38.8	 0.909603304	 87.4	
 7453.4744375	 0.657985585	 138.9	 0.018830932	 38.5	 0.018650205	 37.2	 0.909137336	 87.4	
 7458.7867500	 0.658559084	 138.9	 0.019111448	 38.4	 0.019223230	 36.4	 0.909230823	 87.3	
 7464.0990625	 0.658850328	 138.7	 0.019171275	 37.7	 0.018355335	 36.5	 0.909709393	 87.3	
 7469.4113750	 0.658389615	 138.7	 0.019304599	 36.8	 0.019313628	 35.6	 0.908858570	 87.1	
 7474.7236875	 0.657767623	 138.7	 0.019245646	 34.7	 0.018899902	 36.0	 0.910047942	 87.2	
 7480.0360000	 0.659925629	 138.7	 0.019552656	 35.2	 0.019390777	 35.0	 0.910163864	 87.2	
 7485.3483125	 0.658259406	 138.6	 0.019614312	 34.3	 0.019819899	 34.3	 0.910242048	 87.1	
 7490.6606250	 0.657926152	 138.6	 0.019611671	 33.4	 0.019888928	 33.6	 0.909984812	 87.1	
 7495.9729375	 0.658913673	 138.6	 0.019777756	 33.2	 0.019548495	 32.0	 0.909809458	 87.0	
 7501.2852500	 0.660214202	 138.5	 0.020006911	 32.0	 0.020346223	 32.5	 0.909774977	 87.0	
 7506.5975625	 0.659346978	 138.5	 0.019318286	 30.3	 0.019890642	 31.2	 0.909422889	 87.0	
 7511.9098750	 0.658062593	 138.5	 0.019896714	 30.8	 0.019908971	 30.4	 0.909002000	 86.9	
 7517.2221875	 0.660588718	 138.5	 0.019967903	 30.5	 0.019930930	 29.3	 0.908548708	 86.9	
 7522.5345000	 0.660869594	 138.2	 0.020042156	 29.2	 0.020254297	 27.6	 0.908846995	 86.9	
 7527.8468125	 0.660011831	 138.2	 0.020327471	 29.4	 0.020452684	 28.5	 0.908436487	 86.8	
 7533.1591250	 0.660173588	 138.3	 0.020163412	 28.3	 0.020304423	 27.2	 0.907184116	 86.7	
 7538.4714375	 0.660593161	 138.3	 0.020310980	 27.1	 0.020720235	 26.9	 0.907751105	 86.6	
 7543.7837500	 0.659940585	 138.2	 0.020231309	 26.6	 0.020223800	 26.9	 0.907501002	 86.6	
 7549.0960625	 0.659586353	 138.1	 0.020741774	 25.0	 0.020580165	 24.9	 0.907415756	 86.6	
 7554.4083750	 0.660628566	 138.0	 0.020643420	 25.5	 0.020323433	 24.7	 0.907433995	 86.5	
 7559.7206875	 0.660548909	 138.0	 0.020668884	 24.8	 0.020903100	 24.8	 0.906596048	 86.4	
 7565.0330000	 0.660904870	 137.9	 0.020756843	 24.9	 0.021038210	 23.8	 0.907690887	 86.3	
 7570.3453125	 0.659848058	 137.8	 0.020493262	 23.5	 0.020952763	 23.8	 0.906501819	 86.3	
 7575.6576250	 0.659869862	 137.7	 0.020882298	 22.7	 0.021030101	 22.3	 0.906483808	 86.3	
 7580.9699375	 0.660253266	 137.7	 0.021145024	 22.2	 0.020953618	 21.2	 0.905341755	 86.2	
 7586.2822500	 0.659743722	 137.5	 0.021208406	 21.5	 0.021408447	 20.6	 0.906702141	 86.3	
 7591.5945625	 0.660063262	 137.5	 0.020831628	 20.8	 0.021009608	 20.1	 0.905583660	 86.1	
 7596.9068750	 0.660968840	 137.4	 0.021181004	 21.2	 0.021526985	 20.1	 0.907307781	 86.1	
 7602.2191875	 0.659411154	 137.3	 0.021860646	 21.1	 0.021687653	 18.8	 0.905110582	 85.9	
 7607.5315000	 0.660125350	 137.2	 0.021668287	 18.7	 0.021683976	 17.9	 0.904707317	 86.0	
 7612.8438125	 0.659706310	 137.2	 0.021798049	 19.1	 0.021686406	 17.1	 0.905805087	 86.0	
 7618.1561250	 0.659599898	 137.0	 0.021791283	 17.8	 0.022053061	 16.7	 0.906476566	 86.0	
 7623.4684375	 0.658371912	 137.1	 0.021581657	 16.6	 0.021804358	 16.1	 0.905936449	 86.0	
 7628.7807500	 0.658725084	 136.9	 0.021068744	 15.0	 0.022611216	 15.6	 0.905962612	 85.9	
 7634.0930625	 0.660151955	 136.9	 0.022501438	 14.8	 0.022849342	 14.8	 0.905844064	 85.9	
 7639.4053750	 0.658210766	 136.8	 0.022270396	 14.9	 0.022290422	 13.2	 0.905869198	 85.9	
 7644.7176875	 0.658193384	 136.7	 0.021925759	 11.0	 0.022608838	 13.6	 0.905885862	 85.9	
 7650.0300000	 0.658019262	 136.7	 0.023036054	 11.5	 0.022027711	 10.6	 0.905467264	 85.9	
 7655.3423125	 0.658939527	 136.7	 0.022530622	 11.5	 0.022705867	 12.0	 0.904563765	 85.9	
 7660.6546250	 0.657455726	 136.6	 0.022314342	 10.1	 0.022913176	 10.4	 0.906135929	 85.8	
 7665.9669375	 0.657429672	 136.6	 0.021915303	  9.1	 0.022934450	  9.5	 0.905267591	 85.9	
 7671.2792500	 0.657509471	 136.5	 0.022450944	  7.5	 0.023307774	  8.3	 0.905221450	 85.8	
 7676.5915625	 0.657682923	 136.5	 0.022792406	  8.1	 0.022707274	  7.2	 0.904535562	 85.8	
 7681.9038750	 0.656184726	 136.3	 0.022918425	  7.5	 0.023467789	  7.0	 0.903341275	 85.6	
 7687.2161875	 0.657643650	 136.5	 0.023098649	  6.0	 0.023616946	  6.5	 0.904075358	 85.8	
 7692.5285000	 0.655632631	 136.5	 0.023045060	  3.9	 0.023263163	  5.5	 0.903788696	 85.8	
 7697.8408125	 0.654798939	 136.4	 0.023117475	  4.6	 0.023593609	  4.4	 0.903688577	 85.7	
 7703.1531250	 0.655736094	 136.4	 0.023241078	  3.1	 0.023176781	  2.6	 0.903552421	 85.6	
 7708.4654375	 0.654326275	 136.4	 0.023337244	  2.1	 0.023266970	  1.5	 0.903380552	 85.6	
 7713.7777500	 0.653568687	 136.4	 0.023743628	  0.8	 0.023861134	  1.5	 0.901512144	 85.6	
 7719.0900625	 0.653302312	 136.4	 0.022819395	 -0.7	 0.023206148	 -0.9	 0.901627724	 85.6	
 7724.4023750	 0.652439200	 136.3	 0.023762160	  0.1	 0.023453795	 -1.2	 0.902560057	 85.5	
 7729.7146875	 0.652482165	 136.3	 0.023973837	 -1.2	 0.024103955	 -1.2	 0.902359587	 85.5	
 7735.0270000	 0.650657457	 136.4	 0.023536533	 -3.3	 0.023989461	 -3.6	 0.902879377	 85.4	
 7740.3393125	 0.651025120	 136.3	 0.024054053	 -4.1	 0.023984112	 -4.3	 0.902632511	 85.4	
 7745.6516250	 0.649856444	 136.4	 0.023721168	 -4.7	 0.023885860	 -5.6	 0.900902872	 85.4	
 7750.9639375	 0.649857640	 136.4	 0.023627014	 -6.4	 0.023552979	 -6.8	 0.901534683	 85.3	
 7756.2762500	 0.648878219	 136.4	 0.023381788	 -6.8	 0.023985029	 -7.3	 0.901017920	 85.2	
 7761.5885625	 0.648861463	 136.4	 0.024165580	 -6.6	 0.023577077	 -7.4	 0.900562056	 85.3	
 7766.9008750	 0.647769111	 136.4	 0.024183865	 -8.9	 0.024286771	 -8.6	 0.900568646	 85.2	
 7772.2131875	 0.647182664	 136.4	 0.023520795	 -9.3	 0.023956852	 -9.6	 0.900195100	 85.2	
 7777.5255000	 0.646316741	 136.4	 0.023921941	-11.0	 0.023591579	-12.8	 0.900599227	 85.2	
 7782.8378125	 0.646896478	 136.4	 0.023370475	-11.0	 0.023460225	-11.8	 0.901248793	 85.2	
 7788.1501250	 0.646404514	 136.5	 0.023148885	-12.0	 0.023307124	-14.0	 0.900317766	 85.2	
 7793.4624375	 0.645412140	 136.5	 0.023379351	-13.4	 0.022582957	-13.2	 0.900303049	 85.1	
 7798.7747500	 0.646539310	 136.6	 0.023393248	-15.1	 0.023206306	-17.0	 0.898909449	 85.1	
 7804.0870625	 0.645791453	 136.5	 0.023166521	-14.8	 0.022537085	-17.1	 0.899180080	 85.0	
 7809.3993750	 0.645336711	 136.5	 0.022657027	-16.4	 0.022078673	-16.0	 0.899729488	 85.0	
 7814.7116875	 0.646806395	 136.5	 0.022720350	-18.9	 0.022352091	-18.7	 0.898496335	 85.0	
 7820.0240000	 0.645731320	 136.6	 0.022558658	-19.0	 0.022140979	-17.4	 0.899173889	 85.0	
 7825.3363125	 0.646548529	 136.6	 0.022796114	-18.4	 0.022276262	-19.8	 0.898811082	 84.9	
 7830.6486250	 0.647165252	 136.6	 0.022602653	-22.2	 0.022731123	-21.7	 0.897645292	 84.9	
 7835.9609375	 0.647567338	 136.7	 0.021760426	-20.7	 0.022016567	-21.2	 0.898266848	 84.8	
 7841.2732500	 0.647749537	 136.8	 0.021850683	-21.2	 0.021293392	-21.1	 0.898658938	 84.9	
 7846.5855625	 0.648488442	 136.8	 0.021342458	-22.5	 0.021701240	-23.5	 0.899062248	 84.8	
 7851.8978750	 0.648441579	 136.8	 0.021151192	-22.1	 0.021312957	-24.3	 0.899077917	 84.8	
 7857.2101875	 0.649415741	 136.7	 0.021047562	-24.6	 0.020745236	-23.8	 0.898089302	 84.8	
 7862.5225000	 0.648518014	 136.8	 0.020980585	-23.9	 0.021531424	-25.2	 0.897534904	 84.8	
 7867.8348125	 0.650033607	 136.8	 0.020530991	-25.2	 0.021014958	-26.7	 0.897680418	 84.9	
 7873.1471250	 0.650474238	 136.8	 0.020183329	-24.9	 0.020801796	-25.4	 0.898613615	 84.8	
 7878.4594375	 0.650614095	 136.9	 0.020774845	-25.3	 0.019612674	-25.9	 0.898075056	 84.8	
 7883.7717500	 0.650855636	 136.9	 0.020482724	-27.1	 0.020458149	-27.0	 0.899220909	 84.8	
 7889.0840625	 0.651923722	 136.9	 0.020006025	-27.0	 0.020026409	-28.8	 0.897870629	 84.8	
 7894.3963750	 0.651769861	 136.9	 0.020065759	-26.8	 0.020236066	-28.4	 0.899262998	 84.8	
 7899.7086875	 0.653256448	 136.9	 0.019465208	-26.6	 0.019699003	-26.7	 0.897642112	 84.8	
 7905.0210000	 0.653405103	 137.0	 0.019655127	-27.3	 0.020261239	-27.6	 0.897178231	 84.7	
 7910.3333125	 0.653670126	 136.9	 0.020012966	-27.7	 0.020305916	-28.8	 0.898112566	 84.7	
 7915.6456250	 0.654085906	 137.0	 0.019965177	-29.6	 0.020563591	-28.4	 0.898202424	 84.8	
 7920.9579375	 0.654528247	 136.9	 0.019717384	-28.5	 0.019751690	-27.7	 0.898343762	 84.8	
 7926.2702500	 0.655213666	 136.9	 0.019099091	-28.6	 0.019170458	-28.1	 0.897520214	 84.8	
 7931.5825625	 0.655736032	 136.8	 0.019685605	-30.6	 0.019518729	-28.6	 0.896938420	 84.7	
 7936.8948750	 0.654768135	 136.8	 0.019671963	-30.4	 0.019639084	-30.5	 0.896721876	 84.7	
 7942.2071875	 0.656439583	 136.9	 0.019873457	-29.8	 0.020068525	-30.1	 0.897649110	 84.6	
 7947.5195000	 0.654999368	 136.8	 0.019809864	-32.1	 0.019751904	-30.5	 0.896059385	 84.7	
 7952.8318125	 0.655647679	 136.8	 0.019412239	-32.8	 0.019767330	-30.8	 0.896103369	 84.6	
 7958.1441250	 0.655787597	 136.9	 0.020284905	-32.2	 0.020169129	-31.1	 0.895428203	 84.7	
 7963.4564375	 0.654893595	 136.9	 0.020703637	-31.0	 0.019479856	-31.4	 0.895124609	 84.5	
 7968.7687500	 0.653511436	 136.8	 0.020305590	-31.8	 0.019857067	-33.2	 0.895134823	 84.5	
 7974.0810625	 0.654177502	 136.8	 0.020683896	-33.4	 0.020337438	-33.3	 0.895277766	 84.4	
 7979.3933750	 0.653814133	 136.8	 0.020354877	-34.0	 0.019636544	-33.1	 0.894139660	 84.5	
 7984.7056875	 0.654381039	 136.8	 0.020531415	-36.1	 0.020097747	-35.1	 0.895433940	 84.4	
 7990.0180000	 0.653031458	 136.8	 0.020725854	-35.9	 0.020499115	-35.7	 0.896452106	 84.4	
 7995.3303125	 0.653252850	 136.8	 0.020119335	-37.6	 0.020105184	-35.1	 0.894386785	 84.4	
 8000.6426250	 0.653883817	 136.7	 0.020482099	-39.4	 0.020271182	-40.1	 0.893547540	 84.3	
 8005.9549375	 0.653082800	 136.7	 0.020455543	-38.7	 0.020534575	-37.7	 0.893876899	 84.3	
 8011.2672500	 0.653219339	 136.7	 0.020243824	-41.1	 0.020554087	-39.3	 0.892997973	 84.3	
 8016.5795625	 0.652551822	 136.7	 0.020613710	-40.8	 0.020163005	-39.3	 0.894076633	 84.2	
 8021.8918750	 0.652277169	 136.8	 0.019948676	-40.6	 0.020340133	-41.1	 0.894634284	 84.3	
 8027.2041875	 0.651828785	 136.8	 0.020271299	-42.9	 0.020442434	-41.4	 0.893302971	 84.2	
 8032.5165000	 0.651102784	 136.8	 0.020805863	-42.3	 0.020553629	-45.1	 0.894214411	 84.2	
 8037.8288125	 0.652050499	 136.9	 0.020535156	-45.0	 0.020805429	-44.6	 0.892434797	 84.2	
 8043.1411250	 0.652542075	 136.8	 0.020994312	-46.1	 0.020274321	-45.0	 0.894205318	 84.2	
 8048.4534375	 0.650768749	 137.0	 0.020101878	-47.6	 0.020660762	-45.5	 0.893431795	 84.2	
 8053.7657500	 0.651904060	 137.0	 0.020800175	-48.3	 0.020059621	-48.1	 0.894370862	 84.2	
 8059.0780625	 0.651540347	 136.9	 0.020039251	-49.4	 0.019490631	-49.2	 0.892436989	 84.2	
 8064.3903750	 0.653490030	 137.0	 0.019646054	-51.3	 0.019682529	-50.0	 0.892094135	 84.3	
 8069.7026875	 0.652541938	 137.3	 0.020176287	-50.6	 0.020563965	-51.4	 0.893416568	 84.1	
 8075.0150000	 0.654363643	 137.1	 0.019807937	-51.6	 0.019842353	-52.3	 0.892878333	 84.1	
 8080.3273125	 0.651498702	 137.1	 0.020536673	-53.0	 0.019483407	-53.6	 0.891493316	 84.1	
 8085.6396250	 0.655029027	 137.2	 0.020048884	-52.8	 0.019600600	-55.0	 0.892528341	 84.1	
 8090.9519375	 0.652938228	 137.3	 0.020102453	-57.6	 0.019997932	-54.7	 0.892646846	 84.2	
 8096.2642500	 0.654636397	 137.4	 0.018941876	-57.6	 0.019488457	-56.7	 0.891081162	 84.1	
 8101.5765625	 0.654908616	 137.5	 0.019332335	-61.3	 0.019450882	-58.5	 0.891575090	 84.1	
 8106.8888750	 0.655252576	 137.5	 0.018669991	-58.2	 0.019625908	-59.9	 0.892335678	 84.2	
 8112.2011875	 0.655624613	 137.6	 0.018818358	-60.8	 0.019188453	-61.1	 0.892034503	 84.2	
 8117.5135000	 0.658381894	 137.7	 0.018435225	-63.4	 0.018357773	-62.1	 0.891901172	 84.2	
 8122.8258125	 0.657155126	 137.7	 0.018125323	-63.3	 0.018269227	-63.0	 0.892992332	 84.2	
 8128.1381250	 0.658637618	 138.0	 0.018480219	-65.1	 0.018079793	-64.6	 0.891697313	 84.1	
 8133.4504375	 0.659034226	 138.0	 0.017882722	-62.9	 0.018243658	-66.1	 0.891351327	 84.1	
 8138.7627500	 0.660939330	 138.0	 0.017345546	-66.4	 0.017984273	-66.5	 0.892424839	 84.0	
 8144.0750625	 0.661746166	 138.1	 0.017623149	-65.6	 0.017205002	-67.2	 0.891187935	 84.1	
 8149.3873750	 0.662332691	 138.1	 0.017331542	-68.4	 0.016739716	-67.4	 0.890598661	 84.1	
 8154.6996875	 0.664071209	 138.3	 0.017408833	-69.2	 0.017030066	-70.7	 0.892380007	 84.1	
 8160.0120000	 0.664211919	 138.2	 0.016627344	-69.7	 0.016812540	-71.6	 0.890782526	 84.1	
 8165.3243125	 0.664658800	 138.3	 0.015782982	-71.0	 0.016953979	-71.4	 0.891450977	 84.0	
 8170.6366250	 0.666456290	 138.3	 0.016671830	-71.2	 0.016754746	-73.0	 0.890971550	 84.1	
 8175.9489375	 0.666603677	 138.3	 0.015932625	-74.0	 0.015755674	-74.1	 0.891894619	 84.1	
 8181.2612500	 0.667640726	 138.3	 0.016247181	-73.3	 0.016000643	-74.5	 0.890952763	 83.9	
 8186.5735625	 0.669762657	 138.3	 0.015605598	-74.9	 0.015412033	-73.9	 0.892414602	 84.0	
 8191.8858750	 0.668807022	 138.3	 0.015158950	-76.3	 0.015263585	-74.2	 0.890293402	 83.9	
 8197.1981875	 0.671192436	 138.3	 0.014506853	-78.7	 0.015039203	-73.9	 0.891653533	 83.9	
 8202.5105000	 0.671392024	 138.3	 0.015101561	-77.9	 0.014757507	-75.8	 0.891708846	 83.9	
 8207.8228125	 0.672542963	 138.4	 0.014339553	-80.1	 0.015072451	-78.1	 0.889720577	 83.9	
 8213.1351250	 0.673002410	 138.3	 0.014279269	-78.9	 0.013867981	-77.8	 0.893090840	 83.9	
 8218.4474375	 0.674257525	 138.2	 0.014714789	-80.9	 0.014105012	-80.3	 0.890739187	 83.8	
 8223.7597500	 0.676092173	 138.2	 0.013876182	-82.0	 0.013671368	-80.4	 0.891144239	 83.9	
 8229.0720625	 0.674620959	 138.0	 0.014229009	-82.9	 0.013715793	-81.1	 0.891720227	 83.8	
 8234.3843750	 0.675547863	 138.2	 0.014413550	-83.6	 0.012965265	-82.2	 0.892958726	 83.8	
 8239.6966875	 0.678810023	 138.2	 0.013253106	-83.9	 0.013297035	-85.6	 0.890988366	 83.7	
 8245.0090000	 0.678067479	 138.1	 0.012829121	-86.7	 0.013005411	-84.7	 0.891875488	 83.6	
 8250.3213125	 0.681965121	 138.1	 0.013443084	-87.2	 0.012741445	-86.1	 0.890984051	 83.6	
 8255.6336250	 0.678101950	 137.9	 0.012738452	-86.2	 0.012470145	-87.9	 0.890527573	 83.6	
 8260.9459375	 0.681663600	 138.1	 0.013076415	-86.8	 0.012356895	-86.7	 0.890389120	 83.5	
 8266.2582500	 0.683507851	 138.0	 0.012280390	-91.7	 0.012064371	-87.8	 0.889712546	 83.6	
 8271.5705625	 0.684596680	 138.1	 0.012278390	-87.2	 0.012348061	-88.8	 0.890127860	 83.6	
 8276.8828750	 0.685277315	 138.0	 0.012136504	-90.7	 0.011773728	-88.1	 0.890930688	 83.6	
 8282.1951875	 0.686696403	 138.1	 0.011926955	-91.4	 0.011383597	-91.5	 0.890231462	 83.5	
 8287.5075000	 0.685708821	 138.0	 0.011639372	-91.7	 0.011240549	-91.9	 0.890091860	 83.5	
 8292.8198125	 0.687423596	 137.9	 0.011406237	-94.4	 0.011190547	-92.7	 0.889965855	 83.4	
 8298.1321250	 0.687507841	 137.7	 0.011879715	-95.4	 0.011140692	-95.1	 0.889750651	 83.4	
 8303.4444375	 0.688380786	 137.9	 0.010610317	-93.4	 0.010607783	-96.2	 0.889798609	 83.4	
 8308.7567500	 0.690449510	 138.0	 0.010383108	-98.1	 0.010636837	-94.7	 0.889400393	 83.5	
 8314.0690625	 0.691616791	 137.9	 0.010381704	-97.7	 0.010999841	-95.6	 0.890134153	 83.4	
 8319.3813750	 0.692785136	 137.9	 0.010604591	-97.9	 0.010128558	-96.9	 0.890395515	 83.5	
 8324.6936875	 0.693894858	 137.9	 0.010301713	-99.4	 0.010361633	-98.9	 0.888997864	 83.4	
 8330.0060000	 0.694761014	 137.9	 0.010391922	-99.8	 0.010150412	-99.2	 0.889156467	 83.4	
 8335.3183125	 0.695427088	 138.0	 0.009798478	-100.9	 0.009959836	-101.5	 0.888407997	 83.4	
 8340.6306250	 0.697038140	 137.9	 0.009437976	-106.3	 0.009735234	-104.5	 0.889338705	 83.4	
 8345.9429375	 0.697392927	 137.9	 0.009232018	-108.8	 0.009520045	-103.5	 0.888599643	 83.4	
 8351.2552500	 0.698031246	 137.9	 0.009450652	-101.7	 0.009150767	-104.6	 0.888740662	 83.3	
 8356.5675625	 0.697900624	 137.9	 0.009331491	-105.7	 0.008751069	-104.8	 0.888585719	 83.3	
 8361.8798750	 0.699644901	 137.9	 0.009161147	-112.1	 0.008814406	-105.6	 0.887213618	 83.2	
 8367.1921875	 0.699647167	 138.0	 0.008890209	-107.8	 0.008874052	-110.7	 0.888960678	 83.2	
 8372.5045000	 0.700807503	 137.8	 0.008882381	-106.4	 0.008468953	-109.4	 0.885657414	 83.2	
 8377.8168125	 0.701723608	 137.8	 0.008197715	-112.8	 0.008389441	-108.7	 0.888029819	 83.1	
 8383.1291250	 0.703605200	 137.7	 0.008352821	-113.6	 0.008309001	-111.2	 0.887237673	 83.1	
 8388.4414375	 0.702703830	 137.8	 0.007630231	-117.4	 0.008167327	-121.3	 0.887542281	 83.1	
 8393.7537500	 0.703866826	 137.7	 0.007809748	-113.0	 0.008255241	-112.4	 0.886618889	 83.1	
 8399.0660625	 0.704450597	 137.8	 0.007608411	-115.6	 0.006979342	-119.3	 0.886187042	 83.0	
 8404.3783750	 0.704630582	 137.6	 0.007468633	-117.4	 0.007705464	-120.7	 0.886845454	 83.0	
 8409.6906875	 0.704805517	 137.6	 0.007062974	-115.3	 0.006922678	-121.4	 0.886872812	 83.0	
 8415.0030000	 0.705209826	 137.5	 0.007612230	-117.0	 0.007108695	-115.1	 0.886189735	 82.8	
 8420.3153125	 0.705355279	 137.7	 0.007107212	-124.7	 0.007067884	-122.9	 0.887016413	 82.8	
 8425.6276250	 0.708012346	 137.5	 0.006583291	-124.6	 0.006794669	-126.1	 0.886133868	 82.8	
 8430.9399375	 0.705006388	 137.4	 0.006718031	-127.4	 0.006726592	-126.3	 0.887065900	 82.7	
 8436.2522500	 0.705729684	 137.5	 0.006320231	-130.4	 0.006212145	-124.1	 0.887122745	 82.7	
 8441.5645625	 0.709479090	 137.3	 0.006682925	-128.9	 0.006058466	-132.4	 0.886095600	 82.6	
 8446.8768750	 0.709092981	 137.3	 0.006082224	-133.3	 0.006132102	-127.0	 0.886202660	 82.6	
 8452.1891875	 0.710104674	 137.2	 0.006796480	-130.6	 0.006070722	-133.7	 0.886011323	 82.6	
 8457.5015000	 0.710945227	 137.2	 0.005970179	-138.8	 0.005658100	-138.4	 0.885586780	 82.5	
 8462.8138125	 0.712138255	 137.1	 0.006444545	-139.3	 0.006128047	-136.5	 0.886079606	 82.5	
 8468.1261250	 0.710981279	 137.0	 0.005246881	-140.6	 0.005721238	-137.2	 0.885289583	 82.4	
 8473.4384375	 0.713519108	 137.0	 0.005559675	-147.2	 0.005703177	-145.5	 0.885552597	 82.4	
 8478.7507500	 0.714004833	 137.0	 0.005756495	-146.0	 0.005539061	-147.9	 0.884188504	 82.4	
 8484.0630625	 0.713845067	 136.7	 0.005832025	-145.9	 0.005400471	-143.8	 0.884769556	 82.4	
 8489.3753750	 0.715467321	 136.7	 0.005189622	-147.3	 0.005087347	-149.7	 0.884815428	 82.4	
 8494.6876875	 0.716205598	 136.7	 0.005128810	-152.7	 0.005014800	-156.7	 0.883319534	 82.3	
 8500.0000000	 0.718022378	 136.8	 0.005603279	-157.6	 0.004921009	-153.0	 0.884062219	 82.3	
