!
! S-Parameter file
! MATLAB S2P writer
! (c) DICE Linz
! Infineon Technologies
! Date: 07.08.2009 12:51
!BGA777L7
!2.80V; 0.00V; 
!25.00 deg
!
# MHZ S MA R 50
!
!                  S11                  S21                  S12                  S22
!  f         mag        angle          mag        angle          mag        angle          mag        angle     
    0.3000000	 0.974826812	 -0.0	 0.000200201	-113.3	 0.000300432	 122.7	 1.000166353	 -0.2	
    5.6123125	 0.975213907	 -0.6	 0.001832797	 92.1	 0.001827375	 87.6	 1.000297625	 -0.9	
   10.9246250	 0.975182995	 -1.2	 0.003666092	 85.9	 0.003712222	 88.1	 1.000204097	 -1.7	
   16.2369375	 0.974850387	 -1.7	 0.005431741	 85.1	 0.005376046	 84.2	 0.999848453	 -2.5	
   21.5492500	 0.973687452	 -2.2	 0.007228538	 84.5	 0.007439474	 83.8	 0.999764061	 -3.2	
   26.8615625	 0.972983936	 -2.8	 0.008933642	 80.8	 0.009022499	 83.2	 0.999461275	 -4.0	
   32.1738750	 0.970355474	 -3.3	 0.010811619	 81.0	 0.010723614	 82.3	 0.999673178	 -4.8	
   37.4861875	 0.968769072	 -3.9	 0.012535485	 81.5	 0.012298712	 82.5	 0.999452116	 -5.6	
   42.7985000	 0.967407798	 -4.3	 0.014069923	 80.7	 0.014309625	 79.4	 0.998800107	 -6.3	
   48.1108125	 0.965248345	 -4.8	 0.015507643	 78.7	 0.016091626	 79.4	 0.999198699	 -7.1	
   53.4231250	 0.962211380	 -5.3	 0.017566357	 78.4	 0.017541974	 78.4	 0.998506130	 -7.9	
   58.7354375	 0.960508223	 -5.8	 0.019219875	 77.6	 0.019464467	 77.6	 0.999319032	 -8.7	
   64.0477500	 0.958926121	 -6.2	 0.020699273	 76.4	 0.020765613	 76.2	 0.997580957	 -9.4	
   69.3600625	 0.956810755	 -6.6	 0.022285707	 75.8	 0.022744809	 75.7	 0.996956009	-10.2	
   74.6723750	 0.953399287	 -7.0	 0.024028422	 74.7	 0.024015076	 74.6	 0.997212952	-11.0	
   79.9846875	 0.951756779	 -7.5	 0.025548080	 73.8	 0.025718971	 74.4	 0.996720462	-11.7	
   85.2970000	 0.949928283	 -7.9	 0.027152622	 73.1	 0.027471262	 73.0	 0.995532100	-12.5	
   90.6093125	 0.947901157	 -8.3	 0.028561046	 72.4	 0.028981613	 72.4	 0.995660265	-13.3	
   95.9216250	 0.945727444	 -8.7	 0.030200903	 71.4	 0.030350898	 71.2	 0.995285581	-14.0	
  101.2339375	 0.943857223	 -9.1	 0.032032215	 70.7	 0.031968030	 70.6	 0.994289474	-14.8	
  106.5462500	 0.941720667	 -9.5	 0.033477747	 69.8	 0.033563393	 69.5	 0.994050238	-15.6	
  111.8585625	 0.939642404	 -9.8	 0.034822120	 68.8	 0.034802312	 68.8	 0.993047920	-16.3	
  117.1708750	 0.938540542	-10.2	 0.036375020	 68.0	 0.036493616	 68.1	 0.993051123	-17.1	
  122.4831875	 0.936692398	-10.7	 0.037947723	 67.2	 0.037906974	 66.8	 0.992710794	-17.8	
  127.7955000	 0.934738788	-11.0	 0.039316542	 66.6	 0.039422258	 66.2	 0.992332185	-18.6	
  133.1078125	 0.932986027	-11.4	 0.040827619	 65.6	 0.041043331	 65.2	 0.991400942	-19.3	
  138.4201250	 0.931892984	-11.7	 0.042176767	 64.8	 0.042363423	 64.5	 0.990930518	-20.1	
  143.7324375	 0.928999930	-12.1	 0.043645558	 63.8	 0.043604084	 63.6	 0.990127308	-20.8	
  149.0447500	 0.927905238	-12.5	 0.044841785	 62.8	 0.045125404	 63.0	 0.989358761	-21.6	
  154.3570625	 0.925640636	-12.9	 0.046419342	 62.4	 0.046269890	 61.9	 0.989104270	-22.3	
  159.6693750	 0.924491779	-13.2	 0.047744139	 61.5	 0.047646881	 61.4	 0.987961267	-23.1	
  164.9816875	 0.923097680	-13.5	 0.049015198	 60.6	 0.048932157	 60.5	 0.988145557	-23.8	
  170.2940000	 0.920942899	-13.9	 0.050443237	 59.6	 0.050546462	 59.8	 0.987442822	-24.6	
  175.6063125	 0.920170554	-14.3	 0.051661419	 59.2	 0.051651785	 58.8	 0.987220183	-25.3	
  180.9186250	 0.918253759	-14.6	 0.053009805	 58.3	 0.052968685	 58.0	 0.986415177	-26.0	
  186.2309375	 0.916218199	-15.0	 0.054180417	 57.5	 0.054109049	 57.2	 0.985392035	-26.8	
  191.5432500	 0.914690837	-15.3	 0.055381523	 56.6	 0.055583857	 56.8	 0.985200313	-27.5	
  196.8555625	 0.913363330	-15.7	 0.056694729	 56.1	 0.056870308	 55.8	 0.984434740	-28.2	
  202.1678750	 0.912292297	-16.0	 0.057713867	 55.3	 0.057984033	 55.1	 0.983858030	-29.0	
  207.4801875	 0.910220465	-16.4	 0.059103248	 54.7	 0.059114382	 54.2	 0.983506909	-29.7	
  212.7925000	 0.909498377	-16.7	 0.060239484	 53.9	 0.060185801	 53.6	 0.982609044	-30.4	
  218.1048125	 0.907262544	-17.0	 0.061348310	 53.0	 0.061562286	 52.9	 0.982003593	-31.1	
  223.4171250	 0.906164019	-17.4	 0.062505147	 52.4	 0.062612190	 52.3	 0.981750708	-31.9	
  228.7294375	 0.905083306	-17.8	 0.063541045	 51.7	 0.063813077	 51.5	 0.981634630	-32.6	
  234.0417500	 0.903116712	-18.0	 0.064770223	 50.9	 0.064968103	 50.8	 0.980619774	-33.3	
  239.3540625	 0.902297515	-18.4	 0.065720600	 50.2	 0.065972189	 50.0	 0.980291177	-34.0	
  244.6663750	 0.901298211	-18.7	 0.066883958	 49.4	 0.067121028	 49.4	 0.980086083	-34.7	
  249.9786875	 0.898920363	-19.0	 0.067918396	 48.9	 0.068239751	 48.6	 0.979604042	-35.4	
  255.2910000	 0.898407586	-19.4	 0.069002070	 48.2	 0.069217748	 48.0	 0.978478047	-36.1	
  260.6033125	 0.896070112	-19.7	 0.069849047	 47.4	 0.070315947	 47.5	 0.977961964	-36.8	
  265.9156250	 0.895199594	-20.1	 0.071092036	 46.7	 0.071107313	 46.5	 0.977939262	-37.5	
  271.2279375	 0.893080100	-20.4	 0.071750628	 46.1	 0.072223623	 45.8	 0.977107765	-38.2	
  276.5402500	 0.893115343	-20.8	 0.073225760	 45.5	 0.073150023	 45.1	 0.976060373	-38.9	
  281.8525625	 0.891478682	-21.1	 0.074227404	 44.9	 0.074195305	 44.5	 0.975567622	-39.6	
  287.1648750	 0.890785853	-21.4	 0.075077326	 44.0	 0.075212341	 43.9	 0.975232512	-40.3	
  292.4771875	 0.889211298	-21.8	 0.076083072	 43.3	 0.076228255	 43.1	 0.974489685	-41.0	
  297.7895000	 0.887669705	-22.1	 0.077293166	 43.0	 0.077091669	 42.7	 0.973775331	-41.7	
  303.1018125	 0.886481692	-22.4	 0.077903515	 42.1	 0.078050721	 42.0	 0.973587579	-42.4	
  308.4141250	 0.884707495	-22.8	 0.078934435	 41.6	 0.078956006	 41.4	 0.973138878	-43.1	
  313.7264375	 0.883714247	-23.0	 0.079819655	 40.9	 0.079794846	 40.9	 0.972784864	-43.8	
  319.0387500	 0.882506091	-23.4	 0.080587098	 40.3	 0.080622065	 40.2	 0.972042513	-44.4	
  324.3510625	 0.881245999	-23.7	 0.081358449	 39.7	 0.081781313	 39.5	 0.971028456	-45.1	
  329.6633750	 0.880243492	-24.0	 0.082077769	 39.0	 0.082061146	 38.8	 0.971353218	-45.8	
  334.9756875	 0.878953508	-24.3	 0.083326303	 38.3	 0.083285038	 38.3	 0.970633459	-46.4	
  340.2880000	 0.878176341	-24.6	 0.083957041	 37.8	 0.084072234	 37.8	 0.969840438	-47.1	
  345.6003125	 0.876155541	-25.0	 0.084886711	 37.3	 0.084805701	 37.1	 0.969438420	-47.7	
  350.9126250	 0.874937942	-25.3	 0.085678177	 36.6	 0.085714889	 36.3	 0.969299232	-48.4	
  356.2249375	 0.874407827	-25.5	 0.086521792	 36.0	 0.086583353	 36.0	 0.968783457	-49.1	
  361.5372500	 0.872984617	-25.9	 0.087207565	 35.5	 0.087356871	 35.3	 0.968131039	-49.7	
  366.8495625	 0.871958313	-26.1	 0.087961530	 34.8	 0.088066869	 34.7	 0.967368051	-50.4	
  372.1618750	 0.870653930	-26.5	 0.088724283	 34.2	 0.089003194	 34.2	 0.967059788	-51.0	
  377.4741875	 0.869528084	-26.8	 0.089570604	 33.7	 0.089671773	 33.6	 0.966439351	-51.7	
  382.7865000	 0.868823142	-27.1	 0.090195256	 33.1	 0.090418094	 33.0	 0.966227325	-52.3	
  388.0988125	 0.867484629	-27.4	 0.090824155	 32.5	 0.091123459	 32.5	 0.965694647	-53.0	
  393.4111250	 0.865970129	-27.7	 0.091710028	 32.0	 0.091907771	 31.8	 0.965320622	-53.6	
  398.7234375	 0.864996387	-28.0	 0.092655694	 31.3	 0.092809683	 31.3	 0.965077629	-54.2	
  404.0357500	 0.863817749	-28.3	 0.093067817	 30.8	 0.093549919	 30.7	 0.964598652	-54.9	
  409.3480625	 0.862857262	-28.6	 0.093957157	 30.2	 0.094157564	 30.2	 0.963906281	-55.5	
  414.6603750	 0.861678522	-28.9	 0.094502938	 29.5	 0.094783553	 29.5	 0.963537608	-56.2	
  419.9726875	 0.860497675	-29.1	 0.095396958	 29.1	 0.095255954	 29.1	 0.963123557	-56.8	
  425.2850000	 0.859058865	-29.4	 0.095745275	 28.6	 0.096107780	 28.4	 0.962077027	-57.4	
  430.5973125	 0.857858141	-29.8	 0.096516766	 27.9	 0.096859704	 27.9	 0.962162830	-58.1	
  435.9096250	 0.856593870	-30.1	 0.097358936	 27.3	 0.097534202	 27.3	 0.961799179	-58.7	
  441.2219375	 0.855572036	-30.4	 0.098246588	 26.8	 0.098195445	 26.8	 0.961728629	-59.4	
  446.5342500	 0.854120316	-30.7	 0.098448386	 26.2	 0.098953262	 26.2	 0.960977458	-60.0	
  451.8465625	 0.853325651	-31.0	 0.099287506	 25.7	 0.099351600	 25.7	 0.960713956	-60.6	
  457.1588750	 0.852356153	-31.3	 0.099731770	 25.1	 0.100045840	 25.2	 0.960715349	-61.3	
  462.4711875	 0.851357230	-31.6	 0.100596326	 24.7	 0.100672258	 24.6	 0.960109299	-61.9	
  467.7835000	 0.849504696	-31.9	 0.100927400	 24.0	 0.101370766	 24.1	 0.959225442	-62.5	
  473.0958125	 0.848706594	-32.2	 0.101702555	 23.5	 0.101674340	 23.5	 0.959010628	-63.1	
  478.4081250	 0.848254010	-32.5	 0.102232309	 23.0	 0.102537372	 23.1	 0.958168041	-63.7	
  483.7204375	 0.846820418	-32.8	 0.102932508	 22.5	 0.102928324	 22.4	 0.957379301	-64.4	
  489.0327500	 0.845188416	-33.1	 0.103399084	 22.0	 0.103642666	 21.9	 0.956992690	-65.0	
  494.3450625	 0.844435813	-33.4	 0.104210155	 21.5	 0.104033228	 21.4	 0.956754420	-65.6	
  499.6573750	 0.842876787	-33.8	 0.104565908	 20.9	 0.104851274	 20.8	 0.956124846	-66.2	
  504.9696875	 0.841622321	-34.0	 0.105071459	 20.4	 0.105481823	 20.2	 0.955571977	-66.8	
  510.2820000	 0.841338116	-34.3	 0.105562812	 19.8	 0.105790738	 19.7	 0.955221923	-67.5	
  515.5943125	 0.840265862	-34.7	 0.106108219	 19.3	 0.106157803	 19.2	 0.954962291	-68.1	
  520.9066250	 0.838865528	-35.0	 0.106630899	 18.8	 0.106772953	 18.7	 0.954341423	-68.7	
  526.2189375	 0.837922936	-35.2	 0.107053485	 18.2	 0.107304794	 18.2	 0.954113500	-69.3	
  531.5312500	 0.836998863	-35.5	 0.107662142	 17.6	 0.107874243	 17.7	 0.953372261	-69.9	
  536.8435625	 0.835860995	-35.8	 0.107974399	 17.2	 0.108292469	 17.2	 0.953731651	-70.5	
  542.1558750	 0.834804308	-36.2	 0.108560609	 16.5	 0.108815477	 16.6	 0.952906656	-71.2	
  547.4681875	 0.833824304	-36.5	 0.109040592	 16.1	 0.109189150	 16.1	 0.952356806	-71.8	
  552.7805000	 0.832100929	-36.7	 0.109503621	 15.7	 0.109626199	 15.6	 0.952230256	-72.3	
  558.0928125	 0.831246896	-37.0	 0.109722919	 15.2	 0.110075195	 15.1	 0.951451037	-73.0	
  563.4051250	 0.830224300	-37.4	 0.110158705	 14.6	 0.110521433	 14.5	 0.951376561	-73.6	
  568.7174375	 0.829545560	-37.7	 0.110585319	 14.0	 0.111119872	 14.1	 0.951538064	-74.1	
  574.0297500	 0.827763025	-38.0	 0.110899616	 13.6	 0.111385866	 13.6	 0.951153093	-74.8	
  579.3420625	 0.827107833	-38.2	 0.111543500	 13.0	 0.111667161	 13.1	 0.950547672	-75.3	
  584.6543750	 0.826083392	-38.5	 0.111830089	 12.6	 0.112171425	 12.4	 0.950339226	-76.0	
  589.9666875	 0.824488744	-38.9	 0.112293297	 11.9	 0.112765537	 12.0	 0.949602090	-76.5	
  595.2790000	 0.824340673	-39.1	 0.112551007	 11.6	 0.112757082	 11.5	 0.949737073	-77.1	
  600.5913125	 0.822639511	-39.4	 0.113117955	 11.1	 0.113110307	 11.0	 0.948894917	-77.7	
  605.9036250	 0.821359669	-39.7	 0.113454489	 10.5	 0.113765786	 10.6	 0.948964324	-78.3	
  611.2159375	 0.820931675	-40.0	 0.113856819	 10.0	 0.114074359	 10.0	 0.949092069	-78.9	
  616.5282500	 0.819412765	-40.3	 0.114004411	  9.5	 0.114503704	  9.6	 0.948760461	-79.5	
  621.8405625	 0.818524566	-40.6	 0.114404778	  9.0	 0.114708445	  9.0	 0.947644977	-80.1	
  627.1528750	 0.817725985	-40.9	 0.114502297	  8.5	 0.115448928	  8.4	 0.947222107	-80.6	
  632.4651875	 0.816529045	-41.2	 0.114776580	  7.9	 0.115189700	  8.0	 0.946942450	-81.2	
  637.7775000	 0.815416243	-41.5	 0.115654924	  7.6	 0.115689769	  7.4	 0.945600744	-81.8	
  643.0898125	 0.814671066	-41.8	 0.115594533	  7.1	 0.115923329	  7.0	 0.945148047	-82.4	
  648.4021250	 0.813679933	-42.1	 0.116241824	  6.6	 0.116258507	  6.5	 0.944925504	-82.9	
  653.7144375	 0.812497383	-42.3	 0.116507414	  6.0	 0.116522552	  6.2	 0.945136100	-83.5	
  659.0267500	 0.811440825	-42.7	 0.117086753	  5.6	 0.116909805	  5.6	 0.944705231	-84.1	
  664.3390625	 0.810894596	-42.9	 0.116887475	  5.1	 0.116964769	  5.1	 0.944547969	-84.7	
  669.6513750	 0.808869896	-43.2	 0.116703719	  4.7	 0.117210921	  4.6	 0.943850355	-85.2	
  674.9636875	 0.807685853	-43.5	 0.117621329	  4.1	 0.117728614	  4.1	 0.943394984	-85.8	
  680.2760000	 0.807055112	-43.8	 0.117455592	  3.7	 0.117831460	  3.6	 0.942842728	-86.4	
  685.5883125	 0.806123790	-44.1	 0.118159711	  3.2	 0.118171142	  3.1	 0.942592155	-87.0	
  690.9006250	 0.805683113	-44.5	 0.118397792	  2.8	 0.118583744	  2.8	 0.942323432	-87.5	
  696.2129375	 0.804315199	-44.7	 0.118461086	  2.2	 0.118669442	  2.2	 0.942858116	-88.1	
  701.5252500	 0.803204374	-45.1	 0.118762508	  1.6	 0.118851168	  1.8	 0.941723716	-88.7	
  706.8375625	 0.802429697	-45.3	 0.118920434	  1.3	 0.118887416	  1.4	 0.940946862	-89.2	
  712.1498750	 0.801182767	-45.6	 0.119120289	  0.7	 0.119143470	  0.9	 0.940084471	-89.8	
  717.4621875	 0.800256514	-45.9	 0.119302695	  0.5	 0.119539234	  0.3	 0.940141463	-90.3	
  722.7745000	 0.799104040	-46.2	 0.119476796	  0.1	 0.119579352	 -0.1	 0.940435401	-90.9	
  728.0868125	 0.798187702	-46.5	 0.120143994	 -0.6	 0.119850526	 -0.6	 0.940059452	-91.4	
  733.3991250	 0.797890276	-46.8	 0.120055280	 -0.9	 0.120195700	 -1.1	 0.939281682	-91.9	
  738.7114375	 0.796988219	-47.0	 0.119843154	 -1.4	 0.119995599	 -1.6	 0.939604558	-92.5	
  744.0237500	 0.795326342	-47.3	 0.120129597	 -2.1	 0.120250175	 -2.1	 0.938783596	-93.1	
  749.3360625	 0.794610707	-47.6	 0.120219198	 -2.5	 0.120839782	 -2.4	 0.938068840	-93.6	
  754.6483750	 0.793176748	-47.9	 0.120587496	 -2.7	 0.120602085	 -2.9	 0.937659160	-94.2	
  759.9606875	 0.792782013	-48.2	 0.120938971	 -3.3	 0.120589037	 -3.2	 0.937519432	-94.7	
  765.2730000	 0.791787449	-48.5	 0.120524855	 -3.8	 0.120851714	 -3.7	 0.937253260	-95.3	
  770.5853125	 0.791139058	-48.8	 0.120808876	 -4.2	 0.120950652	 -4.2	 0.936993864	-95.8	
  775.8976250	 0.789600697	-49.0	 0.121155488	 -4.8	 0.121368970	 -4.6	 0.937040127	-96.4	
  781.2099375	 0.788145104	-49.3	 0.121152271	 -5.2	 0.121165769	 -5.2	 0.936585125	-96.9	
  786.5222500	 0.788191379	-49.6	 0.121242273	 -5.6	 0.121502632	 -5.5	 0.935515987	-97.5	
  791.8345625	 0.786398069	-49.9	 0.121331233	 -6.2	 0.121332957	 -6.0	 0.935789486	-98.0	
  797.1468750	 0.785747079	-50.2	 0.121564894	 -6.4	 0.121745764	 -6.5	 0.935633849	-98.5	
  802.4591875	 0.784143316	-50.4	 0.121785898	 -7.0	 0.121606868	 -6.9	 0.935336093	-99.1	
  807.7715000	 0.782328872	-50.8	 0.122471071	 -7.3	 0.121792690	 -7.3	 0.934213568	-99.6	
  813.0838125	 0.783132597	-51.0	 0.121504293	 -7.8	 0.121642361	 -7.9	 0.934432132	-100.1	
  818.3961250	 0.780545151	-51.3	 0.121881849	 -8.1	 0.122031127	 -8.2	 0.933744740	-100.7	
  823.7084375	 0.780457223	-51.6	 0.121450062	 -8.6	 0.121709043	 -8.5	 0.933472210	-101.2	
  829.0207500	 0.779439835	-51.9	 0.121492035	 -9.0	 0.122045618	 -9.1	 0.933612021	-101.7	
  834.3330625	 0.778605589	-52.1	 0.121919671	 -9.6	 0.121907551	 -9.6	 0.933150611	-102.3	
  839.6453750	 0.778211310	-52.4	 0.121708958	 -9.9	 0.122179936	 -9.9	 0.932542726	-102.8	
  844.9576875	 0.777410876	-52.7	 0.121944077	-10.5	 0.122264730	-10.5	 0.931543874	-103.3	
  850.2700000	 0.774983546	-53.0	 0.122009969	-10.7	 0.121921930	-10.8	 0.931129165	-103.8	
  855.5823125	 0.774583343	-53.3	 0.121975414	-11.2	 0.122240579	-11.3	 0.931352685	-104.4	
  860.8946250	 0.773865151	-53.6	 0.121983573	-11.7	 0.122261939	-11.7	 0.931093664	-104.9	
  866.2069375	 0.772559075	-53.9	 0.121855528	-12.0	 0.122051401	-12.1	 0.930989135	-105.4	
  871.5192500	 0.771645548	-54.1	 0.122024542	-12.5	 0.122151823	-12.6	 0.930415341	-106.0	
  876.8315625	 0.771228031	-54.4	 0.122091781	-12.9	 0.122132958	-13.0	 0.929731808	-106.5	
  882.1438750	 0.770124823	-54.6	 0.121874977	-13.4	 0.122080792	-13.5	 0.929054845	-107.0	
  887.4561875	 0.769587606	-54.9	 0.122092764	-13.8	 0.122075718	-13.9	 0.929254957	-107.5	
  892.7685000	 0.767966518	-55.2	 0.121766472	-14.2	 0.122087282	-14.3	 0.928140033	-108.1	
  898.0808125	 0.767468585	-55.5	 0.121675856	-14.8	 0.121837326	-14.7	 0.928127246	-108.6	
  903.3931250	 0.766091498	-55.8	 0.121648465	-15.2	 0.121959046	-15.1	 0.928191884	-109.1	
  908.7054375	 0.765303681	-56.1	 0.121481022	-15.5	 0.122008247	-15.4	 0.927841942	-109.6	
  914.0177500	 0.764281258	-56.4	 0.121918317	-15.7	 0.121601860	-15.8	 0.928047198	-110.2	
  919.3300625	 0.762788771	-56.6	 0.121589253	-16.3	 0.121644004	-16.5	 0.927178064	-110.7	
  924.6423750	 0.762003057	-56.9	 0.121274836	-16.6	 0.121643917	-16.9	 0.926958218	-111.2	
  929.9546875	 0.761452394	-57.2	 0.121628638	-17.2	 0.121604078	-17.2	 0.926821834	-111.8	
  935.2670000	 0.760103992	-57.5	 0.121529262	-17.7	 0.121552413	-17.6	 0.926426715	-112.3	
  940.5793125	 0.759620850	-57.7	 0.121320878	-18.1	 0.121112577	-18.2	 0.926086235	-112.8	
  945.8916250	 0.758073526	-58.0	 0.121325335	-18.6	 0.121217645	-18.5	 0.925345999	-113.3	
  951.2039375	 0.757398698	-58.3	 0.120924249	-19.1	 0.121093288	-18.8	 0.925128321	-113.8	
  956.5162500	 0.756214281	-58.6	 0.121435547	-19.2	 0.120852365	-19.4	 0.925062742	-114.4	
  961.8285625	 0.756169844	-58.8	 0.121002700	-19.7	 0.120621943	-19.8	 0.923566733	-114.9	
  967.1408750	 0.755069424	-59.1	 0.120252632	-20.1	 0.120794906	-20.1	 0.923491940	-115.4	
  972.4531875	 0.753685326	-59.4	 0.120811320	-20.5	 0.120312146	-20.6	 0.923564020	-116.0	
  977.7655000	 0.752899774	-59.7	 0.120299819	-21.0	 0.120401649	-21.0	 0.922953628	-116.5	
  983.0778125	 0.752472329	-59.9	 0.120138475	-21.4	 0.120169761	-21.3	 0.923002224	-117.0	
  988.3901250	 0.751264999	-60.3	 0.119843438	-21.8	 0.120114149	-21.7	 0.922099018	-117.5	
  993.7024375	 0.750234369	-60.5	 0.120131567	-22.2	 0.119830431	-22.2	 0.921840271	-118.1	
  999.0147500	 0.749006060	-60.7	 0.119491745	-22.5	 0.119528001	-22.5	 0.921599810	-118.6	
 1004.3270625	 0.748985559	-61.0	 0.119805227	-22.8	 0.119421873	-23.0	 0.920956745	-119.1	
 1009.6393750	 0.747885104	-61.3	 0.119545759	-23.4	 0.119459942	-23.3	 0.920408269	-119.6	
 1014.9516875	 0.747116285	-61.6	 0.119117982	-23.7	 0.119218726	-23.8	 0.920105195	-120.1	
 1020.2640000	 0.745681018	-61.9	 0.118803292	-24.1	 0.118979795	-24.0	 0.919813841	-120.7	
 1025.5763125	 0.745597829	-62.1	 0.118606198	-24.5	 0.118541735	-24.6	 0.919261269	-121.2	
 1030.8886250	 0.744469082	-62.3	 0.118364947	-25.0	 0.118596393	-25.0	 0.918693652	-121.7	
 1036.2009375	 0.743096720	-62.7	 0.118141233	-25.3	 0.118241722	-25.3	 0.918749871	-122.3	
 1041.5132500	 0.742369227	-62.9	 0.118052622	-25.7	 0.117939539	-25.7	 0.918041434	-122.8	
 1046.8255625	 0.741287937	-63.2	 0.117785925	-26.0	 0.117597880	-26.1	 0.917494764	-123.3	
 1052.1378750	 0.740728587	-63.5	 0.117569419	-26.5	 0.117648471	-26.4	 0.917107231	-123.8	
 1057.4501875	 0.739814981	-63.7	 0.117204220	-26.7	 0.117260754	-26.8	 0.916945021	-124.4	
 1062.7625000	 0.738682970	-64.0	 0.116961044	-27.1	 0.116650032	-27.2	 0.916174071	-124.9	
 1068.0748125	 0.738452009	-64.2	 0.116461337	-27.6	 0.116454240	-27.6	 0.915810714	-125.4	
 1073.3871250	 0.737282013	-64.6	 0.116359501	-28.0	 0.116391310	-28.0	 0.914783777	-126.0	
 1078.6994375	 0.736359289	-64.8	 0.115889597	-28.4	 0.116165315	-28.4	 0.915090369	-126.5	
 1084.0117500	 0.734913977	-65.1	 0.115459518	-28.9	 0.115785923	-28.8	 0.913785216	-127.1	
 1089.3240625	 0.734094545	-65.3	 0.115113122	-29.2	 0.115357981	-29.1	 0.913511674	-127.6	
 1094.6363750	 0.733217711	-65.5	 0.114859801	-29.4	 0.115205614	-29.5	 0.913260547	-128.1	
 1099.9486875	 0.732863137	-65.8	 0.114586772	-29.9	 0.114806733	-29.8	 0.913014929	-128.7	
 1105.2610000	 0.731647518	-66.1	 0.114602982	-30.2	 0.114423086	-30.1	 0.912569971	-129.2	
 1110.5733125	 0.730829454	-66.3	 0.113943261	-30.6	 0.113974199	-30.5	 0.911143917	-129.8	
 1115.8856250	 0.729483034	-66.6	 0.113894563	-30.9	 0.113787446	-31.1	 0.911389704	-130.3	
 1121.1979375	 0.729108574	-66.8	 0.113473901	-31.2	 0.113384293	-31.3	 0.910452248	-130.9	
 1126.5102500	 0.727972462	-67.1	 0.112931871	-31.7	 0.112926985	-31.5	 0.909621174	-131.5	
 1131.8225625	 0.727014792	-67.4	 0.112710100	-32.0	 0.112604708	-32.2	 0.909500980	-132.0	
 1137.1348750	 0.726767978	-67.6	 0.112123656	-32.2	 0.112253187	-32.4	 0.908701942	-132.6	
 1142.4471875	 0.725908103	-67.9	 0.111848819	-32.8	 0.111792035	-32.8	 0.907852840	-133.1	
 1147.7595000	 0.724787630	-68.1	 0.111192695	-33.0	 0.111290315	-33.1	 0.907392458	-133.7	
 1153.0718125	 0.723448256	-68.4	 0.111026362	-33.4	 0.110734568	-33.3	 0.906917814	-134.3	
 1158.3841250	 0.723514791	-68.6	 0.110683003	-33.7	 0.110460237	-33.7	 0.906069985	-134.8	
 1163.6964375	 0.721806536	-68.9	 0.110063428	-34.1	 0.110005794	-34.1	 0.905357400	-135.4	
 1169.0087500	 0.720796063	-69.1	 0.109574485	-34.6	 0.109419491	-34.4	 0.904579394	-136.0	
 1174.3210625	 0.720409496	-69.4	 0.109162571	-34.7	 0.109052426	-34.8	 0.903748431	-136.5	
 1179.6333750	 0.719621347	-69.7	 0.108459236	-35.1	 0.108492230	-35.1	 0.903984216	-137.1	
 1184.9456875	 0.718153106	-69.9	 0.108119630	-35.4	 0.107888209	-35.4	 0.902125492	-137.7	
 1190.2580000	 0.717885645	-70.2	 0.107692524	-35.9	 0.107580632	-35.9	 0.902239247	-138.3	
 1195.5703125	 0.716063627	-70.4	 0.107030268	-36.1	 0.107041788	-36.2	 0.901251430	-138.9	
 1200.8826250	 0.715399208	-70.6	 0.106715306	-36.7	 0.106556297	-36.5	 0.900576148	-139.5	
 1206.1949375	 0.714863816	-70.9	 0.105916322	-36.8	 0.106121544	-36.7	 0.899650814	-140.0	
 1211.5072500	 0.713345134	-71.2	 0.105273468	-37.1	 0.105636449	-37.0	 0.899363510	-140.7	
 1216.8195625	 0.712727346	-71.4	 0.104925817	-37.3	 0.104897099	-37.4	 0.898458553	-141.2	
 1222.1318750	 0.711903331	-71.7	 0.104365983	-37.8	 0.104343168	-37.7	 0.897506906	-141.8	
 1227.4441875	 0.711105374	-71.9	 0.103868219	-37.9	 0.103648577	-38.0	 0.896536307	-142.5	
 1232.7565000	 0.709785347	-72.2	 0.103340267	-38.3	 0.103191032	-38.1	 0.895960577	-143.1	
 1238.0688125	 0.709667490	-72.4	 0.103003539	-38.4	 0.102678750	-38.6	 0.894978873	-143.7	
 1243.3811250	 0.708711062	-72.7	 0.102183864	-38.9	 0.101883617	-38.9	 0.894256040	-144.2	
 1248.6934375	 0.708410907	-72.9	 0.101779588	-39.2	 0.101193647	-39.1	 0.893530369	-144.9	
 1254.0057500	 0.706742203	-73.2	 0.100578982	-39.3	 0.100892853	-39.4	 0.892170484	-145.5	
 1259.3180625	 0.706065901	-73.5	 0.100150354	-39.5	 0.100101993	-39.6	 0.891226333	-146.1	
 1264.6303750	 0.704758561	-73.7	 0.099656211	-39.9	 0.099322063	-39.7	 0.890674209	-146.7	
 1269.9426875	 0.704364069	-73.9	 0.099045623	-40.2	 0.098690541	-40.1	 0.889803926	-147.3	
 1275.2550000	 0.703343444	-74.2	 0.098118210	-40.4	 0.098106891	-40.4	 0.888575101	-148.0	
 1280.5673125	 0.702668952	-74.5	 0.097264372	-40.6	 0.097289432	-40.7	 0.887637046	-148.6	
 1285.8796250	 0.701359542	-74.7	 0.096754589	-40.9	 0.096912357	-40.8	 0.886385423	-149.3	
 1291.1919375	 0.700226756	-75.0	 0.095892898	-41.3	 0.095948709	-41.2	 0.885013847	-149.9	
 1296.5042500	 0.699729441	-75.2	 0.095514522	-41.5	 0.095112811	-41.4	 0.883920412	-150.6	
 1301.8165625	 0.699351635	-75.5	 0.094688330	-41.4	 0.094499973	-41.6	 0.882925611	-151.3	
 1307.1288750	 0.698242188	-75.7	 0.093825332	-41.9	 0.093677544	-41.9	 0.882104350	-151.9	
 1312.4411875	 0.697287268	-75.9	 0.093097347	-41.9	 0.092604329	-42.0	 0.880571003	-152.6	
 1317.7535000	 0.696479943	-76.2	 0.092098150	-42.2	 0.091894036	-42.2	 0.879305117	-153.3	
 1323.0658125	 0.695713425	-76.4	 0.091354071	-42.2	 0.091075413	-42.2	 0.878354027	-153.9	
 1328.3781250	 0.694699337	-76.7	 0.090714434	-42.3	 0.090441679	-42.6	 0.876882955	-154.6	
 1333.6904375	 0.693787539	-76.9	 0.089854492	-42.6	 0.089517866	-42.7	 0.875145141	-155.3	
 1339.0027500	 0.692573105	-77.2	 0.088839498	-42.8	 0.088750837	-42.7	 0.873716270	-156.0	
 1344.3150625	 0.691762897	-77.5	 0.088035985	-43.0	 0.087954646	-43.0	 0.872537783	-156.8	
 1349.6273750	 0.690813069	-77.7	 0.087100413	-42.9	 0.087169696	-42.9	 0.870739547	-157.5	
 1354.9396875	 0.690027385	-77.9	 0.086252884	-42.9	 0.086253669	-43.0	 0.869670913	-158.2	
 1360.2520000	 0.689101417	-78.2	 0.085566824	-43.2	 0.085400789	-43.0	 0.868133426	-158.9	
 1365.5643125	 0.687927196	-78.4	 0.084471429	-43.0	 0.084226087	-43.0	 0.866370003	-159.6	
 1370.8766250	 0.687098769	-78.6	 0.083571226	-42.8	 0.083425023	-43.1	 0.864664364	-160.3	
 1376.1889375	 0.686281495	-78.9	 0.082894239	-42.9	 0.082304006	-42.9	 0.863173240	-161.1	
 1381.5012500	 0.685182162	-79.2	 0.081602447	-43.0	 0.081513801	-43.0	 0.861598083	-161.9	
 1386.8135625	 0.684549790	-79.4	 0.080964862	-42.9	 0.080501870	-42.9	 0.859806030	-162.6	
 1392.1258750	 0.683758677	-79.6	 0.079775827	-42.9	 0.079797473	-42.9	 0.857768852	-163.4	
 1397.4381875	 0.682758383	-79.9	 0.078592581	-42.7	 0.078962955	-42.7	 0.856740734	-164.2	
 1402.7505000	 0.681718681	-80.1	 0.077631797	-42.5	 0.077696171	-42.7	 0.855068908	-164.9	
 1408.0628125	 0.680236476	-80.4	 0.076781688	-42.4	 0.076591368	-42.4	 0.852842435	-165.7	
 1413.3751250	 0.679584394	-80.6	 0.075955251	-42.2	 0.075661900	-42.4	 0.850658342	-166.6	
 1418.6874375	 0.678314953	-80.8	 0.074818826	-42.0	 0.074542788	-41.9	 0.848574379	-167.3	
 1423.9997500	 0.678173434	-81.1	 0.073807708	-41.6	 0.073624042	-41.7	 0.846586935	-168.1	
 1429.3120625	 0.677230728	-81.3	 0.072623242	-41.3	 0.072473962	-41.5	 0.844024637	-169.0	
 1434.6243750	 0.675900147	-81.6	 0.071690395	-41.1	 0.071609249	-41.1	 0.841999839	-169.8	
 1439.9366875	 0.675404915	-81.8	 0.070833281	-40.5	 0.070635400	-40.5	 0.839334521	-170.7	
 1445.2490000	 0.673451834	-82.0	 0.069894514	-39.9	 0.069842830	-40.1	 0.837247677	-171.5	
 1450.5613125	 0.672608595	-82.2	 0.068927425	-39.6	 0.068573353	-39.6	 0.834357758	-172.4	
 1455.8736250	 0.671489257	-82.5	 0.067810596	-39.0	 0.067730046	-38.8	 0.832374986	-173.3	
 1461.1859375	 0.670566092	-82.8	 0.067015869	-38.1	 0.066848754	-38.5	 0.830073256	-174.1	
 1466.4982500	 0.669865264	-83.0	 0.065941020	-37.6	 0.065792173	-37.5	 0.826977376	-175.1	
 1471.8105625	 0.669025960	-83.2	 0.065072846	-36.6	 0.065073035	-36.6	 0.824440798	-176.0	
 1477.1228750	 0.667839290	-83.5	 0.064420974	-35.9	 0.063970868	-35.9	 0.820505821	-176.9	
 1482.4351875	 0.667353235	-83.7	 0.063523771	-34.9	 0.062967404	-35.1	 0.817623057	-177.8	
 1487.7475000	 0.665597885	-83.9	 0.062609615	-33.9	 0.062367016	-34.0	 0.814717787	-178.8	
 1493.0598125	 0.665096579	-84.2	 0.061983949	-33.1	 0.061506362	-33.1	 0.812242174	-179.8	
 1498.3721250	 0.663569225	-84.3	 0.061163319	-31.9	 0.061162909	-31.9	 0.808477663	 179.3	
 1503.6844375	 0.663136159	-84.6	 0.060442908	-30.6	 0.060340041	-30.6	 0.805356109	 178.3	
 1508.9967500	 0.661686587	-84.8	 0.059826133	-29.2	 0.059818710	-29.4	 0.801514131	 177.3	
 1514.3090625	 0.661030015	-85.0	 0.059342406	-27.9	 0.059084207	-28.3	 0.797640299	 176.2	
 1519.6213750	 0.660176378	-85.2	 0.058784299	-26.7	 0.058980738	-26.5	 0.794620063	 175.2	
 1524.9336875	 0.658816973	-85.4	 0.058570990	-24.8	 0.058369821	-25.2	 0.790510228	 174.2	
 1530.2460000	 0.658282339	-85.6	 0.058164739	-23.4	 0.058017640	-23.5	 0.786557627	 173.1	
 1535.5583125	 0.657001164	-85.8	 0.057904187	-22.0	 0.057942388	-21.9	 0.782494946	 172.0	
 1540.8706250	 0.655616649	-86.0	 0.057659590	-20.2	 0.057864291	-20.0	 0.778499995	 171.0	
 1546.1829375	 0.654523746	-86.2	 0.058055628	-18.4	 0.057882534	-18.3	 0.774415500	 169.9	
 1551.4952500	 0.653112588	-86.4	 0.058202844	-16.5	 0.058133419	-16.8	 0.769609302	 168.7	
 1556.8075625	 0.652164684	-86.6	 0.058664916	-14.9	 0.058248720	-14.7	 0.765557519	 167.6	
 1562.1198750	 0.651152798	-86.8	 0.058862979	-13.1	 0.058777702	-13.0	 0.760713393	 166.4	
 1567.4321875	 0.650050418	-87.0	 0.059438904	-11.0	 0.059333574	-11.3	 0.755940422	 165.3	
 1572.7445000	 0.649450501	-87.2	 0.060150829	 -9.2	 0.059964887	 -9.4	 0.750822791	 164.1	
 1578.0568125	 0.647731149	-87.4	 0.061071873	 -7.7	 0.060869234	 -7.8	 0.745617286	 162.9	
 1583.3691250	 0.646706784	-87.7	 0.062181107	 -6.0	 0.061788129	 -6.1	 0.740296416	 161.6	
 1588.6814375	 0.645467077	-87.9	 0.062968983	 -4.4	 0.062896896	 -4.4	 0.734746641	 160.4	
 1593.9937500	 0.644391972	-88.0	 0.064294545	 -2.6	 0.064275068	 -2.8	 0.729198951	 159.1	
 1599.3060625	 0.643439342	-88.2	 0.065711637	 -1.1	 0.065664168	 -1.1	 0.723510791	 157.8	
 1604.6183750	 0.642253568	-88.4	 0.067646169	  0.2	 0.067206780	  0.3	 0.717866437	 156.5	
 1609.9306875	 0.640601617	-88.6	 0.069135082	  1.8	 0.068906723	  1.5	 0.711786646	 155.2	
 1615.2430000	 0.639477038	-88.8	 0.071082181	  2.9	 0.070723150	  2.8	 0.705513385	 153.9	
 1620.5553125	 0.638349801	-89.0	 0.073161207	  4.2	 0.072822731	  4.1	 0.698847414	 152.5	
 1625.8676250	 0.637527532	-89.1	 0.075174343	  5.2	 0.074940978	  5.1	 0.692261448	 151.1	
 1631.1799375	 0.636374390	-89.4	 0.077285693	  6.0	 0.077187692	  6.0	 0.685482887	 149.7	
 1636.4922500	 0.635395415	-89.6	 0.079720698	  7.1	 0.079480767	  6.9	 0.678617382	 148.2	
 1641.8045625	 0.634395153	-89.7	 0.082360482	  7.8	 0.082225440	  7.9	 0.671400085	 146.8	
 1647.1168750	 0.633083592	-89.9	 0.084822334	  8.5	 0.084766441	  8.4	 0.664426013	 145.3	
 1652.4291875	 0.632351312	-90.0	 0.087760865	  9.1	 0.087207032	  9.1	 0.656692900	 143.8	
 1657.7415000	 0.630579445	-90.2	 0.090545811	  9.6	 0.090332457	  9.4	 0.649243634	 142.3	
 1663.0538125	 0.629256401	-90.4	 0.093216530	 10.1	 0.093333074	 10.0	 0.640949427	 140.7	
 1668.3661250	 0.628396711	-90.5	 0.096287656	 10.3	 0.096461289	 10.4	 0.633021612	 139.1	
 1673.6784375	 0.627512685	-90.7	 0.099645794	 10.7	 0.099387498	 10.6	 0.625304691	 137.5	
 1678.9907500	 0.626393980	-90.8	 0.102883221	 10.8	 0.102588658	 10.7	 0.616715069	 135.8	
 1684.3030625	 0.625740563	-91.0	 0.105923367	 10.6	 0.105727818	 10.9	 0.608019800	 134.1	
 1689.6153750	 0.624583394	-91.1	 0.109806909	 11.0	 0.109338022	 10.7	 0.599194121	 132.4	
 1694.9276875	 0.624099146	-91.3	 0.113066217	 10.8	 0.112616225	 10.7	 0.590208303	 130.7	
 1700.2400000	 0.622348048	-91.4	 0.116349197	 10.7	 0.116492433	 10.7	 0.581826987	 128.9	
 1705.5523125	 0.621351628	-91.5	 0.119859560	 10.5	 0.119833373	 10.5	 0.572292720	 127.1	
 1710.8646250	 0.619985011	-91.7	 0.123575914	 10.4	 0.123133192	 10.2	 0.562920312	 125.3	
 1716.1769375	 0.619494598	-91.7	 0.127107829	 10.1	 0.127058397	 10.0	 0.553192026	 123.4	
 1721.4892500	 0.618385227	-91.9	 0.130808150	  9.7	 0.130717193	  9.6	 0.544045567	 121.5	
 1726.8015625	 0.617057890	-92.0	 0.134481916	  9.3	 0.134264655	  9.3	 0.534204913	 119.5	
 1732.1138750	 0.616224850	-92.1	 0.138301877	  8.8	 0.138126096	  8.7	 0.524372823	 117.5	
 1737.4261875	 0.616081598	-92.2	 0.141948976	  8.3	 0.141748257	  8.3	 0.514489013	 115.5	
 1742.7385000	 0.614248783	-92.3	 0.146253847	  7.8	 0.145941017	  7.8	 0.504614830	 113.5	
 1748.0508125	 0.614151080	-92.4	 0.149874197	  7.2	 0.149503057	  7.2	 0.494689872	 111.3	
 1753.3631250	 0.612718020	-92.5	 0.153414141	  6.7	 0.153411274	  6.7	 0.484092770	 109.2	
 1758.6754375	 0.612366126	-92.6	 0.157345032	  6.1	 0.157217298	  6.0	 0.474512017	 107.0	
 1763.9877500	 0.611147199	-92.6	 0.161346189	  5.4	 0.161081989	  5.3	 0.464345693	 104.7	
 1769.3000625	 0.610593888	-92.8	 0.165009825	  4.7	 0.164750023	  4.7	 0.454542913	 102.5	
 1774.6123750	 0.609854718	-92.9	 0.168890087	  4.0	 0.168522170	  3.9	 0.444234999	 100.2	
 1779.9246875	 0.609672118	-93.0	 0.172846178	  3.1	 0.172632756	  3.2	 0.434285311	 97.8	
 1785.2370000	 0.609061239	-93.1	 0.176904332	  2.4	 0.176475360	  2.4	 0.424384947	 95.4	
 1790.5493125	 0.608482197	-93.1	 0.180498011	  1.6	 0.180199537	  1.6	 0.414323501	 93.0	
 1795.8616250	 0.608014491	-93.2	 0.184387142	  0.7	 0.183850567	  0.8	 0.404622219	 90.4	
 1801.1739375	 0.606980943	-93.3	 0.187750116	 -0.1	 0.187944429	 -0.1	 0.394844204	 87.9	
 1806.4862500	 0.606597764	-93.4	 0.191884799	 -0.9	 0.191362891	 -0.9	 0.385518221	 85.3	
 1811.7985625	 0.606298136	-93.4	 0.195519125	 -1.8	 0.195213791	 -1.9	 0.375797093	 82.6	
 1817.1108750	 0.605818018	-93.5	 0.199062968	 -2.7	 0.198946850	 -2.8	 0.366612178	 79.8	
 1822.4231875	 0.604785784	-93.6	 0.202709714	 -3.6	 0.202552384	 -3.6	 0.357445393	 77.0	
 1827.7355000	 0.605185163	-93.7	 0.206172483	 -4.5	 0.206113316	 -4.5	 0.348087057	 74.2	
 1833.0478125	 0.604736112	-93.8	 0.209856744	 -5.5	 0.209433429	 -5.5	 0.339647059	 71.3	
 1838.3601250	 0.604047084	-93.9	 0.213317084	 -6.4	 0.212915042	 -6.4	 0.331146769	 68.2	
 1843.6724375	 0.603810020	-94.0	 0.216593361	 -7.4	 0.216417303	 -7.4	 0.323082892	 65.1	
 1848.9847500	 0.603466526	-94.1	 0.220099058	 -8.3	 0.219757528	 -8.4	 0.315484132	 62.1	
 1854.2970625	 0.602886219	-94.2	 0.223386118	 -9.2	 0.223103278	 -9.3	 0.307877140	 58.8	
 1859.6093750	 0.603230005	-94.2	 0.226762493	-10.2	 0.226100532	-10.3	 0.300916171	 55.6	
 1864.9216875	 0.602695633	-94.3	 0.229732417	-11.2	 0.229575597	-11.2	 0.294138252	 52.3	
 1870.2340000	 0.602257718	-94.4	 0.232782408	-12.2	 0.232563745	-12.2	 0.287743844	 48.9	
 1875.5463125	 0.602690594	-94.5	 0.235909303	-13.2	 0.235790538	-13.2	 0.281992520	 45.4	
 1880.8586250	 0.602798654	-94.6	 0.239056499	-14.3	 0.238791599	-14.2	 0.276210126	 42.0	
 1886.1709375	 0.602704140	-94.7	 0.241741808	-15.2	 0.241582685	-15.2	 0.271286568	 38.4	
 1891.4832500	 0.602339218	-94.8	 0.244592779	-16.2	 0.244289976	-16.2	 0.266374713	 34.9	
 1896.7955625	 0.602307568	-94.9	 0.247281661	-17.1	 0.247326183	-17.2	 0.262464253	 31.3	
 1902.1078750	 0.602685953	-94.9	 0.250167075	-18.0	 0.249873953	-18.2	 0.258541523	 27.6	
 1907.4201875	 0.602398335	-95.1	 0.253149795	-19.1	 0.252506901	-19.1	 0.255230772	 24.1	
 1912.7325000	 0.602145936	-95.1	 0.255236133	-20.0	 0.255238127	-20.1	 0.252586547	 20.5	
 1918.0448125	 0.602730566	-95.2	 0.257785978	-21.0	 0.257837743	-21.1	 0.250254403	 17.0	
 1923.3571250	 0.602438940	-95.3	 0.260194986	-22.1	 0.260234745	-22.1	 0.248279655	 13.4	
 1928.6694375	 0.602518663	-95.4	 0.262944245	-23.0	 0.262661713	-23.0	 0.246411360	  9.8	
 1933.9817500	 0.603506573	-95.4	 0.265178062	-23.9	 0.265051098	-24.0	 0.245517720	  6.3	
 1939.2940625	 0.603137491	-95.6	 0.267475790	-24.9	 0.267470092	-25.0	 0.244742780	  2.8	
 1944.6063750	 0.602911574	-95.7	 0.269901531	-25.9	 0.269630004	-25.9	 0.244120388	 -0.6	
 1949.9186875	 0.602800870	-95.7	 0.271877868	-26.8	 0.271780609	-26.8	 0.244159541	 -3.9	
 1955.2310000	 0.602332446	-95.8	 0.274136056	-27.7	 0.273819531	-27.8	 0.243999866	 -7.2	
 1960.5433125	 0.603062536	-95.9	 0.276225948	-28.6	 0.275746044	-28.8	 0.244397158	-10.4	
 1965.8556250	 0.603359095	-95.9	 0.277849387	-29.6	 0.278090540	-29.7	 0.245418028	-13.6	
 1971.1679375	 0.603235072	-96.1	 0.280081878	-30.6	 0.279978258	-30.7	 0.245769798	-16.7	
 1976.4802500	 0.603393969	-96.2	 0.281567805	-31.5	 0.281855947	-31.6	 0.246878262	-19.7	
 1981.7925625	 0.602964133	-96.3	 0.283899757	-32.4	 0.283719434	-32.5	 0.247958398	-22.6	
 1987.1048750	 0.602657231	-96.4	 0.285425645	-33.4	 0.285532966	-33.5	 0.249369360	-25.4	
 1992.4171875	 0.603494926	-96.5	 0.287477556	-34.3	 0.287234114	-34.4	 0.250959814	-28.3	
 1997.7295000	 0.603843521	-96.6	 0.288963839	-35.2	 0.288991653	-35.3	 0.252144088	-31.0	
 2003.0418125	 0.603189432	-96.7	 0.290881633	-36.1	 0.291143846	-36.1	 0.254246190	-33.5	
 2008.3541250	 0.603971660	-96.8	 0.292556578	-37.0	 0.292418167	-37.1	 0.255400158	-36.2	
 2013.6664375	 0.603613501	-96.9	 0.293878399	-37.9	 0.293952486	-37.9	 0.257717697	-38.5	
 2018.9787500	 0.604097755	-97.0	 0.295703859	-38.8	 0.295431680	-38.8	 0.259234446	-41.1	
 2024.2910625	 0.603807977	-97.1	 0.297055056	-39.7	 0.297196939	-39.8	 0.261239304	-43.3	
 2029.6033750	 0.604182567	-97.2	 0.298878977	-40.6	 0.298833025	-40.7	 0.262584731	-45.6	
 2034.9156875	 0.604306556	-97.3	 0.300439315	-41.5	 0.300057122	-41.5	 0.264747864	-47.8	
 2040.2280000	 0.603539813	-97.4	 0.301482990	-42.4	 0.301602722	-42.4	 0.266498828	-50.0	
 2045.5403125	 0.604464078	-97.6	 0.303144512	-43.2	 0.303127157	-43.2	 0.268116289	-52.1	
 2050.8526250	 0.604585867	-97.7	 0.304620604	-44.1	 0.304554747	-44.1	 0.269887632	-54.2	
 2056.1649375	 0.604597665	-97.7	 0.305620884	-44.9	 0.305986385	-44.9	 0.271427069	-56.0	
 2061.4772500	 0.604924689	-97.9	 0.307172315	-45.7	 0.306984106	-45.8	 0.273376831	-57.9	
 2066.7895625	 0.604551774	-98.0	 0.308252448	-46.6	 0.308263281	-46.6	 0.274792708	-59.9	
 2072.1018750	 0.604395826	-98.0	 0.309644044	-47.4	 0.309402780	-47.5	 0.276422282	-61.6	
 2077.4141875	 0.605192734	-98.1	 0.311002878	-48.2	 0.310831942	-48.3	 0.277441243	-63.4	
 2082.7265000	 0.604602840	-98.3	 0.312061945	-49.1	 0.311881951	-49.2	 0.278909331	-65.2	
 2088.0388125	 0.605459725	-98.4	 0.312982044	-50.0	 0.313130353	-49.9	 0.280146168	-66.8	
 2093.3511250	 0.605647938	-98.5	 0.314361136	-50.7	 0.314526134	-50.8	 0.280932452	-68.4	
 2098.6634375	 0.605779656	-98.6	 0.315939580	-51.6	 0.316024424	-51.6	 0.282467921	-70.0	
 2103.9757500	 0.605974946	-98.7	 0.316184384	-52.4	 0.316567456	-52.4	 0.283414173	-71.6	
 2109.2880625	 0.606188682	-98.7	 0.317855983	-53.2	 0.317788145	-53.2	 0.283977647	-73.1	
 2114.6003750	 0.606100432	-98.9	 0.318828571	-54.0	 0.318847678	-54.0	 0.284518646	-74.6	
 2119.9126875	 0.606309195	-98.9	 0.319954366	-54.8	 0.320022240	-54.8	 0.285197287	-76.0	
 2125.2250000	 0.606821793	-99.1	 0.320661386	-55.7	 0.321341888	-55.6	 0.285730990	-77.4	
 2130.5373125	 0.606011341	-99.1	 0.322063839	-56.4	 0.321960397	-56.4	 0.286146833	-78.8	
 2135.8496250	 0.606443415	-99.2	 0.322887382	-57.2	 0.323119442	-57.2	 0.286127498	-80.2	
 2141.1619375	 0.607152629	-99.3	 0.324037031	-58.1	 0.323935335	-58.0	 0.286571194	-81.5	
 2146.4742500	 0.606324395	-99.3	 0.325224104	-58.7	 0.325183918	-58.8	 0.286321599	-82.9	
 2151.7865625	 0.606901401	-99.4	 0.325757981	-59.5	 0.326410236	-59.5	 0.286323782	-84.1	
 2157.0988750	 0.606762677	-99.4	 0.327245023	-60.3	 0.327203190	-60.4	 0.286113695	-85.3	
 2162.4111875	 0.607146341	-99.5	 0.327988605	-61.1	 0.328229296	-61.1	 0.285468749	-86.5	
 2167.7235000	 0.607944282	-99.6	 0.329684892	-62.0	 0.329178997	-61.9	 0.285115491	-87.7	
 2173.0358125	 0.606868704	-99.6	 0.330326122	-62.7	 0.330233789	-62.6	 0.284349186	-88.9	
 2178.3481250	 0.607457069	-99.8	 0.331224420	-63.5	 0.331297896	-63.4	 0.283731173	-90.0	
 2183.6604375	 0.607586484	-99.8	 0.332512279	-64.2	 0.332130148	-64.2	 0.282847673	-91.2	
 2188.9727500	 0.608053380	-99.9	 0.333567793	-65.1	 0.333210315	-65.0	 0.281499638	-92.3	
 2194.2850625	 0.607905569	-100.0	 0.334080944	-65.8	 0.334111719	-65.8	 0.280631426	-93.4	
 2199.5973750	 0.607786772	-100.0	 0.334865214	-66.6	 0.335033355	-66.6	 0.278965534	-94.5	
 2204.9096875	 0.608252499	-100.1	 0.336808180	-67.3	 0.336185356	-67.3	 0.277601660	-95.5	
 2210.2220000	 0.608176674	-100.2	 0.337292323	-68.0	 0.336595502	-68.1	 0.276146224	-96.6	
 2215.5343125	 0.608518734	-100.2	 0.337932234	-68.9	 0.337746679	-68.9	 0.274301821	-97.7	
 2220.8466250	 0.608421364	-100.3	 0.338930183	-69.7	 0.338934185	-69.7	 0.272182803	-98.7	
 2226.1589375	 0.608672930	-100.3	 0.339873554	-70.4	 0.339602601	-70.4	 0.270134085	-99.7	
 2231.4712500	 0.608532068	-100.5	 0.340679622	-71.2	 0.340584075	-71.3	 0.268291378	-100.7	
 2236.7835625	 0.608982179	-100.6	 0.341806749	-72.0	 0.341552623	-72.0	 0.266290874	-101.7	
 2242.0958750	 0.609927167	-100.6	 0.342480647	-72.8	 0.342485892	-72.8	 0.263904019	-102.6	
 2247.4081875	 0.609200443	-100.7	 0.343431062	-73.5	 0.343413294	-73.5	 0.261190497	-103.5	
 2252.7205000	 0.609905815	-100.8	 0.344519174	-74.4	 0.344363810	-74.3	 0.258504980	-104.5	
 2258.0328125	 0.610191539	-100.8	 0.344868124	-75.1	 0.345056096	-75.1	 0.256120200	-105.4	
 2263.3451250	 0.610366970	-100.9	 0.345832559	-75.9	 0.345822890	-75.9	 0.253364902	-106.3	
 2268.6574375	 0.610347839	-100.9	 0.346464085	-76.7	 0.346755468	-76.7	 0.250091586	-107.1	
 2273.9697500	 0.611316255	-101.0	 0.347444588	-77.5	 0.347674463	-77.4	 0.247107444	-108.0	
 2279.2820625	 0.612291115	-101.0	 0.348159790	-78.3	 0.348294566	-78.3	 0.243710330	-108.9	
 2284.5943750	 0.612077990	-101.1	 0.348727392	-79.1	 0.349262741	-79.0	 0.240394285	-109.7	
 2289.9066875	 0.612592241	-101.1	 0.349881481	-79.8	 0.349956416	-79.8	 0.236681992	-110.5	
 2295.2190000	 0.613759947	-101.2	 0.350564230	-80.6	 0.350581009	-80.6	 0.233077476	-111.3	
 2300.5313125	 0.613538018	-101.2	 0.351129661	-81.3	 0.351437950	-81.4	 0.229324379	-112.1	
 2305.8436250	 0.614423301	-101.2	 0.352033415	-82.1	 0.352081399	-82.2	 0.225643994	-112.8	
 2311.1559375	 0.614236469	-101.2	 0.352498521	-82.9	 0.352793448	-82.9	 0.221224954	-113.6	
 2316.4682500	 0.614791538	-101.4	 0.353738703	-83.7	 0.353640753	-83.8	 0.217062243	-114.3	
 2321.7805625	 0.615731825	-101.4	 0.354386959	-84.5	 0.354439461	-84.5	 0.212557556	-115.0	
 2327.0928750	 0.616609008	-101.4	 0.355010470	-85.3	 0.354931996	-85.3	 0.208144445	-115.6	
 2332.4051875	 0.616727855	-101.5	 0.355385972	-86.1	 0.355769707	-86.2	 0.203514603	-116.2	
 2337.7175000	 0.617296308	-101.5	 0.356596491	-86.9	 0.356491344	-86.9	 0.198917173	-116.8	
 2343.0298125	 0.618089479	-101.5	 0.357106576	-87.8	 0.356764745	-87.7	 0.193888529	-117.4	
 2348.3421250	 0.618618257	-101.6	 0.357855118	-88.5	 0.358068924	-88.5	 0.188857269	-117.9	
 2353.6544375	 0.619339462	-101.6	 0.358883831	-89.3	 0.358169133	-89.3	 0.183458685	-118.4	
 2358.9667500	 0.620127711	-101.6	 0.359159307	-90.2	 0.359303941	-90.2	 0.178237768	-118.9	
 2364.2790625	 0.620954758	-101.7	 0.359730166	-90.9	 0.359471670	-90.9	 0.172912541	-119.3	
 2369.5913750	 0.621651338	-101.6	 0.360256642	-91.8	 0.360203243	-91.8	 0.167266952	-119.6	
 2374.9036875	 0.622397612	-101.7	 0.361108437	-92.6	 0.361288307	-92.6	 0.161469121	-120.0	
 2380.2160000	 0.622876739	-101.8	 0.361544587	-93.4	 0.361641755	-93.4	 0.156085101	-120.3	
 2385.5283125	 0.623619672	-101.8	 0.361995486	-94.3	 0.362228731	-94.3	 0.150005869	-120.4	
 2390.8406250	 0.624944353	-101.8	 0.362863361	-95.1	 0.362767338	-95.1	 0.144102646	-120.7	
 2396.1529375	 0.625510280	-101.8	 0.363250432	-95.9	 0.363237745	-95.9	 0.138095881	-120.6	
 2401.4652500	 0.626386256	-101.9	 0.363193808	-96.8	 0.363928927	-96.7	 0.132079519	-120.4	
 2406.7775625	 0.627842532	-102.0	 0.364451546	-97.5	 0.363878817	-97.6	 0.125681559	-120.3	
 2412.0898750	 0.628647694	-102.0	 0.364328755	-98.4	 0.364227533	-98.5	 0.119441116	-120.0	
 2417.4021875	 0.629976298	-102.0	 0.364852483	-99.3	 0.364917240	-99.2	 0.113150033	-119.5	
 2422.7145000	 0.630447394	-102.1	 0.364920056	-100.2	 0.365457527	-100.2	 0.106690030	-118.9	
 2428.0268125	 0.631392750	-102.2	 0.365300907	-101.0	 0.365556174	-101.0	 0.100290433	-117.9	
 2433.3391250	 0.633073108	-102.2	 0.366169808	-101.9	 0.365932205	-101.9	 0.094087330	-116.5	
 2438.6514375	 0.634603274	-102.3	 0.366038702	-102.7	 0.366318689	-102.7	 0.087623648	-115.1	
 2443.9637500	 0.635248515	-102.3	 0.366392994	-103.6	 0.366572848	-103.6	 0.081677987	-113.2	
 2449.2760625	 0.636184597	-102.3	 0.367014028	-104.4	 0.367028205	-104.4	 0.075778174	-110.3	
 2454.5883750	 0.637804351	-102.4	 0.367020681	-105.3	 0.367019097	-105.3	 0.070028233	-107.0	
 2459.9006875	 0.639643431	-102.5	 0.367168415	-106.2	 0.367119246	-106.2	 0.064557427	-103.1	
 2465.2130000	 0.640917710	-102.5	 0.367233012	-107.1	 0.367260552	-107.1	 0.059644041	-98.1	
 2470.5253125	 0.642954403	-102.6	 0.367140085	-107.9	 0.367535927	-108.0	 0.055353208	-92.2	
 2475.8376250	 0.643498797	-102.7	 0.367281736	-108.8	 0.367363234	-108.9	 0.052044487	-84.8	
 2481.1499375	 0.644557525	-102.7	 0.367051432	-109.7	 0.367196191	-109.7	 0.049827740	-76.6	
 2486.4622500	 0.646675987	-102.8	 0.366622790	-110.6	 0.367171389	-110.6	 0.049112376	-67.5	
 2491.7745625	 0.648148851	-102.9	 0.366779891	-111.6	 0.366994861	-111.5	 0.050133563	-58.6	
 2497.0868750	 0.650376369	-102.9	 0.366635027	-112.3	 0.366924187	-112.4	 0.052307673	-49.7	
 2502.3991875	 0.652315144	-103.0	 0.366894814	-113.3	 0.367015387	-113.3	 0.055952715	-42.1	
 2507.7115000	 0.653757174	-103.0	 0.366154469	-114.1	 0.366547835	-114.2	 0.060725435	-35.9	
 2513.0238125	 0.654763505	-103.1	 0.366013828	-115.0	 0.366107075	-115.0	 0.066703166	-30.0	
 2518.3361250	 0.657053669	-103.1	 0.365839942	-116.0	 0.366071444	-116.0	 0.072875210	-25.7	
 2523.6484375	 0.658494087	-103.2	 0.365893077	-116.8	 0.365310614	-116.8	 0.079758274	-22.2	
 2528.9607500	 0.659794185	-103.3	 0.365541974	-117.7	 0.365242478	-117.8	 0.087264055	-19.3	
 2534.2730625	 0.661880937	-103.3	 0.363987414	-118.6	 0.364706118	-118.7	 0.095271876	-17.1	
 2539.5853750	 0.663937746	-103.4	 0.364267119	-119.5	 0.364223615	-119.6	 0.103635678	-15.4	
 2544.8976875	 0.665618954	-103.5	 0.363778960	-120.5	 0.363372444	-120.5	 0.111827446	-14.1	
 2550.2100000	 0.667886514	-103.5	 0.363021931	-121.3	 0.362867830	-121.4	 0.120595182	-13.1	
 2555.5223125	 0.669615416	-103.7	 0.362624964	-122.2	 0.362454556	-122.3	 0.129533844	-12.1	
 2560.8346250	 0.670986908	-103.7	 0.361323973	-123.2	 0.361765611	-123.2	 0.138618387	-11.6	
 2566.1469375	 0.672919183	-103.8	 0.360811031	-124.0	 0.361214820	-124.1	 0.148219616	-11.2	
 2571.4592500	 0.674987375	-103.9	 0.360077922	-125.1	 0.360347530	-125.0	 0.157182350	-11.0	
 2576.7715625	 0.677071148	-104.0	 0.359348407	-125.9	 0.359845028	-125.9	 0.166187595	-10.8	
 2582.0838750	 0.679188318	-104.1	 0.358507714	-126.8	 0.358711031	-126.9	 0.175864064	-10.9	
 2587.3961875	 0.681222542	-104.2	 0.357665525	-127.8	 0.357810660	-127.9	 0.185321639	-10.9	
 2592.7085000	 0.683081563	-104.3	 0.356388976	-128.6	 0.356940256	-128.7	 0.195070810	-11.1	
 2598.0208125	 0.684869362	-104.5	 0.355493706	-129.6	 0.355716887	-129.6	 0.204449589	-11.3	
 2603.3331250	 0.686171793	-104.6	 0.354627720	-130.5	 0.354906303	-130.5	 0.214280339	-11.6	
 2608.6454375	 0.688774929	-104.7	 0.353848636	-131.4	 0.353532640	-131.4	 0.224322118	-12.0	
 2613.9577500	 0.690208577	-104.8	 0.352120078	-132.3	 0.352701823	-132.3	 0.234020921	-12.3	
 2619.2700625	 0.691921674	-105.0	 0.351474144	-133.3	 0.351353223	-133.3	 0.243642049	-12.7	
 2624.5823750	 0.693569661	-105.1	 0.349914449	-134.1	 0.350089142	-134.2	 0.253158893	-13.3	
 2629.8946875	 0.696293562	-105.2	 0.348503655	-135.1	 0.348660115	-135.2	 0.263245086	-13.7	
 2635.2070000	 0.697722662	-105.5	 0.346963433	-136.0	 0.347331046	-136.0	 0.273041098	-14.3	
 2640.5193125	 0.699451410	-105.6	 0.346233826	-136.9	 0.346120703	-137.0	 0.282591029	-14.9	
 2645.8316250	 0.701835655	-105.7	 0.344281899	-137.8	 0.344788050	-137.9	 0.292537047	-15.4	
 2651.1439375	 0.703347601	-105.9	 0.343130810	-138.8	 0.343157924	-138.8	 0.302012644	-16.0	
 2656.4562500	 0.705820799	-106.1	 0.341241064	-139.6	 0.341472480	-139.7	 0.312023548	-16.6	
 2661.7685625	 0.707284375	-106.3	 0.339964709	-140.5	 0.340262632	-140.5	 0.321374745	-17.3	
 2667.0808750	 0.709527435	-106.5	 0.338393236	-141.4	 0.338606495	-141.5	 0.330992516	-17.8	
 2672.3931875	 0.711347336	-106.7	 0.336640353	-142.3	 0.336490613	-142.3	 0.341012595	-18.5	
 2677.7055000	 0.713751061	-106.8	 0.335128611	-143.1	 0.335091384	-143.3	 0.350283859	-19.2	
 2683.0178125	 0.715115151	-107.0	 0.333017262	-144.1	 0.333324938	-144.2	 0.359469628	-19.9	
 2688.3301250	 0.717852595	-107.2	 0.331474698	-144.9	 0.331688981	-145.0	 0.369022432	-20.5	
 2693.6424375	 0.718912547	-107.4	 0.329703840	-145.9	 0.329746215	-145.9	 0.378444031	-21.2	
 2698.9547500	 0.721586952	-107.6	 0.327456374	-146.8	 0.327646245	-146.8	 0.387841464	-21.9	
 2704.2670625	 0.723241278	-107.8	 0.325781052	-147.7	 0.325786761	-147.7	 0.397216549	-22.6	
 2709.5793750	 0.724689608	-107.9	 0.323582066	-148.5	 0.323798877	-148.5	 0.406332818	-23.4	
 2714.8916875	 0.726500160	-108.1	 0.321618428	-149.4	 0.322086462	-149.4	 0.415164792	-24.0	
 2720.2040000	 0.728962614	-108.3	 0.319500257	-150.3	 0.319768704	-150.3	 0.424228470	-24.8	
 2725.5163125	 0.729846732	-108.6	 0.317353308	-151.1	 0.317872354	-151.1	 0.432586455	-25.5	
 2730.8286250	 0.731659335	-108.7	 0.316055329	-152.0	 0.315791756	-152.0	 0.441926523	-26.2	
 2736.1409375	 0.733267072	-108.9	 0.313923045	-152.8	 0.314205294	-152.9	 0.451041972	-26.9	
 2741.4532500	 0.734780752	-109.0	 0.311843010	-153.6	 0.311524114	-153.7	 0.459692435	-27.6	
 2746.7655625	 0.735469299	-109.3	 0.309285669	-154.4	 0.309759255	-154.6	 0.467780004	-28.4	
 2752.0778750	 0.738415632	-109.4	 0.307376665	-155.2	 0.307565470	-155.4	 0.476664142	-29.1	
 2757.3901875	 0.739164849	-109.6	 0.304782591	-156.1	 0.305285693	-156.2	 0.485195343	-29.8	
 2762.7025000	 0.740386550	-109.8	 0.302925061	-156.9	 0.303125750	-156.9	 0.493228290	-30.5	
 2768.0148125	 0.742537205	-110.0	 0.300658990	-157.7	 0.300829603	-157.8	 0.501532627	-31.2	
 2773.3271250	 0.743701547	-110.2	 0.298728559	-158.6	 0.298891193	-158.5	 0.509116217	-32.0	
 2778.6394375	 0.744482371	-110.4	 0.296733642	-159.4	 0.296508098	-159.4	 0.517544874	-32.7	
 2783.9517500	 0.745583930	-110.6	 0.294291240	-160.2	 0.294439501	-160.2	 0.525285485	-33.4	
 2789.2640625	 0.747202825	-110.8	 0.291939756	-160.9	 0.292360011	-161.0	 0.532874535	-34.1	
 2794.5763750	 0.747709160	-111.0	 0.289453030	-161.8	 0.290335444	-161.8	 0.540394718	-34.8	
 2799.8886875	 0.749663811	-111.3	 0.287421598	-162.5	 0.287788979	-162.5	 0.548351966	-35.5	
 2805.2010000	 0.751159776	-111.5	 0.285501024	-163.3	 0.285657587	-163.3	 0.555367814	-36.2	
 2810.5133125	 0.751529779	-111.6	 0.282859978	-164.1	 0.283523452	-164.1	 0.562766701	-36.9	
 2815.8256250	 0.753316986	-111.9	 0.280907788	-164.9	 0.280948733	-164.8	 0.569922840	-37.5	
 2821.1379375	 0.754284500	-112.1	 0.278562757	-165.5	 0.278597238	-165.6	 0.576966449	-38.2	
 2826.4502500	 0.755275864	-112.3	 0.276446786	-166.4	 0.276344371	-166.3	 0.583786376	-38.9	
 2831.7625625	 0.756044076	-112.6	 0.273898991	-167.2	 0.274233288	-167.1	 0.590582169	-39.6	
 2837.0748750	 0.757032173	-112.7	 0.272338662	-167.9	 0.272284784	-167.8	 0.597108774	-40.2	
 2842.3871875	 0.757707610	-113.0	 0.269531976	-168.6	 0.270096420	-168.6	 0.603977838	-40.8	
 2847.6995000	 0.759339629	-113.2	 0.267252461	-169.3	 0.267599814	-169.3	 0.610581838	-41.5	
 2853.0118125	 0.760281912	-113.4	 0.265080014	-170.0	 0.265168702	-170.0	 0.616805332	-42.2	
 2858.3241250	 0.761024680	-113.7	 0.262740032	-170.8	 0.262667018	-170.7	 0.622975285	-42.8	
 2863.6364375	 0.761711035	-114.0	 0.260395843	-171.5	 0.260537077	-171.4	 0.629408547	-43.5	
 2868.9487500	 0.762072694	-114.2	 0.258264018	-172.3	 0.258429854	-172.1	 0.635808978	-44.1	
 2874.2610625	 0.762727496	-114.4	 0.256136284	-172.9	 0.256145961	-172.8	 0.641437858	-44.7	
 2879.5733750	 0.763831041	-114.6	 0.253645486	-173.6	 0.253897555	-173.6	 0.647121682	-45.4	
 2884.8856875	 0.765202726	-114.9	 0.251660394	-174.3	 0.251458960	-174.3	 0.652991612	-46.0	
 2890.1980000	 0.766110511	-115.1	 0.249230409	-175.0	 0.249265656	-175.0	 0.658460158	-46.6	
 2895.5103125	 0.766657012	-115.3	 0.246880971	-175.7	 0.247013263	-175.6	 0.664531737	-47.2	
 2900.8226250	 0.767394307	-115.6	 0.245030538	-176.3	 0.244849015	-176.3	 0.669438468	-47.8	
 2906.1349375	 0.768001852	-115.8	 0.242414019	-177.0	 0.242560660	-177.0	 0.674772392	-48.5	
 2911.4472500	 0.768544776	-116.0	 0.239905138	-177.6	 0.240447413	-177.6	 0.680033303	-49.0	
 2916.7595625	 0.769763037	-116.2	 0.238364256	-178.3	 0.238166357	-178.2	 0.684762799	-49.7	
 2922.0718750	 0.770040435	-116.4	 0.235740794	-179.0	 0.235999808	-178.9	 0.690234536	-50.2	
 2927.3841875	 0.770329004	-116.6	 0.233479731	-179.6	 0.233753915	-179.5	 0.695612133	-50.8	
 2932.6965000	 0.770521142	-116.8	 0.231341988	 179.8	 0.231420278	 179.8	 0.700321310	-51.4	
 2938.0088125	 0.771481680	-117.1	 0.229175168	 179.1	 0.229638224	 179.2	 0.705078426	-51.9	
 2943.3211250	 0.772238363	-117.3	 0.227223851	 178.6	 0.227433021	 178.6	 0.709412623	-52.5	
 2948.6334375	 0.773053185	-117.5	 0.224913052	 178.0	 0.225251378	 178.0	 0.714344599	-53.1	
 2953.9457500	 0.772696617	-117.6	 0.223071554	 177.4	 0.223018349	 177.4	 0.718565945	-53.6	
 2959.2580625	 0.773155403	-117.9	 0.220900341	 176.8	 0.221098523	 176.8	 0.722908531	-54.1	
 2964.5703750	 0.773707875	-118.0	 0.218700244	 176.2	 0.218950298	 176.2	 0.727219908	-54.7	
 2969.8826875	 0.774226004	-118.2	 0.216715188	 175.6	 0.216882935	 175.7	 0.731333622	-55.2	
 2975.1950000	 0.774291343	-118.4	 0.214731210	 175.0	 0.214632531	 175.1	 0.735644129	-55.7	
 2980.5073125	 0.774301979	-118.6	 0.213141357	 174.4	 0.212936128	 174.4	 0.739451776	-56.2	
 2985.8196250	 0.774793285	-118.9	 0.211010992	 173.8	 0.210735931	 173.9	 0.743428943	-56.8	
 2991.1319375	 0.774973002	-119.0	 0.208780972	 173.2	 0.208944091	 173.4	 0.747218274	-57.3	
 2996.4442500	 0.775903984	-119.3	 0.206919081	 172.7	 0.207142930	 172.7	 0.751095572	-57.8	
 3001.7565625	 0.775825324	-119.4	 0.205092965	 172.1	 0.205133560	 172.2	 0.754622687	-58.3	
 
