!
! S-Parameter file
! MATLAB S2P writer
! (c) DICE Linz
! Infineon Technologies
! Date: 07.08.2009 12:50
!BGA777L7
!2.80V; 2.80V; 
!25.00 deg
!
# MHZ S MA R 50
!
!                  S11                  S21                  S12                  S22
!  f         mag        angle          mag        angle          mag        angle          mag        angle     
    0.3000000	 0.855120963	  0.1	 0.001140706	-83.7	 0.000232857	 69.1	 1.000463490	 -0.1	
    5.6123125	 0.855996846	  0.7	 0.017924117	-93.2	 0.000107317	 161.7	 0.999828711	 -0.8	
   10.9246250	 0.859838132	  1.3	 0.035132134	-93.6	 0.000164535	 146.1	 0.999525070	 -1.6	
   16.2369375	 0.870413374	  2.0	 0.052176448	-94.9	 0.000168816	 176.2	 0.999614125	 -2.3	
   21.5492500	 0.885602035	  2.3	 0.069590251	-96.5	 0.000085793	 123.1	 0.999339852	 -3.0	
   26.8615625	 0.900597052	  2.2	 0.086521748	-97.8	 0.000214508	 120.6	 1.000098973	 -3.7	
   32.1738750	 0.913489207	  1.8	 0.103778081	-99.6	 0.000126184	 148.8	 0.999700754	 -4.5	
   37.4861875	 0.923240988	  1.3	 0.120976217	-101.6	 0.000220686	 152.2	 0.998482108	 -5.3	
   42.7985000	 0.931325554	  0.6	 0.137893462	-103.5	 0.000131196	-12.0	 0.999849061	 -6.0	
   48.1108125	 0.935500995	  0.1	 0.154608814	-105.3	 0.000197010	 38.5	 0.998981743	 -6.7	
   53.4231250	 0.939435428	 -0.6	 0.170661212	-107.4	 0.000349922	 118.3	 0.998204462	 -7.4	
   58.7354375	 0.942171936	 -1.2	 0.186649728	-109.5	 0.000273362	 142.9	 0.998708652	 -8.2	
   64.0477500	 0.943260276	 -1.6	 0.202817285	-111.4	 0.000322968	 141.7	 0.998796328	 -8.9	
   69.3600625	 0.943789437	 -2.2	 0.217022810	-113.3	 0.000078308	 100.1	 0.997709037	 -9.6	
   74.6723750	 0.942849620	 -2.6	 0.232202722	-115.1	 0.000021090	 73.2	 0.997529006	-10.4	
   79.9846875	 0.943293366	 -3.1	 0.246162400	-117.1	 0.000113179	 59.6	 0.997427170	-11.1	
   85.2970000	 0.942869754	 -3.5	 0.259926285	-118.9	 0.000149574	 80.0	 0.997328027	-11.8	
   90.6093125	 0.941693430	 -3.9	 0.272516392	-120.7	 0.000163333	 95.2	 0.997537423	-12.5	
   95.9216250	 0.941298280	 -4.3	 0.285118988	-122.6	 0.000088462	-87.7	 0.996974741	-13.3	
  101.2339375	 0.940839150	 -4.7	 0.297365384	-124.3	 0.000246398	 97.9	 0.997151511	-14.0	
  106.5462500	 0.940261172	 -5.0	 0.308401619	-125.9	 0.000136144	 126.7	 0.996223661	-14.7	
  111.8585625	 0.939653130	 -5.4	 0.319160938	-127.6	 0.000208002	 65.0	 0.996379233	-15.4	
  117.1708750	 0.938967783	 -5.7	 0.329857868	-129.2	 0.000143907	 89.9	 0.995684194	-16.2	
  122.4831875	 0.938457205	 -6.1	 0.339548071	-130.7	 0.000299587	 113.9	 0.995235130	-16.9	
  127.7955000	 0.938252042	 -6.4	 0.349396781	-132.3	 0.000181989	 89.4	 0.995255769	-17.6	
  133.1078125	 0.936881017	 -6.7	 0.358062495	-133.8	 0.000336958	 114.6	 0.995032200	-18.3	
  138.4201250	 0.936326686	 -7.1	 0.367106381	-135.2	 0.000195070	 134.5	 0.994293630	-19.0	
  143.7324375	 0.935007567	 -7.3	 0.374538833	-136.6	 0.000372979	 86.8	 0.994105076	-19.7	
  149.0447500	 0.934200243	 -7.7	 0.382356236	-138.2	 0.000310772	 120.8	 0.993813958	-20.5	
  154.3570625	 0.933862977	 -8.0	 0.389412906	-139.4	 0.000459332	 113.6	 0.993122658	-21.1	
  159.6693750	 0.933021753	 -8.3	 0.396587868	-140.8	 0.000186071	 115.7	 0.992955347	-21.9	
  164.9816875	 0.932434141	 -8.6	 0.402173912	-142.1	 0.000292950	 97.3	 0.992551656	-22.6	
  170.2940000	 0.930906765	 -8.9	 0.407889443	-143.4	 0.000361423	 119.5	 0.992877639	-23.3	
  175.6063125	 0.930950562	 -9.2	 0.413902781	-144.6	 0.000483439	 114.7	 0.992403634	-24.0	
  180.9186250	 0.929896493	 -9.5	 0.418315302	-145.9	 0.000517698	 113.1	 0.992495183	-24.7	
  186.2309375	 0.927907378	 -9.8	 0.422391766	-147.0	 0.000503666	 85.3	 0.991812759	-25.4	
  191.5432500	 0.926930534	-10.0	 0.426424408	-148.2	 0.000286306	 89.8	 0.991199310	-26.1	
  196.8555625	 0.926933448	-10.4	 0.430675551	-149.4	 0.000453838	 110.5	 0.990633026	-26.8	
  202.1678750	 0.926387213	-10.7	 0.434662123	-150.6	 0.000540234	 109.9	 0.990808492	-27.5	
  207.4801875	 0.925114486	-11.0	 0.437558180	-151.6	 0.000421039	 93.2	 0.990712716	-28.2	
  212.7925000	 0.924556656	-11.3	 0.440717005	-152.6	 0.000632587	 99.6	 0.990123176	-28.9	
  218.1048125	 0.923134007	-11.6	 0.442821707	-153.8	 0.000431272	 99.4	 0.989761136	-29.6	
  223.4171250	 0.922596930	-11.8	 0.444728991	-154.6	 0.000429168	 100.0	 0.989672608	-30.3	
  228.7294375	 0.921998439	-12.1	 0.446938878	-155.8	 0.000578647	 111.8	 0.989155434	-31.0	
  234.0417500	 0.920648861	-12.4	 0.448540249	-156.6	 0.000512011	 104.6	 0.988938769	-31.6	
  239.3540625	 0.920117762	-12.7	 0.449944402	-157.6	 0.000749355	 95.7	 0.988602977	-32.3	
  244.6663750	 0.918931413	-13.0	 0.451242809	-158.5	 0.000760822	 86.1	 0.988606536	-33.0	
  249.9786875	 0.918263746	-13.3	 0.452261915	-159.4	 0.000425202	 86.4	 0.988022089	-33.7	
  255.2910000	 0.917631041	-13.6	 0.452544741	-160.3	 0.000628627	 97.4	 0.987893487	-34.4	
  260.6033125	 0.916521839	-13.8	 0.453277834	-161.1	 0.000488115	 97.3	 0.987322167	-35.1	
  265.9156250	 0.914680332	-14.1	 0.453605095	-161.9	 0.000591843	 105.6	 0.987022593	-35.7	
  271.2279375	 0.913883274	-14.4	 0.452634733	-162.7	 0.000908717	 88.1	 0.987027642	-36.4	
  276.5402500	 0.914239929	-14.7	 0.452724477	-163.5	 0.000649400	 106.5	 0.986931844	-37.1	
  281.8525625	 0.913136595	-14.9	 0.453229993	-164.2	 0.000497189	 112.4	 0.986563384	-37.8	
  287.1648750	 0.912116061	-15.2	 0.452216691	-165.0	 0.000620204	 97.9	 0.986269117	-38.5	
  292.4771875	 0.910767571	-15.5	 0.451617216	-165.6	 0.000894681	 102.2	 0.985596756	-39.2	
  297.7895000	 0.909527272	-15.8	 0.451000901	-166.2	 0.000721811	 80.8	 0.985162613	-39.8	
  303.1018125	 0.909008965	-16.1	 0.449697498	-166.9	 0.000671249	 84.4	 0.985125976	-40.5	
  308.4141250	 0.907585677	-16.4	 0.448145226	-167.6	 0.000873671	 103.6	 0.984972014	-41.2	
  313.7264375	 0.906474562	-16.6	 0.446585156	-168.1	 0.000897437	 108.7	 0.984026835	-41.8	
  319.0387500	 0.905213404	-16.8	 0.444737010	-168.7	 0.000686845	 96.6	 0.984407262	-42.5	
  324.3510625	 0.904459572	-17.1	 0.442987736	-169.3	 0.000804166	 97.7	 0.983799065	-43.2	
  329.6633750	 0.904021307	-17.4	 0.440590460	-169.9	 0.000771481	 90.9	 0.983523862	-43.8	
  334.9756875	 0.902417006	-17.7	 0.438670417	-170.4	 0.000836829	 78.7	 0.983418483	-44.5	
  340.2880000	 0.901830702	-17.9	 0.436410139	-170.9	 0.000981352	 88.2	 0.983265733	-45.1	
  345.6003125	 0.899810493	-18.2	 0.434499120	-171.4	 0.000886535	 104.2	 0.982888853	-45.7	
  350.9126250	 0.899185659	-18.4	 0.431699298	-171.9	 0.000790077	 91.5	 0.982510939	-46.4	
  356.2249375	 0.898985634	-18.7	 0.429500269	-172.3	 0.000901837	 84.4	 0.982637239	-47.1	
  361.5372500	 0.897179070	-18.9	 0.426289697	-172.7	 0.001091738	 92.5	 0.981984014	-47.7	
  366.8495625	 0.896243208	-19.2	 0.423551491	-173.0	 0.000960347	 96.9	 0.982136787	-48.3	
  372.1618750	 0.895224882	-19.4	 0.421052422	-173.3	 0.000976537	 97.9	 0.981820404	-48.9	
  377.4741875	 0.894257261	-19.7	 0.418250645	-173.7	 0.001077886	 90.7	 0.981170783	-49.6	
  382.7865000	 0.893581123	-20.0	 0.415037044	-174.0	 0.001050072	 95.9	 0.981012668	-50.2	
  388.0988125	 0.892197604	-20.2	 0.411923779	-174.3	 0.001006683	 96.7	 0.980574005	-50.9	
  393.4111250	 0.890372659	-20.4	 0.409103570	-174.5	 0.000980443	 99.7	 0.980286694	-51.5	
  398.7234375	 0.889610950	-20.6	 0.405880217	-174.7	 0.001264360	 94.5	 0.980259605	-52.1	
  404.0357500	 0.888543902	-20.9	 0.402093287	-174.9	 0.001055354	 93.9	 0.980582778	-52.7	
  409.3480625	 0.887836022	-21.2	 0.399416057	-175.0	 0.001126333	 93.9	 0.979918142	-53.4	
  414.6603750	 0.886461358	-21.4	 0.396137468	-175.2	 0.001041075	 102.9	 0.979550947	-54.0	
  419.9726875	 0.884932438	-21.6	 0.393185946	-175.3	 0.001036338	 83.4	 0.979508342	-54.6	
  425.2850000	 0.883654667	-21.9	 0.389508111	-175.4	 0.001157938	 84.2	 0.978874265	-55.2	
  430.5973125	 0.882609184	-22.2	 0.386234596	-175.4	 0.001138340	 93.8	 0.978964639	-55.9	
  435.9096250	 0.881609511	-22.4	 0.382971256	-175.5	 0.001292507	 81.9	 0.979049957	-56.5	
  441.2219375	 0.880591545	-22.6	 0.379912018	-175.6	 0.001058861	 89.7	 0.978717557	-57.2	
  446.5342500	 0.879379590	-22.9	 0.376006330	-175.5	 0.001326175	 85.7	 0.978331605	-57.8	
  451.8465625	 0.878372350	-23.2	 0.373491361	-175.4	 0.001235426	 90.5	 0.978319983	-58.4	
  457.1588750	 0.877113767	-23.4	 0.369833041	-175.4	 0.001119757	 83.5	 0.977684071	-59.0	
  462.4711875	 0.875939156	-23.6	 0.366649163	-175.2	 0.001398855	 88.9	 0.977203751	-59.6	
  467.7835000	 0.873965855	-23.9	 0.363281543	-175.1	 0.001387519	 78.4	 0.977301506	-60.3	
  473.0958125	 0.873064985	-24.1	 0.360362730	-174.9	 0.001187474	 81.7	 0.976823094	-60.9	
  478.4081250	 0.871910564	-24.4	 0.357085667	-174.7	 0.001378377	 82.7	 0.976271722	-61.5	
  483.7204375	 0.870689587	-24.6	 0.353975828	-174.3	 0.001317047	 86.1	 0.976436814	-62.1	
  489.0327500	 0.869100755	-24.9	 0.350648181	-174.1	 0.001203555	 80.7	 0.976001727	-62.8	
  494.3450625	 0.868082010	-25.1	 0.348187247	-173.8	 0.001199662	 86.3	 0.975607623	-63.4	
  499.6573750	 0.866893063	-25.4	 0.344941826	-173.4	 0.001184886	 79.7	 0.975939282	-63.9	
  504.9696875	 0.865616769	-25.6	 0.342265256	-173.0	 0.001445983	 80.2	 0.974463622	-64.6	
  510.2820000	 0.864696549	-25.8	 0.339203350	-172.6	 0.001486500	 80.9	 0.974786014	-65.2	
  515.5943125	 0.863841594	-26.1	 0.336369553	-172.1	 0.001273115	 83.6	 0.974458424	-65.8	
  520.9066250	 0.861962367	-26.3	 0.334026440	-171.6	 0.001388514	 84.0	 0.974343245	-66.4	
  526.2189375	 0.860698207	-26.5	 0.331719067	-171.0	 0.001452397	 84.6	 0.974217543	-67.0	
  531.5312500	 0.860161480	-26.8	 0.329680950	-170.5	 0.001436412	 83.0	 0.973266236	-67.6	
  536.8435625	 0.858326493	-27.1	 0.327116872	-169.9	 0.001540420	 76.1	 0.973926080	-68.2	
  542.1558750	 0.857204818	-27.4	 0.325699746	-169.3	 0.001540638	 78.8	 0.973421927	-68.8	
  547.4681875	 0.856056480	-27.6	 0.323915919	-168.6	 0.001641076	 80.4	 0.973024942	-69.4	
  552.7805000	 0.854514167	-27.8	 0.322069012	-168.0	 0.001301520	 73.6	 0.972430166	-70.0	
  558.0928125	 0.853046126	-28.0	 0.320204871	-167.2	 0.001413689	 86.8	 0.971860955	-70.6	
  563.4051250	 0.852409480	-28.3	 0.318627522	-166.4	 0.001469179	 81.0	 0.971889748	-71.2	
  568.7174375	 0.851065067	-28.5	 0.317549308	-165.7	 0.001315863	 77.7	 0.972046393	-71.8	
  574.0297500	 0.849386125	-28.7	 0.316718019	-164.8	 0.001334467	 77.5	 0.971789977	-72.4	
  579.3420625	 0.848365177	-29.0	 0.315981535	-163.9	 0.001466303	 77.4	 0.971509785	-73.0	
  584.6543750	 0.846245896	-29.2	 0.315338081	-163.2	 0.001609287	 76.1	 0.971333448	-73.6	
  589.9666875	 0.845269890	-29.5	 0.314957223	-162.3	 0.001588028	 75.3	 0.971322233	-74.2	
  595.2790000	 0.844074062	-29.7	 0.315130213	-161.4	 0.001596411	 69.9	 0.970785711	-74.8	
  600.5913125	 0.842568575	-29.9	 0.314598383	-160.4	 0.001637604	 74.8	 0.970905057	-75.4	
  605.9036250	 0.841319450	-30.2	 0.315587184	-159.6	 0.001745478	 76.1	 0.970127496	-76.0	
  611.2159375	 0.840411651	-30.4	 0.316491614	-158.6	 0.001509238	 70.3	 0.969994299	-76.5	
  616.5282500	 0.838606728	-30.6	 0.316968699	-157.7	 0.001736972	 77.2	 0.970149800	-77.1	
  621.8405625	 0.836998426	-30.8	 0.318074244	-156.7	 0.001760194	 74.4	 0.969271467	-77.7	
  627.1528750	 0.835976905	-31.0	 0.319545786	-155.9	 0.001630613	 69.1	 0.969511886	-78.3	
  632.4651875	 0.834991783	-31.3	 0.320649704	-154.8	 0.001779430	 72.5	 0.968798598	-78.9	
  637.7775000	 0.833987438	-31.5	 0.323400369	-153.9	 0.001615884	 86.2	 0.968511255	-79.5	
  643.0898125	 0.832489281	-31.8	 0.325513751	-152.9	 0.001608748	 73.9	 0.967933155	-80.0	
  648.4021250	 0.831233512	-32.0	 0.328918965	-151.9	 0.001608846	 70.1	 0.967368144	-80.6	
  653.7144375	 0.829816674	-32.2	 0.331484449	-151.1	 0.001426351	 73.9	 0.967084649	-81.2	
  659.0267500	 0.828604652	-32.4	 0.334354618	-150.2	 0.001779868	 73.6	 0.966515216	-81.8	
  664.3390625	 0.827726019	-32.7	 0.336962343	-149.4	 0.001693523	 77.3	 0.966649784	-82.4	
  669.6513750	 0.825184565	-32.9	 0.340279511	-148.5	 0.001795175	 74.7	 0.965954538	-82.9	
  674.9636875	 0.823662385	-33.1	 0.344945599	-147.6	 0.001869907	 69.7	 0.965906459	-83.5	
  680.2760000	 0.822819782	-33.3	 0.348845970	-146.8	 0.001738850	 74.9	 0.965438189	-84.1	
  685.5883125	 0.820964306	-33.6	 0.352259553	-146.0	 0.001730863	 70.0	 0.964733664	-84.6	
  690.9006250	 0.819886100	-33.8	 0.356960714	-145.2	 0.001600279	 72.0	 0.964942844	-85.2	
  696.2129375	 0.819282295	-34.0	 0.362347021	-144.5	 0.001688120	 64.2	 0.964461318	-85.8	
  701.5252500	 0.817715310	-34.4	 0.366990589	-143.9	 0.001335110	 70.1	 0.964549899	-86.3	
  706.8375625	 0.816341796	-34.5	 0.373234836	-143.1	 0.001825929	 69.2	 0.963592417	-86.9	
  712.1498750	 0.815508567	-34.7	 0.378356217	-142.4	 0.001623567	 64.7	 0.963294578	-87.5	
  717.4621875	 0.813105561	-34.9	 0.383063848	-141.6	 0.001800794	 67.6	 0.962543144	-88.1	
  722.7745000	 0.812300399	-35.2	 0.389260143	-141.0	 0.002038108	 72.9	 0.962456311	-88.6	
  728.0868125	 0.811103163	-35.5	 0.395623960	-140.5	 0.002068153	 71.0	 0.962765811	-89.1	
  733.3991250	 0.810216908	-35.7	 0.401591474	-139.8	 0.001930017	 61.4	 0.961974505	-89.7	
  738.7114375	 0.809052150	-35.9	 0.408220686	-139.3	 0.001705760	 73.4	 0.961624485	-90.3	
  744.0237500	 0.807163536	-36.1	 0.415489984	-138.8	 0.001730636	 68.9	 0.962020623	-90.8	
  749.3360625	 0.806531426	-36.4	 0.422057289	-138.3	 0.001781975	 66.4	 0.961790237	-91.4	
  754.6483750	 0.804641428	-36.6	 0.429787038	-137.9	 0.001783177	 72.9	 0.960856174	-91.9	
  759.9606875	 0.803262948	-36.8	 0.437414905	-137.5	 0.001949840	 68.0	 0.959913198	-92.5	
  765.2730000	 0.802401744	-37.0	 0.444840252	-137.2	 0.001450293	 66.4	 0.960394934	-93.0	
  770.5853125	 0.801106822	-37.2	 0.452524849	-136.8	 0.001571579	 69.6	 0.959659041	-93.5	
  775.8976250	 0.798440376	-37.4	 0.459364211	-136.5	 0.001689597	 73.5	 0.960727998	-94.1	
  781.2099375	 0.797443733	-37.7	 0.467052965	-136.1	 0.001814703	 71.0	 0.958626185	-94.6	
  786.5222500	 0.796752595	-37.8	 0.474999379	-135.9	 0.001866510	 65.3	 0.958615473	-95.2	
  791.8345625	 0.795347706	-38.1	 0.483352903	-135.6	 0.001956229	 64.7	 0.958142945	-95.8	
  797.1468750	 0.794115887	-38.2	 0.492848873	-135.2	 0.001941967	 62.2	 0.958271684	-96.3	
  802.4591875	 0.792365865	-38.5	 0.501075031	-135.0	 0.001636267	 67.4	 0.958145582	-96.8	
  807.7715000	 0.791073459	-38.8	 0.511425327	-134.8	 0.001875588	 63.5	 0.957715450	-97.4	
  813.0838125	 0.790842862	-38.9	 0.519758512	-134.6	 0.001593606	 60.1	 0.957711060	-97.9	
  818.3961250	 0.787718291	-39.1	 0.528835926	-134.5	 0.001621103	 68.3	 0.956510686	-98.5	
  823.7084375	 0.786770222	-39.3	 0.537867706	-134.4	 0.001796760	 60.3	 0.956204956	-99.0	
  829.0207500	 0.785882187	-39.6	 0.547015504	-134.2	 0.001951998	 59.6	 0.956100570	-99.5	
  834.3330625	 0.784449615	-39.8	 0.556094807	-134.0	 0.001935295	 67.2	 0.955870149	-100.1	
  839.6453750	 0.783418480	-39.9	 0.565482789	-133.9	 0.001799617	 67.0	 0.955380563	-100.6	
  844.9576875	 0.782329181	-40.2	 0.575974909	-133.9	 0.002122347	 65.7	 0.954369450	-101.1	
  850.2700000	 0.780369999	-40.4	 0.586018365	-133.7	 0.002137028	 67.7	 0.953943401	-101.7	
  855.5823125	 0.779517197	-40.7	 0.597469157	-133.7	 0.001808809	 62.7	 0.953622108	-102.2	
  860.8946250	 0.777911337	-40.8	 0.607292392	-133.6	 0.001923042	 70.5	 0.953892571	-102.7	
  866.2069375	 0.776383953	-41.1	 0.617832253	-133.6	 0.001839275	 58.1	 0.953497980	-103.3	
  871.5192500	 0.774970134	-41.3	 0.628692248	-133.7	 0.001707626	 64.2	 0.953422755	-103.8	
  876.8315625	 0.773711774	-41.5	 0.639281826	-133.8	 0.001896027	 68.2	 0.952454123	-104.3	
  882.1438750	 0.772915214	-41.7	 0.649274106	-133.9	 0.001825992	 64.9	 0.952252416	-104.9	
  887.4561875	 0.771478625	-41.9	 0.660483883	-133.9	 0.002056151	 65.3	 0.952030006	-105.4	
  892.7685000	 0.769554948	-42.1	 0.671254529	-133.9	 0.001997305	 62.6	 0.951241827	-105.9	
  898.0808125	 0.769373968	-42.3	 0.682056521	-134.0	 0.002006420	 70.6	 0.950736463	-106.5	
  903.3931250	 0.767201982	-42.5	 0.693387689	-134.0	 0.001996170	 58.5	 0.950208101	-107.0	
  908.7054375	 0.766270455	-42.8	 0.705757783	-134.0	 0.001906130	 60.2	 0.949852479	-107.5	
  914.0177500	 0.764796226	-43.0	 0.718974793	-134.1	 0.001713098	 62.2	 0.949640360	-108.1	
  919.3300625	 0.763443049	-43.2	 0.731524192	-134.2	 0.001896842	 61.8	 0.949172895	-108.6	
  924.6423750	 0.762463798	-43.4	 0.741891322	-134.5	 0.001937485	 59.9	 0.948931283	-109.2	
  929.9546875	 0.760808292	-43.6	 0.753223585	-134.7	 0.002120966	 65.4	 0.948007915	-109.6	
  935.2670000	 0.758955525	-43.8	 0.764916146	-134.9	 0.001912700	 63.0	 0.948216296	-110.2	
  940.5793125	 0.758291448	-43.9	 0.777662208	-135.1	 0.002135680	 64.1	 0.948155731	-110.8	
  945.8916250	 0.757039336	-44.3	 0.790068951	-135.3	 0.001673038	 62.0	 0.946876057	-111.3	
  951.2039375	 0.755762455	-44.4	 0.801728828	-135.4	 0.001967761	 65.7	 0.946534131	-111.8	
  956.5162500	 0.753978041	-44.7	 0.816630285	-135.5	 0.002075145	 64.5	 0.945630838	-112.3	
  961.8285625	 0.753018833	-44.8	 0.828372110	-135.7	 0.001879640	 67.0	 0.945354431	-112.9	
  967.1408750	 0.751957854	-45.0	 0.840781397	-136.0	 0.001794991	 64.3	 0.945035975	-113.4	
  972.4531875	 0.750511426	-45.2	 0.854344178	-136.1	 0.001993900	 57.8	 0.944647980	-113.9	
  977.7655000	 0.749510426	-45.4	 0.867047049	-136.4	 0.002089064	 65.1	 0.944154264	-114.5	
  983.0778125	 0.748046110	-45.6	 0.880617223	-136.6	 0.001849185	 61.1	 0.943683845	-115.0	
  988.3901250	 0.747100959	-45.9	 0.894448187	-136.8	 0.001811041	 58.4	 0.943837530	-115.6	
  993.7024375	 0.745238355	-46.1	 0.907884437	-137.0	 0.002052376	 59.7	 0.942679049	-116.1	
  999.0147500	 0.743912380	-46.2	 0.921419000	-137.4	 0.002211785	 62.0	 0.942176752	-116.6	
 1004.3270625	 0.743319856	-46.5	 0.935173253	-137.6	 0.001829266	 62.7	 0.941632797	-117.1	
 1009.6393750	 0.742078839	-46.7	 0.949982413	-137.9	 0.002074479	 63.0	 0.941256041	-117.7	
 1014.9516875	 0.741262973	-46.9	 0.963387133	-138.1	 0.001921655	 63.4	 0.940846077	-118.2	
 1020.2640000	 0.738879785	-47.1	 0.978609613	-138.4	 0.002107874	 61.4	 0.940236487	-118.7	
 1025.5763125	 0.738859556	-47.3	 0.993562562	-138.7	 0.001821131	 64.5	 0.939779805	-119.3	
 1030.8886250	 0.737202030	-47.4	 1.008275329	-139.0	 0.001754459	 66.4	 0.938945690	-119.8	
 1036.2009375	 0.735811445	-47.7	 1.022208071	-139.2	 0.001880855	 57.4	 0.938288660	-120.4	
 1041.5132500	 0.735021458	-47.9	 1.036982089	-139.6	 0.001836820	 59.1	 0.938275959	-120.9	
 1046.8255625	 0.732802246	-48.0	 1.051313235	-139.8	 0.001816090	 62.1	 0.936840616	-121.4	
 1052.1378750	 0.732267197	-48.3	 1.067490558	-140.2	 0.001852969	 64.5	 0.937015700	-121.9	
 1057.4501875	 0.731613691	-48.5	 1.082215098	-140.4	 0.001970019	 64.5	 0.935998063	-122.5	
 1062.7625000	 0.730065937	-48.7	 1.098113038	-140.9	 0.002074443	 63.0	 0.935292822	-123.0	
 1068.0748125	 0.728866636	-48.8	 1.113218712	-141.2	 0.001899469	 64.8	 0.935131296	-123.6	
 1073.3871250	 0.727384854	-49.0	 1.128949285	-141.5	 0.001908804	 65.2	 0.934248060	-124.1	
 1078.6994375	 0.726470869	-49.2	 1.145452337	-141.9	 0.002169014	 62.9	 0.933653852	-124.7	
 1084.0117500	 0.724839687	-49.4	 1.161491382	-142.2	 0.001708150	 63.2	 0.932634073	-125.2	
 1089.3240625	 0.723749297	-49.6	 1.176929482	-142.5	 0.001747335	 67.8	 0.932360533	-125.8	
 1094.6363750	 0.722253370	-49.8	 1.195387209	-142.8	 0.002078311	 63.5	 0.931066555	-126.3	
 1099.9486875	 0.721996633	-50.0	 1.211196669	-143.2	 0.002041898	 59.8	 0.931145527	-126.9	
 1105.2610000	 0.720186786	-50.2	 1.228281203	-143.6	 0.002133541	 64.3	 0.930086834	-127.5	
 1110.5733125	 0.719140947	-50.4	 1.245967233	-143.9	 0.001853971	 74.9	 0.929822469	-128.0	
 1115.8856250	 0.718156270	-50.6	 1.263034073	-144.3	 0.001927460	 62.2	 0.928543837	-128.6	
 1121.1979375	 0.717062629	-50.7	 1.281806989	-144.7	 0.001884429	 68.2	 0.928418389	-129.1	
 1126.5102500	 0.715469845	-50.9	 1.297388019	-145.1	 0.001858152	 66.5	 0.926270345	-129.7	
 1131.8225625	 0.714889829	-51.1	 1.316456812	-145.5	 0.002012839	 65.3	 0.926474322	-130.3	
 1137.1348750	 0.713823428	-51.3	 1.333947175	-145.8	 0.001924120	 67.1	 0.925136010	-130.8	
 1142.4471875	 0.712856413	-51.5	 1.351191242	-146.2	 0.001903047	 69.1	 0.924738533	-131.4	
 1147.7595000	 0.711947387	-51.6	 1.370188640	-146.6	 0.001985865	 63.7	 0.923676499	-132.0	
 1153.0718125	 0.709929333	-51.8	 1.389189796	-146.9	 0.001795409	 67.1	 0.923425984	-132.6	
 1158.3841250	 0.709616539	-52.0	 1.410239603	-147.4	 0.001878305	 70.4	 0.922684814	-133.2	
 1163.6964375	 0.708118724	-52.2	 1.426444374	-147.8	 0.001925183	 63.2	 0.921714011	-133.7	
 1169.0087500	 0.706770656	-52.4	 1.447132300	-148.2	 0.001868143	 71.4	 0.920184057	-134.3	
 1174.3210625	 0.705872757	-52.6	 1.464505665	-148.5	 0.001769226	 67.8	 0.919803286	-134.9	
 1179.6333750	 0.704534154	-52.7	 1.483925307	-149.1	 0.001851540	 70.6	 0.918408875	-135.5	
 1184.9456875	 0.703490671	-52.9	 1.505404680	-149.5	 0.001802770	 74.8	 0.918100779	-136.1	
 1190.2580000	 0.703229883	-53.1	 1.525147570	-150.0	 0.001834088	 65.8	 0.916623550	-136.7	
 1195.5703125	 0.700791108	-53.3	 1.547082112	-150.4	 0.001894419	 67.0	 0.916149785	-137.3	
 1200.8826250	 0.700116132	-53.5	 1.566316927	-150.8	 0.001872357	 71.4	 0.915102938	-137.8	
 1206.1949375	 0.699048707	-53.7	 1.588105349	-151.2	 0.001879590	 74.0	 0.913780221	-138.5	
 1211.5072500	 0.697944062	-53.9	 1.606722981	-151.6	 0.002102448	 72.8	 0.913161064	-139.1	
 1216.8195625	 0.697009216	-54.0	 1.631287330	-152.1	 0.001896462	 71.9	 0.911778465	-139.7	
 1222.1318750	 0.695748770	-54.3	 1.650109376	-152.6	 0.001726828	 72.6	 0.910984517	-140.3	
 1227.4441875	 0.694865929	-54.5	 1.673441482	-153.0	 0.001842476	 82.7	 0.910152230	-140.9	
 1232.7565000	 0.693097057	-54.7	 1.697329433	-153.4	 0.001844241	 78.5	 0.908805904	-141.5	
 1238.0688125	 0.692672315	-54.8	 1.718728200	-153.9	 0.001975888	 71.6	 0.907777036	-142.1	
 1243.3811250	 0.691869863	-55.0	 1.740080614	-154.4	 0.001957189	 79.0	 0.906358377	-142.8	
 1248.6934375	 0.690453696	-55.1	 1.764754385	-154.9	 0.001799751	 78.1	 0.905160096	-143.4	
 1254.0057500	 0.689533555	-55.4	 1.785376557	-155.3	 0.001744332	 79.5	 0.903460109	-144.0	
 1259.3180625	 0.688578307	-55.6	 1.810094134	-155.8	 0.001796712	 79.0	 0.903042902	-144.6	
 1264.6303750	 0.687051546	-55.8	 1.834533287	-156.2	 0.001832853	 77.9	 0.902379170	-145.2	
 1269.9426875	 0.686550771	-55.9	 1.858508922	-156.8	 0.001967732	 81.3	 0.900086274	-145.9	
 1275.2550000	 0.685686421	-56.1	 1.881419807	-157.3	 0.001898451	 81.4	 0.898808027	-146.6	
 1280.5673125	 0.684673736	-56.4	 1.905982643	-157.7	 0.001946751	 80.1	 0.897869054	-147.2	
 1285.8796250	 0.683452751	-56.5	 1.935096871	-158.3	 0.001819361	 76.8	 0.896624181	-147.9	
 1291.1919375	 0.682159384	-56.7	 1.958245533	-158.8	 0.002050114	 81.4	 0.895025623	-148.5	
 1296.5042500	 0.681546661	-56.9	 1.982609854	-159.4	 0.001921940	 83.1	 0.893664426	-149.2	
 1301.8165625	 0.680636052	-57.1	 2.010369012	-159.8	 0.001986994	 75.8	 0.892535292	-149.9	
 1307.1288750	 0.679314697	-57.3	 2.034281375	-160.3	 0.001904635	 82.4	 0.890531670	-150.5	
 1312.4411875	 0.678769504	-57.5	 2.061158031	-160.8	 0.002381767	 85.8	 0.889077444	-151.2	
 1317.7535000	 0.678088165	-57.7	 2.085327152	-161.4	 0.001964022	 82.6	 0.886991297	-151.9	
 1323.0658125	 0.676874525	-57.8	 2.116550468	-161.9	 0.001916140	 85.0	 0.886315082	-152.6	
 1328.3781250	 0.675697994	-58.0	 2.145218376	-162.5	 0.002300527	 85.8	 0.884379521	-153.3	
 1333.6904375	 0.674601686	-58.2	 2.173665177	-163.1	 0.002071412	 85.7	 0.882544952	-154.0	
 1339.0027500	 0.673244283	-58.4	 2.200101980	-163.6	 0.002113613	 89.3	 0.880798484	-154.8	
 1344.3150625	 0.672473818	-58.6	 2.229686943	-164.1	 0.002078074	 85.8	 0.878793511	-155.5	
 1349.6273750	 0.671154558	-58.8	 2.259271281	-164.7	 0.002204841	 84.7	 0.876853064	-156.2	
 1354.9396875	 0.670623770	-58.9	 2.286035391	-165.2	 0.002119211	 90.0	 0.875332677	-156.9	
 1360.2520000	 0.669952629	-59.1	 2.317847944	-165.8	 0.002220787	 91.1	 0.873743802	-157.6	
 1365.5643125	 0.668423910	-59.3	 2.346139335	-166.4	 0.002496453	 93.3	 0.871731290	-158.4	
 1370.8766250	 0.667617373	-59.5	 2.377261173	-166.9	 0.002256026	 94.6	 0.869353364	-159.1	
 1376.1889375	 0.666238577	-59.7	 2.407319250	-167.5	 0.002197824	 89.8	 0.867512967	-159.9	
 1381.5012500	 0.665762931	-59.9	 2.439359020	-168.1	 0.002165206	 88.6	 0.866044130	-160.6	
 1386.8135625	 0.665270709	-60.0	 2.473131153	-168.7	 0.002271124	 93.1	 0.864478308	-161.4	
 1392.1258750	 0.663599147	-60.2	 2.506008883	-169.3	 0.002286891	 98.6	 0.861129726	-162.2	
 1397.4381875	 0.662279154	-60.4	 2.536162892	-169.9	 0.002354930	 92.1	 0.859172896	-163.0	
 1402.7505000	 0.662079840	-60.6	 2.565974720	-170.5	 0.002293638	 96.2	 0.856773171	-163.8	
 1408.0628125	 0.660306383	-60.8	 2.601203531	-171.1	 0.002435306	 102.5	 0.854526542	-164.6	
 1413.3751250	 0.659848181	-61.0	 2.635851314	-171.7	 0.002451468	 90.8	 0.852395651	-165.4	
 1418.6874375	 0.658745616	-61.2	 2.669892921	-172.3	 0.002471615	 92.5	 0.849948021	-166.2	
 1423.9997500	 0.658500778	-61.3	 2.704397328	-173.0	 0.002829426	 89.5	 0.847633536	-167.0	
 1429.3120625	 0.657692790	-61.6	 2.738745948	-173.6	 0.002790636	 95.2	 0.844627141	-167.9	
 1434.6243750	 0.656577283	-61.8	 2.776688515	-174.3	 0.002651478	 96.2	 0.842441108	-168.8	
 1439.9366875	 0.655614387	-62.0	 2.810574762	-175.0	 0.002710804	 97.1	 0.839148323	-169.6	
 1445.2490000	 0.654168160	-62.1	 2.845504340	-175.6	 0.002791357	 98.1	 0.836385983	-170.4	
 1450.5613125	 0.653471202	-62.4	 2.885077757	-176.3	 0.002758735	 102.3	 0.833399409	-171.3	
 1455.8736250	 0.651840391	-62.6	 2.920886488	-176.9	 0.002759714	 98.0	 0.830867089	-172.2	
 1461.1859375	 0.651295359	-62.7	 2.959983317	-177.6	 0.002766814	 100.8	 0.827592029	-173.1	
 1466.4982500	 0.650562582	-62.9	 3.000616573	-178.2	 0.002742046	 99.8	 0.824935906	-174.1	
 1471.8105625	 0.649749983	-63.1	 3.039436890	-179.0	 0.002951879	 101.1	 0.821968497	-175.0	
 1477.1228750	 0.649121516	-63.3	 3.078363206	-179.7	 0.002868141	 98.7	 0.818067276	-175.9	
 1482.4351875	 0.648291898	-63.5	 3.114207889	 179.6	 0.003040033	 99.6	 0.814894199	-176.9	
 1487.7475000	 0.647272746	-63.7	 3.154447080	 178.8	 0.003350232	 103.1	 0.811199470	-177.8	
 1493.0598125	 0.647261091	-63.9	 3.193889760	 178.0	 0.003159962	 103.8	 0.807729141	-178.8	
 1498.3721250	 0.645567416	-64.1	 3.237969076	 177.4	 0.003389128	 101.2	 0.803775910	-179.8	
 1503.6844375	 0.644823582	-64.2	 3.276868925	 176.6	 0.003346468	 105.5	 0.800435306	 179.2	
 1508.9967500	 0.643505323	-64.5	 3.317997776	 175.8	 0.003472713	 102.6	 0.796985921	 178.1	
 1514.3090625	 0.643235805	-64.6	 3.363805308	 175.1	 0.003723634	 103.5	 0.792846062	 177.1	
 1519.6213750	 0.642469706	-64.8	 3.405876848	 174.3	 0.003456227	 103.0	 0.789003077	 176.1	
 1524.9336875	 0.641528435	-65.0	 3.447274920	 173.5	 0.003706194	 106.4	 0.784860612	 175.0	
 1530.2460000	 0.640957656	-65.2	 3.491664434	 172.8	 0.003787996	 104.3	 0.780539914	 173.9	
 1535.5583125	 0.639760767	-65.4	 3.537146953	 172.0	 0.003669923	 103.8	 0.776543720	 172.8	
 1540.8706250	 0.638694926	-65.5	 3.580300691	 171.2	 0.003761300	 103.1	 0.771874381	 171.8	
 1546.1829375	 0.637664805	-65.7	 3.627854063	 170.4	 0.003768862	 104.4	 0.766992992	 170.6	
 1551.4952500	 0.636536496	-65.9	 3.672902037	 169.5	 0.003979463	 103.4	 0.762974585	 169.5	
 1556.8075625	 0.636174740	-66.1	 3.722022659	 168.7	 0.003808498	 103.6	 0.758584810	 168.3	
 1562.1198750	 0.635410488	-66.2	 3.766331713	 167.9	 0.004077277	 102.6	 0.753429863	 167.1	
 1567.4321875	 0.634110431	-66.5	 3.814229955	 167.1	 0.003900162	 103.8	 0.748636647	 165.9	
 1572.7445000	 0.633469788	-66.6	 3.857901474	 166.2	 0.004096665	 101.1	 0.743253018	 164.7	
 1578.0568125	 0.632459590	-66.9	 3.902015546	 165.3	 0.004075440	 102.2	 0.737691240	 163.5	
 1583.3691250	 0.631559366	-67.1	 3.954595048	 164.4	 0.004462003	 101.7	 0.732500357	 162.2	
 1588.6814375	 0.630630567	-67.3	 4.003157076	 163.5	 0.004528935	 103.7	 0.727144650	 161.0	
 1593.9937500	 0.629388185	-67.5	 4.045133030	 162.6	 0.004662794	 100.9	 0.721552837	 159.6	
 1599.3060625	 0.629050353	-67.6	 4.096784343	 161.8	 0.004504108	 102.1	 0.715863157	 158.3	
 1604.6183750	 0.627904282	-67.8	 4.151413459	 160.8	 0.004847850	 100.3	 0.709588024	 157.0	
 1609.9306875	 0.626389122	-68.1	 4.194694102	 159.9	 0.004940837	 104.2	 0.703704228	 155.7	
 1615.2430000	 0.625831463	-68.2	 4.251482837	 159.0	 0.004767259	 107.4	 0.697790705	 154.3	
 1620.5553125	 0.624979050	-68.4	 4.296919724	 158.0	 0.004951782	 102.6	 0.691171278	 152.8	
 1625.8676250	 0.624541012	-68.6	 4.348574530	 157.1	 0.004956929	 102.4	 0.685059126	 151.4	
 1631.1799375	 0.623234018	-68.8	 4.396545991	 156.0	 0.005158603	 101.5	 0.678371402	 149.9	
 1636.4922500	 0.622630630	-69.0	 4.445318378	 155.0	 0.005466648	 101.4	 0.672165451	 148.5	
 1641.8045625	 0.621216104	-69.2	 4.492107349	 154.1	 0.005413763	 100.7	 0.665379854	 146.9	
 1647.1168750	 0.620271285	-69.5	 4.543979372	 153.2	 0.005648280	 101.6	 0.658377286	 145.4	
 1652.4291875	 0.619542459	-69.6	 4.598429178	 152.1	 0.005792520	 102.3	 0.651333755	 143.8	
 1657.7415000	 0.618402181	-69.8	 4.648276498	 151.2	 0.005767750	 98.2	 0.644224634	 142.2	
 1663.0538125	 0.617714560	-70.0	 4.693295337	 150.0	 0.005952509	 97.8	 0.637084130	 140.6	
 1668.3661250	 0.616306762	-70.2	 4.741052484	 149.1	 0.006011709	 101.0	 0.629161666	 138.9	
 1673.6784375	 0.615640843	-70.4	 4.796500964	 148.0	 0.005877358	 100.5	 0.622098771	 137.2	
 1678.9907500	 0.614333687	-70.6	 4.845205618	 146.9	 0.006190008	 99.3	 0.614424793	 135.5	
 1684.3030625	 0.614169957	-70.8	 4.891927036	 145.8	 0.006475029	 97.9	 0.606660619	 133.7	
 1689.6153750	 0.612295847	-71.0	 4.946962150	 144.8	 0.006358281	 97.0	 0.598136246	 131.9	
 1694.9276875	 0.612031767	-71.2	 4.996316485	 143.7	 0.006689069	 97.2	 0.590698498	 130.1	
 1700.2400000	 0.610914453	-71.3	 5.042621576	 142.6	 0.006570619	 97.5	 0.583020245	 128.2	
 1705.5523125	 0.609559093	-71.5	 5.086964675	 141.5	 0.006638975	 95.5	 0.574630511	 126.3	
 1710.8646250	 0.608010450	-71.7	 5.125859733	 140.4	 0.006966775	 94.3	 0.566564547	 124.3	
 1716.1769375	 0.607234730	-71.8	 5.179420855	 139.3	 0.006851584	 94.3	 0.558059753	 122.3	
 1721.4892500	 0.606629380	-72.1	 5.217372168	 138.1	 0.006894574	 93.9	 0.550046565	 120.2	
 1726.8015625	 0.605283435	-72.2	 5.263953579	 137.0	 0.007040552	 91.3	 0.541794553	 118.1	
 1732.1138750	 0.604176584	-72.4	 5.311602569	 135.9	 0.007079654	 94.6	 0.533253270	 116.0	
 1737.4261875	 0.604186849	-72.6	 5.352078358	 134.7	 0.007424399	 90.9	 0.524979982	 113.7	
 1742.7385000	 0.602304062	-72.7	 5.399184447	 133.5	 0.007323209	 93.2	 0.516894922	 111.5	
 1748.0508125	 0.601518845	-72.9	 5.444845021	 132.4	 0.007674468	 90.8	 0.508654533	 109.2	
 1753.3631250	 0.599820397	-73.1	 5.472410911	 131.3	 0.007924154	 93.2	 0.500362598	 106.9	
 1758.6754375	 0.599141824	-73.2	 5.514713219	 130.1	 0.007813052	 90.5	 0.492502019	 104.5	
 1763.9877500	 0.597509814	-73.4	 5.555818683	 128.9	 0.007942657	 88.2	 0.484269362	 102.1	
 1769.3000625	 0.596619835	-73.6	 5.591758978	 127.7	 0.007938149	 89.7	 0.476427485	 99.6	
 1774.6123750	 0.595431824	-73.8	 5.629215261	 126.5	 0.008020911	 89.7	 0.468729432	 97.1	
 1779.9246875	 0.595324098	-73.9	 5.668541476	 125.3	 0.008193468	 87.5	 0.460794692	 94.5	
 1785.2370000	 0.593895229	-74.1	 5.702347461	 124.1	 0.008559047	 85.7	 0.453275959	 91.9	
 1790.5493125	 0.592681197	-74.2	 5.737199794	 122.9	 0.008461641	 85.3	 0.446027084	 89.2	
 1795.8616250	 0.591419903	-74.3	 5.768936941	 121.7	 0.008507531	 84.9	 0.438926278	 86.4	
 1801.1739375	 0.590131964	-74.6	 5.796947614	 120.5	 0.008512192	 84.5	 0.431897852	 83.6	
 1806.4862500	 0.588986021	-74.7	 5.822954566	 119.4	 0.008868222	 82.7	 0.424855638	 80.9	
 1811.7985625	 0.588101884	-74.9	 5.853265121	 118.2	 0.008866418	 83.4	 0.418867801	 77.9	
 1817.1108750	 0.586816236	-75.0	 5.872663582	 116.9	 0.008746592	 82.5	 0.412407926	 74.9	
 1822.4231875	 0.585369982	-75.2	 5.896288295	 115.7	 0.009014416	 82.5	 0.406593296	 71.9	
 1827.7355000	 0.584625335	-75.4	 5.923746685	 114.5	 0.009051348	 82.0	 0.400771144	 68.9	
 1833.0478125	 0.583632296	-75.4	 5.955374344	 113.2	 0.009126618	 80.5	 0.395626510	 65.7	
 1838.3601250	 0.582511441	-75.6	 5.971059839	 112.0	 0.009184570	 79.0	 0.390882184	 62.6	
 1843.6724375	 0.581688407	-75.8	 5.986012765	 110.8	 0.009520352	 79.2	 0.386299148	 59.4	
 1848.9847500	 0.579845585	-75.9	 6.008059769	 109.6	 0.009431779	 77.4	 0.382081865	 56.2	
 1854.2970625	 0.578966428	-76.0	 6.022914872	 108.5	 0.009848482	 76.5	 0.378465002	 52.9	
 1859.6093750	 0.577813327	-76.2	 6.042579407	 107.3	 0.009648148	 75.4	 0.375069651	 49.7	
 1864.9216875	 0.576811378	-76.3	 6.047367333	 106.0	 0.009544643	 75.2	 0.372417018	 46.3	
 1870.2340000	 0.575365441	-76.5	 6.057099536	 104.8	 0.009826352	 73.1	 0.369914230	 43.0	
 1875.5463125	 0.574461483	-76.6	 6.069852863	 103.6	 0.009700229	 74.0	 0.368213374	 39.8	
 1880.8586250	 0.573941479	-76.7	 6.076252407	 102.4	 0.009887971	 73.2	 0.366284658	 36.4	
 1886.1709375	 0.572527922	-76.9	 6.084261789	 101.3	 0.010138646	 73.4	 0.365308512	 33.1	
 1891.4832500	 0.571444891	-77.0	 6.091656146	 100.1	 0.010039898	 72.2	 0.364662391	 29.8	
 1896.7955625	 0.570342882	-77.2	 6.091255843	 98.9	 0.010058038	 71.1	 0.364315718	 26.6	
 1902.1078750	 0.569709870	-77.2	 6.095236847	 97.8	 0.010119540	 70.6	 0.364147324	 23.4	
 1907.4201875	 0.568875235	-77.4	 6.102505661	 96.6	 0.010422649	 69.0	 0.365107246	 20.2	
 1912.7325000	 0.567450589	-77.5	 6.100894166	 95.5	 0.010520254	 69.0	 0.366196266	 17.0	
 1918.0448125	 0.566673435	-77.6	 6.100686647	 94.3	 0.010379109	 68.1	 0.367257589	 14.0	
 1923.3571250	 0.565893816	-77.7	 6.097042484	 93.3	 0.010432075	 67.7	 0.368702295	 10.9	
 1928.6694375	 0.565721747	-77.8	 6.097566904	 92.1	 0.010551997	 65.8	 0.370883382	  7.9	
 1933.9817500	 0.564249852	-77.9	 6.096310395	 91.0	 0.010587250	 65.1	 0.373007096	  4.9	
 1939.2940625	 0.563311888	-78.1	 6.088705657	 89.9	 0.010655550	 63.5	 0.375615206	  2.0	
 1944.6063750	 0.562018390	-78.2	 6.089635130	 88.8	 0.010747089	 63.5	 0.378388234	 -0.8	
 1949.9186875	 0.561257856	-78.3	 6.080686270	 87.8	 0.010788345	 63.4	 0.381327011	 -3.6	
 1955.2310000	 0.560051631	-78.3	 6.076076628	 86.7	 0.010904870	 62.6	 0.384318819	 -6.3	
 1960.5433125	 0.559681749	-78.5	 6.066832656	 85.6	 0.010814566	 62.1	 0.387802950	 -9.0	
 1965.8556250	 0.559231717	-78.6	 6.053036592	 84.5	 0.010910050	 61.0	 0.390897483	-11.6	
 1971.1679375	 0.558360990	-78.6	 6.050175105	 83.4	 0.010954744	 61.3	 0.394678398	-14.2	
 1976.4802500	 0.557731735	-78.8	 6.032611828	 82.4	 0.011057385	 58.7	 0.398280998	-16.6	
 1981.7925625	 0.556364285	-78.9	 6.026636652	 81.3	 0.010985446	 59.7	 0.402116432	-19.0	
 1987.1048750	 0.555742427	-79.0	 6.013849999	 80.3	 0.011024611	 58.3	 0.406131692	-21.4	
 1992.4171875	 0.555214726	-79.1	 6.002526598	 79.3	 0.011273565	 58.1	 0.409950215	-23.7	
 1997.7295000	 0.555065766	-79.2	 5.992338022	 78.2	 0.011024898	 56.9	 0.413995400	-26.0	
 2003.0418125	 0.553260540	-79.3	 5.977550566	 77.3	 0.011335919	 56.6	 0.418091799	-28.2	
 2008.3541250	 0.553394750	-79.4	 5.968022155	 76.2	 0.011402392	 56.7	 0.421953218	-30.4	
 2013.6664375	 0.551971219	-79.5	 5.953941332	 75.3	 0.011219061	 55.9	 0.426077985	-32.5	
 2018.9787500	 0.551883955	-79.6	 5.944348605	 74.3	 0.011455922	 55.7	 0.430440762	-34.5	
 2024.2910625	 0.550480550	-79.7	 5.932591745	 73.3	 0.011516090	 54.6	 0.434480733	-36.5	
 2029.6033750	 0.550440278	-79.9	 5.916514187	 72.3	 0.011349478	 54.1	 0.438888774	-38.5	
 2034.9156875	 0.549275613	-79.9	 5.905638777	 71.4	 0.011613510	 54.2	 0.442697931	-40.4	
 2040.2280000	 0.548933810	-80.1	 5.882885642	 70.4	 0.011515674	 52.4	 0.446671375	-42.3	
 2045.5403125	 0.548368818	-80.2	 5.872497154	 69.6	 0.011832293	 50.7	 0.450430603	-44.1	
 2050.8526250	 0.547643913	-80.4	 5.859019126	 68.6	 0.011580909	 51.5	 0.454350263	-45.9	
 2056.1649375	 0.547352809	-80.5	 5.840950880	 67.7	 0.011744976	 52.2	 0.458012515	-47.6	
 2061.4772500	 0.546908965	-80.6	 5.833456497	 66.8	 0.011830232	 51.3	 0.462366739	-49.3	
 2066.7895625	 0.546059226	-80.6	 5.811122983	 65.9	 0.011674849	 51.2	 0.465780074	-51.1	
 2072.1018750	 0.545403996	-80.7	 5.804139060	 65.0	 0.011615069	 48.2	 0.469226671	-52.6	
 2077.4141875	 0.545177392	-80.9	 5.786255786	 64.1	 0.011824861	 48.4	 0.472887236	-54.2	
 2082.7265000	 0.543909867	-81.0	 5.765867866	 63.2	 0.011695094	 46.7	 0.476541235	-55.8	
 2088.0388125	 0.543509208	-81.1	 5.750418260	 62.3	 0.011980822	 48.0	 0.480335787	-57.4	
 2093.3511250	 0.543627009	-81.3	 5.737482312	 61.4	 0.011885973	 46.4	 0.483431651	-58.9	
 2098.6634375	 0.542729806	-81.4	 5.728872477	 60.6	 0.011813854	 46.7	 0.486675759	-60.4	
 2103.9757500	 0.542590729	-81.4	 5.708180509	 59.7	 0.012121839	 45.9	 0.489841112	-61.9	
 2109.2880625	 0.542256006	-81.5	 5.694559066	 58.9	 0.011819991	 45.2	 0.493402645	-63.3	
 2114.6003750	 0.542016205	-81.7	 5.679446898	 58.0	 0.011985662	 45.0	 0.495762623	-64.7	
 2119.9126875	 0.541817669	-81.7	 5.663978545	 57.2	 0.011853665	 45.2	 0.498816127	-66.1	
 2125.2250000	 0.541266568	-81.9	 5.643011811	 56.3	 0.012174800	 43.2	 0.501876679	-67.4	
 2130.5373125	 0.541004789	-81.9	 5.634398297	 55.5	 0.012007908	 44.3	 0.505186232	-68.7	
 2135.8496250	 0.540522549	-82.1	 5.615729901	 54.7	 0.012005838	 43.4	 0.507251320	-70.1	
 2141.1619375	 0.540583902	-82.2	 5.606853114	 53.9	 0.012178913	 42.8	 0.509978227	-71.4	
 2146.4742500	 0.539774323	-82.2	 5.599341804	 53.0	 0.012059868	 42.3	 0.512132103	-72.6	
 2151.7865625	 0.539194063	-82.3	 5.582571565	 52.3	 0.012293251	 41.0	 0.514282421	-73.8	
 2157.0988750	 0.539288958	-82.4	 5.568924437	 51.5	 0.012281387	 41.3	 0.516484978	-75.1	
 2162.4111875	 0.538388631	-82.5	 5.555117157	 50.7	 0.012105892	 39.7	 0.518607052	-76.3	
 2167.7235000	 0.538722522	-82.6	 5.546335351	 49.9	 0.012290431	 40.9	 0.520701072	-77.6	
 2173.0358125	 0.538296807	-82.7	 5.535068940	 49.1	 0.012291968	 39.4	 0.522264354	-78.7	
 2178.3481250	 0.538040353	-82.8	 5.523597201	 48.3	 0.012416097	 39.0	 0.523994725	-79.9	
 2183.6604375	 0.537458348	-82.9	 5.510872368	 47.6	 0.012336004	 39.3	 0.525915690	-81.0	
 2188.9727500	 0.537089759	-83.0	 5.501341458	 46.8	 0.012316290	 38.4	 0.526683626	-82.2	
 2194.2850625	 0.536714677	-83.1	 5.487830079	 46.0	 0.012424041	 38.1	 0.528583280	-83.4	
 2199.5973750	 0.536127104	-83.3	 5.473360718	 45.3	 0.012390718	 36.9	 0.529910729	-84.4	
 2204.9096875	 0.536131669	-83.3	 5.473132477	 44.5	 0.012665002	 37.7	 0.530954136	-85.5	
 2210.2220000	 0.535599453	-83.5	 5.455408656	 43.8	 0.012147547	 36.6	 0.532147616	-86.7	
 2215.5343125	 0.535222997	-83.6	 5.452595303	 43.0	 0.012462084	 36.4	 0.533418952	-87.8	
 2220.8466250	 0.534771013	-83.7	 5.439493397	 42.3	 0.012681162	 34.8	 0.533999972	-88.8	
 2226.1589375	 0.534139820	-83.8	 5.435409495	 41.5	 0.012703206	 36.0	 0.534673063	-89.9	
 2231.4712500	 0.534013533	-84.0	 5.424650699	 40.7	 0.012925466	 34.9	 0.535424955	-91.0	
 2236.7835625	 0.533315172	-84.1	 5.418985613	 39.9	 0.012830330	 33.7	 0.536140565	-92.1	
 2242.0958750	 0.533353199	-84.3	 5.412175182	 39.2	 0.012649180	 33.6	 0.536466666	-93.1	
 2247.4081875	 0.533227831	-84.3	 5.401632393	 38.4	 0.012761477	 32.8	 0.536629313	-94.2	
 2252.7205000	 0.532844340	-84.5	 5.396766607	 37.7	 0.012865825	 33.1	 0.536679226	-95.3	
 2258.0328125	 0.532454310	-84.6	 5.385175433	 36.9	 0.012840041	 32.9	 0.537440112	-96.3	
 2263.3451250	 0.532107194	-84.7	 5.380686364	 36.3	 0.012990685	 32.8	 0.537194610	-97.2	
 2268.6574375	 0.531694251	-84.8	 5.372368295	 35.5	 0.012987991	 31.8	 0.536881915	-98.3	
 2273.9697500	 0.531358231	-85.0	 5.365894512	 34.8	 0.013137725	 31.1	 0.537007379	-99.3	
 2279.2820625	 0.531686146	-85.1	 5.366307688	 34.0	 0.012746092	 30.9	 0.536158117	-100.3	
 2284.5943750	 0.532118009	-85.2	 5.352361164	 33.2	 0.012886366	 30.6	 0.535837992	-101.3	
 2289.9066875	 0.531398560	-85.3	 5.350490295	 32.5	 0.013241839	 29.4	 0.535794151	-102.4	
 2295.2190000	 0.531561213	-85.4	 5.344823038	 31.8	 0.013210514	 29.3	 0.534887847	-103.3	
 2300.5313125	 0.530887269	-85.6	 5.339101735	 31.0	 0.013075371	 28.7	 0.534028780	-104.3	
 2305.8436250	 0.530683953	-85.6	 5.340996055	 30.4	 0.013456444	 28.6	 0.533031809	-105.3	
 2311.1559375	 0.530369329	-85.8	 5.333698268	 29.6	 0.012964680	 28.5	 0.531973104	-106.3	
 2316.4682500	 0.529973531	-85.9	 5.331534900	 28.8	 0.013421506	 28.0	 0.530741895	-107.2	
 2321.7805625	 0.529772760	-86.1	 5.333423534	 28.1	 0.013489667	 27.4	 0.529436542	-108.3	
 2327.0928750	 0.530037599	-86.1	 5.326203089	 27.3	 0.013424100	 26.9	 0.528353248	-109.3	
 2332.4051875	 0.529644480	-86.3	 5.323014816	 26.5	 0.013530457	 26.0	 0.526762716	-110.3	
 2337.7175000	 0.528758616	-86.4	 5.321526400	 25.8	 0.013499455	 25.8	 0.524884260	-111.3	
 2343.0298125	 0.528698861	-86.6	 5.321350220	 25.0	 0.013695351	 26.5	 0.523079753	-112.3	
 2348.3421250	 0.528443007	-86.7	 5.313536784	 24.3	 0.013779603	 24.6	 0.521101986	-113.3	
 2353.6544375	 0.528448298	-86.8	 5.324287484	 23.7	 0.013649166	 24.0	 0.518915023	-114.3	
 2358.9667500	 0.528262537	-86.9	 5.317649226	 22.8	 0.013962014	 23.0	 0.516509336	-115.2	
 2364.2790625	 0.528015864	-87.0	 5.320764689	 22.1	 0.013769619	 23.5	 0.514289408	-116.3	
 2369.5913750	 0.527205596	-87.1	 5.317289530	 21.3	 0.013976235	 22.7	 0.511922090	-117.2	
 2374.9036875	 0.526798467	-87.2	 5.320648126	 20.5	 0.013978986	 23.1	 0.508907449	-118.3	
 2380.2160000	 0.526892546	-87.4	 5.324619000	 19.8	 0.014102853	 22.1	 0.506393395	-119.3	
 2385.5283125	 0.526612116	-87.5	 5.323081407	 19.0	 0.014084153	 21.4	 0.503155141	-120.4	
 2390.8406250	 0.526732829	-87.7	 5.329731750	 18.1	 0.014112256	 20.9	 0.500078469	-121.4	
 2396.1529375	 0.525703178	-87.8	 5.328887536	 17.4	 0.014237861	 20.1	 0.497332372	-122.4	
 2401.4652500	 0.525329086	-87.9	 5.324090587	 16.6	 0.014203204	 20.4	 0.493664056	-123.5	
 2406.7775625	 0.525488488	-88.1	 5.331404176	 15.9	 0.014356016	 19.6	 0.490119984	-124.6	
 2412.0898750	 0.524751476	-88.3	 5.330978111	 15.0	 0.014371983	 18.8	 0.486573279	-125.6	
 2417.4021875	 0.524382569	-88.4	 5.341658666	 14.2	 0.014528502	 19.8	 0.482586375	-126.7	
 2422.7145000	 0.523988878	-88.6	 5.338521467	 13.4	 0.014574016	 18.3	 0.478534938	-127.9	
 2428.0268125	 0.523565544	-88.8	 5.339139086	 12.6	 0.014644864	 17.5	 0.474650986	-128.9	
 2433.3391250	 0.523544075	-88.9	 5.348404690	 11.8	 0.014570567	 17.1	 0.470308551	-130.0	
 2438.6514375	 0.523182281	-89.1	 5.352602778	 11.0	 0.014814190	 17.3	 0.465915247	-131.2	
 2443.9637500	 0.522493511	-89.2	 5.355871510	 10.1	 0.014938118	 16.2	 0.461432069	-132.3	
 2449.2760625	 0.522020777	-89.3	 5.363263218	  9.3	 0.014896751	 15.9	 0.456657386	-133.4	
 2454.5883750	 0.521961106	-89.5	 5.368937620	  8.5	 0.015297520	 15.3	 0.451758819	-134.6	
 2459.9006875	 0.521832225	-89.7	 5.370494851	  7.6	 0.015138853	 15.0	 0.446530412	-135.7	
 2465.2130000	 0.521025022	-89.9	 5.371008594	  6.7	 0.015038425	 14.2	 0.441427759	-137.0	
 2470.5253125	 0.521304919	-90.0	 5.375594898	  5.9	 0.014986485	 13.9	 0.435723132	-138.2	
 2475.8376250	 0.520628273	-90.2	 5.384526678	  5.0	 0.015319342	 11.9	 0.430362251	-139.4	
 2481.1499375	 0.519377527	-90.4	 5.384906704	  4.1	 0.015421624	 12.0	 0.424226664	-140.7	
 2486.4622500	 0.519774400	-90.5	 5.386740375	  3.2	 0.015229576	 11.5	 0.417892260	-141.9	
 2491.7745625	 0.519410705	-90.7	 5.393098625	  2.3	 0.015584830	 11.3	 0.411736817	-143.2	
 2497.0868750	 0.518705007	-90.9	 5.402983185	  1.5	 0.015496044	  9.7	 0.405743423	-144.5	
 2502.3991875	 0.518653501	-91.0	 5.404394836	  0.5	 0.015719384	 10.3	 0.398951419	-145.8	
 2507.7115000	 0.518154078	-91.2	 5.408227110	 -0.3	 0.015879452	 10.3	 0.391931358	-147.2	
 2513.0238125	 0.517413785	-91.3	 5.413302235	 -1.2	 0.015862371	  8.8	 0.384433990	-148.6	
 2518.3361250	 0.516622125	-91.5	 5.415816750	 -2.2	 0.015920147	  7.8	 0.377733869	-150.1	
 2523.6484375	 0.516204482	-91.7	 5.423042806	 -3.2	 0.016264057	  7.2	 0.370420103	-151.6	
 2528.9607500	 0.515704898	-91.8	 5.427579003	 -4.1	 0.016224070	  7.1	 0.362497619	-153.1	
 2534.2730625	 0.515041297	-92.0	 5.422750629	 -5.0	 0.016207443	  5.8	 0.355318149	-154.6	
 2539.5853750	 0.514664659	-92.1	 5.436954473	 -6.0	 0.016275621	  4.5	 0.347079946	-156.2	
 2544.8976875	 0.514002505	-92.3	 5.441225532	 -7.0	 0.016352502	  5.0	 0.339132855	-157.9	
 2550.2100000	 0.513861369	-92.4	 5.436489802	 -8.0	 0.016460531	  3.1	 0.330596627	-159.7	
 2555.5223125	 0.512628589	-92.6	 5.446469366	 -8.9	 0.016606936	  2.8	 0.322068270	-161.4	
 2560.8346250	 0.512092437	-92.7	 5.442856988	-10.0	 0.016523424	  1.9	 0.313185954	-163.3	
 2566.1469375	 0.511352525	-92.9	 5.447011094	-10.9	 0.016540568	  1.7	 0.304173216	-165.2	
 2571.4592500	 0.510672534	-93.0	 5.448135966	-12.0	 0.016659173	  1.0	 0.295173223	-167.1	
 2576.7715625	 0.509485760	-93.2	 5.446934108	-13.1	 0.016669183	 -0.1	 0.286572732	-169.2	
 2582.0838750	 0.508661761	-93.3	 5.451728558	-14.1	 0.017065218	 -1.4	 0.277096620	-171.5	
 2587.3961875	 0.507723755	-93.6	 5.451122594	-15.2	 0.017005640	 -1.4	 0.267310133	-173.8	
 2592.7085000	 0.507375459	-93.7	 5.453338303	-16.2	 0.016926544	 -2.0	 0.258082417	-176.1	
 2598.0208125	 0.505825763	-93.9	 5.448576956	-17.4	 0.017201089	 -3.2	 0.248500013	-178.6	
 2603.3331250	 0.503944736	-94.0	 5.450113950	-18.5	 0.016902573	 -4.1	 0.238488644	 178.8	
 2608.6454375	 0.503459210	-94.1	 5.450141057	-19.5	 0.017116875	 -4.8	 0.228665910	 175.9	
 2613.9577500	 0.501971123	-94.3	 5.443763094	-20.6	 0.017261942	 -4.7	 0.218963190	 172.8	
 2619.2700625	 0.501224325	-94.5	 5.440085342	-21.8	 0.017482168	 -6.5	 0.209624009	 169.5	
 2624.5823750	 0.499097921	-94.7	 5.434470667	-22.9	 0.017481447	 -7.9	 0.199429698	 166.0	
 2629.8946875	 0.498774250	-94.7	 5.424632523	-24.1	 0.017579138	 -8.9	 0.190369295	 162.2	
 2635.2070000	 0.497008995	-94.9	 5.418368670	-25.2	 0.017200153	 -9.0	 0.181146200	 158.0	
 2640.5193125	 0.495932420	-95.1	 5.414554142	-26.4	 0.017427882	 -9.6	 0.172420562	 153.5	
 2645.8316250	 0.495047460	-95.2	 5.405371012	-27.4	 0.017561668	-11.0	 0.164192687	 148.7	
 2651.1439375	 0.493737099	-95.4	 5.389420725	-28.7	 0.017695199	-12.1	 0.156522925	 143.3	
 2656.4562500	 0.492554181	-95.6	 5.380446819	-29.9	 0.017638624	-13.0	 0.149883610	 137.6	
 2661.7685625	 0.491094971	-95.8	 5.361342597	-31.0	 0.017571426	-13.9	 0.143644777	 131.3	
 2667.0808750	 0.490116995	-95.9	 5.355471731	-32.2	 0.017647790	-14.8	 0.139098743	 124.4	
 2672.3931875	 0.488284693	-96.1	 5.340805329	-33.4	 0.017776265	-15.3	 0.135666413	 117.4	
 2677.7055000	 0.487262018	-96.2	 5.321283273	-34.7	 0.017766598	-16.5	 0.133960428	 109.8	
 2683.0178125	 0.485599866	-96.3	 5.300268642	-35.9	 0.017770976	-17.3	 0.133494738	 102.3	
 2688.3301250	 0.484715397	-96.5	 5.285704807	-37.1	 0.017535795	-18.2	 0.134487217	 94.6	
 2693.6424375	 0.483341417	-96.6	 5.266242074	-38.4	 0.017341872	-19.2	 0.137487278	 87.2	
 2698.9547500	 0.482152596	-96.7	 5.242722450	-39.6	 0.017742561	-20.2	 0.141813323	 80.0	
 2704.2670625	 0.480468416	-96.8	 5.216257309	-40.8	 0.017563538	-20.9	 0.147578830	 73.0	
 2709.5793750	 0.479181289	-96.9	 5.186686604	-42.0	 0.017470553	-23.0	 0.154616020	 66.7	
 2714.8916875	 0.477778210	-97.1	 5.165352001	-43.3	 0.017501898	-22.4	 0.163063612	 60.8	
 2720.2040000	 0.476557442	-97.2	 5.138037223	-44.5	 0.017520528	-24.7	 0.172241505	 55.2	
 2725.5163125	 0.474855897	-97.3	 5.105950832	-45.8	 0.017796447	-24.8	 0.182515184	 50.2	
 2730.8286250	 0.473704874	-97.3	 5.079694869	-47.0	 0.017424528	-26.1	 0.193336896	 45.4	
 2736.1409375	 0.472178892	-97.3	 5.046744630	-48.3	 0.017661343	-27.2	 0.204856250	 41.2	
 2741.4532500	 0.470453202	-97.3	 5.013082704	-49.5	 0.017633342	-28.0	 0.216882343	 37.2	
 2746.7655625	 0.468520209	-97.4	 4.979403814	-50.7	 0.017309932	-29.2	 0.228769394	 33.4	
 2752.0778750	 0.467529442	-97.5	 4.943958865	-51.9	 0.017139312	-30.1	 0.241680144	 30.0	
 2757.3901875	 0.466164299	-97.5	 4.906061502	-53.2	 0.017240524	-31.0	 0.254651835	 26.8	
 2762.7025000	 0.464513470	-97.5	 4.868804876	-54.4	 0.017187243	-32.4	 0.267836938	 23.7	
 2768.0148125	 0.462970046	-97.5	 4.827002970	-55.6	 0.017132658	-32.9	 0.281661572	 20.8	
 2773.3271250	 0.461423795	-97.5	 4.789106187	-56.9	 0.016937174	-34.4	 0.294521167	 18.2	
 2778.6394375	 0.459876309	-97.5	 4.748541769	-58.1	 0.016789805	-34.7	 0.308130285	 15.6	
 2783.9517500	 0.458267444	-97.6	 4.705215351	-59.3	 0.016985000	-35.9	 0.321353832	 13.2	
 2789.2640625	 0.456791544	-97.6	 4.663300500	-60.6	 0.016835122	-36.4	 0.335110565	 10.8	
 2794.5763750	 0.454991428	-97.6	 4.617614158	-61.8	 0.016827258	-38.0	 0.348132319	  8.6	
 2799.8886875	 0.453878546	-97.6	 4.574180994	-63.0	 0.016667159	-38.6	 0.361680203	  6.5	
 2805.2010000	 0.452680489	-97.6	 4.528975046	-64.2	 0.016619870	-39.9	 0.375250220	  4.3	
 2810.5133125	 0.450625446	-97.5	 4.482620605	-65.3	 0.016569691	-40.9	 0.388072273	  2.5	
 2815.8256250	 0.449379391	-97.6	 4.436528907	-66.5	 0.016158435	-41.3	 0.401027452	  0.5	
 2821.1379375	 0.448298016	-97.6	 4.391110608	-67.7	 0.015965546	-42.8	 0.414415328	 -1.3	
 2826.4502500	 0.447002845	-97.5	 4.338381742	-68.9	 0.016005093	-43.4	 0.426819632	 -3.1	
 2831.7625625	 0.445372307	-97.5	 4.293422121	-70.0	 0.015837308	-44.8	 0.439398593	 -4.9	
 2837.0748750	 0.444537515	-97.5	 4.245228765	-71.2	 0.015907678	-45.2	 0.451698822	 -6.6	
 2842.3871875	 0.442936561	-97.4	 4.193670855	-72.3	 0.015669075	-46.2	 0.463925240	 -8.3	
 2847.6995000	 0.442006181	-97.5	 4.144133720	-73.4	 0.015535153	-47.5	 0.475484893	 -9.9	
 2853.0118125	 0.441224085	-97.4	 4.093942427	-74.5	 0.015511331	-48.2	 0.487550633	-11.5	
 2858.3241250	 0.439484593	-97.4	 4.043134402	-75.6	 0.015214019	-48.3	 0.498977338	-13.0	
 2863.6364375	 0.438635214	-97.4	 3.992775568	-76.7	 0.015090401	-48.6	 0.510271771	-14.5	
 2868.9487500	 0.437655140	-97.4	 3.945490492	-77.8	 0.015210782	-50.7	 0.521011652	-16.0	
 2874.2610625	 0.436391438	-97.4	 3.895001273	-78.8	 0.014967175	-51.2	 0.532276586	-17.4	
 2879.5733750	 0.435685474	-97.4	 3.842566946	-79.8	 0.014774999	-52.5	 0.542683933	-18.8	
 2884.8856875	 0.434661523	-97.4	 3.791240555	-80.9	 0.014435192	-52.8	 0.553162296	-20.2	
 2890.1980000	 0.433850172	-97.3	 3.741414963	-81.9	 0.014323359	-53.2	 0.563624046	-21.5	
 2895.5103125	 0.432979457	-97.3	 3.688480527	-82.9	 0.014149155	-53.9	 0.573315437	-22.8	
 2900.8226250	 0.432774044	-97.3	 3.643758480	-83.9	 0.014060292	-55.3	 0.583234697	-24.1	
 2906.1349375	 0.431881105	-97.2	 3.591063100	-84.9	 0.013959875	-56.0	 0.592545451	-25.3	
 2911.4472500	 0.431340457	-97.1	 3.539838052	-85.9	 0.013766447	-56.2	 0.601824105	-26.5	
 2916.7595625	 0.430938470	-97.1	 3.492416348	-86.8	 0.013811324	-57.6	 0.610906321	-27.8	
 2922.0718750	 0.430239217	-97.0	 3.443327219	-87.8	 0.013450861	-57.5	 0.619659757	-28.9	
 2927.3841875	 0.429654630	-96.9	 3.391232427	-88.7	 0.013330178	-58.8	 0.628614254	-30.1	
 2932.6965000	 0.429282825	-96.9	 3.345643977	-89.6	 0.013250971	-58.8	 0.636553405	-31.2	
 2938.0088125	 0.428447316	-96.9	 3.297314105	-90.6	 0.013370000	-59.5	 0.645163452	-32.3	
 2943.3211250	 0.428711244	-96.8	 3.247515368	-91.4	 0.013187893	-59.9	 0.653092893	-33.4	
 2948.6334375	 0.428505656	-96.8	 3.203551196	-92.3	 0.012954261	-60.7	 0.660975148	-34.5	
 2953.9457500	 0.427589246	-96.6	 3.158236712	-93.2	 0.012698478	-62.0	 0.668351617	-35.5	
 2959.2580625	 0.427044787	-96.6	 3.110437103	-94.0	 0.012615168	-63.0	 0.675464024	-36.5	
 2964.5703750	 0.427152263	-96.6	 3.066777933	-94.9	 0.012542698	-62.8	 0.682630769	-37.5	
 2969.8826875	 0.426478693	-96.6	 3.019529550	-95.7	 0.012280083	-63.3	 0.689395846	-38.5	
 2975.1950000	 0.426515441	-96.5	 2.976940031	-96.5	 0.012289247	-64.1	 0.696328251	-39.4	
 2980.5073125	 0.426037019	-96.4	 2.935845549	-97.3	 0.012114965	-64.2	 0.702573398	-40.3	
 2985.8196250	 0.425280582	-96.3	 2.892358728	-98.1	 0.011922542	-64.8	 0.709306630	-41.3	
 2991.1319375	 0.424916863	-96.3	 2.847913637	-98.9	 0.011772378	-65.0	 0.715342195	-42.2	
 2996.4442500	 0.424797450	-96.3	 2.806453693	-99.6	 0.011692095	-66.6	 0.721075430	-43.1	
 3001.7565625	 0.424238494	-96.2	 2.767910955	-100.5	 0.011506197	-67.1	 0.726640441	-44.0	
 
!2650MHz			NFmin	GamMag	GamAng	RN [ohm]
!Band 7 HG		 	0.99	 0.369	 104	 6.7

