!  INFINEON TECHNOLOGIES Silicon Discrete Components								
!  BGA728L7								
!  Vcc=2.8V, Icc=0.54mA, Low Gain Mode (Vpon=2.8V, VGS=2.8V), VHF application								
!  Date: April 2008	
# HZ  S  DB R  50 
!Freq	DBS11	AngS11	DBS21	AngS21	DBS12	AngS12	DBS22	AngS22
30000   .0026   -.0315   -76.947    48.329   -70.88   -160.3   -.0032   -.0068   
15029925  -.0629   -29.923   -60.004    147.75   -58.852    146.57   -.3871   -14.919   
30029850  -.2313   -61.959   -39.757   -113.66   -40.016   -116.03   -1.0867   -26.511   
45029775  -.7547   -98.438   -25.352   -142.21   -25.423   -142   -1.6967   -35.991   
60029700  -1.9722   -140.11   -17.288   -175.68   -17.319   -175.41   -2.2186   -45.255   
75029625  -4.0706    175.92   -12.629    152.23   -12.664    152.52   -2.8757   -54.559   
90029550  -6.4745    134.27   -10.121    125.52   -10.132    125.74   -3.6742   -62.884   
105029475  -8.4838    97.848   -8.738    104.65   -8.7496    104.85   -4.4911   -69.785   
120029400  -9.8685    68.033   -7.9174    88.351   -7.922    88.597   -5.2665   -75.644   
135029325  -10.79    44.462   -7.3865    75.435   -7.3922    75.661   -5.9851   -80.763   
150029250  -11.473    25.914   -7.0002    64.804   -7.0157    64.947   -6.61   -85.476   
165029175  -12.052    11.223   -6.7206    55.798   -6.7343    55.997   -7.2162   -89.773   
180029100  -12.569   -.5094   -6.5034    48.087   -6.5184    48.237   -7.7621   -93.867   
195029025  -13.049   -10.246   -6.3222    41.292   -6.331    41.402   -8.2479   -97.714   
210028950  -13.536   -18.526   -6.1794    35.16   -6.1838    35.402   -8.7308   -101.07   
225028875  -14.001   -25.477   -6.0571    29.685   -6.063    29.809   -9.1727   -104.67   
240028800  -14.442   -31.477   -5.9608    24.638   -5.9613    24.766   -9.5727   -107.78   
255028725  -14.894   -36.74   -5.8661    19.984   -5.872    20.137   -9.9557   -110.91   
270028650  -15.287   -41.199   -5.7926    15.656   -5.7968    15.785   -10.31   -113.95   
285028575  -15.717   -45.19   -5.7229    11.588   -5.7304    11.729   -10.649   -116.82   
300028500  -16.122   -48.538   -5.6601    7.7399   -5.663    7.8703   -10.952   -119.53   
315028425  -16.485   -51.489   -5.6042    4.1336   -5.6066    4.238   -11.242   -122.22   
330028350  -16.832   -54.066   -5.5546    .6564   -5.5534    .7759   -11.517   -124.74   
345028275  -17.206   -56.518   -5.5048   -2.6395   -5.5097   -2.5021   -11.788   -127.16   
360028200  -17.518   -58.517   -5.4609   -5.8434   -5.4618   -5.7143   -12.051   -129.66   
375028125  -17.821   -60.018   -5.4233   -8.9058   -5.4143   -8.7547   -12.253   -131.97   
390028050  -18.103   -61.419   -5.3852   -11.893   -5.376   -11.757   -12.466   -134.1   
405027975  -18.325   -62.71   -5.3379   -14.771   -5.3265   -14.675   -12.667   -136.45   
420027900  -18.562   -63.371   -5.3009   -17.593   -5.3014   -17.475   -12.886   -138.39   
435027825  -18.726   -64.351   -5.2594   -20.316   -5.2572   -20.208   -13.039   -140.43   
450027750  -18.854   -64.932   -5.2233   -22.971   -5.2163   -22.9   -13.226   -142.47   
465027675  -18.988   -65.49   -5.1882   -25.649   -5.1823   -25.547   -13.401   -144.24   
480027600  -19.066   -66.099   -5.1499   -28.225   -5.1441   -28.115   -13.563   -146.07   
495027525  -19.109   -66.23   -5.1174   -30.753   -5.102   -30.689   -13.693   -147.79   
510027450  -19.11   -66.642   -5.0723   -33.304   -5.0672   -33.212   -13.846   -149.5   
525027375  -19.068   -67.041   -5.0339   -35.78   -5.0225   -35.703   -13.963   -150.99   
540027300  -19.022   -67.738   -4.9982   -38.274   -4.9878   -38.18   -14.048   -152.6   
555027225  -18.936   -68.416   -4.9567   -40.769   -4.9525   -40.678   -14.169   -153.83   
570027150  -18.862   -68.769   -4.9148   -43.163   -4.9097   -43.135   -14.255   -155.12   
585027075  -18.729   -70.064   -4.8735   -45.699   -4.8674   -45.575   -14.33   -156.38   
600027000  -18.648   -70.724   -4.8518   -48.19   -4.8348   -48.057   -14.36   -157.4   
615026925  -18.523   -72.004   -4.8144   -50.718   -4.808   -50.624   -14.345   -158.39   
630026850  -18.481   -73.522   -4.8107   -53.153   -4.7926   -53.137   -14.284   -159.61   
645026775  -18.352   -73.148   -4.7973   -55.53   -4.7939   -55.492   -14.243   -161.05   
660026700  -18.111   -74.042   -4.7702   -57.909   -4.7715   -57.794   -14.161   -162.61   
675026625  -17.8   -75.895   -4.7575   -60.304   -4.7526   -60.253   -14.073   -163.96   
690026550  -17.668   -78.613   -4.7442   -62.813   -4.7305   -62.731   -13.975   -165.82   
705026475  -17.64   -80.972   -4.7561   -65.238   -4.7387   -65.149   -13.884   -167.71   
720026400  -17.663   -82.787   -4.784   -67.558   -4.7671   -67.525   -13.796   -170.16   
735026325  -17.639   -84.262   -4.7897   -69.852   -4.7771   -69.732   -13.767   -172.46   
750026250  -17.646   -85.689   -4.7958   -72.041   -4.7936   -72.046   -13.697   -174.79   
765026175  -17.679   -86.87   -4.8312   -74.259   -4.8289   -74.229   -13.633   -177.28   
780026100  -17.718   -87.579   -4.8553   -76.347   -4.8408   -76.278   -13.65   -179.63   
795026025  -17.675   -88.408   -4.868   -78.356   -4.8544   -78.331   -13.659    177.76   
810025950  -17.644   -88.827   -4.877   -80.421   -4.8682   -80.388   -13.707    175.53   
825025875  -17.461   -89.426   -4.8784   -82.436   -4.8658   -82.366   -13.746    173.49   
840025800  -17.361   -90.168   -4.879   -84.423   -4.8608   -84.359   -13.795    171.19   
855025725  -17.219   -91.266   -4.8793   -86.46   -4.8613   -86.424   -13.84    169.02   
870025650  -17.102   -91.891   -4.8719   -88.48   -4.8564   -88.419   -13.888    166.78   
885025575  -16.928   -92.627   -4.8618   -90.398   -4.8549   -90.324   -13.951    164.68   
900025500  -16.74   -93.413   -4.8543   -92.409   -4.8499   -92.366   -13.986    162.66   
915025425  -16.568   -94.687   -4.8355   -94.392   -4.8413   -94.37   -14.017    160.42   
930025350  -16.399   -95.813   -4.8292   -96.419   -4.82   -96.415   -14.112    158.6   
945025275  -16.244   -96.869   -4.8161   -98.407   -4.8137   -98.451   -14.147    156.65   
960025200  -16.045   -98.129   -4.8217   -100.47   -4.8035   -100.41   -14.168    154.6   
975025125  -15.853   -99.754   -4.8092   -102.47   -4.7929   -102.42   -14.234    152.64   
990025050  -15.677   -100.92   -4.786   -104.48   -4.7868   -104.44   -14.307    150.6   
1005024975  -15.486   -102.44   -4.7822   -106.49   -4.7794   -106.47   -14.361    148.58   
1020024900  -15.313   -103.77   -4.772   -108.49   -4.7578   -108.54   -14.404    146.69   
1035024825  -15.143   -105.28   -4.7593   -110.54   -4.7566   -110.49   -14.396    144.83   
1050024750  -14.984   -106.78   -4.7553   -112.57   -4.7465   -112.53   -14.47    142.78   
1065024675  -14.819   -108.31   -4.7417   -114.58   -4.7295   -114.56   -14.51    140.66   
1080024600  -14.658   -109.76   -4.7303   -116.59   -4.7252   -116.56   -14.587    139   
1095024525  -14.477   -111.6   -4.722   -118.65   -4.7103   -118.58   -14.65    136.57   
1110024450  -14.325   -113.3   -4.7091   -120.65   -4.7021   -120.63   -14.666    134.74   
1125024375  -14.137   -114.73   -4.7026   -122.7   -4.7002   -122.67   -14.727    132.59   
1140024300  -14.005   -116.53   -4.6945   -124.67   -4.6863   -124.71   -14.781    130.56   
1155024225  -13.845   -118.15   -4.6874   -126.74   -4.6743   -126.7   -14.832    128.54   
1170024150  -13.728   -119.88   -4.6799   -128.77   -4.6745   -128.73   -14.897    126.56   
1185024075  -13.571   -121.68   -4.6677   -130.82   -4.6592   -130.78   -14.939    124.59   
1200024000  -13.447   -123.39   -4.6664   -132.86   -4.6564   -132.79   -15.016    122.26   
1215023925  -13.293   -125.22   -4.6632   -134.9   -4.6587   -134.83   -15.08    120.17   
1230023850  -13.179   -126.79   -4.6512   -136.86   -4.6464   -136.87   -15.115    118.03   
1245023775  -13.048   -128.73   -4.6514   -138.9   -4.6492   -138.9   -15.145    115.7   
1260023700  -12.922   -130.3   -4.6472   -140.96   -4.6406   -140.91   -15.252    113.37   
1275023625  -12.791   -132   -4.6432   -142.98   -4.635   -142.92   -15.33    111.27   
1290023550  -12.676   -133.83   -4.635   -144.98   -4.6315   -145   -15.41    109.07   
1305023475  -12.536   -135.65   -4.6382   -147.06   -4.6261   -147   -15.48    106.77   
1320023400  -12.443   -137.42   -4.6292   -149.09   -4.6184   -149.04   -15.562    104.52   
1335023325  -12.319   -139.3   -4.6314   -151.15   -4.6259   -151.09   -15.643    102.07   
1350023250  -12.221   -141.08   -4.6307   -153.19   -4.62   -153.13   -15.694    99.462   
1365023175  -12.091   -142.71   -4.6309   -155.2   -4.6223   -155.19   -15.776    97.252   
1380023100  -11.993   -144.49   -4.6241   -157.28   -4.6139   -157.18   -15.838    94.547   
1395023025  -11.909   -146.44   -4.6319   -159.28   -4.6224   -159.22   -15.925    92.332   
1410022950  -11.786   -148.09   -4.6301   -161.31   -4.6215   -161.26   -15.991    89.642   
1425022875  -11.697   -150   -4.6356   -163.31   -4.6276   -163.36   -16.067    87.036   
1440022800  -11.61   -151.79   -4.6359   -165.35   -4.6256   -165.37   -16.213    84.338   
1455022725  -11.502   -153.5   -4.6384   -167.38   -4.6341   -167.39   -16.284    81.819   
1470022650  -11.405   -155.35   -4.6448   -169.46   -4.6335   -169.42   -16.403    78.951   
1485022575  -11.321   -157.14   -4.6503   -171.5   -4.6401   -171.45   -16.445    76.112   
1500022500  -11.238   -159.06   -4.649   -173.54   -4.6408   -173.49   -16.548    73.288   
1515022425  -11.147   -160.88   -4.6482   -175.52   -4.6441   -175.52   -16.651    70.343   
1530022350  -11.06   -162.56   -4.6577   -177.61   -4.6543   -177.58   -16.715    67.522   
1545022275  -10.995   -164.61   -4.6651   -179.61   -4.6596   -179.63   -16.848    64.634   
1560022200  -10.918   -166.27   -4.6781    178.37   -4.6648    178.35   -16.901    61.356   
1575022125  -10.828   -168.06   -4.6761    176.34   -4.6732    176.32   -17    58.528   
1590022050  -10.739   -169.89   -4.6905    174.28   -4.6804    174.27   -17.069    55.57   
1605021975  -10.68   -171.74   -4.6925    172.26   -4.684    172.27   -17.2    52.067   
1620021900  -10.593   -173.56   -4.7025    170.19   -4.7027    170.22   -17.272    48.904   
1635021825  -10.552   -175.26   -4.7174    168.14   -4.7056    168.2   -17.304    45.277   
1650021750  -10.471   -177.23   -4.721    166.07   -4.7146    166.15   -17.338    41.64   
1665021675  -10.404   -179.04   -4.7279    164.09   -4.7251    164.09   -17.471    38.19   
1680021600  -10.348    179.09   -4.7477    162.07   -4.7385    162.06   -17.492    35.075   
1695021525  -10.269    177.32   -4.752    159.96   -4.7503    160.03   -17.529    31.553   
1710021450  -10.205    175.53   -4.7602    157.98   -4.7585    158   -17.588    27.996   
1725021375  -10.164    173.63   -4.781    155.92   -4.7725    155.91   -17.602    24.429   
1740021300  -10.098    171.66   -4.793    153.93   -4.7959    153.88   -17.658    20.595   
1755021225  -10.062    170   -4.8107    151.86   -4.797    151.85   -17.689    17.067   
1770021150  -9.9828    168.07   -4.8167    149.81   -4.8022    149.83   -17.705    13.199   
1785021075  -9.9432    166.21   -4.8361    147.79   -4.8247    147.74   -17.692    9.2931   
1800021000  -9.8885    164.39   -4.8546    145.77   -4.8425    145.76   -17.68    5.154   
1815020925  -9.847    162.49   -4.8713    143.68   -4.8583    143.69   -17.647    1.3431   
1830020850  -9.7912    160.62   -4.8851    141.63   -4.8728    141.66   -17.605   -2.4719   
1845020775  -9.7484    158.79   -4.9083    139.6   -4.8997    139.62   -17.551   -6.2306   
1860020700  -9.7143    156.9   -4.9198    137.56   -4.9085    137.58   -17.491   -10.114   
1875020625  -9.6691    155.12   -4.9439    135.53   -4.9236    135.58   -17.413   -14.398   
1890020550  -9.6181    153.25   -4.9594    133.5   -4.9516    133.53   -17.327   -18.228   
1905020475  -9.593    151.34   -4.974    131.47   -4.9643    131.44   -17.237   -22.279   
1920020400  -9.557    149.48   -4.9967    129.46   -4.9881    129.42   -17.125   -25.642   
1935020325  -9.5139    147.75   -5.0202    127.35   -5.0146    127.39   -16.984   -29.642   
1950020250  -9.485    145.69   -5.0338    125.35   -5.027    125.34   -16.873   -33.414   
1965020175  -9.4471    143.82   -5.0603    123.32   -5.0476    123.31   -16.711   -36.999   
1980020100  -9.4177    141.93   -5.0715    121.27   -5.0745    121.28   -16.57   -40.838   
1995020025  -9.3775    139.97   -5.1113    119.18   -5.1064    119.24   -16.408   -44.374   
2010019950  -9.3586    138.09   -5.1313    117.15   -5.1166    117.16   -16.239   -48.06   
2025019875  -9.3298    136.21   -5.1559    115.17   -5.1471    115.11   -16.047   -51.555   
2040019800  -9.3066    134.3   -5.1884    113.05   -5.1645    113.06   -15.86   -54.61   
2055019725  -9.2764    132.36   -5.203    111.09   -5.1946    111.07   -15.657   -58.288   
2070019650  -9.2629    130.47   -5.2364    108.98   -5.22    109.05   -15.472   -61.655   
2085019575  -9.2557    128.46   -5.2612    107.03   -5.2467    106.99   -15.297   -64.883   
2100019500  -9.2383    126.52   -5.2779    104.99   -5.2756    104.9   -15.097   -67.736   
2115019425  -9.2061    124.58   -5.3062    102.89   -5.304    102.87   -14.908   -70.973   
2130019350  -9.1959    122.7   -5.3437    100.89   -5.3387    100.84   -14.716   -74.075   
2145019275  -9.1785    120.54   -5.361    98.878   -5.3607    98.829   -14.483   -76.988   
2160019200  -9.1758    118.69   -5.3924    96.741   -5.3955    96.79   -14.273   -80.057   
2175019125  -9.1606    116.75   -5.4274    94.752   -5.4269    94.752   -14.079   -82.97   
2190019050  -9.1631    114.7   -5.4667    92.744   -5.4618    92.656   -13.898   -85.759   
2205018975  -9.1485    112.73   -5.4994    90.699   -5.491    90.695   -13.71   -88.463   
2220018900  -9.1546    110.77   -5.5308    88.661   -5.5221    88.624   -13.49   -91.29   
2235018825  -9.1362    108.71   -5.5548    86.697   -5.5545    86.657   -13.314   -93.841   
2250018750  -9.1338    106.84   -5.5904    84.61   -5.5833    84.576   -13.103   -96.606   
2265018675  -9.1409    104.71   -5.627    82.557   -5.6288    82.518   -12.89   -99.385   
2280018600  -9.1511    102.56   -5.6698    80.511   -5.6606    80.533   -12.725   -101.87   
2295018525  -9.1624    100.5   -5.7002    78.593   -5.6984    78.468   -12.538   -104.44   
2310018450  -9.1583    98.573   -5.7457    76.562   -5.7304    76.462   -12.323   -106.83   
2325018375  -9.1625    96.439   -5.7798    74.421   -5.771    74.443   -12.135   -109.23   
2340018300  -9.1788    94.411   -5.8103    72.423   -5.8056    72.405   -11.959   -111.74   
2355018225  -9.1901    92.262   -5.8534    70.411   -5.8381    70.352   -11.767   -114.07   
2370018150  -9.2014    90.114   -5.8863    68.365   -5.8935    68.361   -11.581   -116.51   
2385018075  -9.2068    88.073   -5.931    66.327   -5.9187    66.305   -11.406   -118.74   
2400018000  -9.2248    85.971   -5.9755    64.259   -5.976    64.249   -11.259   -121.1   
2415017925  -9.2433    83.786   -6.0161    62.317   -6.0137    62.301   -11.061   -123.42   
2430017850  -9.2472    81.701   -6.067    60.351   -6.0556    60.268   -10.904   -125.42   
2445017775  -9.2983    79.629   -6.0983    58.25   -6.0969    58.167   -10.724   -127.71   
2460017700  -9.3392    77.425   -6.1505    56.253   -6.1363    56.26   -10.565   -129.91   
2475017625  -9.3432    75.195   -6.1935    54.257   -6.2016    54.211   -10.413   -132.25   
2490017550  -9.3805    73.098   -6.2354    52.208   -6.2373    52.23   -10.242   -134.28   
2505017475  -9.4126    70.777   -6.2852    50.195   -6.2874    50.173   -10.094   -136.41   
2520017400  -9.4402    68.643   -6.3248    48.214   -6.3385    48.157   -9.9119   -138.58   
2535017325  -9.4682    66.492   -6.373    46.237   -6.3784    46.143   -9.7606   -140.6   
2550017250  -9.5031    64.241   -6.4322    44.206   -6.4252    44.05   -9.6086   -142.62   
2565017175  -9.5486    62.154   -6.4843    42.168   -6.4808    42.117   -9.4452   -144.71   
2580017100  -9.5749    59.733   -6.5306    40.209   -6.5318    40.148   -9.3322   -146.78   
2595017025  -9.6064    57.555   -6.578    38.254   -6.5781    38.128   -9.2002   -148.71   
2610016950  -9.6375    55.355   -6.6354    36.216   -6.6273    36.182   -9.0429   -150.69   
2625016875  -9.6843    53.067   -6.687    34.308   -6.6794    34.146   -8.9024   -152.61   
2640016800  -9.7124    50.733   -6.727    32.25   -6.7294    32.233   -8.7768   -154.55   
2655016725  -9.7598    48.606   -6.7754    30.333   -6.7802    30.273   -8.6306   -156.32   
2670016650  -9.7959    46.276   -6.8369    28.426   -6.8427    28.298   -8.5058   -158.46   
2685016575  -9.824    43.886   -6.8869    26.359   -6.8953    26.308   -8.3906   -160.37   
2700016500  -9.8495    41.626   -6.9343    24.435   -6.9418    24.402   -8.2856   -162.14   
2715016425  -9.8967    39.188   -6.9904    22.446   -6.9922    22.346   -8.1329   -164.15   
2730016350  -9.9575    36.865   -7.0534    20.522   -7.0546    20.365   -8.0269   -165.88   
2745016275  -9.9861    34.35   -7.1056    18.486   -7.1088    18.397   -7.9156   -167.8   
2760016200  -10.003    32.106   -7.1459    16.533   -7.1604    16.519   -7.7936   -169.76   
2775016125  -10.041    29.644   -7.1972    14.621   -7.2093    14.521   -7.6832   -171.51   
2790016050  -10.074    27.176   -7.2618    12.623   -7.2604    12.518   -7.5786   -173.29   
2805015975  -10.105    24.64   -7.3276    10.725   -7.3176    10.699   -7.47   -174.94   
2820015900  -10.143    21.942   -7.3766    8.774   -7.3676    8.6696   -7.3913   -176.85   
2835015825  -10.174    19.593   -7.4197    6.7799   -7.4389    6.7621   -7.276   -178.69   
2850015750  -10.214    17.034   -7.4782    4.8216   -7.4828    4.8079   -7.1503    179.61   
2865015675  -10.236    14.51   -7.5359    2.7864   -7.5479    2.8688   -7.0813    177.81   
2880015600  -10.265    11.791   -7.6066    .8816   -7.5869    .8747   -6.9693    176.18   
2895015525  -10.318    9.2505   -7.6631   -1.0437   -7.6626   -.9681   -6.872    174.5   
2910015450  -10.353    6.5465   -7.7014   -2.9567   -7.7196   -2.9842   -6.7917    172.59   
2925015375  -10.368    3.8411   -7.7785   -4.9658   -7.7824   -4.8656   -6.6875    170.93   
2940015300  -10.401    1.1494   -7.8185   -6.8719   -7.8307   -6.8513   -6.621    169.33   
2955015225  -10.439   -1.4241   -7.8825   -8.7932   -7.8938   -8.8069   -6.516    167.56   
2970015150  -10.476   -4.2064   -7.9505   -10.702   -7.9567   -10.732   -6.4486    165.86   
2985015075  -10.482   -6.8719   -8.0071   -12.732   -8.0154   -12.632   -6.3563    164.2   
3000015000  -10.516   -9.716   -8.0722   -14.521   -8.0929   -14.534   -6.2825    162.57   
3015014925  -10.542   -12.457   -8.1475   -16.475   -8.1614   -16.566   -6.1714    160.74   
3030014850  -10.55   -15.201   -8.2008   -18.398   -8.2126   -18.43   -6.1    159.09   
3045014775  -10.549   -18.033   -8.2517   -20.281   -8.273   -20.323   -6.0133    157.53   
3060014700  -10.586   -20.932   -8.3115   -22.251   -8.3413   -22.264   -5.9552    155.97   
3075014625  -10.601   -23.641   -8.396   -24.21   -8.3849   -24.21   -5.8636    154.28   
3090014550  -10.593   -26.418   -8.4676   -26.029   -8.4819   -26.165   -5.8038    152.67   
3105014475  -10.609   -29.332   -8.5274   -27.997   -8.5329   -28.043   -5.7151    151.06   
3120014400  -10.645   -32.215   -8.5898   -30.004   -8.5978   -30.001   -5.6528    149.47   
3135014325  -10.614   -34.93   -8.6446   -31.849   -8.6606   -31.904   -5.5815    147.82   
3150014250  -10.662   -37.897   -8.7147   -33.705   -8.7234   -33.793   -5.5024    146.3   
3165014175  -10.624   -40.685   -8.781   -35.686   -8.7964   -35.627   -5.4358    144.71   
3180014100  -10.629   -43.565   -8.8758   -37.428   -8.8564   -37.403   -5.3737    143.06   
3195014025  -10.585   -46.49   -8.9314   -39.31   -8.9252   -39.5   -5.3118    141.49   
3210013950  -10.609   -49.485   -9.0025   -41.343   -9.0123   -41.328   -5.2403    139.9   
3225013875  -10.579   -52.381   -9.0997   -43.179   -9.0817   -43.248   -5.1931    138.3   
3240013800  -10.555   -55.083   -9.1309   -45.139   -9.1613   -45.099   -5.1439    136.75   
3255013725  -10.533   -58.011   -9.2162   -46.993   -9.2154   -46.894   -5.0714    135.25   
3270013650  -10.516   -60.889   -9.292   -48.954   -9.2882   -48.87   -5.0172    133.67   
3285013575  -10.478   -63.803   -9.3767   -50.712   -9.363   -50.646   -4.9436    132.11   
3300013500  -10.446   -66.568   -9.4343   -52.52   -9.4364   -52.471   -4.9085    130.61   
3315013425  -10.397   -69.457   -9.4998   -54.424   -9.5159   -54.496   -4.8517    129.17   
3330013350  -10.381   -72.208   -9.557   -56.382   -9.5771   -56.316   -4.7792    127.41   
3345013275  -10.36   -75.027   -9.6488   -58.108   -9.6482   -58.173   -4.7426    125.9   
3360013200  -10.308   -77.85   -9.7334   -59.966   -9.7171   -60.053   -4.6981    124.37   
3375013125  -10.251   -80.697   -9.796   -61.923   -9.7799   -61.749   -4.6301    122.83   
3390013050  -10.174   -83.302   -9.8866   -63.552   -9.8653   -63.674   -4.5926    121.39   
3405012975  -10.147   -86.233   -9.9299   -65.573   -9.949   -65.459   -4.5439    119.94   
3420012900  -10.096   -89.019   -10.032   -67.295   -10.013   -67.321   -4.4961    118.33   
3435012825  -10.015   -91.585   -10.111   -69.277   -10.107   -69.159   -4.4556    116.89   
3450012750  -9.9927   -94.43   -10.163   -71.05   -10.172   -70.988   -4.4135    115.32   
3465012675  -9.9073   -97.147   -10.25   -72.85   -10.26   -72.852   -4.3684    113.85   
3480012600  -9.8432   -99.701   -10.319   -74.663   -10.32   -74.675   -4.3414    112.36   
3495012525  -9.7643   -102.48   -10.417   -76.507   -10.407   -76.481   -4.2842    110.92   
3510012450  -9.712   -105.05   -10.485   -78.317   -10.473   -78.157   -4.2433    109.39   
3525012375  -9.6589   -107.66   -10.565   -80.011   -10.562   -79.993   -4.21    107.88   
3540012300  -9.577   -110.2   -10.653   -81.799   -10.614   -81.782   -4.156    106.38   
3555012225  -9.513   -112.71   -10.722   -83.736   -10.706   -83.616   -4.1243    104.92   
3570012150  -9.438   -115.31   -10.781   -85.489   -10.78   -85.443   -4.0863    103.39   
3585012075  -9.3344   -117.87   -10.851   -87.032   -10.868   -87.234   -4.0574    101.99   
3600012000  -9.2742   -120.36   -10.95   -88.985   -10.947   -88.987   -4.0205    100.55   
3615011925  -9.2136   -122.91   -11.039   -90.788   -11.023   -90.772   -3.9908    99.057   
3630011850  -9.1241   -125.35   -11.121   -92.384   -11.095   -92.534   -3.953    97.487   
3645011775  -9.0389   -127.55   -11.199   -94.276   -11.161   -94.197   -3.9199    96.145   
3660011700  -8.9515   -130.01   -11.253   -95.95   -11.259   -95.83   -3.902    94.65   
3675011625  -8.8813   -132.43   -11.345   -97.839   -11.324   -97.637   -3.8493    93.121   
3690011550  -8.8142   -134.98   -11.415   -99.511   -11.42   -99.44   -3.8235    91.64   
3705011475  -8.7293   -136.99   -11.517   -101.23   -11.494   -101.31   -3.8007    90.268   
3720011400  -8.6362   -139.41   -11.606   -102.89   -11.554   -102.96   -3.7674    88.813   
3735011325  -8.5547   -141.71   -11.657   -104.63   -11.652   -104.78   -3.7256    87.285   
3750011250  -8.4813   -143.93   -11.732   -106.41   -11.752   -106.36   -3.7107    85.914   
3765011175  -8.3905   -146.11   -11.824   -108.2   -11.791   -108.16   -3.6947    84.408   
3780011100  -8.3136   -148.24   -11.901   -109.9   -11.884   -109.97   -3.6585    82.954   
3795011025  -8.256   -150.55   -12   -111.6   -11.987   -111.62   -3.644    81.454   
3810010950  -8.1719   -152.68   -12.073   -113.3   -12.033   -113.33   -3.6115    80.04   
3825010875  -8.0905   -154.84   -12.157   -115.09   -12.129   -115.04   -3.5844    78.687   
3840010800  -8.0256   -156.98   -12.251   -116.75   -12.185   -116.66   -3.5596    77.235   
3855010725  -7.944   -159.13   -12.314   -118.28   -12.277   -118.3   -3.5264    75.727   
3870010650  -7.8564   -161.13   -12.382   -120.04   -12.358   -120.12   -3.5236    74.259   
3885010575  -7.7944   -163.22   -12.467   -121.6   -12.458   -121.6   -3.4858    72.808   
3900010500  -7.7297   -165.3   -12.544   -123.51   -12.511   -123.49   -3.4654    71.341   
3915010425  -7.6382   -167.16   -12.629   -125.27   -12.595   -125.2   -3.4424    69.913   
3930010350  -7.5645   -169.27   -12.709   -126.78   -12.661   -126.9   -3.4343    68.393   
3945010275  -7.4772   -171.27   -12.792   -128.48   -12.731   -128.62   -3.4212    67.026   
3960010200  -7.4184   -173.28   -12.868   -130.09   -12.849   -130.1   -3.4083    65.55   
3975010125  -7.3422   -175.1   -12.929   -131.54   -12.89   -131.8   -3.3746    64.024   
3990010050  -7.269   -176.99   -13.021   -133.42   -12.996   -133.46   -3.3693    62.693   
4005009975  -7.2047   -179.03   -13.096   -135.06   -13.079   -135.23   -3.3328    61.15   
4020009900  -7.1332    179.14   -13.163   -136.84   -13.135   -137   -3.3455    59.705   
4035009825  -7.068    177.28   -13.263   -138.39   -13.223   -138.38   -3.3239    58.366   
4050009750  -6.9882    175.46   -13.302   -139.96   -13.296   -140.09   -3.2924    56.839   
4065009675  -6.9531    173.67   -13.412   -141.53   -13.377   -141.65   -3.2979    55.449   
4080009600  -6.8635    171.77   -13.468   -143.25   -13.47   -143.49   -3.2487    53.925   
4095009525  -6.7988    170.06   -13.55   -144.77   -13.537   -145.14   -3.2607    52.55   
4110009450  -6.7232    168.26   -13.645   -146.73   -13.599   -146.66   -3.2478    51.126   
4125009375  -6.6636    166.48   -13.705   -147.98   -13.682   -148.16   -3.2373    49.601   
4140009300  -6.6209    164.69   -13.807   -149.53   -13.754   -149.85   -3.2305    48.198   
4155009225  -6.5528    163   -13.875   -151.13   -13.803   -151.4   -3.208    46.607   
4170009150  -6.4955    161.16   -13.949   -152.91   -13.894   -153.11   -3.1984    45.24   
4185009075  -6.4252    159.54   -13.978   -154.5   -13.976   -154.83   -3.1907    43.697   
4200009000  -6.3569    157.79   -14.073   -156.18   -14.098   -156.37   -3.1729    42.27   
4215008925  -6.3182    156.11   -14.138   -157.59   -14.103   -158.02   -3.1638    40.833   
4230008850  -6.2585    154.58   -14.224   -159.37   -14.177   -159.48   -3.1534    39.368   
4245008775  -6.1949    152.85   -14.309   -160.83   -14.275   -161.01   -3.1648    37.937   
4260008700  -6.1342    151.17   -14.37   -162.41   -14.349   -162.89   -3.1515    36.479   
4275008625  -6.0902    149.47   -14.42   -164.15   -14.389   -164.58   -3.1406    35.033   
4290008550  -6.0392    147.99   -14.501   -165.42   -14.505   -165.96   -3.1364    33.398   
4305008475  -5.9784    146.31   -14.571   -167.38   -14.568   -167.42   -3.1289    31.911   
4320008400  -5.9158    144.71   -14.623   -169.07   -14.627   -168.97   -3.1162    30.521   
4335008325  -5.8677    143.14   -14.697   -170.46   -14.697   -170.81   -3.1108    29.217   
4350008250  -5.8328    141.54   -14.793   -172.1   -14.772   -172.5   -3.1068    27.728   
4365008175  -5.7679    140.04   -14.83   -173.73   -14.836   -173.91   -3.0843    26.266   
4380008100  -5.7136    138.37   -14.943   -175.22   -14.927   -175.44   -3.0929    24.725   
4395008025  -5.6692    136.84   -15.039   -176.94   -14.992   -177   -3.0819    23.237   
4410007950  -5.6249    135.39   -15.049   -178.42   -15.061   -178.8   -3.0856    21.69   
4425007875  -5.5671    133.89   -15.131   -180   -15.108    179.68   -3.0743    20.087   
4440007800  -5.5234    132.45   -15.178    178.42   -15.206    178.01   -3.0672    18.638   
4455007725  -5.481    130.82   -15.257    177.18   -15.226    176.73   -3.0681    17.439   
4470007650  -5.4389    129.37   -15.328    175.43   -15.32    174.89   -3.059    15.76   
4485007575  -5.3832    127.87   -15.383    173.98   -15.352    173.43   -3.0579    14.3   
4500007500  -5.3368    126.42   -15.453    172.04   -15.459    171.82   -3.0633    12.903   
4515007425  -5.3087    124.87   -15.553    170.69   -15.481    170.04   -3.0427    11.157   
4530007350  -5.2455    123.42   -15.578    169.05   -15.624    168.53   -3.0583    9.6776   
4545007275  -5.211    122.02   -15.669    167.44   -15.659    167.06   -3.0572    8.3057   
4560007200  -5.1491    120.5   -15.689    165.93   -15.724    165.31   -3.0419    6.7154   
4575007125  -5.1117    119.05   -15.763    164.38   -15.783    163.89   -3.0402    5.1924   
4590007050  -5.0871    117.68   -15.875    162.56   -15.873    162.45   -3.0563    3.8548   
4605006975  -5.0348    116.16   -15.955    160.96   -15.922    161   -3.0472    2.2247   
4620006900  -5.0085    114.81   -16.002    159.52   -16.014    159.06   -3.0325    .6468   
4635006825  -4.9601    113.37   -16.066    158.08   -16.037    157.72   -3.0495   -.7923   
4650006750  -4.9187    111.98   -16.104    156.5   -16.13    156.07   -3.0549   -2.3758   
4665006675  -4.9006    110.59   -16.151    155.23   -16.19    154.47   -3.0325   -3.8205   
4680006600  -4.8479    109.14   -16.271    153.48   -16.257    152.7   -3.0436   -5.5138   
4695006525  -4.8069    107.78   -16.287    151.85   -16.327    151.53   -3.0469   -6.9846   
4710006450  -4.7722    106.3   -16.395    150.31   -16.402    149.74   -3.0535   -8.5886   
4725006375  -4.7479    105   -16.424    148.86   -16.49    148.32   -3.0399   -10.168   
4740006300  -4.712    103.6   -16.54    147.28   -16.508    146.81   -3.0509   -11.619   
4755006225  -4.6748    102.23   -16.571    145.64   -16.61    145.14   -3.0639   -13.326   
4770006150  -4.6472    100.81   -16.648    144.06   -16.637    143.72   -3.0498   -14.862   
4785006075  -4.6044    99.411   -16.713    142.54   -16.718    142.2   -3.0579   -16.455   
4800006000  -4.5921    98.06   -16.753    141.04   -16.791    140.62   -3.0721   -17.97   
4815005925  -4.5561    96.817   -16.834    139.56   -16.872    139.16   -3.0706   -19.666   
4830005850  -4.5306    95.334   -16.899    137.82   -16.985    137.36   -3.0797   -21.204   
4845005775  -4.4934    93.992   -16.954    135.99   -16.998    136   -3.0747   -22.814   
4860005700  -4.4561    92.699   -17.012    134.53   -17.023    134.1   -3.0668   -24.438   
4875005625  -4.4446    91.353   -17.094    133.22   -17.119    132.83   -3.0873   -25.906   
4890005550  -4.399    90.04   -17.175    131.84   -17.157    130.96   -3.1028   -27.692   
4905005475  -4.3724    88.745   -17.211    129.84   -17.307    129.66   -3.09   -29.108   
4920005400  -4.3503    87.249   -17.294    128.32   -17.328    128.2   -3.0901   -30.753   
4935005325  -4.3274    85.913   -17.352    126.76   -17.4    126.65   -3.1153   -32.386   
4950005250  -4.2968    84.596   -17.424    125.56   -17.458    124.58   -3.1068   -34.012   
4965005175  -4.2805    83.259   -17.526    123.85   -17.526    123.41   -3.0992   -35.505   
4980005100  -4.2592    81.858   -17.544    122.32   -17.613    121.71   -3.1082   -37.266   
4995005025  -4.2342    80.515   -17.637    120.83   -17.64    120.37   -3.1219   -39.007   
5010004950  -4.2096    79.114   -17.688    119.37   -17.751    118.91   -3.1302   -40.61   
5025004875  -4.1987    77.769   -17.768    117.49   -17.745    116.94   -3.1017   -42.293   
5040004800  -4.1732    76.426   -17.813    115.72   -17.892    115.58   -3.1309   -43.778   
5055004725  -4.1774    75.076   -17.896    114.65   -17.973    113.94   -3.1318   -45.435   
5070004650  -4.1673    73.584   -18.031    112.87   -18.041    112.04   -3.1503   -47.226   
5085004575  -4.1696    72.175   -18.05    111.51   -18.099    110.42   -3.1357   -48.841   
5100004500  -4.1821    70.722   -18.131    109.96   -18.186    109.52   -3.1403   -50.639   
5115004425  -4.2063    69.424   -18.259    108.4   -18.321    108.16   -3.1478   -52.173   
5130004350  -4.2321    68.089   -18.341    107.29   -18.297    106.69   -3.1581   -53.895   
5145004275  -4.3002    66.731   -18.43    105.81   -18.454    105.53   -3.1515   -55.627   
5160004200  -4.3621    65.834   -18.514    104.58   -18.527    104.36   -3.1813   -57.24   
5175004125  -4.394    65.13   -18.477    103.28   -18.611    103   -3.1893   -58.987   
5190004050  -4.4018    64.497   -18.574    102.3   -18.659    101.97   -3.1941   -60.555   
5205003975  -4.3605    63.789   -18.54    101.15   -18.632    100.96   -3.2044   -62.249   
5220003900  -4.307    62.906   -18.582    99.249   -18.714    98.914   -3.1967   -64.079   
5235003825  -4.2332    62.026   -18.694    98.01   -18.69    97.368   -3.2326   -65.793   
5250003750  -4.1856    60.932   -18.638    96.729   -18.745    96.217   -3.2334   -67.323   
5265003675  -4.1342    59.722   -18.722    94.97   -18.69    94.179   -3.2382   -69.049   
5280003600  -4.0963    58.44   -18.725    93.756   -18.774    93.432   -3.2606   -70.815   
5295003525  -4.0413    57.306   -18.8    91.957   -18.787    91.446   -3.2685   -72.416   
5310003450  -4.0197    55.909   -18.78    90.981   -18.802    89.967   -3.251   -74.148   
5325003375  -3.9967    54.761   -18.799    88.874   -18.885    88.554   -3.2594   -75.9   
5340003300  -3.9642    53.546   -18.806    87.403   -18.918    87.372   -3.2723   -77.535   
5355003225  -3.9426    52.25   -18.921    85.383   -18.961    85.457   -3.2853   -78.986   
5370003150  -3.9085    50.983   -18.905    84.512   -18.947    84.021   -3.2831   -80.826   
5385003075  -3.9088    49.802   -18.969    82.9   -19.002    82.408   -3.2843   -82.658   
5400003000  -3.8652    48.604   -19.003    81.034   -19.098    80.708   -3.2808   -84.273   
5415002925  -3.8571    47.403   -19.039    79.43   -19.157    78.931   -3.2883   -85.965   
5430002850  -3.8424    46.119   -19.063    77.75   -19.19    77.636   -3.2883   -87.61   
5445002775  -3.8332    44.922   -19.112    75.977   -19.212    76.365   -3.2901   -89.477   
5460002700  -3.8123    43.684   -19.199    74.713   -19.304    74.265   -3.2989   -91.143   
5475002625  -3.8033    42.437   -19.189    73.13   -19.286    73.012   -3.2865   -92.87   
5490002550  -3.788    41.18   -19.317    71.348   -19.367    70.944   -3.2932   -94.596   
5505002475  -3.7754    39.912   -19.275    69.715   -19.393    69.197   -3.2901   -96.29   
5520002400  -3.7677    38.85   -19.41    68.313   -19.452    67.654   -3.2853   -98.129   
5535002325  -3.7581    37.636   -19.377    66.723   -19.527    65.912   -3.2839   -99.849   
5550002250  -3.7445    36.458   -19.449    64.887   -19.497    64.612   -3.2871   -101.72   
5565002175  -3.7242    35.133   -19.466    63.59   -19.581    62.942   -3.2696   -103.4   
5580002100  -3.72    33.985   -19.52    61.609   -19.607    61.363   -3.2758   -105.07   
5595002025  -3.6967    32.866   -19.657    59.966   -19.74    59.55   -3.2629   -106.9   
5610001950  -3.6971    31.587   -19.702    58.649   -19.776    57.964   -3.2658   -108.74   
5625001875  -3.6837    30.447   -19.681    56.897   -19.796    56.26   -3.2648   -110.53   
5640001800  -3.679    29.158   -19.772    55.4   -19.812    55.191   -3.2666   -112.25   
5655001725  -3.6672    27.962   -19.797    53.903   -19.912    53.208   -3.2799   -114.09   
5670001650  -3.6609    26.765   -19.818    51.927   -19.979    51.667   -3.2581   -115.78   
5685001575  -3.6535    25.583   -19.918    50.034   -20.018    49.922   -3.2693   -117.51   
5700001500  -3.6517    24.406   -20.003    48.778   -20.05    48.344   -3.2449   -119.34   
5715001425  -3.6454    23.221   -20.11    46.973   -20.192    46.394   -3.254   -121.02   
5730001350  -3.6476    22.018   -20.104    45   -20.218    45.152   -3.2333   -122.8   
5745001275  -3.6254    20.712   -20.146    43.949   -20.271    43.077   -3.2301   -124.57   
5760001200  -3.6409    19.547   -20.254    42.233   -20.333    41.815   -3.2561   -126.35   
5775001125  -3.6243    18.453   -20.24    40.47   -20.388    39.957   -3.2304   -128.18   
5790001050  -3.6146    17.143   -20.402    39.324   -20.442    38.544   -3.2276   -129.94   
5805000975  -3.6163    15.999   -20.417    37.319   -20.507    37.382   -3.2318   -131.7   
5820000900  -3.607    14.805   -20.498    35.946   -20.6    35.342   -3.2157   -133.54   
5835000825  -3.6001    13.535   -20.51    34.434   -20.654    34.146   -3.1978   -135.32   
5850000750  -3.5998    12.427   -20.569    33.028   -20.762    32.478   -3.2092   -137.03   
5865000675  -3.6128    11.229   -20.654    31.058   -20.784    30.572   -3.2023   -138.84   
5880000600  -3.5999    9.9385   -20.673    29.92   -20.833    28.845   -3.1999   -140.58   
5895000525  -3.6075    8.8426   -20.819    27.801   -20.949    27.592   -3.2013   -142.37   
5910000450  -3.5973    7.5613   -20.816    26.268   -20.966    25.814   -3.1873   -144.09   
5925000375  -3.5894    6.4229   -20.868    24.719   -21.063    24.343   -3.1903   -145.77   
5940000300  -3.5954    5.1704   -21.008    22.88   -21.135    22.587   -3.1688   -147.62   
5955000225  -3.5979    3.9317   -21.071    21.118   -21.123    21.113   -3.1745   -149.33   
5970000150  -3.5982    2.7631   -21.115    19.731   -21.22    19.238   -3.1746   -151.15   
5985000075  -3.5943    1.6438   -21.236    18.991   -21.393    18.159   -3.1514   -152.83   
6000000000  -3.5809    .2458   -21.222    16.342   -21.375    16.659   -3.1683   -154.64   

