! (c) 2014 Infineon Technologies AG
!
! BGA7M1N6 - Silicon Germanium Low Noise Amplifier for LTE
!
! 03 October 2014
!
! Special Application Board
! C1 = L1 = 0 Ohm
! C2 = 100 nF
! Vcc = 2.8V
!
! RF input and output lines de-embedded
! Port 1 reference plane: LNA input AI (pin 5)
! Port 2 reference plane: LNA output AO (pin 3)
!
! Network Data:
! Measured BGA7L1N6 device level s-parameters

# Hz S dB R 50
!-----------------------------------------------------------------------------
!Freq         MagS11       AngS11       MagS21       AngS21       MagS12       AngS12       MagS22       AngS22

100000		-8.588096e-001	1.268634e+000	-5.549612e+001	-6.629506e+001	-6.626526e+001	1.146623e+002	8.222358e-003	-8.434401e-002
5412438		-3.993288e-001	-1.357764e-001	-2.363285e+001	-1.474503e+002	-7.021136e+001	1.059484e+001	-4.244059e-003	-9.125877e-001
10724875	-3.953008e-001	-6.993720e-001	-2.134807e+001	-1.243464e+002	-7.997112e+001	8.157992e+000	-5.695363e-003	-1.891637e+000
16037313	-3.825888e-001	-1.027111e+000	-1.914976e+001	-1.164928e+002	-8.102039e+001	1.159166e+002	-8.659744e-003	-2.819706e+000
21349750	-3.895529e-001	-1.419923e+000	-1.707178e+001	-1.130972e+002	-8.078426e+001	1.640615e+002	-1.168759e-002	-3.755209e+000
26662188	-3.984560e-001	-1.703785e+000	-1.530302e+001	-1.114504e+002	-7.897554e+001	1.266394e+002	-1.561390e-002	-4.675412e+000
31974625	-4.108082e-001	-2.095652e+000	-1.387473e+001	-1.104239e+002	-7.671735e+001	1.315918e+002	-2.148420e-002	-5.598749e+000
37287063	-4.017238e-001	-2.290599e+000	-1.291245e+001	-1.095395e+002	-7.566277e+001	1.396611e+002	-2.839205e-002	-6.540889e+000
42599500	-3.779452e-001	-2.524409e+000	-1.217498e+001	-1.098575e+002	-7.380974e+001	1.559764e+002	-3.355538e-002	-7.440759e+000
47911938	-3.714453e-001	-2.931171e+000	-1.194935e+001	-1.101727e+002	-7.355384e+001	1.575618e+002	-4.251887e-002	-8.360813e+000
53224375	-3.631791e-001	-3.229345e+000	-1.155963e+001	-1.105078e+002	-7.075495e+001	1.563327e+002	-5.166168e-002	-9.288204e+000
58536813	-3.629598e-001	-3.492786e+000	-1.108290e+001	-1.109257e+002	-6.994355e+001	1.622580e+002	-6.207504e-002	-1.019778e+001
63849250	-3.833586e-001	-3.870933e+000	-1.051730e+001	-1.116722e+002	-6.888169e+001	1.544447e+002	-7.371082e-002	-1.113430e+001
69161688	-3.856870e-001	-4.124751e+000	-1.001884e+001	-1.121896e+002	-6.700008e+001	1.442742e+002	-8.346765e-002	-1.203667e+001
74474125	-3.832084e-001	-4.409821e+000	-9.471355e+000	-1.129223e+002	-6.556809e+001	1.489343e+002	-9.626006e-002	-1.293821e+001
79786563	-3.925755e-001	-4.728764e+000	-8.950421e+000	-1.137139e+002	-6.488693e+001	1.392109e+002	-1.090490e-001	-1.386570e+001
85099000	-4.066189e-001	-5.031584e+000	-8.404930e+000	-1.144508e+002	-6.337622e+001	1.504119e+002	-1.222501e-001	-1.476942e+001
90411438	-4.218066e-001	-5.343809e+000	-7.894064e+000	-1.152559e+002	-6.228239e+001	1.430369e+002	-1.352678e-001	-1.565638e+001
95723875	-4.426276e-001	-5.586797e+000	-7.342550e+000	-1.162950e+002	-6.180268e+001	1.447342e+002	-1.491663e-001	-1.656917e+001
101036313	-4.553071e-001	-5.851299e+000	-6.822332e+000	-1.172743e+002	-6.187501e+001	1.448111e+002	-1.671052e-001	-1.746704e+001
106348750	-4.684553e-001	-6.161237e+000	-6.319598e+000	-1.181468e+002	-6.062691e+001	1.436422e+002	-1.805044e-001	-1.835931e+001
111661188	-4.945405e-001	-6.449317e+000	-5.863556e+000	-1.190038e+002	-6.005837e+001	1.430275e+002	-1.975514e-001	-1.925003e+001
116973625	-5.025112e-001	-6.702598e+000	-5.442292e+000	-1.201005e+002	-5.979713e+001	1.430185e+002	-2.126701e-001	-2.014847e+001
122286063	-5.171667e-001	-7.035343e+000	-5.039614e+000	-1.209426e+002	-5.910989e+001	1.395375e+002	-2.313825e-001	-2.105282e+001
127598500	-5.278946e-001	-7.291835e+000	-4.695938e+000	-1.218068e+002	-5.848553e+001	1.419273e+002	-2.537012e-001	-2.197168e+001
132910938	-5.520697e-001	-7.616184e+000	-4.325021e+000	-1.226410e+002	-5.823049e+001	1.423029e+002	-2.685229e-001	-2.285616e+001
138223375	-5.667393e-001	-7.921878e+000	-4.005752e+000	-1.235925e+002	-5.690635e+001	1.392005e+002	-2.877361e-001	-2.372027e+001
143535813	-5.870090e-001	-8.096945e+000	-3.723334e+000	-1.244721e+002	-5.714533e+001	1.426218e+002	-3.053354e-001	-2.461883e+001
148848250	-6.056433e-001	-8.390555e+000	-3.456726e+000	-1.251272e+002	-5.643722e+001	1.441158e+002	-3.281743e-001	-2.547755e+001
154160688	-6.158628e-001	-8.742266e+000	-3.213438e+000	-1.259407e+002	-5.628285e+001	1.380500e+002	-3.498263e-001	-2.638137e+001
159473125	-6.497414e-001	-8.883106e+000	-2.972052e+000	-1.266525e+002	-5.533877e+001	1.407141e+002	-3.712061e-001	-2.725258e+001
164785563	-6.544086e-001	-9.181260e+000	-2.720758e+000	-1.274913e+002	-5.515670e+001	1.425446e+002	-3.870877e-001	-2.811585e+001
170098000	-6.645006e-001	-9.491966e+000	-2.544044e+000	-1.284136e+002	-5.431230e+001	1.441079e+002	-4.043384e-001	-2.901355e+001
175410438	-6.782899e-001	-9.698534e+000	-2.356485e+000	-1.288549e+002	-5.432838e+001	1.434822e+002	-4.299471e-001	-2.985225e+001
180722875	-7.112246e-001	-9.972425e+000	-2.171538e+000	-1.295801e+002	-5.415743e+001	1.429288e+002	-4.512928e-001	-3.075284e+001
186035313	-7.115238e-001	-1.021307e+001	-1.996967e+000	-1.300916e+002	-5.348318e+001	1.445418e+002	-4.701968e-001	-3.161846e+001
191347750	-7.343040e-001	-1.045046e+001	-1.841519e+000	-1.307631e+002	-5.319449e+001	1.434053e+002	-4.935320e-001	-3.249785e+001
196660188	-7.560534e-001	-1.058992e+001	-1.704861e+000	-1.312299e+002	-5.259071e+001	1.424738e+002	-5.155067e-001	-3.336919e+001
201972625	-7.635864e-001	-1.091791e+001	-1.561604e+000	-1.317824e+002	-5.212665e+001	1.435967e+002	-5.351149e-001	-3.425260e+001
207285063	-7.728316e-001	-1.111372e+001	-1.417643e+000	-1.323467e+002	-5.213581e+001	1.421361e+002	-5.551006e-001	-3.509939e+001
212597500	-7.960314e-001	-1.135701e+001	-1.298743e+000	-1.328294e+002	-5.167184e+001	1.441880e+002	-5.803333e-001	-3.597060e+001
217909938	-8.139745e-001	-1.158155e+001	-1.154977e+000	-1.330977e+002	-5.140754e+001	1.434967e+002	-6.036462e-001	-3.684691e+001
223222375	-8.254525e-001	-1.182573e+001	-1.058688e+000	-1.334894e+002	-5.138564e+001	1.443328e+002	-6.241950e-001	-3.769798e+001
228534813	-8.403173e-001	-1.199245e+001	-9.426823e-001	-1.338122e+002	-5.101296e+001	1.463925e+002	-6.497130e-001	-3.856350e+001
233847250	-8.564938e-001	-1.219173e+001	-8.464938e-001	-1.340272e+002	-5.084928e+001	1.433073e+002	-6.708979e-001	-3.943265e+001
239159688	-8.647983e-001	-1.244633e+001	-7.286767e-001	-1.344155e+002	-5.038450e+001	1.452931e+002	-6.933189e-001	-4.029798e+001
244472125	-8.832612e-001	-1.271095e+001	-6.451541e-001	-1.346985e+002	-5.015538e+001	1.452313e+002	-7.173231e-001	-4.116966e+001
249784563	-9.017752e-001	-1.290895e+001	-5.646770e-001	-1.351364e+002	-5.011940e+001	1.454756e+002	-7.404319e-001	-4.203848e+001
255097000	-9.087042e-001	-1.309857e+001	-4.540285e-001	-1.352640e+002	-4.954715e+001	1.455400e+002	-7.675136e-001	-4.291699e+001
260409438	-9.236486e-001	-1.329576e+001	-3.701591e-001	-1.354305e+002	-4.939166e+001	1.463559e+002	-7.922902e-001	-4.378210e+001
265721875	-9.455998e-001	-1.356275e+001	-2.598008e-001	-1.356693e+002	-4.905052e+001	1.455851e+002	-8.177696e-001	-4.464780e+001
271034313	-9.603495e-001	-1.383066e+001	-1.786193e-001	-1.356914e+002	-4.874461e+001	1.478615e+002	-8.391408e-001	-4.549585e+001
276346750	-9.736228e-001	-1.397626e+001	-9.460924e-002	-1.358356e+002	-4.846906e+001	1.469879e+002	-8.680799e-001	-4.639468e+001
281659188	-9.825844e-001	-1.414832e+001	1.287861e-002	-1.360033e+002	-4.838468e+001	1.480791e+002	-8.905358e-001	-4.727312e+001
286971625	-9.917873e-001	-1.440747e+001	8.753860e-002	-1.362086e+002	-4.812987e+001	1.477357e+002	-9.188574e-001	-4.815287e+001
292284063	-1.012891e+000	-1.454512e+001	1.651477e-001	-1.361335e+002	-4.803795e+001	1.481198e+002	-9.430044e-001	-4.900896e+001
297596500	-1.027229e+000	-1.478587e+001	2.812672e-001	-1.362028e+002	-4.773215e+001	1.489399e+002	-9.690731e-001	-4.990138e+001
302908938	-1.041323e+000	-1.493057e+001	3.522481e-001	-1.361111e+002	-4.753729e+001	1.489666e+002	-9.994953e-001	-5.079810e+001
308221375	-1.052095e+000	-1.521374e+001	4.259472e-001	-1.362126e+002	-4.742403e+001	1.501905e+002	-1.021170e+000	-5.166889e+001
313533813	-1.059780e+000	-1.538313e+001	5.346938e-001	-1.364757e+002	-4.703087e+001	1.503776e+002	-1.046056e+000	-5.253269e+001
318846250	-1.079602e+000	-1.569378e+001	6.444966e-001	-1.363971e+002	-4.680016e+001	1.507129e+002	-1.075196e+000	-5.344168e+001
324158688	-1.080762e+000	-1.581503e+001	7.361663e-001	-1.364085e+002	-4.661306e+001	1.519531e+002	-1.103244e+000	-5.433519e+001
329471125	-1.097083e+000	-1.603430e+001	8.317668e-001	-1.362626e+002	-4.633225e+001	1.515284e+002	-1.126860e+000	-5.524528e+001
334783563	-1.114149e+000	-1.622716e+001	9.132156e-001	-1.363683e+002	-4.614104e+001	1.521758e+002	-1.155843e+000	-5.611676e+001
340096000	-1.123131e+000	-1.643298e+001	1.017031e+000	-1.362779e+002	-4.606864e+001	1.536411e+002	-1.185205e+000	-5.699739e+001
345408438	-1.128898e+000	-1.664326e+001	1.127215e+000	-1.362812e+002	-4.566787e+001	1.539777e+002	-1.208933e+000	-5.791724e+001
350720875	-1.142247e+000	-1.676832e+001	1.201357e+000	-1.363085e+002	-4.549619e+001	1.546671e+002	-1.239450e+000	-5.883494e+001
356033313	-1.150845e+000	-1.702230e+001	1.353740e+000	-1.363975e+002	-4.526856e+001	1.552932e+002	-1.267901e+000	-5.971805e+001
361345750	-1.165953e+000	-1.728340e+001	1.421854e+000	-1.362804e+002	-4.497588e+001	1.560693e+002	-1.296051e+000	-6.060988e+001
366658188	-1.177012e+000	-1.738542e+001	1.557747e+000	-1.362157e+002	-4.469262e+001	1.567198e+002	-1.327302e+000	-6.155332e+001
371970625	-1.188583e+000	-1.761092e+001	1.648850e+000	-1.362932e+002	-4.443184e+001	1.572197e+002	-1.358915e+000	-6.247157e+001
377283063	-1.201343e+000	-1.781569e+001	1.754196e+000	-1.361984e+002	-4.418882e+001	1.581641e+002	-1.386627e+000	-6.337981e+001
382595500	-1.222728e+000	-1.793736e+001	1.870023e+000	-1.361364e+002	-4.401814e+001	1.589867e+002	-1.422587e+000	-6.432140e+001
387907938	-1.226788e+000	-1.816105e+001	1.986339e+000	-1.362769e+002	-4.364532e+001	1.597139e+002	-1.453014e+000	-6.523880e+001
393220375	-1.238771e+000	-1.830970e+001	2.110623e+000	-1.363423e+002	-4.349461e+001	1.596395e+002	-1.484423e+000	-6.617276e+001
398532813	-1.252005e+000	-1.853774e+001	2.228888e+000	-1.363208e+002	-4.326509e+001	1.599268e+002	-1.516851e+000	-6.713120e+001
403845250	-1.258233e+000	-1.872734e+001	2.334056e+000	-1.364000e+002	-4.301521e+001	1.610914e+002	-1.549974e+000	-6.808440e+001
409157688	-1.266268e+000	-1.893099e+001	2.475851e+000	-1.364879e+002	-4.288901e+001	1.614472e+002	-1.585669e+000	-6.903311e+001
414470125	-1.278187e+000	-1.906117e+001	2.591887e+000	-1.366209e+002	-4.259232e+001	1.619818e+002	-1.619695e+000	-6.999238e+001
419782563	-1.294990e+000	-1.927427e+001	2.713603e+000	-1.364896e+002	-4.227244e+001	1.619930e+002	-1.651808e+000	-7.098055e+001
425095000	-1.297715e+000	-1.948612e+001	2.842028e+000	-1.368140e+002	-4.199337e+001	1.627203e+002	-1.685923e+000	-7.196577e+001
430407438	-1.322902e+000	-1.967654e+001	2.963023e+000	-1.368875e+002	-4.176292e+001	1.630392e+002	-1.725145e+000	-7.295195e+001
435719875	-1.332709e+000	-1.988035e+001	3.082161e+000	-1.370351e+002	-4.145919e+001	1.638580e+002	-1.763961e+000	-7.394959e+001
441032313	-1.329674e+000	-2.007384e+001	3.228313e+000	-1.371831e+002	-4.120175e+001	1.645266e+002	-1.796196e+000	-7.492967e+001
446344750	-1.339887e+000	-2.026607e+001	3.369126e+000	-1.374663e+002	-4.098290e+001	1.648072e+002	-1.833650e+000	-7.593654e+001
451657188	-1.366848e+000	-2.049615e+001	3.470471e+000	-1.376195e+002	-4.073573e+001	1.647056e+002	-1.869998e+000	-7.696306e+001
456969625	-1.361998e+000	-2.067077e+001	3.583041e+000	-1.378696e+002	-4.045911e+001	1.657778e+002	-1.916068e+000	-7.793527e+001
462282063	-1.360569e+000	-2.090218e+001	3.739030e+000	-1.380851e+002	-4.017612e+001	1.656769e+002	-1.950573e+000	-7.899487e+001
467594500	-1.384758e+000	-2.105682e+001	3.838279e+000	-1.381520e+002	-3.993514e+001	1.666289e+002	-1.994485e+000	-8.000665e+001
472906938	-1.404172e+000	-2.126290e+001	3.972252e+000	-1.385322e+002	-3.959988e+001	1.668022e+002	-2.027505e+000	-8.105894e+001
478219375	-1.398679e+000	-2.146999e+001	4.124509e+000	-1.387317e+002	-3.937843e+001	1.668188e+002	-2.066558e+000	-8.212319e+001
483531813	-1.417466e+000	-2.177572e+001	4.227069e+000	-1.390736e+002	-3.912759e+001	1.668523e+002	-2.111437e+000	-8.317873e+001
488844250	-1.420053e+000	-2.185173e+001	4.348945e+000	-1.393053e+002	-3.884004e+001	1.677033e+002	-2.158317e+000	-8.421061e+001
494156688	-1.451891e+000	-2.212276e+001	4.482056e+000	-1.397140e+002	-3.860639e+001	1.677764e+002	-2.192010e+000	-8.528895e+001
499469125	-1.438063e+000	-2.227468e+001	4.611004e+000	-1.400656e+002	-3.829848e+001	1.679559e+002	-2.240505e+000	-8.631808e+001
504781563	-1.455418e+000	-2.255755e+001	4.737407e+000	-1.402768e+002	-3.806335e+001	1.678345e+002	-2.281284e+000	-8.738983e+001
510094000	-1.470748e+000	-2.281294e+001	4.856362e+000	-1.406642e+002	-3.778798e+001	1.679609e+002	-2.323397e+000	-8.848603e+001
515406438	-1.491680e+000	-2.292755e+001	4.954154e+000	-1.409451e+002	-3.760864e+001	1.682656e+002	-2.368113e+000	-8.956666e+001
520718875	-1.487417e+000	-2.318627e+001	5.096255e+000	-1.413654e+002	-3.728824e+001	1.681693e+002	-2.413818e+000	-9.064603e+001
526031313	-1.510797e+000	-2.334010e+001	5.215370e+000	-1.417788e+002	-3.705569e+001	1.684841e+002	-2.460844e+000	-9.175356e+001
531343750	-1.532160e+000	-2.364365e+001	5.330408e+000	-1.421560e+002	-3.678500e+001	1.686153e+002	-2.506513e+000	-9.285196e+001
536656188	-1.529672e+000	-2.382941e+001	5.459826e+000	-1.426523e+002	-3.656597e+001	1.686060e+002	-2.553782e+000	-9.396563e+001
541968625	-1.542927e+000	-2.403154e+001	5.561260e+000	-1.430376e+002	-3.631283e+001	1.682738e+002	-2.602734e+000	-9.510060e+001
547281063	-1.552460e+000	-2.428625e+001	5.683905e+000	-1.433982e+002	-3.603169e+001	1.683367e+002	-2.656074e+000	-9.621509e+001
552593500	-1.572406e+000	-2.451396e+001	5.810671e+000	-1.437394e+002	-3.578623e+001	1.685351e+002	-2.707317e+000	-9.733125e+001
557905938	-1.579074e+000	-2.479368e+001	5.913908e+000	-1.443647e+002	-3.556405e+001	1.683829e+002	-2.761180e+000	-9.846400e+001
563218375	-1.592376e+000	-2.495539e+001	6.018516e+000	-1.449107e+002	-3.534000e+001	1.684036e+002	-2.811413e+000	-9.958793e+001
568530813	-1.606115e+000	-2.521999e+001	6.145181e+000	-1.453715e+002	-3.505325e+001	1.683723e+002	-2.864736e+000	-1.007550e+002
573843250	-1.622093e+000	-2.542108e+001	6.245730e+000	-1.458482e+002	-3.484700e+001	1.680874e+002	-2.924426e+000	-1.018747e+002
579155688	-1.630286e+000	-2.567504e+001	6.378765e+000	-1.464019e+002	-3.457474e+001	1.678797e+002	-2.979967e+000	-1.030606e+002
584468125	-1.650436e+000	-2.583896e+001	6.485983e+000	-1.468483e+002	-3.434954e+001	1.677130e+002	-3.036849e+000	-1.041835e+002
589780563	-1.652736e+000	-2.615238e+001	6.604760e+000	-1.474100e+002	-3.413278e+001	1.674106e+002	-3.091256e+000	-1.053805e+002
595093000	-1.666521e+000	-2.630441e+001	6.681922e+000	-1.479086e+002	-3.389619e+001	1.672631e+002	-3.146892e+000	-1.065335e+002
600405438	-1.688522e+000	-2.647005e+001	6.790326e+000	-1.485717e+002	-3.366525e+001	1.671504e+002	-3.211302e+000	-1.077311e+002
605717875	-1.694530e+000	-2.676788e+001	6.886066e+000	-1.491161e+002	-3.343763e+001	1.671330e+002	-3.270845e+000	-1.089148e+002
611030313	-1.718041e+000	-2.692700e+001	7.001328e+000	-1.496009e+002	-3.320622e+001	1.667664e+002	-3.330383e+000	-1.100899e+002
616342750	-1.726685e+000	-2.715597e+001	7.080300e+000	-1.502912e+002	-3.302298e+001	1.665290e+002	-3.390732e+000	-1.113206e+002
621655188	-1.743539e+000	-2.729279e+001	7.182136e+000	-1.508556e+002	-3.278233e+001	1.664135e+002	-3.455424e+000	-1.125412e+002
626967625	-1.746749e+000	-2.757615e+001	7.285909e+000	-1.514958e+002	-3.257789e+001	1.661877e+002	-3.522569e+000	-1.137626e+002
632280063	-1.784013e+000	-2.779620e+001	7.381005e+000	-1.520035e+002	-3.235227e+001	1.660464e+002	-3.581410e+000	-1.149805e+002
637592500	-1.796274e+000	-2.803022e+001	7.473512e+000	-1.526852e+002	-3.211970e+001	1.657186e+002	-3.653404e+000	-1.161874e+002
642904938	-1.806054e+000	-2.827018e+001	7.559755e+000	-1.533012e+002	-3.190711e+001	1.654426e+002	-3.724882e+000	-1.174120e+002
648217375	-1.831582e+000	-2.851731e+001	7.625095e+000	-1.539919e+002	-3.168541e+001	1.650719e+002	-3.785171e+000	-1.187010e+002
653529813	-1.841287e+000	-2.877254e+001	7.736223e+000	-1.545037e+002	-3.146391e+001	1.646829e+002	-3.854454e+000	-1.199322e+002
658842250	-1.869103e+000	-2.902050e+001	7.816994e+000	-1.552788e+002	-3.124068e+001	1.642620e+002	-3.919370e+000	-1.212468e+002
664154688	-1.868297e+000	-2.917439e+001	7.896524e+000	-1.558592e+002	-3.106757e+001	1.639342e+002	-3.993244e+000	-1.225256e+002
669467125	-1.922135e+000	-2.941888e+001	7.985948e+000	-1.564777e+002	-3.088806e+001	1.637165e+002	-4.063143e+000	-1.238040e+002
674779563	-1.922626e+000	-2.961096e+001	8.069683e+000	-1.571565e+002	-3.066970e+001	1.632608e+002	-4.130343e+000	-1.251050e+002
680092000	-1.944560e+000	-2.991641e+001	8.144234e+000	-1.577939e+002	-3.048490e+001	1.628439e+002	-4.207347e+000	-1.264291e+002
685404438	-1.968847e+000	-3.012100e+001	8.211110e+000	-1.585674e+002	-3.029811e+001	1.624374e+002	-4.274164e+000	-1.277187e+002
690716875	-1.979340e+000	-3.040501e+001	8.296962e+000	-1.592359e+002	-3.009994e+001	1.619922e+002	-4.352335e+000	-1.290651e+002
696029313	-1.999972e+000	-3.042752e+001	8.387312e+000	-1.598583e+002	-2.991155e+001	1.614567e+002	-4.429586e+000	-1.304060e+002
701341750	-2.014927e+000	-3.075579e+001	8.435680e+000	-1.605787e+002	-2.974666e+001	1.611448e+002	-4.499193e+000	-1.317313e+002
706654188	-2.023616e+000	-3.099592e+001	8.535762e+000	-1.612025e+002	-2.956090e+001	1.606618e+002	-4.582476e+000	-1.331119e+002
711966625	-2.065445e+000	-3.119588e+001	8.603895e+000	-1.619393e+002	-2.938088e+001	1.603094e+002	-4.657326e+000	-1.344603e+002
717279063	-2.087822e+000	-3.140309e+001	8.672077e+000	-1.624831e+002	-2.919986e+001	1.600087e+002	-4.740453e+000	-1.357949e+002
722591500	-2.091151e+000	-3.162860e+001	8.743534e+000	-1.633305e+002	-2.904190e+001	1.595694e+002	-4.813615e+000	-1.372122e+002
727903938	-2.127578e+000	-3.186587e+001	8.806325e+000	-1.639838e+002	-2.884644e+001	1.588894e+002	-4.892120e+000	-1.386207e+002
733216375	-2.153353e+000	-3.212574e+001	8.858059e+000	-1.647502e+002	-2.867338e+001	1.584802e+002	-4.971399e+000	-1.400019e+002
738528813	-2.172891e+000	-3.231359e+001	8.912052e+000	-1.653937e+002	-2.850649e+001	1.579075e+002	-5.055283e+000	-1.414543e+002
743841250	-2.192886e+000	-3.249491e+001	9.006347e+000	-1.661067e+002	-2.834112e+001	1.574617e+002	-5.137322e+000	-1.428752e+002
749153688	-2.222146e+000	-3.269429e+001	9.044352e+000	-1.668273e+002	-2.817887e+001	1.571110e+002	-5.221356e+000	-1.443304e+002
754466125	-2.241786e+000	-3.286492e+001	9.110282e+000	-1.674518e+002	-2.800735e+001	1.566617e+002	-5.305555e+000	-1.457911e+002
759778563	-2.267516e+000	-3.322692e+001	9.162188e+000	-1.682681e+002	-2.782894e+001	1.561806e+002	-5.387149e+000	-1.472505e+002
765091000	-2.294806e+000	-3.339674e+001	9.237468e+000	-1.690521e+002	-2.768219e+001	1.556752e+002	-5.473609e+000	-1.487006e+002
770403438	-2.325541e+000	-3.353286e+001	9.290292e+000	-1.697080e+002	-2.753657e+001	1.551088e+002	-5.564641e+000	-1.502212e+002
775715875	-2.336519e+000	-3.370455e+001	9.346395e+000	-1.704328e+002	-2.738803e+001	1.546464e+002	-5.649435e+000	-1.517080e+002
781028313	-2.366864e+000	-3.390645e+001	9.387735e+000	-1.711864e+002	-2.723091e+001	1.541242e+002	-5.738488e+000	-1.532292e+002
786340750	-2.402758e+000	-3.421351e+001	9.434773e+000	-1.719623e+002	-2.707747e+001	1.535901e+002	-5.821384e+000	-1.547713e+002
791653188	-2.429644e+000	-3.437831e+001	9.478394e+000	-1.726059e+002	-2.691561e+001	1.531381e+002	-5.907682e+000	-1.562710e+002
796965625	-2.447666e+000	-3.451186e+001	9.535286e+000	-1.733769e+002	-2.675744e+001	1.526094e+002	-5.995698e+000	-1.578029e+002
802278063	-2.481167e+000	-3.473324e+001	9.571268e+000	-1.740453e+002	-2.662346e+001	1.520989e+002	-6.083630e+000	-1.593723e+002
807590500	-2.494371e+000	-3.488482e+001	9.620917e+000	-1.748219e+002	-2.648212e+001	1.515056e+002	-6.166175e+000	-1.609664e+002
812902938	-2.521977e+000	-3.511635e+001	9.670446e+000	-1.754128e+002	-2.635846e+001	1.510781e+002	-6.257681e+000	-1.625707e+002
818215375	-2.563760e+000	-3.522388e+001	9.704445e+000	-1.762430e+002	-2.623452e+001	1.504387e+002	-6.346249e+000	-1.641721e+002
823527813	-2.577921e+000	-3.547060e+001	9.738172e+000	-1.769854e+002	-2.608589e+001	1.499564e+002	-6.430998e+000	-1.657966e+002
828840250	-2.622517e+000	-3.559072e+001	9.772242e+000	-1.777137e+002	-2.595603e+001	1.493845e+002	-6.515141e+000	-1.673669e+002
834152688	-2.640061e+000	-3.575745e+001	9.816317e+000	-1.784885e+002	-2.582894e+001	1.490142e+002	-6.607932e+000	-1.690455e+002
839465125	-2.681954e+000	-3.594041e+001	9.841841e+000	-1.792053e+002	-2.568012e+001	1.484264e+002	-6.696508e+000	-1.707149e+002
844777563	-2.700698e+000	-3.604168e+001	9.887960e+000	-1.798763e+002	-2.555599e+001	1.477709e+002	-6.776884e+000	-1.723897e+002
850090000	-2.731923e+000	-3.617238e+001	9.918181e+000	1.793702e+002	-2.541965e+001	1.473205e+002	-6.864950e+000	-1.740251e+002
855402438	-2.767256e+000	-3.636504e+001	9.948617e+000	1.787315e+002	-2.530509e+001	1.468199e+002	-6.943476e+000	-1.757168e+002
860714875	-2.797140e+000	-3.654229e+001	9.981086e+000	1.778604e+002	-2.518539e+001	1.462399e+002	-7.024723e+000	-1.774301e+002
866027313	-2.818337e+000	-3.670335e+001	1.000405e+001	1.771526e+002	-2.506138e+001	1.456719e+002	-7.102893e+000	-1.791022e+002
871339750	-2.845309e+000	-3.684804e+001	1.003545e+001	1.763856e+002	-2.494707e+001	1.450603e+002	-7.180138e+000	1.791800e+002
876652188	-2.869884e+000	-3.699414e+001	1.006046e+001	1.757247e+002	-2.480704e+001	1.445857e+002	-7.256590e+000	1.774606e+002
881964625	-2.922226e+000	-3.716133e+001	1.007530e+001	1.750131e+002	-2.471608e+001	1.439481e+002	-7.328901e+000	1.757649e+002
887277063	-2.944970e+000	-3.726645e+001	1.010953e+001	1.742363e+002	-2.459446e+001	1.433985e+002	-7.405741e+000	1.740124e+002
892589500	-2.986012e+000	-3.738861e+001	1.012564e+001	1.735352e+002	-2.449048e+001	1.429384e+002	-7.477194e+000	1.722598e+002
897901938	-3.011098e+000	-3.764083e+001	1.015015e+001	1.728555e+002	-2.437700e+001	1.423933e+002	-7.549131e+000	1.705043e+002
903214375	-3.030994e+000	-3.770594e+001	1.016492e+001	1.721661e+002	-2.428003e+001	1.418409e+002	-7.614260e+000	1.687712e+002
908526813	-3.077265e+000	-3.782512e+001	1.018407e+001	1.714758e+002	-2.416693e+001	1.412840e+002	-7.676096e+000	1.670272e+002
913839250	-3.104492e+000	-3.800964e+001	1.020604e+001	1.707455e+002	-2.406307e+001	1.408714e+002	-7.748154e+000	1.652966e+002
919151688	-3.138499e+000	-3.806471e+001	1.021494e+001	1.700131e+002	-2.396168e+001	1.401233e+002	-7.808192e+000	1.635000e+002
924464125	-3.170537e+000	-3.822962e+001	1.023079e+001	1.692481e+002	-2.385216e+001	1.397723e+002	-7.863810e+000	1.616876e+002
929776563	-3.190850e+000	-3.834684e+001	1.025390e+001	1.686500e+002	-2.375071e+001	1.391421e+002	-7.929599e+000	1.599538e+002
935089000	-3.234088e+000	-3.858775e+001	1.026559e+001	1.679064e+002	-2.365515e+001	1.386099e+002	-7.984603e+000	1.581770e+002
940401438	-3.261808e+000	-3.875941e+001	1.028583e+001	1.671921e+002	-2.355670e+001	1.381490e+002	-8.044379e+000	1.563621e+002
945713875	-3.305243e+000	-3.872997e+001	1.028438e+001	1.665787e+002	-2.346453e+001	1.375470e+002	-8.097137e+000	1.546183e+002
951026313	-3.335770e+000	-3.888241e+001	1.030426e+001	1.657545e+002	-2.336206e+001	1.370327e+002	-8.141550e+000	1.528357e+002
956338750	-3.368860e+000	-3.901975e+001	1.030807e+001	1.651164e+002	-2.327704e+001	1.365393e+002	-8.195273e+000	1.510274e+002
961651188	-3.404857e+000	-3.901868e+001	1.031520e+001	1.644445e+002	-2.317481e+001	1.359771e+002	-8.238829e+000	1.492700e+002
966963625	-3.416402e+000	-3.920530e+001	1.034428e+001	1.637832e+002	-2.309049e+001	1.354798e+002	-8.279607e+000	1.475018e+002
972276063	-3.455102e+000	-3.938415e+001	1.033354e+001	1.630925e+002	-2.301429e+001	1.349097e+002	-8.318299e+000	1.456808e+002
977588500	-3.498261e+000	-3.933541e+001	1.032842e+001	1.624503e+002	-2.292808e+001	1.343458e+002	-8.357106e+000	1.439171e+002
982900938	-3.536308e+000	-3.945270e+001	1.033581e+001	1.617434e+002	-2.283859e+001	1.338434e+002	-8.399899e+000	1.421258e+002
988213375	-3.573243e+000	-3.961271e+001	1.034674e+001	1.610574e+002	-2.275704e+001	1.333691e+002	-8.432226e+000	1.403415e+002
993525813	-3.588198e+000	-3.962190e+001	1.035251e+001	1.604864e+002	-2.267677e+001	1.328452e+002	-8.461215e+000	1.385833e+002
998838250	-3.610294e+000	-3.973820e+001	1.035259e+001	1.597852e+002	-2.257656e+001	1.322557e+002	-8.490354e+000	1.367723e+002
1004150688	-3.660029e+000	-3.980157e+001	1.035289e+001	1.590938e+002	-2.249316e+001	1.319006e+002	-8.516050e+000	1.349960e+002
1009463125	-3.666646e+000	-3.990698e+001	1.035747e+001	1.583875e+002	-2.242475e+001	1.313065e+002	-8.531158e+000	1.332252e+002
1014775563	-3.725688e+000	-3.999159e+001	1.035875e+001	1.577818e+002	-2.234303e+001	1.308341e+002	-8.557232e+000	1.314548e+002
1020088000	-3.748374e+000	-4.012532e+001	1.034797e+001	1.571593e+002	-2.227558e+001	1.303513e+002	-8.583546e+000	1.297059e+002
1025400438	-3.766109e+000	-4.005158e+001	1.034674e+001	1.565068e+002	-2.219532e+001	1.298004e+002	-8.593554e+000	1.279156e+002
1030712875	-3.798026e+000	-4.023867e+001	1.034248e+001	1.558302e+002	-2.212817e+001	1.292815e+002	-8.604568e+000	1.261207e+002
1036025313	-3.834487e+000	-4.023075e+001	1.033393e+001	1.552312e+002	-2.204488e+001	1.288094e+002	-8.616154e+000	1.244347e+002
1041337750	-3.870285e+000	-4.028508e+001	1.033991e+001	1.545781e+002	-2.197837e+001	1.283677e+002	-8.615962e+000	1.227027e+002
1046650188	-3.889715e+000	-4.036306e+001	1.032914e+001	1.539804e+002	-2.190243e+001	1.277694e+002	-8.628997e+000	1.209527e+002
1051962625	-3.931155e+000	-4.042984e+001	1.032645e+001	1.532855e+002	-2.182412e+001	1.273185e+002	-8.623198e+000	1.192977e+002
1057275063	-3.960009e+000	-4.041428e+001	1.032486e+001	1.526962e+002	-2.176523e+001	1.268924e+002	-8.617409e+000	1.176432e+002
1062587500	-3.992681e+000	-4.036750e+001	1.031665e+001	1.520667e+002	-2.170195e+001	1.264080e+002	-8.612031e+000	1.159156e+002
1067899938	-4.021367e+000	-4.052425e+001	1.030298e+001	1.515787e+002	-2.163184e+001	1.258818e+002	-8.617840e+000	1.142518e+002
1073212375	-4.061329e+000	-4.043307e+001	1.029764e+001	1.508492e+002	-2.156520e+001	1.254165e+002	-8.600411e+000	1.126176e+002
1078524813	-4.085386e+000	-4.056957e+001	1.029425e+001	1.502367e+002	-2.150688e+001	1.249657e+002	-8.592002e+000	1.109470e+002
1083837250	-4.108115e+000	-4.064831e+001	1.027496e+001	1.496180e+002	-2.144537e+001	1.244587e+002	-8.563881e+000	1.092947e+002
1089149688	-4.139204e+000	-4.062758e+001	1.026967e+001	1.491188e+002	-2.137335e+001	1.239934e+002	-8.552175e+000	1.077398e+002
1094462125	-4.175103e+000	-4.065511e+001	1.025837e+001	1.483985e+002	-2.130848e+001	1.235078e+002	-8.531178e+000	1.061519e+002
1099774563	-4.190736e+000	-4.065935e+001	1.024795e+001	1.478370e+002	-2.124901e+001	1.230852e+002	-8.518800e+000	1.044992e+002
1105087000	-4.224492e+000	-4.062596e+001	1.022904e+001	1.472908e+002	-2.118261e+001	1.226360e+002	-8.503492e+000	1.030139e+002
1110399438	-4.256205e+000	-4.066907e+001	1.022559e+001	1.466964e+002	-2.112770e+001	1.221711e+002	-8.479627e+000	1.014892e+002
1115711875	-4.274986e+000	-4.069150e+001	1.020664e+001	1.461596e+002	-2.107108e+001	1.217146e+002	-8.448834e+000	9.996134e+001
1121024313	-4.313672e+000	-4.067059e+001	1.020065e+001	1.455375e+002	-2.101454e+001	1.212629e+002	-8.420866e+000	9.848189e+001
1126336750	-4.322155e+000	-4.065999e+001	1.017398e+001	1.449943e+002	-2.095530e+001	1.207419e+002	-8.405876e+000	9.702334e+001
1131649188	-4.363958e+000	-4.078242e+001	1.016633e+001	1.443380e+002	-2.090140e+001	1.203173e+002	-8.372468e+000	9.548793e+001
1136961625	-4.349372e+000	-4.076882e+001	1.015626e+001	1.438711e+002	-2.085246e+001	1.199367e+002	-8.341101e+000	9.405142e+001
1142274063	-4.427401e+000	-4.084841e+001	1.014983e+001	1.431436e+002	-2.079027e+001	1.195021e+002	-8.296058e+000	9.263431e+001
1147586500	-4.432735e+000	-4.066454e+001	1.011427e+001	1.426856e+002	-2.073485e+001	1.190185e+002	-8.274554e+000	9.121698e+001
1152898938	-4.457107e+000	-4.089053e+001	1.010522e+001	1.421066e+002	-2.068325e+001	1.186341e+002	-8.246919e+000	8.986372e+001
1158211375	-4.493391e+000	-4.074594e+001	1.008848e+001	1.415347e+002	-2.062378e+001	1.182143e+002	-8.214244e+000	8.848142e+001
1163523813	-4.523805e+000	-4.081300e+001	1.008702e+001	1.409936e+002	-2.057781e+001	1.177692e+002	-8.178715e+000	8.715707e+001
1168836250	-4.554908e+000	-4.075692e+001	1.006379e+001	1.405209e+002	-2.053436e+001	1.173277e+002	-8.142467e+000	8.584208e+001
1174148688	-4.582954e+000	-4.089393e+001	1.003679e+001	1.399281e+002	-2.047593e+001	1.169237e+002	-8.110815e+000	8.455084e+001
1179461125	-4.592413e+000	-4.086055e+001	1.002346e+001	1.393371e+002	-2.042428e+001	1.164879e+002	-8.072350e+000	8.325670e+001
1184773563	-4.623304e+000	-4.072200e+001	1.000297e+001	1.388775e+002	-2.037796e+001	1.160710e+002	-8.031751e+000	8.196044e+001
1190086000	-4.617740e+000	-4.097524e+001	9.983008e+000	1.382697e+002	-2.032631e+001	1.156355e+002	-7.994559e+000	8.066307e+001
1195398438	-4.666933e+000	-4.073968e+001	9.955911e+000	1.378242e+002	-2.027607e+001	1.152361e+002	-7.952988e+000	7.942654e+001
1200710875	-4.696889e+000	-4.075183e+001	9.943410e+000	1.372665e+002	-2.023426e+001	1.148188e+002	-7.916952e+000	7.817844e+001
1206023313	-4.689678e+000	-4.080009e+001	9.915169e+000	1.367569e+002	-2.017830e+001	1.144058e+002	-7.875439e+000	7.698671e+001
1211335750	-4.739145e+000	-4.076995e+001	9.902167e+000	1.362328e+002	-2.014187e+001	1.140081e+002	-7.832152e+000	7.579034e+001
1216648188	-4.761368e+000	-4.078321e+001	9.877858e+000	1.356411e+002	-2.010233e+001	1.136098e+002	-7.787427e+000	7.459546e+001
1221960625	-4.779810e+000	-4.078047e+001	9.866556e+000	1.350695e+002	-2.005775e+001	1.132874e+002	-7.753294e+000	7.341907e+001
1227273063	-4.772068e+000	-4.062915e+001	9.835935e+000	1.347285e+002	-2.001534e+001	1.128230e+002	-7.715867e+000	7.224403e+001
1232585500	-4.831928e+000	-4.073651e+001	9.822146e+000	1.340958e+002	-1.996418e+001	1.124773e+002	-7.664094e+000	7.111657e+001
1237897938	-4.839097e+000	-4.055148e+001	9.786679e+000	1.335655e+002	-1.992682e+001	1.121005e+002	-7.620707e+000	6.995296e+001
1243210375	-4.850621e+000	-4.086136e+001	9.781645e+000	1.331341e+002	-1.988287e+001	1.117046e+002	-7.581018e+000	6.883842e+001
1248522813	-4.857663e+000	-4.057302e+001	9.746346e+000	1.326683e+002	-1.984378e+001	1.113486e+002	-7.530035e+000	6.773480e+001
1253835250	-4.885765e+000	-4.053894e+001	9.725034e+000	1.322586e+002	-1.981086e+001	1.109551e+002	-7.490440e+000	6.669217e+001
1259147688	-4.910002e+000	-4.050330e+001	9.703414e+000	1.317039e+002	-1.976193e+001	1.106470e+002	-7.455530e+000	6.556919e+001
1264460125	-4.920751e+000	-4.048737e+001	9.676985e+000	1.312383e+002	-1.972691e+001	1.102030e+002	-7.402209e+000	6.453787e+001
1269772563	-4.932359e+000	-4.047751e+001	9.657307e+000	1.307957e+002	-1.968592e+001	1.098410e+002	-7.357591e+000	6.356388e+001
1275085000	-4.954069e+000	-4.040645e+001	9.631315e+000	1.302969e+002	-1.964374e+001	1.094489e+002	-7.318374e+000	6.247598e+001
1280397438	-4.962918e+000	-4.045193e+001	9.605545e+000	1.298225e+002	-1.961435e+001	1.090190e+002	-7.273153e+000	6.150047e+001
1285709875	-4.983468e+000	-4.043083e+001	9.584478e+000	1.293256e+002	-1.956937e+001	1.087649e+002	-7.227379e+000	6.048497e+001
1291022313	-5.010079e+000	-4.028464e+001	9.559961e+000	1.288182e+002	-1.953986e+001	1.083178e+002	-7.189824e+000	5.953443e+001
1296334750	-5.049237e+000	-4.015859e+001	9.521743e+000	1.283679e+002	-1.950227e+001	1.080233e+002	-7.143954e+000	5.852833e+001
1301647188	-5.074108e+000	-4.018327e+001	9.511055e+000	1.278490e+002	-1.945744e+001	1.076757e+002	-7.107542e+000	5.759322e+001
1306959625	-5.053533e+000	-4.010272e+001	9.478387e+000	1.275081e+002	-1.942141e+001	1.073995e+002	-7.060629e+000	5.666310e+001
1312272063	-5.067553e+000	-4.014128e+001	9.459147e+000	1.271146e+002	-1.938054e+001	1.070656e+002	-7.012012e+000	5.569924e+001
1317584500	-5.090339e+000	-4.000156e+001	9.428784e+000	1.265787e+002	-1.935072e+001	1.067731e+002	-6.973517e+000	5.478644e+001
1322896938	-5.098219e+000	-4.017536e+001	9.400985e+000	1.261721e+002	-1.931456e+001	1.064019e+002	-6.927578e+000	5.391759e+001
1328209375	-5.115921e+000	-3.989954e+001	9.376333e+000	1.256734e+002	-1.928389e+001	1.060114e+002	-6.896826e+000	5.306743e+001
1333521813	-5.141987e+000	-4.008568e+001	9.369912e+000	1.252132e+002	-1.924246e+001	1.056909e+002	-6.848040e+000	5.219622e+001
1338834250	-5.161692e+000	-3.984488e+001	9.319025e+000	1.247385e+002	-1.921276e+001	1.053191e+002	-6.807318e+000	5.135255e+001
1344146688	-5.187727e+000	-3.983510e+001	9.311346e+000	1.243380e+002	-1.917394e+001	1.049754e+002	-6.766763e+000	5.045142e+001
1349459125	-5.178292e+000	-3.973103e+001	9.281314e+000	1.239679e+002	-1.914944e+001	1.046168e+002	-6.737821e+000	4.964441e+001
1354771563	-5.213165e+000	-3.974031e+001	9.248170e+000	1.235211e+002	-1.911225e+001	1.043003e+002	-6.694471e+000	4.881604e+001
1360084000	-5.213609e+000	-3.991860e+001	9.229607e+000	1.231162e+002	-1.908973e+001	1.040288e+002	-6.659070e+000	4.794414e+001
1365396438	-5.244758e+000	-3.964616e+001	9.200857e+000	1.226613e+002	-1.905381e+001	1.037750e+002	-6.618197e+000	4.707450e+001
1370708875	-5.270678e+000	-3.982339e+001	9.169384e+000	1.222071e+002	-1.902642e+001	1.035750e+002	-6.586458e+000	4.631121e+001
1376021313	-5.283147e+000	-3.965807e+001	9.145244e+000	1.217837e+002	-1.899077e+001	1.033061e+002	-6.555628e+000	4.548373e+001
1381333750	-5.260127e+000	-3.959870e+001	9.114473e+000	1.214798e+002	-1.894022e+001	1.029041e+002	-6.524888e+000	4.474963e+001
1386646188	-5.314484e+000	-3.968025e+001	9.098801e+000	1.209717e+002	-1.889315e+001	1.026106e+002	-6.495797e+000	4.392670e+001
1391958625	-5.340130e+000	-3.944065e+001	9.058231e+000	1.204537e+002	-1.886199e+001	1.022294e+002	-6.455993e+000	4.320293e+001
1397271063	-5.331946e+000	-3.966323e+001	9.041974e+000	1.201581e+002	-1.882762e+001	1.019622e+002	-6.412731e+000	4.245711e+001
1402583500	-5.346938e+000	-3.957206e+001	9.015432e+000	1.197391e+002	-1.879660e+001	1.016657e+002	-6.387360e+000	4.172900e+001
1407895938	-5.364309e+000	-3.959221e+001	8.988840e+000	1.193215e+002	-1.876456e+001	1.012857e+002	-6.353417e+000	4.100258e+001
1413208375	-5.353731e+000	-3.937506e+001	8.954274e+000	1.189763e+002	-1.873160e+001	1.009636e+002	-6.312526e+000	4.029353e+001
1418520813	-5.363972e+000	-3.945461e+001	8.930879e+000	1.185910e+002	-1.870363e+001	1.006528e+002	-6.286448e+000	3.958745e+001
1423833250	-5.391720e+000	-3.951994e+001	8.913669e+000	1.181357e+002	-1.866292e+001	1.003379e+002	-6.241612e+000	3.883318e+001
1429145688	-5.398315e+000	-3.944723e+001	8.874975e+000	1.177023e+002	-1.863229e+001	9.997316e+001	-6.207892e+000	3.815639e+001
1434458125	-5.390415e+000	-3.932975e+001	8.841227e+000	1.173537e+002	-1.860845e+001	9.966018e+001	-6.171794e+000	3.746962e+001
1439770563	-5.424037e+000	-3.926832e+001	8.830147e+000	1.169786e+002	-1.858787e+001	9.927638e+001	-6.134151e+000	3.679437e+001
1445083000	-5.462609e+000	-3.925557e+001	8.797093e+000	1.164853e+002	-1.855698e+001	9.900381e+001	-6.094968e+000	3.611066e+001
1450395438	-5.448914e+000	-3.930502e+001	8.770004e+000	1.161680e+002	-1.854421e+001	9.869624e+001	-6.052088e+000	3.541386e+001
1455707875	-5.453362e+000	-3.939481e+001	8.747065e+000	1.157807e+002	-1.850607e+001	9.837293e+001	-6.035550e+000	3.475445e+001
1461020313	-5.451974e+000	-3.914698e+001	8.717888e+000	1.153709e+002	-1.848341e+001	9.813798e+001	-5.991728e+000	3.399597e+001
1466332750	-5.465839e+000	-3.919910e+001	8.695901e+000	1.150289e+002	-1.846094e+001	9.782282e+001	-5.959714e+000	3.333118e+001
1471645188	-5.463830e+000	-3.905454e+001	8.644549e+000	1.146034e+002	-1.844470e+001	9.753445e+001	-5.918243e+000	3.271862e+001
1476957625	-5.455662e+000	-3.889742e+001	8.626125e+000	1.142226e+002	-1.840587e+001	9.728456e+001	-5.887716e+000	3.202651e+001
1482270063	-5.459129e+000	-3.899532e+001	8.593918e+000	1.139078e+002	-1.838633e+001	9.701589e+001	-5.845312e+000	3.137961e+001
1487582500	-5.479168e+000	-3.894028e+001	8.563716e+000	1.135342e+002	-1.836185e+001	9.667531e+001	-5.815019e+000	3.077909e+001
1492894938	-5.467772e+000	-3.883212e+001	8.523010e+000	1.131346e+002	-1.833983e+001	9.644313e+001	-5.778489e+000	3.014324e+001
1498207375	-5.480533e+000	-3.882079e+001	8.496309e+000	1.127907e+002	-1.831088e+001	9.616807e+001	-5.750514e+000	2.954482e+001
1503519813	-5.497840e+000	-3.886926e+001	8.494597e+000	1.124121e+002	-1.828439e+001	9.587206e+001	-5.713158e+000	2.889941e+001
1508832250	-5.509475e+000	-3.869812e+001	8.457854e+000	1.120664e+002	-1.826184e+001	9.562982e+001	-5.687448e+000	2.836743e+001
1514144688	-5.503711e+000	-3.886981e+001	8.417300e+000	1.117226e+002	-1.824380e+001	9.532853e+001	-5.650926e+000	2.772238e+001
1519457125	-5.496886e+000	-3.860900e+001	8.383708e+000	1.113931e+002	-1.822930e+001	9.508406e+001	-5.618325e+000	2.713826e+001
1524769563	-5.501910e+000	-3.859953e+001	8.352172e+000	1.111176e+002	-1.820364e+001	9.489097e+001	-5.590683e+000	2.648702e+001
1530082000	-5.503843e+000	-3.869557e+001	8.339136e+000	1.106770e+002	-1.817980e+001	9.460418e+001	-5.548765e+000	2.594112e+001
1535394438	-5.519193e+000	-3.854973e+001	8.303028e+000	1.102657e+002	-1.814558e+001	9.437135e+001	-5.522315e+000	2.535176e+001
1540706875	-5.536983e+000	-3.838363e+001	8.275636e+000	1.098866e+002	-1.812219e+001	9.409780e+001	-5.497359e+000	2.483702e+001
1546019313	-5.544778e+000	-3.849323e+001	8.242601e+000	1.095856e+002	-1.809729e+001	9.388318e+001	-5.465647e+000	2.432676e+001
1551331750	-5.521009e+000	-3.835019e+001	8.209219e+000	1.092844e+002	-1.807488e+001	9.358718e+001	-5.432866e+000	2.377609e+001
1556644188	-5.593691e+000	-3.825656e+001	8.198247e+000	1.088719e+002	-1.805720e+001	9.337209e+001	-5.407323e+000	2.324633e+001
1561956625	-5.528503e+000	-3.828910e+001	8.145255e+000	1.086448e+002	-1.802786e+001	9.302756e+001	-5.381294e+000	2.274105e+001
1567269063	-5.561130e+000	-3.816556e+001	8.118441e+000	1.082017e+002	-1.799457e+001	9.284615e+001	-5.358269e+000	2.217032e+001
1572581500	-5.606969e+000	-3.837713e+001	8.113608e+000	1.079698e+002	-1.798387e+001	9.259565e+001	-5.322658e+000	2.161660e+001
1577893938	-5.574274e+000	-3.832350e+001	8.072220e+000	1.076377e+002	-1.796111e+001	9.231104e+001	-5.297348e+000	2.112578e+001
1583206375	-5.573451e+000	-3.801423e+001	8.041269e+000	1.072327e+002	-1.793289e+001	9.209774e+001	-5.275827e+000	2.060876e+001
1588518813	-5.574991e+000	-3.802642e+001	8.007821e+000	1.069502e+002	-1.790523e+001	9.182620e+001	-5.247301e+000	2.012058e+001
1593831250	-5.597607e+000	-3.827627e+001	7.998327e+000	1.065998e+002	-1.787940e+001	9.157845e+001	-5.228401e+000	1.962586e+001
1599143688	-5.590249e+000	-3.808281e+001	7.957992e+000	1.062914e+002	-1.786214e+001	9.127483e+001	-5.206563e+000	1.918878e+001
1604456125	-5.618074e+000	-3.799949e+001	7.932820e+000	1.058981e+002	-1.783017e+001	9.106911e+001	-5.176123e+000	1.867641e+001
1609768563	-5.575425e+000	-3.775245e+001	7.882332e+000	1.056686e+002	-1.781461e+001	9.083633e+001	-5.145804e+000	1.823078e+001
1615081000	-5.634512e+000	-3.795544e+001	7.888899e+000	1.052841e+002	-1.779522e+001	9.055766e+001	-5.123654e+000	1.768791e+001
1620393438	-5.623977e+000	-3.797725e+001	7.850489e+000	1.050040e+002	-1.777574e+001	9.029856e+001	-5.094266e+000	1.721195e+001
1625705875	-5.614584e+000	-3.796519e+001	7.816656e+000	1.045903e+002	-1.775530e+001	9.002547e+001	-5.075366e+000	1.673420e+001
1631018313	-5.594411e+000	-3.778941e+001	7.779265e+000	1.042707e+002	-1.773236e+001	8.982675e+001	-5.043486e+000	1.627092e+001
1636330750	-5.600982e+000	-3.800330e+001	7.755468e+000	1.040918e+002	-1.771783e+001	8.954812e+001	-5.024306e+000	1.583148e+001
1641643188	-5.597463e+000	-3.800702e+001	7.727231e+000	1.037816e+002	-1.770076e+001	8.928830e+001	-5.000303e+000	1.536501e+001
1646955625	-5.622791e+000	-3.787942e+001	7.702893e+000	1.033878e+002	-1.767636e+001	8.912038e+001	-4.967447e+000	1.486247e+001
1652268063	-5.598275e+000	-3.774414e+001	7.653539e+000	1.030631e+002	-1.766277e+001	8.888360e+001	-4.951987e+000	1.441394e+001
1657580500	-5.609584e+000	-3.772095e+001	7.633801e+000	1.028019e+002	-1.764162e+001	8.868448e+001	-4.927031e+000	1.394933e+001
1662892938	-5.629008e+000	-3.802148e+001	7.621129e+000	1.025900e+002	-1.762647e+001	8.844866e+001	-4.899215e+000	1.345031e+001
1668205375	-5.602453e+000	-3.783170e+001	7.585713e+000	1.021555e+002	-1.760700e+001	8.825046e+001	-4.882555e+000	1.298802e+001
1673517813	-5.617631e+000	-3.770602e+001	7.551732e+000	1.018247e+002	-1.758932e+001	8.795340e+001	-4.858638e+000	1.261896e+001
1678830250	-5.620029e+000	-3.785007e+001	7.525679e+000	1.015512e+002	-1.756893e+001	8.778886e+001	-4.827998e+000	1.213631e+001
1684142688	-5.630133e+000	-3.791699e+001	7.497681e+000	1.012324e+002	-1.755315e+001	8.756546e+001	-4.806717e+000	1.165327e+001
1689455125	-5.601384e+000	-3.777810e+001	7.455976e+000	1.009742e+002	-1.753665e+001	8.734402e+001	-4.785586e+000	1.121890e+001
1694767563	-5.611219e+000	-3.778763e+001	7.435402e+000	1.006851e+002	-1.750798e+001	8.709815e+001	-4.766588e+000	1.078813e+001
1700080000	-5.604087e+000	-3.761156e+001	7.405016e+000	1.003874e+002	-1.749855e+001	8.689520e+001	-4.737522e+000	1.032203e+001
1705392438	-5.596874e+000	-3.776775e+001	7.376047e+000	1.001588e+002	-1.747546e+001	8.667909e+001	-4.716537e+000	9.989545e+000
1710704875	-5.626834e+000	-3.773130e+001	7.344278e+000	9.983464e+001	-1.746285e+001	8.647700e+001	-4.690694e+000	9.564583e+000
1716017313	-5.586997e+000	-3.747807e+001	7.316927e+000	9.958078e+001	-1.743971e+001	8.624564e+001	-4.671767e+000	9.102993e+000
1721329750	-5.615799e+000	-3.755906e+001	7.286767e+000	9.929751e+001	-1.742464e+001	8.601367e+001	-4.648777e+000	8.700210e+000
1726642188	-5.606789e+000	-3.751891e+001	7.248346e+000	9.893626e+001	-1.741116e+001	8.578546e+001	-4.626319e+000	8.337165e+000
1731954625	-5.610988e+000	-3.761095e+001	7.237383e+000	9.870231e+001	-1.740097e+001	8.554381e+001	-4.605601e+000	7.937056e+000
1737267063	-5.613755e+000	-3.776759e+001	7.206506e+000	9.849433e+001	-1.738342e+001	8.536411e+001	-4.582829e+000	7.527482e+000
1742579500	-5.604038e+000	-3.750866e+001	7.172320e+000	9.810005e+001	-1.736902e+001	8.514824e+001	-4.557362e+000	7.095400e+000
1747891938	-5.607903e+000	-3.744419e+001	7.138187e+000	9.779420e+001	-1.735582e+001	8.495191e+001	-4.536786e+000	6.713209e+000
1753204375	-5.589175e+000	-3.747316e+001	7.112332e+000	9.759991e+001	-1.733978e+001	8.477455e+001	-4.517947e+000	6.363841e+000
1758516813	-5.568966e+000	-3.748905e+001	7.078355e+000	9.734288e+001	-1.733231e+001	8.463819e+001	-4.496179e+000	5.957152e+000
1763829250	-5.584345e+000	-3.758213e+001	7.038778e+000	9.710393e+001	-1.731615e+001	8.448514e+001	-4.476253e+000	5.506703e+000
1769141688	-5.572427e+000	-3.740838e+001	7.007762e+000	9.677579e+001	-1.728930e+001	8.428200e+001	-4.467006e+000	5.155141e+000
1774454125	-5.599225e+000	-3.750940e+001	6.995017e+000	9.646840e+001	-1.727596e+001	8.414139e+001	-4.444023e+000	4.746878e+000
1779766563	-5.616276e+000	-3.750927e+001	6.984728e+000	9.620690e+001	-1.725634e+001	8.390540e+001	-4.430148e+000	4.472078e+000
1785079000	-5.597764e+000	-3.749956e+001	6.941680e+000	9.593426e+001	-1.724244e+001	8.366955e+001	-4.409296e+000	4.094806e+000
1790391438	-5.605500e+000	-3.739181e+001	6.916093e+000	9.567691e+001	-1.722422e+001	8.352402e+001	-4.392656e+000	3.675982e+000
1795703875	-5.600410e+000	-3.749304e+001	6.880094e+000	9.547943e+001	-1.720622e+001	8.334156e+001	-4.373701e+000	3.297240e+000
1801016313	-5.588497e+000	-3.739064e+001	6.863388e+000	9.517708e+001	-1.718467e+001	8.319415e+001	-4.353410e+000	2.976266e+000
1806328750	-5.579470e+000	-3.757961e+001	6.812634e+000	9.496047e+001	-1.718228e+001	8.306545e+001	-4.343050e+000	2.576949e+000
1811641188	-5.600500e+000	-3.743312e+001	6.782774e+000	9.459968e+001	-1.715892e+001	8.288988e+001	-4.332337e+000	2.234918e+000
1816953625	-5.607004e+000	-3.736111e+001	6.762751e+000	9.438152e+001	-1.714752e+001	8.267962e+001	-4.315969e+000	1.890164e+000
1822266063	-5.610258e+000	-3.756438e+001	6.719342e+000	9.413346e+001	-1.712964e+001	8.253633e+001	-4.309574e+000	1.547883e+000
1827578500	-5.615631e+000	-3.753608e+001	6.717357e+000	9.383054e+001	-1.709685e+001	8.241898e+001	-4.292186e+000	1.184085e+000
1832890938	-5.616074e+000	-3.760266e+001	6.690652e+000	9.372865e+001	-1.708209e+001	8.219808e+001	-4.268761e+000	8.030836e-001
1838203375	-5.608699e+000	-3.751688e+001	6.666706e+000	9.334806e+001	-1.706117e+001	8.205628e+001	-4.261698e+000	4.333296e-001
1843515813	-5.615658e+000	-3.740706e+001	6.625544e+000	9.314173e+001	-1.705215e+001	8.191776e+001	-4.248023e+000	1.268374e-001
1848828250	-5.627498e+000	-3.749009e+001	6.609117e+000	9.292825e+001	-1.702627e+001	8.177638e+001	-4.236824e+000	-2.744532e-001
1854140688	-5.641839e+000	-3.746508e+001	6.588893e+000	9.276983e+001	-1.699794e+001	8.161330e+001	-4.227007e+000	-5.771360e-001
1859453125	-5.632927e+000	-3.765676e+001	6.551290e+000	9.247412e+001	-1.697314e+001	8.142355e+001	-4.212380e+000	-8.393430e-001
1864765563	-5.618848e+000	-3.747996e+001	6.526101e+000	9.225823e+001	-1.695436e+001	8.115930e+001	-4.198906e+000	-1.250601e+000
1870078000	-5.618573e+000	-3.746448e+001	6.501805e+000	9.195563e+001	-1.693317e+001	8.097847e+001	-4.179589e+000	-1.471821e+000
1875390438	-5.610137e+000	-3.753423e+001	6.473891e+000	9.174151e+001	-1.692120e+001	8.072884e+001	-4.159823e+000	-1.851935e+000
1880702875	-5.612310e+000	-3.743284e+001	6.442161e+000	9.149617e+001	-1.690227e+001	8.046138e+001	-4.138005e+000	-2.157510e+000
1886015313	-5.614782e+000	-3.736358e+001	6.426418e+000	9.112342e+001	-1.689601e+001	8.027969e+001	-4.118617e+000	-2.465115e+000
1891327750	-5.595897e+000	-3.750387e+001	6.378869e+000	9.101733e+001	-1.687795e+001	8.011353e+001	-4.104389e+000	-2.782233e+000
1896640188	-5.581022e+000	-3.749106e+001	6.347728e+000	9.072993e+001	-1.686330e+001	7.991020e+001	-4.088978e+000	-3.077458e+000
1901952625	-5.592201e+000	-3.754974e+001	6.332028e+000	9.044176e+001	-1.684589e+001	7.972188e+001	-4.074392e+000	-3.368377e+000
1907265063	-5.591444e+000	-3.740956e+001	6.309197e+000	9.020153e+001	-1.683808e+001	7.956183e+001	-4.054425e+000	-3.672634e+000
1912577500	-5.572768e+000	-3.738670e+001	6.265929e+000	8.994825e+001	-1.681923e+001	7.938187e+001	-4.038514e+000	-4.012281e+000
1917889938	-5.576384e+000	-3.740166e+001	6.244712e+000	8.970083e+001	-1.680690e+001	7.913444e+001	-4.019752e+000	-4.251118e+000
1923202375	-5.558143e+000	-3.750566e+001	6.226374e+000	8.954781e+001	-1.678712e+001	7.892938e+001	-4.000359e+000	-4.570748e+000
1928514813	-5.550666e+000	-3.736183e+001	6.187750e+000	8.921839e+001	-1.677469e+001	7.880526e+001	-3.987454e+000	-4.910645e+000
1933827250	-5.557211e+000	-3.737474e+001	6.176763e+000	8.901359e+001	-1.676793e+001	7.861891e+001	-3.959862e+000	-5.190978e+000
1939139688	-5.569426e+000	-3.726700e+001	6.161712e+000	8.874631e+001	-1.675068e+001	7.842374e+001	-3.948385e+000	-5.467374e+000
1944452125	-5.530769e+000	-3.745335e+001	6.124793e+000	8.862640e+001	-1.673455e+001	7.826509e+001	-3.935405e+000	-5.761479e+000
1949764563	-5.530239e+000	-3.744825e+001	6.064586e+000	8.829537e+001	-1.673019e+001	7.812955e+001	-3.914408e+000	-6.056094e+000
1955077000	-5.553821e+000	-3.737529e+001	6.066767e+000	8.811126e+001	-1.671616e+001	7.797356e+001	-3.897113e+000	-6.317998e+000
1960389438	-5.551519e+000	-3.739574e+001	6.048346e+000	8.779502e+001	-1.670190e+001	7.780336e+001	-3.890938e+000	-6.594016e+000
1965701875	-5.532266e+000	-3.749802e+001	6.003251e+000	8.764654e+001	-1.668884e+001	7.761428e+001	-3.874323e+000	-6.832505e+000
1971014313	-5.540024e+000	-3.752554e+001	5.990902e+000	8.749569e+001	-1.667440e+001	7.746539e+001	-3.860093e+000	-7.151474e+000
1976326750	-5.531592e+000	-3.746713e+001	5.945059e+000	8.709715e+001	-1.666079e+001	7.729987e+001	-3.846436e+000	-7.431773e+000
1981639188	-5.531568e+000	-3.740220e+001	5.941396e+000	8.685730e+001	-1.665197e+001	7.713697e+001	-3.829799e+000	-7.676809e+000
1986951625	-5.493680e+000	-3.750704e+001	5.899341e+000	8.670489e+001	-1.662675e+001	7.696701e+001	-3.822146e+000	-7.950325e+000
1992264063	-5.512007e+000	-3.744255e+001	5.872036e+000	8.645212e+001	-1.661777e+001	7.680620e+001	-3.807102e+000	-8.192268e+000
1997576500	-5.491667e+000	-3.731716e+001	5.844793e+000	8.628903e+001	-1.660502e+001	7.667249e+001	-3.796023e+000	-8.519592e+000
2002888938	-5.508931e+000	-3.735521e+001	5.824003e+000	8.603204e+001	-1.659206e+001	7.654109e+001	-3.781001e+000	-8.764308e+000
2008201375	-5.505985e+000	-3.741998e+001	5.786464e+000	8.595106e+001	-1.657427e+001	7.637631e+001	-3.773356e+000	-9.043023e+000
2013513813	-5.522588e+000	-3.746761e+001	5.765143e+000	8.564734e+001	-1.656055e+001	7.626607e+001	-3.761271e+000	-9.260200e+000
2018826250	-5.487464e+000	-3.739874e+001	5.735258e+000	8.545385e+001	-1.654502e+001	7.605396e+001	-3.747196e+000	-9.526481e+000
2024138688	-5.522616e+000	-3.743409e+001	5.730607e+000	8.513492e+001	-1.653576e+001	7.588975e+001	-3.734045e+000	-9.785221e+000
2029451125	-5.491561e+000	-3.748580e+001	5.702293e+000	8.487637e+001	-1.652153e+001	7.581676e+001	-3.726677e+000	-1.005700e+001
2034763563	-5.495224e+000	-3.757717e+001	5.659140e+000	8.475391e+001	-1.650466e+001	7.556071e+001	-3.710625e+000	-1.030682e+001
2040076000	-5.479754e+000	-3.761486e+001	5.648479e+000	8.453272e+001	-1.650005e+001	7.545300e+001	-3.701027e+000	-1.062583e+001
2045388438	-5.479887e+000	-3.764527e+001	5.612165e+000	8.442143e+001	-1.648215e+001	7.524661e+001	-3.690399e+000	-1.085143e+001
2050700875	-5.488308e+000	-3.752243e+001	5.620535e+000	8.415537e+001	-1.647298e+001	7.514017e+001	-3.676419e+000	-1.113835e+001
2056013313	-5.463812e+000	-3.762802e+001	5.551184e+000	8.404093e+001	-1.646088e+001	7.498002e+001	-3.667671e+000	-1.140899e+001
2061325750	-5.487808e+000	-3.759771e+001	5.559490e+000	8.371157e+001	-1.645273e+001	7.485938e+001	-3.656848e+000	-1.170981e+001
2066638188	-5.478972e+000	-3.758510e+001	5.517015e+000	8.354293e+001	-1.644487e+001	7.469308e+001	-3.642561e+000	-1.195264e+001
2071950625	-5.466687e+000	-3.771416e+001	5.451225e+000	8.316292e+001	-1.642426e+001	7.458453e+001	-3.636524e+000	-1.222264e+001
2077263063	-5.467194e+000	-3.776861e+001	5.437346e+000	8.312287e+001	-1.641878e+001	7.443281e+001	-3.623271e+000	-1.250745e+001
2082575500	-5.471466e+000	-3.773070e+001	5.418197e+000	8.279066e+001	-1.639589e+001	7.427089e+001	-3.619084e+000	-1.274752e+001
2087887938	-5.472956e+000	-3.779197e+001	5.398291e+000	8.263889e+001	-1.637640e+001	7.416478e+001	-3.606551e+000	-1.300177e+001
2093200375	-5.472722e+000	-3.784407e+001	5.410165e+000	8.251747e+001	-1.636705e+001	7.399167e+001	-3.600086e+000	-1.324527e+001
2098512813	-5.456365e+000	-3.789562e+001	5.372952e+000	8.235355e+001	-1.634972e+001	7.379901e+001	-3.584917e+000	-1.348750e+001
2103825250	-5.458375e+000	-3.784146e+001	5.328252e+000	8.199476e+001	-1.634332e+001	7.360542e+001	-3.574176e+000	-1.371044e+001
2109137688	-5.460405e+000	-3.781674e+001	5.304231e+000	8.178171e+001	-1.632748e+001	7.353317e+001	-3.562501e+000	-1.400053e+001
2114450125	-5.455680e+000	-3.781232e+001	5.286138e+000	8.169566e+001	-1.631685e+001	7.335385e+001	-3.551431e+000	-1.424554e+001
2119762563	-5.435434e+000	-3.781700e+001	5.232808e+000	8.146025e+001	-1.630795e+001	7.323159e+001	-3.535240e+000	-1.449054e+001
2125075000	-5.432212e+000	-3.778811e+001	5.222180e+000	8.116287e+001	-1.629372e+001	7.305787e+001	-3.530794e+000	-1.472401e+001
2130387438	-5.418629e+000	-3.785781e+001	5.203644e+000	8.105500e+001	-1.627898e+001	7.288427e+001	-3.514980e+000	-1.498964e+001
2135699875	-5.397759e+000	-3.791984e+001	5.160918e+000	8.087754e+001	-1.627421e+001	7.269303e+001	-3.503155e+000	-1.520998e+001
2141012313	-5.423590e+000	-3.804845e+001	5.162430e+000	8.053839e+001	-1.625688e+001	7.258933e+001	-3.490954e+000	-1.546614e+001
2146324750	-5.425323e+000	-3.794210e+001	5.134248e+000	8.039937e+001	-1.624873e+001	7.241196e+001	-3.484153e+000	-1.572015e+001
2151637188	-5.411413e+000	-3.780091e+001	5.097207e+000	8.020422e+001	-1.624518e+001	7.235658e+001	-3.468121e+000	-1.594248e+001
2156949625	-5.407181e+000	-3.786143e+001	5.090890e+000	7.998963e+001	-1.622890e+001	7.217310e+001	-3.458026e+000	-1.617788e+001
2162262063	-5.397800e+000	-3.800331e+001	5.030620e+000	7.994593e+001	-1.622506e+001	7.202611e+001	-3.447359e+000	-1.641973e+001
2167574500	-5.397789e+000	-3.790666e+001	5.013326e+000	7.963818e+001	-1.620365e+001	7.193743e+001	-3.431122e+000	-1.666021e+001
2172886938	-5.373231e+000	-3.798840e+001	5.013819e+000	7.969552e+001	-1.620077e+001	7.178723e+001	-3.424628e+000	-1.685831e+001
2178199375	-5.380376e+000	-3.803302e+001	4.964215e+000	7.933584e+001	-1.619088e+001	7.162813e+001	-3.409373e+000	-1.712097e+001
2183511813	-5.383468e+000	-3.813878e+001	4.956563e+000	7.915821e+001	-1.616611e+001	7.147609e+001	-3.404720e+000	-1.733057e+001
2188824250	-5.380950e+000	-3.794677e+001	4.916196e+000	7.899218e+001	-1.616306e+001	7.132883e+001	-3.397925e+000	-1.754403e+001
2194136688	-5.359021e+000	-3.809767e+001	4.885335e+000	7.865515e+001	-1.615191e+001	7.125766e+001	-3.387415e+000	-1.776264e+001
2199449125	-5.370588e+000	-3.811669e+001	4.879328e+000	7.859766e+001	-1.613824e+001	7.112172e+001	-3.379229e+000	-1.799388e+001
2204761563	-5.369538e+000	-3.819581e+001	4.858733e+000	7.848299e+001	-1.612124e+001	7.099345e+001	-3.373065e+000	-1.817046e+001
2210074000	-5.357107e+000	-3.810542e+001	4.829615e+000	7.823287e+001	-1.611977e+001	7.094422e+001	-3.356704e+000	-1.845348e+001
2215386438	-5.367277e+000	-3.814766e+001	4.813427e+000	7.793906e+001	-1.610962e+001	7.077700e+001	-3.354371e+000	-1.860093e+001
2220698875	-5.358543e+000	-3.805602e+001	4.779003e+000	7.775674e+001	-1.610458e+001	7.068908e+001	-3.337275e+000	-1.883026e+001
2226011313	-5.363253e+000	-3.798478e+001	4.768382e+000	7.746687e+001	-1.607975e+001	7.051774e+001	-3.332077e+000	-1.904546e+001
2231323750	-5.360178e+000	-3.819609e+001	4.737166e+000	7.747573e+001	-1.606716e+001	7.038037e+001	-3.327556e+000	-1.925481e+001
2236636188	-5.358210e+000	-3.821924e+001	4.711000e+000	7.728033e+001	-1.605936e+001	7.018777e+001	-3.314651e+000	-1.947302e+001
2241948625	-5.348023e+000	-3.822230e+001	4.686525e+000	7.717000e+001	-1.604734e+001	7.008619e+001	-3.305783e+000	-1.966898e+001
2247261063	-5.337383e+000	-3.838680e+001	4.670222e+000	7.703558e+001	-1.603510e+001	7.000347e+001	-3.302357e+000	-1.990731e+001
2252573500	-5.349184e+000	-3.828059e+001	4.636841e+000	7.662901e+001	-1.602221e+001	6.991137e+001	-3.290954e+000	-2.011255e+001
2257885938	-5.329478e+000	-3.832721e+001	4.612442e+000	7.657327e+001	-1.600443e+001	6.974750e+001	-3.283472e+000	-2.033792e+001
2263198375	-5.333889e+000	-3.838539e+001	4.608952e+000	7.652076e+001	-1.599696e+001	6.962501e+001	-3.279073e+000	-2.054162e+001
2268510813	-5.333149e+000	-3.838913e+001	4.561886e+000	7.620103e+001	-1.599163e+001	6.946744e+001	-3.269555e+000	-2.073146e+001
2273823250	-5.326333e+000	-3.843676e+001	4.551620e+000	7.605272e+001	-1.597473e+001	6.937599e+001	-3.257633e+000	-2.094465e+001
2279135688	-5.327303e+000	-3.840552e+001	4.526081e+000	7.574614e+001	-1.596123e+001	6.918653e+001	-3.250795e+000	-2.114615e+001
2284448125	-5.309185e+000	-3.848876e+001	4.501793e+000	7.564895e+001	-1.595862e+001	6.911957e+001	-3.238980e+000	-2.137345e+001
2289760563	-5.306938e+000	-3.870167e+001	4.492695e+000	7.553397e+001	-1.594229e+001	6.891702e+001	-3.233883e+000	-2.158052e+001
2295073000	-5.316084e+000	-3.867678e+001	4.462471e+000	7.523738e+001	-1.593895e+001	6.879094e+001	-3.229611e+000	-2.180616e+001
2300385438	-5.317323e+000	-3.859999e+001	4.426814e+000	7.495517e+001	-1.592698e+001	6.867596e+001	-3.221371e+000	-2.200336e+001
2305697875	-5.303351e+000	-3.872429e+001	4.395149e+000	7.496130e+001	-1.591493e+001	6.860566e+001	-3.215103e+000	-2.221940e+001
2311010313	-5.284663e+000	-3.868869e+001	4.343728e+000	7.472470e+001	-1.591130e+001	6.845891e+001	-3.205553e+000	-2.234726e+001
2316322750	-5.302021e+000	-3.871010e+001	4.327383e+000	7.456627e+001	-1.589742e+001	6.835868e+001	-3.196934e+000	-2.258733e+001
2321635188	-5.297136e+000	-3.881356e+001	4.323079e+000	7.439803e+001	-1.588712e+001	6.823320e+001	-3.187748e+000	-2.281511e+001
2326947625	-5.298413e+000	-3.884755e+001	4.294949e+000	7.411788e+001	-1.587987e+001	6.807716e+001	-3.180693e+000	-2.302382e+001
2332260063	-5.279104e+000	-3.893214e+001	4.272769e+000	7.409846e+001	-1.587086e+001	6.800398e+001	-3.170234e+000	-2.321689e+001
2337572500	-5.297005e+000	-3.891924e+001	4.248807e+000	7.377510e+001	-1.586079e+001	6.783753e+001	-3.163898e+000	-2.340345e+001
2342884938	-5.277493e+000	-3.907575e+001	4.242869e+000	7.368324e+001	-1.584094e+001	6.771508e+001	-3.160743e+000	-2.362656e+001
2348197375	-5.290438e+000	-3.887500e+001	4.217643e+000	7.328872e+001	-1.584709e+001	6.760203e+001	-3.144744e+000	-2.375955e+001
2353509813	-5.258581e+000	-3.903604e+001	4.183190e+000	7.340548e+001	-1.583046e+001	6.747858e+001	-3.137752e+000	-2.398636e+001
2358822250	-5.275681e+000	-3.920125e+001	4.173260e+000	7.315649e+001	-1.582076e+001	6.741401e+001	-3.126360e+000	-2.416183e+001
2364134688	-5.244782e+000	-3.914547e+001	4.129547e+000	7.304002e+001	-1.580554e+001	6.731826e+001	-3.124712e+000	-2.435245e+001
2369447125	-5.279367e+000	-3.917042e+001	4.130023e+000	7.285186e+001	-1.580574e+001	6.719295e+001	-3.111357e+000	-2.448787e+001
2374759563	-5.246381e+000	-3.931356e+001	4.114028e+000	7.269167e+001	-1.579449e+001	6.709687e+001	-3.100818e+000	-2.471828e+001
2380072000	-5.240434e+000	-3.919953e+001	4.060705e+000	7.260055e+001	-1.577816e+001	6.691484e+001	-3.095044e+000	-2.488299e+001
2385384438	-5.231281e+000	-3.922565e+001	4.047411e+000	7.230740e+001	-1.577336e+001	6.683371e+001	-3.086418e+000	-2.503007e+001
2390696875	-5.235424e+000	-3.927147e+001	4.008469e+000	7.226496e+001	-1.576496e+001	6.674888e+001	-3.079832e+000	-2.519581e+001
2396009313	-5.234197e+000	-3.918351e+001	3.996923e+000	7.204452e+001	-1.574622e+001	6.660282e+001	-3.071366e+000	-2.539000e+001
2401321750	-5.237676e+000	-3.931015e+001	3.984628e+000	7.180683e+001	-1.573217e+001	6.653342e+001	-3.065759e+000	-2.556120e+001
2406634188	-5.212392e+000	-3.931184e+001	3.951491e+000	7.176527e+001	-1.572516e+001	6.642203e+001	-3.056087e+000	-2.570494e+001
2411946625	-5.214309e+000	-3.945291e+001	3.930389e+000	7.164720e+001	-1.572171e+001	6.635090e+001	-3.051362e+000	-2.586443e+001
2417259063	-5.224841e+000	-3.945162e+001	3.933987e+000	7.137479e+001	-1.571617e+001	6.628227e+001	-3.038426e+000	-2.605095e+001
2422571500	-5.211953e+000	-3.942961e+001	3.881653e+000	7.131092e+001	-1.570554e+001	6.609038e+001	-3.036596e+000	-2.618756e+001
2427883938	-5.211960e+000	-3.936156e+001	3.852239e+000	7.097320e+001	-1.567995e+001	6.596120e+001	-3.033397e+000	-2.638709e+001
2433196375	-5.222065e+000	-3.947630e+001	3.847418e+000	7.075826e+001	-1.568096e+001	6.584657e+001	-3.027979e+000	-2.650932e+001
2438508813	-5.194970e+000	-3.951160e+001	3.815372e+000	7.083122e+001	-1.566791e+001	6.574825e+001	-3.016487e+000	-2.671872e+001
2443821250	-5.181414e+000	-3.966302e+001	3.810326e+000	7.070173e+001	-1.565053e+001	6.562448e+001	-3.011673e+000	-2.689334e+001
2449133688	-5.190708e+000	-3.966151e+001	3.782271e+000	7.053658e+001	-1.564976e+001	6.555531e+001	-3.001325e+000	-2.703248e+001
2454446125	-5.203288e+000	-3.961266e+001	3.739350e+000	7.027516e+001	-1.562923e+001	6.542628e+001	-3.002197e+000	-2.721262e+001
2459758563	-5.191695e+000	-3.977418e+001	3.743702e+000	7.022996e+001	-1.562691e+001	6.536736e+001	-2.992601e+000	-2.738811e+001
2465071000	-5.182781e+000	-3.972918e+001	3.719784e+000	7.002934e+001	-1.562130e+001	6.523861e+001	-2.984540e+000	-2.754218e+001
2470383438	-5.183778e+000	-3.970852e+001	3.696682e+000	6.997373e+001	-1.560528e+001	6.512952e+001	-2.983702e+000	-2.773590e+001
2475695875	-5.166018e+000	-3.974855e+001	3.645268e+000	6.976454e+001	-1.559314e+001	6.498868e+001	-2.975562e+000	-2.790030e+001
2481008313	-5.167177e+000	-3.980108e+001	3.655325e+000	6.959788e+001	-1.558166e+001	6.485369e+001	-2.968048e+000	-2.805848e+001
2486320750	-5.177284e+000	-3.992100e+001	3.643075e+000	6.943289e+001	-1.557501e+001	6.476754e+001	-2.965012e+000	-2.821706e+001
2491633188	-5.199526e+000	-3.990598e+001	3.641130e+000	6.917970e+001	-1.555847e+001	6.463752e+001	-2.961133e+000	-2.838482e+001
2496945625	-5.182244e+000	-4.018877e+001	3.604172e+000	6.918323e+001	-1.554457e+001	6.456792e+001	-2.951423e+000	-2.857553e+001
2502258063	-5.163465e+000	-4.004266e+001	3.578374e+000	6.909284e+001	-1.554484e+001	6.445830e+001	-2.949515e+000	-2.871942e+001
2507570500	-5.145199e+000	-4.010182e+001	3.536058e+000	6.881048e+001	-1.554080e+001	6.436050e+001	-2.938740e+000	-2.887295e+001
2512882938	-5.172261e+000	-4.005058e+001	3.545070e+000	6.839000e+001	-1.553230e+001	6.427325e+001	-2.935125e+000	-2.908099e+001
2518195375	-5.144061e+000	-4.013488e+001	3.522380e+000	6.852260e+001	-1.551622e+001	6.415338e+001	-2.927818e+000	-2.925514e+001
2523507813	-5.146115e+000	-4.017747e+001	3.499352e+000	6.827172e+001	-1.551125e+001	6.402749e+001	-2.924957e+000	-2.937292e+001
2528820250	-5.142823e+000	-4.013807e+001	3.446035e+000	6.805028e+001	-1.549916e+001	6.390664e+001	-2.918511e+000	-2.959126e+001
2534132688	-5.168814e+000	-4.030109e+001	3.469177e+000	6.797306e+001	-1.548869e+001	6.373510e+001	-2.914160e+000	-2.974866e+001
2539445125	-5.133498e+000	-4.049345e+001	3.424151e+000	6.789356e+001	-1.547875e+001	6.368318e+001	-2.902627e+000	-2.992764e+001
2544757563	-5.146077e+000	-4.055663e+001	3.427523e+000	6.776197e+001	-1.546622e+001	6.360108e+001	-2.899335e+000	-3.011850e+001
2550070000	-5.155404e+000	-4.043841e+001	3.393001e+000	6.738859e+001	-1.546902e+001	6.354474e+001	-2.888856e+000	-3.025313e+001
2555382438	-5.123918e+000	-4.059613e+001	3.369978e+000	6.747111e+001	-1.545563e+001	6.342170e+001	-2.886348e+000	-3.039686e+001
2560694875	-5.130271e+000	-4.052023e+001	3.340443e+000	6.728847e+001	-1.544414e+001	6.330927e+001	-2.876792e+000	-3.056281e+001
2566007313	-5.124870e+000	-4.055094e+001	3.330498e+000	6.708508e+001	-1.543532e+001	6.317582e+001	-2.877491e+000	-3.072642e+001
2571319750	-5.121507e+000	-4.045413e+001	3.311353e+000	6.674637e+001	-1.542257e+001	6.310543e+001	-2.872341e+000	-3.088889e+001
2576632188	-5.112139e+000	-4.069159e+001	3.288097e+000	6.674702e+001	-1.542469e+001	6.299649e+001	-2.859237e+000	-3.105204e+001
2581944625	-5.107070e+000	-4.077375e+001	3.262505e+000	6.647801e+001	-1.541114e+001	6.283508e+001	-2.856013e+000	-3.120345e+001
2587257063	-5.091095e+000	-4.081102e+001	3.232451e+000	6.652379e+001	-1.540718e+001	6.279731e+001	-2.845397e+000	-3.135349e+001
2592569500	-5.095962e+000	-4.081922e+001	3.222845e+000	6.642707e+001	-1.539434e+001	6.268297e+001	-2.844718e+000	-3.155217e+001
2597881938	-5.093361e+000	-4.079504e+001	3.207286e+000	6.623383e+001	-1.539014e+001	6.258352e+001	-2.837668e+000	-3.167080e+001
2603194375	-5.094438e+000	-4.087701e+001	3.191411e+000	6.611183e+001	-1.538644e+001	6.245622e+001	-2.834771e+000	-3.175131e+001
2608506813	-5.095164e+000	-4.097877e+001	3.176741e+000	6.600087e+001	-1.537268e+001	6.242266e+001	-2.825372e+000	-3.195844e+001
2613819250	-5.086774e+000	-4.100438e+001	3.139127e+000	6.580556e+001	-1.535871e+001	6.231034e+001	-2.820417e+000	-3.208570e+001
2619131688	-5.075594e+000	-4.087127e+001	3.085886e+000	6.554467e+001	-1.535123e+001	6.220351e+001	-2.812080e+000	-3.221003e+001
2624444125	-5.087259e+000	-4.108247e+001	3.102411e+000	6.546173e+001	-1.534501e+001	6.209535e+001	-2.808454e+000	-3.235606e+001
2629756563	-5.076444e+000	-4.103082e+001	3.067932e+000	6.536575e+001	-1.532404e+001	6.203177e+001	-2.809458e+000	-3.252100e+001
2635069000	-5.070670e+000	-4.114060e+001	3.061759e+000	6.531183e+001	-1.532958e+001	6.191823e+001	-2.801832e+000	-3.266919e+001
2640381438	-5.083865e+000	-4.120483e+001	3.041197e+000	6.512159e+001	-1.531221e+001	6.184919e+001	-2.793260e+000	-3.281225e+001
2645693875	-5.060816e+000	-4.114941e+001	3.006038e+000	6.507908e+001	-1.530635e+001	6.177681e+001	-2.790356e+000	-3.292635e+001
2651006313	-5.053740e+000	-4.118770e+001	2.994890e+000	6.489407e+001	-1.528465e+001	6.169599e+001	-2.778589e+000	-3.308754e+001
2656318750	-5.075320e+000	-4.121865e+001	2.962308e+000	6.470813e+001	-1.528461e+001	6.158547e+001	-2.777378e+000	-3.319642e+001
2661631188	-5.062445e+000	-4.119513e+001	2.965909e+000	6.450374e+001	-1.527721e+001	6.149815e+001	-2.773412e+000	-3.335749e+001
2666943625	-5.041038e+000	-4.121186e+001	2.909270e+000	6.441353e+001	-1.526755e+001	6.135763e+001	-2.772946e+000	-3.346847e+001
2672256063	-5.057701e+000	-4.140537e+001	2.926326e+000	6.424816e+001	-1.526181e+001	6.135490e+001	-2.764999e+000	-3.361048e+001
2677568500	-5.061380e+000	-4.133921e+001	2.873045e+000	6.415854e+001	-1.524047e+001	6.119183e+001	-2.762135e+000	-3.379340e+001
2682880938	-5.058318e+000	-4.136890e+001	2.848014e+000	6.408682e+001	-1.523602e+001	6.109722e+001	-2.754696e+000	-3.393692e+001
2688193375	-5.048062e+000	-4.148660e+001	2.845825e+000	6.386187e+001	-1.522936e+001	6.099455e+001	-2.756281e+000	-3.402577e+001
2693505813	-5.044598e+000	-4.154255e+001	2.857029e+000	6.383218e+001	-1.521909e+001	6.081877e+001	-2.750779e+000	-3.421371e+001
2698818250	-5.033479e+000	-4.158756e+001	2.816917e+000	6.359121e+001	-1.520895e+001	6.076332e+001	-2.749823e+000	-3.433351e+001
2704130688	-5.020957e+000	-4.159358e+001	2.779969e+000	6.359283e+001	-1.520188e+001	6.077671e+001	-2.738849e+000	-3.444590e+001
2709443125	-5.029726e+000	-4.159549e+001	2.765766e+000	6.327793e+001	-1.519185e+001	6.061967e+001	-2.738603e+000	-3.460804e+001
2714755563	-5.025479e+000	-4.169208e+001	2.750524e+000	6.324510e+001	-1.518488e+001	6.058603e+001	-2.727157e+000	-3.473944e+001
2720068000	-5.014006e+000	-4.175356e+001	2.719229e+000	6.309719e+001	-1.517541e+001	6.039708e+001	-2.727519e+000	-3.488690e+001
2725380438	-5.037516e+000	-4.169917e+001	2.727394e+000	6.280279e+001	-1.516619e+001	6.031745e+001	-2.720085e+000	-3.503032e+001
2730692875	-5.024699e+000	-4.193680e+001	2.692917e+000	6.274319e+001	-1.515383e+001	6.018877e+001	-2.721291e+000	-3.517296e+001
2736005313	-5.042250e+000	-4.183581e+001	2.709932e+000	6.248218e+001	-1.514565e+001	6.008993e+001	-2.716419e+000	-3.530812e+001
2741317750	-5.012483e+000	-4.202900e+001	2.667955e+000	6.250259e+001	-1.513603e+001	6.005662e+001	-2.706218e+000	-3.547034e+001
2746630188	-5.020223e+000	-4.198729e+001	2.635626e+000	6.225762e+001	-1.512980e+001	6.002901e+001	-2.703378e+000	-3.564575e+001
2751942625	-5.018430e+000	-4.199994e+001	2.640241e+000	6.205123e+001	-1.512611e+001	5.987615e+001	-2.696429e+000	-3.575618e+001
2757255063	-5.017613e+000	-4.216983e+001	2.622157e+000	6.212318e+001	-1.511451e+001	5.974470e+001	-2.698728e+000	-3.588349e+001
2762567500	-5.023295e+000	-4.216231e+001	2.595973e+000	6.181113e+001	-1.511403e+001	5.971338e+001	-2.689049e+000	-3.599454e+001
2767879938	-5.013784e+000	-4.232468e+001	2.562693e+000	6.177551e+001	-1.509942e+001	5.957843e+001	-2.686854e+000	-3.615120e+001
2773192375	-5.000316e+000	-4.234235e+001	2.549954e+000	6.161736e+001	-1.508581e+001	5.942193e+001	-2.688018e+000	-3.628040e+001
2778504813	-4.998616e+000	-4.235704e+001	2.537192e+000	6.147206e+001	-1.508449e+001	5.934761e+001	-2.678383e+000	-3.645666e+001
2783817250	-4.995184e+000	-4.241394e+001	2.516553e+000	6.142779e+001	-1.506968e+001	5.929591e+001	-2.674820e+000	-3.654615e+001
2789129688	-4.989447e+000	-4.251441e+001	2.503989e+000	6.117927e+001	-1.506191e+001	5.922968e+001	-2.669244e+000	-3.669851e+001
2794442125	-4.994966e+000	-4.252392e+001	2.477796e+000	6.114826e+001	-1.505353e+001	5.910548e+001	-2.666034e+000	-3.686115e+001
2799754563	-4.991374e+000	-4.266822e+001	2.473630e+000	6.102511e+001	-1.504605e+001	5.902658e+001	-2.660955e+000	-3.697232e+001
2805067000	-4.969042e+000	-4.253185e+001	2.428544e+000	6.082877e+001	-1.503970e+001	5.894606e+001	-2.653494e+000	-3.709576e+001
2810379438	-4.965043e+000	-4.277405e+001	2.414437e+000	6.080600e+001	-1.502870e+001	5.883836e+001	-2.656828e+000	-3.722883e+001
2815691875	-4.980461e+000	-4.273028e+001	2.393086e+000	6.063195e+001	-1.503004e+001	5.872840e+001	-2.650543e+000	-3.733047e+001
2821004313	-4.984773e+000	-4.283187e+001	2.386289e+000	6.044760e+001	-1.501868e+001	5.869916e+001	-2.646014e+000	-3.747651e+001
2826316750	-4.969101e+000	-4.280534e+001	2.355737e+000	6.039989e+001	-1.500832e+001	5.859814e+001	-2.644049e+000	-3.757938e+001
2831629188	-4.963939e+000	-4.291966e+001	2.337622e+000	6.012912e+001	-1.500431e+001	5.847942e+001	-2.637202e+000	-3.770783e+001
2836941625	-4.975152e+000	-4.296580e+001	2.310095e+000	6.008692e+001	-1.499050e+001	5.841776e+001	-2.632717e+000	-3.786283e+001
2842254063	-4.946113e+000	-4.294135e+001	2.302394e+000	5.989132e+001	-1.497833e+001	5.834451e+001	-2.625706e+000	-3.797639e+001
2847566500	-4.945964e+000	-4.301734e+001	2.279524e+000	5.992875e+001	-1.497222e+001	5.825005e+001	-2.621986e+000	-3.809732e+001
2852878938	-4.960338e+000	-4.312436e+001	2.273852e+000	5.971066e+001	-1.496512e+001	5.812747e+001	-2.621813e+000	-3.818766e+001
2858191375	-4.946311e+000	-4.309343e+001	2.241859e+000	5.951960e+001	-1.496480e+001	5.807609e+001	-2.616210e+000	-3.830299e+001
2863503813	-4.951309e+000	-4.320061e+001	2.237607e+000	5.946834e+001	-1.495218e+001	5.804329e+001	-2.613350e+000	-3.844829e+001
2868816250	-4.937334e+000	-4.324668e+001	2.212526e+000	5.937775e+001	-1.493809e+001	5.792331e+001	-2.608274e+000	-3.855990e+001
2874128688	-4.931665e+000	-4.333050e+001	2.197357e+000	5.938385e+001	-1.493336e+001	5.784329e+001	-2.608514e+000	-3.865977e+001
2879441125	-4.949237e+000	-4.332810e+001	2.192745e+000	5.917424e+001	-1.492602e+001	5.778255e+001	-2.605982e+000	-3.881504e+001
2884753563	-4.926147e+000	-4.338888e+001	2.159893e+000	5.888032e+001	-1.491332e+001	5.769708e+001	-2.600884e+000	-3.892048e+001
2890066000	-4.925174e+000	-4.334972e+001	2.126663e+000	5.888804e+001	-1.490806e+001	5.760052e+001	-2.593736e+000	-3.901948e+001
2895378438	-4.929300e+000	-4.345080e+001	2.132558e+000	5.881527e+001	-1.489968e+001	5.753019e+001	-2.593308e+000	-3.914186e+001
2900690875	-4.948940e+000	-4.349503e+001	2.121058e+000	5.861894e+001	-1.488741e+001	5.742210e+001	-2.592557e+000	-3.924307e+001
2906003313	-4.932293e+000	-4.357946e+001	2.083036e+000	5.852683e+001	-1.487364e+001	5.736229e+001	-2.589936e+000	-3.935725e+001
2911315750	-4.915118e+000	-4.358424e+001	2.068537e+000	5.838827e+001	-1.486836e+001	5.725398e+001	-2.584818e+000	-3.949002e+001
2916628188	-4.935099e+000	-4.358597e+001	2.072865e+000	5.819325e+001	-1.485536e+001	5.721028e+001	-2.583997e+000	-3.963880e+001
2921940625	-4.923803e+000	-4.371164e+001	2.067033e+000	5.797375e+001	-1.485152e+001	5.706349e+001	-2.580202e+000	-3.974282e+001
2927253063	-4.920158e+000	-4.368000e+001	2.029088e+000	5.797178e+001	-1.484495e+001	5.700951e+001	-2.581182e+000	-3.987892e+001
2932565500	-4.920436e+000	-4.382913e+001	1.999042e+000	5.790312e+001	-1.482839e+001	5.689141e+001	-2.575219e+000	-4.001633e+001
2937877938	-4.908016e+000	-4.383424e+001	1.997408e+000	5.775895e+001	-1.481882e+001	5.681558e+001	-2.574430e+000	-4.012065e+001
2943190375	-4.910233e+000	-4.396615e+001	1.969247e+000	5.769345e+001	-1.481324e+001	5.676351e+001	-2.572202e+000	-4.027414e+001
2948502813	-4.924336e+000	-4.400520e+001	1.971699e+000	5.753447e+001	-1.480598e+001	5.663807e+001	-2.567335e+000	-4.038547e+001
2953815250	-4.917863e+000	-4.397393e+001	1.943323e+000	5.734351e+001	-1.479649e+001	5.656912e+001	-2.566875e+000	-4.051992e+001
2959127688	-4.905026e+000	-4.404321e+001	1.927048e+000	5.717074e+001	-1.478715e+001	5.648654e+001	-2.561222e+000	-4.059215e+001
2964440125	-4.913029e+000	-4.412153e+001	1.897583e+000	5.699867e+001	-1.478051e+001	5.638364e+001	-2.559381e+000	-4.075602e+001
2969752563	-4.909771e+000	-4.421820e+001	1.912483e+000	5.693509e+001	-1.476865e+001	5.627144e+001	-2.560281e+000	-4.087209e+001
2975065000	-4.909118e+000	-4.420993e+001	1.869203e+000	5.681098e+001	-1.476087e+001	5.624580e+001	-2.551543e+000	-4.101634e+001
2980377438	-4.915421e+000	-4.433190e+001	1.880629e+000	5.672197e+001	-1.475215e+001	5.608289e+001	-2.551511e+000	-4.112392e+001
2985689875	-4.901449e+000	-4.442199e+001	1.835210e+000	5.655626e+001	-1.474217e+001	5.604424e+001	-2.545059e+000	-4.125735e+001
2991002313	-4.898568e+000	-4.453473e+001	1.833471e+000	5.650403e+001	-1.472977e+001	5.590990e+001	-2.546498e+000	-4.139556e+001
2996314750	-4.899384e+000	-4.444403e+001	1.804794e+000	5.638565e+001	-1.472663e+001	5.582146e+001	-2.544112e+000	-4.151672e+001
3001627188	-4.876793e+000	-4.461158e+001	1.794689e+000	5.619903e+001	-1.472262e+001	5.576744e+001	-2.541887e+000	-4.161838e+001
3006939625	-4.890408e+000	-4.451816e+001	1.771643e+000	5.615324e+001	-1.471636e+001	5.566153e+001	-2.537746e+000	-4.177093e+001
3012252063	-4.887524e+000	-4.464063e+001	1.753564e+000	5.588482e+001	-1.470635e+001	5.560595e+001	-2.532784e+000	-4.186962e+001
3017564500	-4.894535e+000	-4.471337e+001	1.749886e+000	5.577565e+001	-1.469486e+001	5.548531e+001	-2.531139e+000	-4.201001e+001
3022876938	-4.883841e+000	-4.472848e+001	1.701572e+000	5.574683e+001	-1.468463e+001	5.542183e+001	-2.523691e+000	-4.213660e+001
3028189375	-4.876717e+000	-4.474445e+001	1.704254e+000	5.559564e+001	-1.468404e+001	5.530716e+001	-2.525391e+000	-4.224403e+001
3033501813	-4.890388e+000	-4.476749e+001	1.692395e+000	5.545049e+001	-1.467486e+001	5.528514e+001	-2.518625e+000	-4.238208e+001
3038814250	-4.872797e+000	-4.491727e+001	1.677395e+000	5.530217e+001	-1.466926e+001	5.516672e+001	-2.517808e+000	-4.247863e+001
3044126688	-4.870898e+000	-4.507360e+001	1.654703e+000	5.533139e+001	-1.466040e+001	5.513142e+001	-2.514239e+000	-4.260320e+001
3049439125	-4.867986e+000	-4.488414e+001	1.628397e+000	5.498610e+001	-1.465495e+001	5.498774e+001	-2.508689e+000	-4.266768e+001
3054751563	-4.867508e+000	-4.504024e+001	1.628882e+000	5.495958e+001	-1.464649e+001	5.496196e+001	-2.508303e+000	-4.282585e+001
3060064000	-4.847945e+000	-4.498653e+001	1.593389e+000	5.482344e+001	-1.463491e+001	5.489846e+001	-2.507537e+000	-4.293841e+001
3065376438	-4.853167e+000	-4.513724e+001	1.588317e+000	5.485529e+001	-1.462286e+001	5.479434e+001	-2.504369e+000	-4.304284e+001
3070688875	-4.863561e+000	-4.510378e+001	1.573210e+000	5.456422e+001	-1.462293e+001	5.473000e+001	-2.501731e+000	-4.314618e+001
3076001313	-4.861309e+000	-4.518086e+001	1.558662e+000	5.459102e+001	-1.460953e+001	5.464267e+001	-2.495968e+000	-4.324240e+001
3081313750	-4.857728e+000	-4.522623e+001	1.540262e+000	5.447791e+001	-1.460418e+001	5.456538e+001	-2.490746e+000	-4.335118e+001
3086626188	-4.871136e+000	-4.527401e+001	1.531366e+000	5.420670e+001	-1.459685e+001	5.451983e+001	-2.488358e+000	-4.348095e+001
3091938625	-4.856357e+000	-4.525190e+001	1.498946e+000	5.420746e+001	-1.457970e+001	5.439412e+001	-2.485070e+000	-4.361167e+001
3097251063	-4.864727e+000	-4.545821e+001	1.525972e+000	5.407426e+001	-1.457795e+001	5.433788e+001	-2.484446e+000	-4.368233e+001
3102563500	-4.860286e+000	-4.541215e+001	1.487329e+000	5.389463e+001	-1.456732e+001	5.424904e+001	-2.484203e+000	-4.378705e+001
3107875938	-4.865346e+000	-4.550524e+001	1.469057e+000	5.380890e+001	-1.455354e+001	5.415111e+001	-2.483240e+000	-4.392893e+001
3113188375	-4.842242e+000	-4.560391e+001	1.458998e+000	5.375698e+001	-1.454878e+001	5.408760e+001	-2.486962e+000	-4.397166e+001
3118500813	-4.847858e+000	-4.564872e+001	1.433628e+000	5.361069e+001	-1.453250e+001	5.401275e+001	-2.478693e+000	-4.410661e+001
3123813250	-4.851653e+000	-4.548139e+001	1.404151e+000	5.346784e+001	-1.452460e+001	5.392194e+001	-2.477919e+000	-4.422247e+001
3129125688	-4.855357e+000	-4.560934e+001	1.389630e+000	5.329965e+001	-1.451616e+001	5.382218e+001	-2.478635e+000	-4.435946e+001
3134438125	-4.865715e+000	-4.579273e+001	1.400936e+000	5.323823e+001	-1.450576e+001	5.372662e+001	-2.478830e+000	-4.445072e+001
3139750563	-4.825317e+000	-4.573124e+001	1.376470e+000	5.318671e+001	-1.449830e+001	5.362797e+001	-2.474879e+000	-4.454809e+001
3145063000	-4.874998e+000	-4.583684e+001	1.377138e+000	5.289913e+001	-1.449098e+001	5.355664e+001	-2.471066e+000	-4.468199e+001
3150375438	-4.852665e+000	-4.597122e+001	1.359304e+000	5.277018e+001	-1.448053e+001	5.349335e+001	-2.472937e+000	-4.480132e+001
3155687875	-4.858707e+000	-4.597716e+001	1.327691e+000	5.272839e+001	-1.447458e+001	5.344016e+001	-2.474880e+000	-4.493296e+001
3161000313	-4.824243e+000	-4.611031e+001	1.311240e+000	5.268033e+001	-1.446363e+001	5.331782e+001	-2.468172e+000	-4.501278e+001
3166312750	-4.850439e+000	-4.614656e+001	1.304790e+000	5.256300e+001	-1.445571e+001	5.325907e+001	-2.472441e+000	-4.512637e+001
3171625188	-4.853425e+000	-4.631799e+001	1.299019e+000	5.240121e+001	-1.445078e+001	5.315044e+001	-2.462959e+000	-4.527699e+001
3176937625	-4.831313e+000	-4.642520e+001	1.290317e+000	5.238706e+001	-1.443702e+001	5.308660e+001	-2.461718e+000	-4.538343e+001
3182250063	-4.825380e+000	-4.628251e+001	1.238565e+000	5.213640e+001	-1.444033e+001	5.292650e+001	-2.460465e+000	-4.547842e+001
3187562500	-4.833798e+000	-4.631099e+001	1.225787e+000	5.188754e+001	-1.442388e+001	5.285823e+001	-2.466240e+000	-4.562278e+001
3192874938	-4.836750e+000	-4.660146e+001	1.232514e+000	5.206904e+001	-1.441810e+001	5.280685e+001	-2.454559e+000	-4.574822e+001
3198187375	-4.835707e+000	-4.654572e+001	1.210676e+000	5.166936e+001	-1.440839e+001	5.272413e+001	-2.455512e+000	-4.586622e+001
3203499813	-4.848786e+000	-4.647101e+001	1.210033e+000	5.160177e+001	-1.439871e+001	5.264685e+001	-2.457783e+000	-4.595504e+001
3208812250	-4.842520e+000	-4.676708e+001	1.185031e+000	5.161791e+001	-1.438516e+001	5.262408e+001	-2.460272e+000	-4.610684e+001
3214124688	-4.838038e+000	-4.678887e+001	1.179952e+000	5.161057e+001	-1.437296e+001	5.252883e+001	-2.455866e+000	-4.620977e+001
3219437125	-4.846236e+000	-4.677360e+001	1.144128e+000	5.136444e+001	-1.437800e+001	5.244461e+001	-2.450811e+000	-4.633668e+001
3224749563	-4.845924e+000	-4.694048e+001	1.134137e+000	5.125294e+001	-1.436149e+001	5.233996e+001	-2.446426e+000	-4.646612e+001
3230062000	-4.833702e+000	-4.685822e+001	1.107866e+000	5.102978e+001	-1.435652e+001	5.225439e+001	-2.451706e+000	-4.657856e+001
3235374438	-4.830279e+000	-4.708988e+001	1.114387e+000	5.103283e+001	-1.434547e+001	5.213686e+001	-2.448990e+000	-4.665065e+001
3240686875	-4.817410e+000	-4.704746e+001	1.085190e+000	5.081348e+001	-1.433638e+001	5.206867e+001	-2.446459e+000	-4.679090e+001
3245999313	-4.829850e+000	-4.706648e+001	1.069067e+000	5.067552e+001	-1.432561e+001	5.202269e+001	-2.442612e+000	-4.693689e+001
3251311750	-4.833022e+000	-4.712719e+001	1.067980e+000	5.049572e+001	-1.432663e+001	5.193074e+001	-2.435996e+000	-4.698170e+001
3256624188	-4.814305e+000	-4.725809e+001	1.027754e+000	5.054002e+001	-1.431205e+001	5.185093e+001	-2.436986e+000	-4.710073e+001
3261936625	-4.813856e+000	-4.738059e+001	1.035105e+000	5.039122e+001	-1.430315e+001	5.180870e+001	-2.436574e+000	-4.724569e+001
3267249063	-4.827738e+000	-4.728148e+001	1.033045e+000	5.020965e+001	-1.429861e+001	5.168631e+001	-2.432682e+000	-4.733357e+001
3272561500	-4.812563e+000	-4.740962e+001	9.935682e-001	5.011530e+001	-1.429536e+001	5.161243e+001	-2.426230e+000	-4.743832e+001
3277873938	-4.824461e+000	-4.744964e+001	9.892823e-001	4.994220e+001	-1.427667e+001	5.149432e+001	-2.430945e+000	-4.757273e+001
3283186375	-4.815343e+000	-4.749202e+001	9.714077e-001	4.990230e+001	-1.427542e+001	5.145070e+001	-2.423741e+000	-4.768381e+001
3288498813	-4.814014e+000	-4.752546e+001	9.622098e-001	4.972383e+001	-1.426371e+001	5.131048e+001	-2.424182e+000	-4.776515e+001
3293811250	-4.818313e+000	-4.748613e+001	9.419565e-001	4.958966e+001	-1.425508e+001	5.125818e+001	-2.425936e+000	-4.788731e+001
3299123688	-4.819027e+000	-4.769803e+001	9.296050e-001	4.948800e+001	-1.424424e+001	5.118594e+001	-2.423546e+000	-4.796629e+001
3304436125	-4.816765e+000	-4.765492e+001	9.201113e-001	4.950258e+001	-1.424005e+001	5.117671e+001	-2.418599e+000	-4.807854e+001
3309748563	-4.810124e+000	-4.786883e+001	9.046948e-001	4.938507e+001	-1.422638e+001	5.105207e+001	-2.420154e+000	-4.817192e+001
3315061000	-4.812275e+000	-4.788975e+001	9.022848e-001	4.922356e+001	-1.422018e+001	5.100916e+001	-2.425048e+000	-4.823753e+001
3320373438	-4.788273e+000	-4.799522e+001	8.796262e-001	4.929488e+001	-1.421183e+001	5.091230e+001	-2.416849e+000	-4.840588e+001
3325685875	-4.829515e+000	-4.797441e+001	8.855254e-001	4.908414e+001	-1.420530e+001	5.082722e+001	-2.417841e+000	-4.844613e+001
3330998313	-4.804590e+000	-4.798371e+001	8.684380e-001	4.895819e+001	-1.419250e+001	5.068839e+001	-2.415141e+000	-4.854092e+001
3336310750	-4.829795e+000	-4.813827e+001	8.671652e-001	4.880950e+001	-1.418881e+001	5.066260e+001	-2.416570e+000	-4.869261e+001
3341623188	-4.808989e+000	-4.816967e+001	8.040364e-001	4.861634e+001	-1.417178e+001	5.051814e+001	-2.418621e+000	-4.881246e+001
3346935625	-4.815147e+000	-4.829092e+001	7.961780e-001	4.861440e+001	-1.416787e+001	5.045727e+001	-2.410736e+000	-4.888495e+001
3352248063	-4.839297e+000	-4.820511e+001	8.368800e-001	4.839376e+001	-1.415796e+001	5.043562e+001	-2.409581e+000	-4.900207e+001
3357560500	-4.817645e+000	-4.825807e+001	8.161877e-001	4.836025e+001	-1.414772e+001	5.035242e+001	-2.414526e+000	-4.913451e+001
3362872938	-4.827860e+000	-4.847529e+001	7.974104e-001	4.814735e+001	-1.413552e+001	5.030392e+001	-2.411180e+000	-4.925085e+001
3368185375	-4.801851e+000	-4.843918e+001	7.692557e-001	4.802025e+001	-1.413083e+001	5.017701e+001	-2.412139e+000	-4.937262e+001
3373497813	-4.824930e+000	-4.871000e+001	7.581929e-001	4.816730e+001	-1.412056e+001	5.011510e+001	-2.409069e+000	-4.944845e+001
3378810250	-4.796785e+000	-4.863214e+001	7.188251e-001	4.797657e+001	-1.411389e+001	5.002127e+001	-2.406923e+000	-4.961206e+001
3384122688	-4.814004e+000	-4.876771e+001	7.212643e-001	4.778344e+001	-1.409731e+001	4.993321e+001	-2.406561e+000	-4.972124e+001
3389435125	-4.810020e+000	-4.900897e+001	7.192076e-001	4.773206e+001	-1.409076e+001	4.990819e+001	-2.410346e+000	-4.983579e+001
3394747563	-4.810987e+000	-4.887932e+001	7.022807e-001	4.759745e+001	-1.408969e+001	4.976859e+001	-2.405029e+000	-4.997326e+001
3400060000	-4.800067e+000	-4.899157e+001	6.782615e-001	4.752703e+001	-1.407914e+001	4.974066e+001	-2.400918e+000	-5.006891e+001
3405372438	-4.795467e+000	-4.909607e+001	6.620009e-001	4.736163e+001	-1.407038e+001	4.959925e+001	-2.401921e+000	-5.016214e+001
3410684875	-4.811417e+000	-4.914024e+001	6.731908e-001	4.721613e+001	-1.406092e+001	4.953173e+001	-2.409115e+000	-5.032174e+001
3415997313	-4.807371e+000	-4.909158e+001	6.629811e-001	4.705347e+001	-1.405631e+001	4.940030e+001	-2.398401e+000	-5.039557e+001
3421309750	-4.811917e+000	-4.934940e+001	6.277888e-001	4.701115e+001	-1.404610e+001	4.929200e+001	-2.396876e+000	-5.052249e+001
3426622188	-4.813608e+000	-4.950871e+001	6.345407e-001	4.678703e+001	-1.403523e+001	4.923990e+001	-2.398527e+000	-5.065142e+001
3431934625	-4.812521e+000	-4.941984e+001	5.978352e-001	4.661335e+001	-1.402805e+001	4.913159e+001	-2.395823e+000	-5.075299e+001
3437247063	-4.804276e+000	-4.949085e+001	5.984031e-001	4.647750e+001	-1.401829e+001	4.902644e+001	-2.394947e+000	-5.088789e+001
3442559500	-4.796313e+000	-4.959227e+001	5.822592e-001	4.642126e+001	-1.401406e+001	4.895188e+001	-2.394211e+000	-5.100009e+001
3447871938	-4.800569e+000	-4.962289e+001	5.782843e-001	4.633754e+001	-1.401143e+001	4.884487e+001	-2.391259e+000	-5.110569e+001
3453184375	-4.802689e+000	-4.962238e+001	5.528189e-001	4.609645e+001	-1.399723e+001	4.879865e+001	-2.391550e+000	-5.123326e+001
3458496813	-4.801509e+000	-4.986700e+001	5.188766e-001	4.614176e+001	-1.399540e+001	4.873207e+001	-2.390833e+000	-5.126069e+001
3463809250	-4.805592e+000	-4.985758e+001	5.276647e-001	4.605347e+001	-1.398330e+001	4.859526e+001	-2.392091e+000	-5.138546e+001
3469121688	-4.806145e+000	-4.992276e+001	5.236427e-001	4.583373e+001	-1.398116e+001	4.857747e+001	-2.390772e+000	-5.151522e+001
3474434125	-4.802993e+000	-5.003271e+001	5.111554e-001	4.581167e+001	-1.396729e+001	4.850297e+001	-2.385476e+000	-5.160340e+001
3479746563	-4.806178e+000	-5.012729e+001	4.877892e-001	4.570366e+001	-1.396293e+001	4.841187e+001	-2.382301e+000	-5.173604e+001
3485059000	-4.792622e+000	-5.005509e+001	4.696834e-001	4.551327e+001	-1.395867e+001	4.833347e+001	-2.381322e+000	-5.180717e+001
3490371438	-4.792094e+000	-5.029497e+001	4.555421e-001	4.546434e+001	-1.394668e+001	4.820683e+001	-2.384190e+000	-5.188673e+001
3495683875	-4.777471e+000	-5.021115e+001	4.418817e-001	4.524782e+001	-1.394216e+001	4.823275e+001	-2.377166e+000	-5.201020e+001
3500996313	-4.795405e+000	-5.032997e+001	4.362689e-001	4.534111e+001	-1.393135e+001	4.813431e+001	-2.375758e+000	-5.207715e+001
3506308750	-4.779115e+000	-5.037825e+001	4.243937e-001	4.520429e+001	-1.392840e+001	4.803516e+001	-2.380764e+000	-5.215637e+001
3511621188	-4.789631e+000	-5.039299e+001	3.876526e-001	4.506594e+001	-1.391365e+001	4.798494e+001	-2.379983e+000	-5.229262e+001
3516933625	-4.788730e+000	-5.039265e+001	3.863932e-001	4.491418e+001	-1.390850e+001	4.787596e+001	-2.376015e+000	-5.236376e+001
3522246063	-4.791080e+000	-5.065800e+001	3.761951e-001	4.481589e+001	-1.390367e+001	4.780935e+001	-2.373579e+000	-5.247408e+001
3527558500	-4.780248e+000	-5.053717e+001	3.771302e-001	4.471093e+001	-1.389305e+001	4.774589e+001	-2.375697e+000	-5.256433e+001
3532870938	-4.800048e+000	-5.068531e+001	3.777529e-001	4.463756e+001	-1.387838e+001	4.763239e+001	-2.376503e+000	-5.265172e+001
3538183375	-4.789919e+000	-5.075916e+001	3.455941e-001	4.454568e+001	-1.387527e+001	4.757175e+001	-2.372443e+000	-5.276543e+001
3543495813	-4.784524e+000	-5.071239e+001	3.444375e-001	4.427292e+001	-1.387022e+001	4.751568e+001	-2.375167e+000	-5.289168e+001
3548808250	-4.818577e+000	-5.085126e+001	3.327832e-001	4.426035e+001	-1.386090e+001	4.743830e+001	-2.370624e+000	-5.297440e+001
3554120688	-4.777472e+000	-5.085544e+001	3.034388e-001	4.419028e+001	-1.386037e+001	4.737509e+001	-2.370875e+000	-5.309515e+001
3559433125	-4.770889e+000	-5.107719e+001	2.830139e-001	4.428975e+001	-1.384209e+001	4.730094e+001	-2.373305e+000	-5.314850e+001
3564745563	-4.797519e+000	-5.120984e+001	2.834286e-001	4.403574e+001	-1.383783e+001	4.721522e+001	-2.374727e+000	-5.323817e+001
3570058000	-4.788555e+000	-5.118538e+001	2.691343e-001	4.380430e+001	-1.383287e+001	4.719129e+001	-2.373112e+000	-5.335613e+001
3575370438	-4.784324e+000	-5.115266e+001	2.412864e-001	4.373640e+001	-1.381552e+001	4.707509e+001	-2.371621e+000	-5.346689e+001
3580682875	-4.788672e+000	-5.136752e+001	2.481251e-001	4.357333e+001	-1.381241e+001	4.695871e+001	-2.371313e+000	-5.358825e+001
3585995313	-4.804897e+000	-5.145202e+001	2.411743e-001	4.351288e+001	-1.380038e+001	4.690514e+001	-2.373953e+000	-5.368082e+001
3591307750	-4.789342e+000	-5.152819e+001	2.191319e-001	4.340484e+001	-1.379144e+001	4.683494e+001	-2.373891e+000	-5.382093e+001
3596620188	-4.792468e+000	-5.160040e+001	2.087790e-001	4.327428e+001	-1.378156e+001	4.673308e+001	-2.373961e+000	-5.387910e+001
3601932625	-4.801114e+000	-5.160424e+001	2.120425e-001	4.304705e+001	-1.377106e+001	4.665149e+001	-2.374498e+000	-5.402055e+001
3607245063	-4.774210e+000	-5.174060e+001	1.757709e-001	4.305868e+001	-1.375916e+001	4.658053e+001	-2.376981e+000	-5.412883e+001
3612557500	-4.818510e+000	-5.172868e+001	1.932096e-001	4.288813e+001	-1.374843e+001	4.649142e+001	-2.376539e+000	-5.419405e+001
3617869938	-4.790905e+000	-5.198688e+001	1.638491e-001	4.292334e+001	-1.374565e+001	4.638565e+001	-2.376172e+000	-5.429887e+001
3623182375	-4.802703e+000	-5.197008e+001	1.579283e-001	4.276317e+001	-1.374089e+001	4.629131e+001	-2.374178e+000	-5.443923e+001
3628494813	-4.811719e+000	-5.195809e+001	1.518437e-001	4.247301e+001	-1.373062e+001	4.620409e+001	-2.369461e+000	-5.456144e+001
3633807250	-4.816773e+000	-5.215947e+001	1.401707e-001	4.244918e+001	-1.371688e+001	4.611394e+001	-2.370960e+000	-5.465461e+001
3639119688	-4.819028e+000	-5.210912e+001	1.373306e-001	4.233272e+001	-1.371311e+001	4.600114e+001	-2.374534e+000	-5.478241e+001
3644432125	-4.794705e+000	-5.240779e+001	1.086249e-001	4.217428e+001	-1.370423e+001	4.594826e+001	-2.373398e+000	-5.486718e+001
3649744563	-4.811250e+000	-5.231283e+001	1.149649e-001	4.209875e+001	-1.369637e+001	4.585931e+001	-2.376929e+000	-5.500624e+001
3655057000	-4.797949e+000	-5.247169e+001	1.022876e-001	4.210164e+001	-1.369183e+001	4.579125e+001	-2.374851e+000	-5.510542e+001
3660369438	-4.786375e+000	-5.243822e+001	8.351025e-002	4.178280e+001	-1.367630e+001	4.573421e+001	-2.374952e+000	-5.523671e+001
3665681875	-4.804372e+000	-5.269811e+001	7.571374e-002	4.171690e+001	-1.367598e+001	4.561456e+001	-2.375831e+000	-5.532758e+001
3670994313	-4.800771e+000	-5.272829e+001	5.228915e-002	4.167336e+001	-1.366772e+001	4.552408e+001	-2.372708e+000	-5.541499e+001
3676306750	-4.803181e+000	-5.301212e+001	4.807419e-002	4.168947e+001	-1.365512e+001	4.544299e+001	-2.376145e+000	-5.556539e+001
3681619188	-4.802206e+000	-5.294577e+001	3.195127e-002	4.148380e+001	-1.364870e+001	4.533308e+001	-2.371772e+000	-5.567003e+001
3686931625	-4.791987e+000	-5.309571e+001	2.283763e-002	4.141646e+001	-1.363476e+001	4.527988e+001	-2.373674e+000	-5.577095e+001
3692244063	-4.812279e+000	-5.305789e+001	2.768011e-002	4.116696e+001	-1.362782e+001	4.516752e+001	-2.372506e+000	-5.588369e+001
3697556500	-4.808943e+000	-5.309706e+001	2.819431e-002	4.116858e+001	-1.362156e+001	4.510582e+001	-2.372886e+000	-5.595312e+001
3702868938	-4.809876e+000	-5.331371e+001	1.586671e-002	4.102962e+001	-1.362222e+001	4.497492e+001	-2.368240e+000	-5.604620e+001
3708181375	-4.805077e+000	-5.337368e+001	-1.382423e-002	4.092549e+001	-1.361095e+001	4.495689e+001	-2.371399e+000	-5.618349e+001
3713493813	-4.812209e+000	-5.346169e+001	-3.536603e-002	4.076047e+001	-1.359728e+001	4.484773e+001	-2.372149e+000	-5.625378e+001
3718806250	-4.803126e+000	-5.355993e+001	-3.096405e-002	4.072420e+001	-1.359385e+001	4.476257e+001	-2.369242e+000	-5.636246e+001
3724118688	-4.807286e+000	-5.366105e+001	-5.194510e-002	4.055264e+001	-1.358886e+001	4.468273e+001	-2.367860e+000	-5.646760e+001
3729431125	-4.800244e+000	-5.362684e+001	-6.228381e-002	4.049998e+001	-1.357942e+001	4.464759e+001	-2.370472e+000	-5.658573e+001
3734743563	-4.799454e+000	-5.371540e+001	-8.222749e-002	4.037702e+001	-1.357159e+001	4.453031e+001	-2.367855e+000	-5.670015e+001
3740056000	-4.799328e+000	-5.384011e+001	-1.067058e-001	4.011846e+001	-1.356132e+001	4.444534e+001	-2.370196e+000	-5.680685e+001
3745368438	-4.808760e+000	-5.392369e+001	-9.886479e-002	4.002817e+001	-1.355953e+001	4.436955e+001	-2.372017e+000	-5.687057e+001
3750680875	-4.808729e+000	-5.400711e+001	-1.034332e-001	3.988289e+001	-1.354263e+001	4.434579e+001	-2.372300e+000	-5.697435e+001
3755993313	-4.810695e+000	-5.398825e+001	-1.016724e-001	3.999783e+001	-1.354295e+001	4.421631e+001	-2.370176e+000	-5.707484e+001
3761305750	-4.795010e+000	-5.411688e+001	-1.390789e-001	3.979380e+001	-1.352858e+001	4.418863e+001	-2.370444e+000	-5.719179e+001
3766618188	-4.804958e+000	-5.419035e+001	-1.487218e-001	3.971369e+001	-1.352295e+001	4.411314e+001	-2.370917e+000	-5.729287e+001
3771930625	-4.807135e+000	-5.428613e+001	-1.556236e-001	3.961295e+001	-1.351008e+001	4.402149e+001	-2.374362e+000	-5.740076e+001
3777243063	-4.808743e+000	-5.433057e+001	-1.586750e-001	3.952577e+001	-1.350487e+001	4.390820e+001	-2.367357e+000	-5.752333e+001
3782555500	-4.806305e+000	-5.441286e+001	-1.684924e-001	3.938517e+001	-1.349555e+001	4.379107e+001	-2.370870e+000	-5.764439e+001
3787867938	-4.820254e+000	-5.456544e+001	-1.796285e-001	3.918580e+001	-1.348593e+001	4.366214e+001	-2.375420e+000	-5.772715e+001
3793180375	-4.810577e+000	-5.465784e+001	-1.746145e-001	3.916427e+001	-1.347716e+001	4.361756e+001	-2.372114e+000	-5.783598e+001
3798492813	-4.818002e+000	-5.473123e+001	-1.929553e-001	3.902499e+001	-1.347259e+001	4.353955e+001	-2.370792e+000	-5.797403e+001
3803805250	-4.816838e+000	-5.476120e+001	-2.150914e-001	3.882577e+001	-1.345996e+001	4.349500e+001	-2.371153e+000	-5.809692e+001
3809117688	-4.811059e+000	-5.481053e+001	-2.185801e-001	3.878237e+001	-1.344990e+001	4.337739e+001	-2.372669e+000	-5.820831e+001
3814430125	-4.815968e+000	-5.489505e+001	-2.403407e-001	3.863027e+001	-1.345069e+001	4.323869e+001	-2.377571e+000	-5.829074e+001
3819742563	-4.828614e+000	-5.511612e+001	-2.331565e-001	3.846934e+001	-1.343528e+001	4.319018e+001	-2.380962e+000	-5.843860e+001
3825055000	-4.820034e+000	-5.515569e+001	-2.397692e-001	3.841639e+001	-1.342789e+001	4.305919e+001	-2.377284e+000	-5.857233e+001
3830367438	-4.825907e+000	-5.531540e+001	-2.666798e-001	3.818972e+001	-1.342316e+001	4.297411e+001	-2.376237e+000	-5.865366e+001
3835679875	-4.811646e+000	-5.536179e+001	-2.872518e-001	3.814370e+001	-1.341555e+001	4.288619e+001	-2.378828e+000	-5.879857e+001
3840992313	-4.833042e+000	-5.540883e+001	-2.765390e-001	3.792431e+001	-1.340342e+001	4.275944e+001	-2.378001e+000	-5.893397e+001
3846304750	-4.832536e+000	-5.548649e+001	-2.951883e-001	3.795633e+001	-1.339558e+001	4.268110e+001	-2.381618e+000	-5.906536e+001
3851617188	-4.838418e+000	-5.563476e+001	-2.917482e-001	3.782068e+001	-1.338966e+001	4.261883e+001	-2.380606e+000	-5.915828e+001
3856929625	-4.816579e+000	-5.567950e+001	-3.282949e-001	3.768889e+001	-1.338164e+001	4.251179e+001	-2.380834e+000	-5.929431e+001
3862242063	-4.839122e+000	-5.584512e+001	-3.360834e-001	3.754109e+001	-1.337412e+001	4.242663e+001	-2.375663e+000	-5.942494e+001
3867554500	-4.832742e+000	-5.580849e+001	-3.437900e-001	3.747235e+001	-1.337213e+001	4.236303e+001	-2.379851e+000	-5.952296e+001
3872866938	-4.826118e+000	-5.599297e+001	-3.525538e-001	3.732923e+001	-1.336247e+001	4.226368e+001	-2.380726e+000	-5.965939e+001
3878179375	-4.836972e+000	-5.610916e+001	-3.536853e-001	3.726182e+001	-1.335058e+001	4.216020e+001	-2.379300e+000	-5.977162e+001
3883491813	-4.818409e+000	-5.624053e+001	-3.583614e-001	3.711434e+001	-1.333931e+001	4.208134e+001	-2.379533e+000	-5.992516e+001
3888804250	-4.834735e+000	-5.622605e+001	-3.741374e-001	3.696316e+001	-1.333538e+001	4.196531e+001	-2.380247e+000	-5.999915e+001
3894116688	-4.828316e+000	-5.636709e+001	-3.823552e-001	3.688403e+001	-1.333311e+001	4.185738e+001	-2.379983e+000	-6.015100e+001
3899429125	-4.834228e+000	-5.646345e+001	-3.945713e-001	3.670999e+001	-1.332529e+001	4.178950e+001	-2.377780e+000	-6.022727e+001
3904741563	-4.825833e+000	-5.658063e+001	-4.104816e-001	3.670079e+001	-1.332797e+001	4.173199e+001	-2.376359e+000	-6.032906e+001
3910054000	-4.837755e+000	-5.663933e+001	-4.283903e-001	3.646387e+001	-1.331941e+001	4.166602e+001	-2.379299e+000	-6.048021e+001
3915366438	-4.835367e+000	-5.676674e+001	-4.248803e-001	3.642450e+001	-1.330514e+001	4.155983e+001	-2.375274e+000	-6.057631e+001
3920678875	-4.827443e+000	-5.674882e+001	-4.470070e-001	3.625004e+001	-1.330165e+001	4.144852e+001	-2.376046e+000	-6.069241e+001
3925991313	-4.824675e+000	-5.698306e+001	-4.463240e-001	3.627847e+001	-1.330177e+001	4.136317e+001	-2.378103e+000	-6.077933e+001
3931303750	-4.837834e+000	-5.703089e+001	-4.628874e-001	3.599509e+001	-1.328820e+001	4.126487e+001	-2.375583e+000	-6.089770e+001
3936616188	-4.809231e+000	-5.702208e+001	-4.994817e-001	3.592925e+001	-1.328417e+001	4.118228e+001	-2.373413e+000	-6.099994e+001
3941928625	-4.806809e+000	-5.718594e+001	-5.063879e-001	3.596351e+001	-1.328373e+001	4.107264e+001	-2.372386e+000	-6.111208e+001
3947241063	-4.818337e+000	-5.726236e+001	-5.101755e-001	3.568588e+001	-1.327346e+001	4.103042e+001	-2.374766e+000	-6.120710e+001
3952553500	-4.818170e+000	-5.728185e+001	-5.094928e-001	3.556648e+001	-1.326239e+001	4.093313e+001	-2.370863e+000	-6.130792e+001
3957865938	-4.831052e+000	-5.748201e+001	-5.173432e-001	3.551846e+001	-1.325798e+001	4.088159e+001	-2.372353e+000	-6.142022e+001
3963178375	-4.822048e+000	-5.742426e+001	-5.423321e-001	3.541513e+001	-1.325066e+001	4.078349e+001	-2.375541e+000	-6.151581e+001
3968490813	-4.828364e+000	-5.757312e+001	-5.635801e-001	3.526266e+001	-1.324852e+001	4.069963e+001	-2.369953e+000	-6.163340e+001
3973803250	-4.838531e+000	-5.768218e+001	-5.588409e-001	3.515048e+001	-1.324339e+001	4.062013e+001	-2.373665e+000	-6.175084e+001
3979115688	-4.815553e+000	-5.778412e+001	-5.562587e-001	3.512312e+001	-1.323263e+001	4.051278e+001	-2.373826e+000	-6.187936e+001
3984428125	-4.832943e+000	-5.778721e+001	-5.721766e-001	3.492978e+001	-1.321941e+001	4.044109e+001	-2.376346e+000	-6.200113e+001
3989740563	-4.825473e+000	-5.787555e+001	-5.919723e-001	3.489724e+001	-1.321233e+001	4.031803e+001	-2.380534e+000	-6.210796e+001
3995053000	-4.819934e+000	-5.817285e+001	-5.926917e-001	3.481571e+001	-1.320150e+001	4.027127e+001	-2.373383e+000	-6.222007e+001
4000365438	-4.823343e+000	-5.812445e+001	-5.940500e-001	3.457805e+001	-1.319851e+001	4.015044e+001	-2.375010e+000	-6.234373e+001
4005677875	-4.842940e+000	-5.808125e+001	-6.167854e-001	3.455776e+001	-1.318799e+001	4.009447e+001	-2.380319e+000	-6.242122e+001
4010990313	-4.835845e+000	-5.822385e+001	-6.330761e-001	3.447969e+001	-1.318539e+001	3.997091e+001	-2.377166e+000	-6.253004e+001
4016302750	-4.844841e+000	-5.837170e+001	-6.348321e-001	3.429407e+001	-1.316884e+001	3.992691e+001	-2.379752e+000	-6.266817e+001
4021615188	-4.853162e+000	-5.850616e+001	-6.238432e-001	3.404720e+001	-1.316669e+001	3.975924e+001	-2.387510e+000	-6.280635e+001
4026927625	-4.831857e+000	-5.856129e+001	-6.579253e-001	3.405365e+001	-1.315263e+001	3.968963e+001	-2.388847e+000	-6.291712e+001
4032240063	-4.855967e+000	-5.871158e+001	-6.502275e-001	3.385411e+001	-1.315346e+001	3.956587e+001	-2.385430e+000	-6.304517e+001
4037552500	-4.849732e+000	-5.879054e+001	-6.648047e-001	3.374493e+001	-1.313635e+001	3.947896e+001	-2.384679e+000	-6.318654e+001
4042864938	-4.846539e+000	-5.887001e+001	-6.772151e-001	3.356411e+001	-1.313584e+001	3.934669e+001	-2.388238e+000	-6.329053e+001
4048177375	-4.864332e+000	-5.902922e+001	-6.771369e-001	3.364256e+001	-1.312838e+001	3.927267e+001	-2.382376e+000	-6.341084e+001
4053489813	-4.863898e+000	-5.909811e+001	-6.977210e-001	3.343807e+001	-1.311859e+001	3.920626e+001	-2.387534e+000	-6.354445e+001
4058802250	-4.866800e+000	-5.918904e+001	-6.945967e-001	3.323778e+001	-1.311119e+001	3.911824e+001	-2.383663e+000	-6.365848e+001
4064114688	-4.859261e+000	-5.927598e+001	-7.168609e-001	3.316445e+001	-1.310926e+001	3.898640e+001	-2.389452e+000	-6.378799e+001
4069427125	-4.852895e+000	-5.939132e+001	-7.269110e-001	3.302297e+001	-1.310191e+001	3.887271e+001	-2.393577e+000	-6.390911e+001
4074739563	-4.862822e+000	-5.942833e+001	-7.431498e-001	3.286694e+001	-1.309515e+001	3.880439e+001	-2.386931e+000	-6.405828e+001
4080052000	-4.879188e+000	-5.961735e+001	-7.444478e-001	3.281478e+001	-1.309014e+001	3.868445e+001	-2.388898e+000	-6.417332e+001
4085364438	-4.866031e+000	-5.965025e+001	-7.606813e-001	3.264000e+001	-1.308457e+001	3.860464e+001	-2.391005e+000	-6.431677e+001
4090676875	-4.868882e+000	-5.979392e+001	-7.756319e-001	3.248056e+001	-1.307028e+001	3.852437e+001	-2.389034e+000	-6.445889e+001
4095989313	-4.848335e+000	-6.003883e+001	-7.822078e-001	3.258142e+001	-1.306699e+001	3.836469e+001	-2.390961e+000	-6.455279e+001
4101301750	-4.859672e+000	-6.000971e+001	-7.942758e-001	3.231847e+001	-1.306007e+001	3.822698e+001	-2.397863e+000	-6.466350e+001
4106614188	-4.884467e+000	-6.024754e+001	-7.873884e-001	3.220494e+001	-1.306021e+001	3.820011e+001	-2.386662e+000	-6.478753e+001
4111926625	-4.863284e+000	-6.020617e+001	-8.080849e-001	3.217031e+001	-1.304925e+001	3.814580e+001	-2.395210e+000	-6.492356e+001
4117239063	-4.849432e+000	-6.034834e+001	-8.307446e-001	3.201872e+001	-1.304749e+001	3.800108e+001	-2.393446e+000	-6.504324e+001
4122551500	-4.866040e+000	-6.052934e+001	-8.347052e-001	3.185408e+001	-1.303780e+001	3.790279e+001	-2.394374e+000	-6.515626e+001
4127863938	-4.872338e+000	-6.059021e+001	-8.328055e-001	3.165628e+001	-1.303597e+001	3.778315e+001	-2.391043e+000	-6.530270e+001
4133176375	-4.858257e+000	-6.073850e+001	-8.471695e-001	3.163141e+001	-1.303241e+001	3.772093e+001	-2.393940e+000	-6.542826e+001
4138488813	-4.875442e+000	-6.088869e+001	-8.610877e-001	3.144472e+001	-1.302349e+001	3.758377e+001	-2.393706e+000	-6.555807e+001
4143801250	-4.870756e+000	-6.082318e+001	-8.879390e-001	3.123020e+001	-1.301568e+001	3.749823e+001	-2.393867e+000	-6.566538e+001
4149113688	-4.850329e+000	-6.101429e+001	-8.922393e-001	3.128141e+001	-1.301066e+001	3.741564e+001	-2.393153e+000	-6.576910e+001
4154426125	-4.853909e+000	-6.126248e+001	-9.060789e-001	3.127389e+001	-1.300903e+001	3.735563e+001	-2.387272e+000	-6.588914e+001
4159738563	-4.887068e+000	-6.110867e+001	-8.885460e-001	3.086706e+001	-1.300175e+001	3.727468e+001	-2.395000e+000	-6.598733e+001
4165051000	-4.878264e+000	-6.139878e+001	-9.046916e-001	3.088232e+001	-1.299887e+001	3.715349e+001	-2.387132e+000	-6.610049e+001
4170363438	-4.873384e+000	-6.146227e+001	-9.322909e-001	3.080640e+001	-1.299964e+001	3.709252e+001	-2.394758e+000	-6.624415e+001
4175675875	-4.880447e+000	-6.142770e+001	-9.346424e-001	3.051763e+001	-1.299419e+001	3.691779e+001	-2.392092e+000	-6.633221e+001
4180988313	-4.858601e+000	-6.171472e+001	-9.492148e-001	3.057144e+001	-1.298465e+001	3.682849e+001	-2.392208e+000	-6.648715e+001
4186300750	-4.857072e+000	-6.179746e+001	-9.549396e-001	3.040248e+001	-1.297541e+001	3.675006e+001	-2.394464e+000	-6.657621e+001
4191613188	-4.855682e+000	-6.181603e+001	-9.833919e-001	3.033327e+001	-1.297544e+001	3.664332e+001	-2.390071e+000	-6.670279e+001
4196925625	-4.862053e+000	-6.199114e+001	-9.850620e-001	3.019351e+001	-1.296442e+001	3.658914e+001	-2.395778e+000	-6.686406e+001
4202238063	-4.884440e+000	-6.194333e+001	-9.833745e-001	2.997161e+001	-1.295475e+001	3.643329e+001	-2.395654e+000	-6.696265e+001
4207550500	-4.865072e+000	-6.219817e+001	-9.887792e-001	2.992489e+001	-1.295298e+001	3.640260e+001	-2.393053e+000	-6.707241e+001
4212862938	-4.864887e+000	-6.220598e+001	-1.023007e+000	2.980371e+001	-1.294336e+001	3.625775e+001	-2.393993e+000	-6.716694e+001
4218175375	-4.886484e+000	-6.242360e+001	-1.009211e+000	2.966660e+001	-1.293823e+001	3.613843e+001	-2.395341e+000	-6.727987e+001
4223487813	-4.872586e+000	-6.242707e+001	-1.027503e+000	2.939025e+001	-1.292532e+001	3.603456e+001	-2.399734e+000	-6.742889e+001
4228800250	-4.887227e+000	-6.259707e+001	-1.037979e+000	2.935350e+001	-1.292579e+001	3.594462e+001	-2.395399e+000	-6.756433e+001
4234112688	-4.873920e+000	-6.277685e+001	-1.049751e+000	2.919734e+001	-1.291941e+001	3.584861e+001	-2.398598e+000	-6.768046e+001
4239425125	-4.877344e+000	-6.289360e+001	-1.056673e+000	2.924438e+001	-1.291414e+001	3.571707e+001	-2.399079e+000	-6.779685e+001
4244737563	-4.905942e+000	-6.294651e+001	-1.044784e+000	2.885246e+001	-1.290985e+001	3.562516e+001	-2.394970e+000	-6.793899e+001
4250050000	-4.874835e+000	-6.315849e+001	-1.070519e+000	2.895882e+001	-1.290115e+001	3.554283e+001	-2.401086e+000	-6.803730e+001
4255362438	-4.888750e+000	-6.310076e+001	-1.083664e+000	2.874254e+001	-1.289793e+001	3.546039e+001	-2.397600e+000	-6.818525e+001
4260674875	-4.883170e+000	-6.338881e+001	-1.098208e+000	2.863606e+001	-1.288542e+001	3.532681e+001	-2.401840e+000	-6.829261e+001
4265987313	-4.884087e+000	-6.343394e+001	-1.122614e+000	2.853965e+001	-1.287992e+001	3.523870e+001	-2.400529e+000	-6.842127e+001
4271299750	-4.888971e+000	-6.361250e+001	-1.110008e+000	2.841722e+001	-1.287213e+001	3.512848e+001	-2.404740e+000	-6.856381e+001
4276612188	-4.886503e+000	-6.369986e+001	-1.118020e+000	2.833762e+001	-1.287620e+001	3.507847e+001	-2.401379e+000	-6.871910e+001
4281924625	-4.890648e+000	-6.384529e+001	-1.119134e+000	2.815558e+001	-1.287092e+001	3.492126e+001	-2.402076e+000	-6.882093e+001
4287237063	-4.886088e+000	-6.392007e+001	-1.151545e+000	2.802182e+001	-1.286122e+001	3.483093e+001	-2.402120e+000	-6.892085e+001
4292549500	-4.898160e+000	-6.408848e+001	-1.162435e+000	2.800552e+001	-1.285707e+001	3.472482e+001	-2.402938e+000	-6.906736e+001
4297861938	-4.884612e+000	-6.417367e+001	-1.183126e+000	2.776663e+001	-1.285048e+001	3.460237e+001	-2.402532e+000	-6.920472e+001
4303174375	-4.885521e+000	-6.438830e+001	-1.187271e+000	2.764851e+001	-1.285303e+001	3.455371e+001	-2.398424e+000	-6.933593e+001
4308486813	-4.870477e+000	-6.444034e+001	-1.204109e+000	2.759967e+001	-1.284402e+001	3.444551e+001	-2.403529e+000	-6.948513e+001
4313799250	-4.880383e+000	-6.460633e+001	-1.213129e+000	2.739337e+001	-1.283695e+001	3.430678e+001	-2.404486e+000	-6.957272e+001
4319111688	-4.883860e+000	-6.463843e+001	-1.218888e+000	2.724069e+001	-1.283755e+001	3.421474e+001	-2.404525e+000	-6.972910e+001
4324424125	-4.883883e+000	-6.471508e+001	-1.228167e+000	2.709414e+001	-1.283010e+001	3.408386e+001	-2.409724e+000	-6.984902e+001
4329736563	-4.891093e+000	-6.499444e+001	-1.248816e+000	2.698251e+001	-1.282715e+001	3.400138e+001	-2.403485e+000	-6.995948e+001
4335049000	-4.877314e+000	-6.499216e+001	-1.236646e+000	2.687251e+001	-1.282140e+001	3.386008e+001	-2.399453e+000	-7.006717e+001
4340361438	-4.883385e+000	-6.525552e+001	-1.267181e+000	2.677268e+001	-1.282352e+001	3.379599e+001	-2.401131e+000	-7.021522e+001
4345673875	-4.880032e+000	-6.544453e+001	-1.265937e+000	2.673674e+001	-1.280753e+001	3.369125e+001	-2.407690e+000	-7.031235e+001
4350986313	-4.884447e+000	-6.538491e+001	-1.267825e+000	2.655803e+001	-1.280469e+001	3.356568e+001	-2.402353e+000	-7.042736e+001
4356298750	-4.872898e+000	-6.549280e+001	-1.308673e+000	2.630487e+001	-1.280109e+001	3.347717e+001	-2.396583e+000	-7.053562e+001
4361611188	-4.887552e+000	-6.563358e+001	-1.303967e+000	2.624737e+001	-1.280259e+001	3.337113e+001	-2.399028e+000	-7.066513e+001
4366923625	-4.880138e+000	-6.579893e+001	-1.316014e+000	2.623511e+001	-1.279039e+001	3.328161e+001	-2.404058e+000	-7.078349e+001
4372236063	-4.863493e+000	-6.586411e+001	-1.347347e+000	2.597039e+001	-1.278933e+001	3.320194e+001	-2.401845e+000	-7.091677e+001
4377548500	-4.877720e+000	-6.608739e+001	-1.340365e+000	2.593596e+001	-1.278819e+001	3.307735e+001	-2.397939e+000	-7.101701e+001
4382860938	-4.886574e+000	-6.615957e+001	-1.350522e+000	2.573991e+001	-1.278520e+001	3.300094e+001	-2.393446e+000	-7.112294e+001
4388173375	-4.890665e+000	-6.632954e+001	-1.362492e+000	2.566801e+001	-1.276958e+001	3.283622e+001	-2.396611e+000	-7.128013e+001
4393485813	-4.870900e+000	-6.634673e+001	-1.384597e+000	2.546641e+001	-1.277462e+001	3.276027e+001	-2.398385e+000	-7.138266e+001
4398798250	-4.863602e+000	-6.649806e+001	-1.392233e+000	2.537233e+001	-1.276945e+001	3.265065e+001	-2.395536e+000	-7.148774e+001
4404110688	-4.871689e+000	-6.655592e+001	-1.401059e+000	2.524095e+001	-1.276008e+001	3.256031e+001	-2.395672e+000	-7.159113e+001
4409423125	-4.865521e+000	-6.676909e+001	-1.409004e+000	2.514729e+001	-1.276151e+001	3.249982e+001	-2.395341e+000	-7.174257e+001
4414735563	-4.881821e+000	-6.686898e+001	-1.410963e+000	2.505064e+001	-1.275992e+001	3.239244e+001	-2.397367e+000	-7.187345e+001
4420048000	-4.864223e+000	-6.693471e+001	-1.437947e+000	2.486766e+001	-1.275709e+001	3.227928e+001	-2.399863e+000	-7.195451e+001
4425360438	-4.874642e+000	-6.706999e+001	-1.439629e+000	2.474077e+001	-1.274913e+001	3.215561e+001	-2.397174e+000	-7.210315e+001
4430672875	-4.882522e+000	-6.725264e+001	-1.446385e+000	2.457954e+001	-1.274866e+001	3.206688e+001	-2.400328e+000	-7.218337e+001
4435985313	-4.866578e+000	-6.744276e+001	-1.458768e+000	2.455479e+001	-1.274471e+001	3.192021e+001	-2.396301e+000	-7.231323e+001
4441297750	-4.882670e+000	-6.747259e+001	-1.466051e+000	2.437466e+001	-1.274229e+001	3.182950e+001	-2.395162e+000	-7.246143e+001
4446610188	-4.872469e+000	-6.762906e+001	-1.489025e+000	2.432688e+001	-1.272941e+001	3.167121e+001	-2.395133e+000	-7.255632e+001
4451922625	-4.878830e+000	-6.768864e+001	-1.481567e+000	2.418333e+001	-1.273000e+001	3.166817e+001	-2.397117e+000	-7.266464e+001
4457235063	-4.866924e+000	-6.783543e+001	-1.498676e+000	2.409914e+001	-1.271998e+001	3.158982e+001	-2.396516e+000	-7.280276e+001
4462547500	-4.864948e+000	-6.795687e+001	-1.506576e+000	2.395335e+001	-1.271980e+001	3.144608e+001	-2.405652e+000	-7.294628e+001
4467859938	-4.878874e+000	-6.804201e+001	-1.495955e+000	2.384310e+001	-1.271961e+001	3.134405e+001	-2.400176e+000	-7.301136e+001
4473172375	-4.862189e+000	-6.808303e+001	-1.541664e+000	2.361367e+001	-1.271716e+001	3.125594e+001	-2.398805e+000	-7.316835e+001
4478484813	-4.874890e+000	-6.844314e+001	-1.534531e+000	2.370264e+001	-1.270536e+001	3.112557e+001	-2.402986e+000	-7.328624e+001
4483797250	-4.875073e+000	-6.840297e+001	-1.540870e+000	2.336072e+001	-1.269321e+001	3.099670e+001	-2.405645e+000	-7.340986e+001
4489109688	-4.877575e+000	-6.852296e+001	-1.539853e+000	2.331463e+001	-1.269273e+001	3.088768e+001	-2.408160e+000	-7.354645e+001
4494422125	-4.892038e+000	-6.862393e+001	-1.577198e+000	2.324203e+001	-1.269104e+001	3.081567e+001	-2.404488e+000	-7.370730e+001
4499734563	-4.853714e+000	-6.882930e+001	-1.567861e+000	2.302001e+001	-1.268146e+001	3.069212e+001	-2.403560e+000	-7.379545e+001
4505047000	-4.888263e+000	-6.896558e+001	-1.583742e+000	2.291508e+001	-1.268368e+001	3.059575e+001	-2.404686e+000	-7.394739e+001
4510359438	-4.875342e+000	-6.911270e+001	-1.598140e+000	2.279112e+001	-1.268307e+001	3.044365e+001	-2.403621e+000	-7.408687e+001
4515671875	-4.876631e+000	-6.916354e+001	-1.609137e+000	2.270388e+001	-1.266755e+001	3.036680e+001	-2.409674e+000	-7.420014e+001
4520984313	-4.879404e+000	-6.936277e+001	-1.610538e+000	2.254365e+001	-1.267380e+001	3.027882e+001	-2.404943e+000	-7.436870e+001
4526296750	-4.881836e+000	-6.950779e+001	-1.636471e+000	2.237071e+001	-1.267193e+001	3.017643e+001	-2.405976e+000	-7.449386e+001
4531609188	-4.850437e+000	-6.973139e+001	-1.667820e+000	2.213101e+001	-1.266377e+001	3.006166e+001	-2.407197e+000	-7.463782e+001
4536921625	-4.859407e+000	-6.973521e+001	-1.652933e+000	2.208128e+001	-1.266101e+001	2.994031e+001	-2.408720e+000	-7.477093e+001
4542234063	-4.888980e+000	-6.983478e+001	-1.660454e+000	2.189150e+001	-1.265180e+001	2.980968e+001	-2.405164e+000	-7.491434e+001
4547546500	-4.878339e+000	-7.007382e+001	-1.681847e+000	2.187431e+001	-1.265145e+001	2.972390e+001	-2.404267e+000	-7.505250e+001
4552858938	-4.893704e+000	-7.024395e+001	-1.664084e+000	2.175406e+001	-1.264560e+001	2.963611e+001	-2.405953e+000	-7.517794e+001
4558171375	-4.879857e+000	-7.032104e+001	-1.701574e+000	2.153112e+001	-1.264833e+001	2.952319e+001	-2.407670e+000	-7.529310e+001
4563483813	-4.887916e+000	-7.050022e+001	-1.724342e+000	2.148071e+001	-1.264594e+001	2.939459e+001	-2.405926e+000	-7.543355e+001
4568796250	-4.875909e+000	-7.057038e+001	-1.720138e+000	2.124649e+001	-1.264154e+001	2.928911e+001	-2.404637e+000	-7.556185e+001
4574108688	-4.875754e+000	-7.075243e+001	-1.754935e+000	2.123103e+001	-1.264335e+001	2.910608e+001	-2.403974e+000	-7.570400e+001
4579421125	-4.870163e+000	-7.094397e+001	-1.740961e+000	2.110918e+001	-1.263805e+001	2.898757e+001	-2.398465e+000	-7.580394e+001
4584733563	-4.867544e+000	-7.104433e+001	-1.775981e+000	2.098615e+001	-1.263757e+001	2.893098e+001	-2.403414e+000	-7.596146e+001
4590046000	-4.879606e+000	-7.115449e+001	-1.772876e+000	2.089050e+001	-1.263452e+001	2.878541e+001	-2.401417e+000	-7.608884e+001
4595358438	-4.853651e+000	-7.134254e+001	-1.808214e+000	2.079989e+001	-1.263503e+001	2.872564e+001	-2.400032e+000	-7.623431e+001
4600670875	-4.871192e+000	-7.141376e+001	-1.805584e+000	2.053675e+001	-1.262034e+001	2.857995e+001	-2.404689e+000	-7.631703e+001
4605983313	-4.879757e+000	-7.155472e+001	-1.797959e+000	2.052849e+001	-1.262349e+001	2.850055e+001	-2.402418e+000	-7.644679e+001
4611295750	-4.869814e+000	-7.170325e+001	-1.806921e+000	2.037973e+001	-1.261708e+001	2.842641e+001	-2.401083e+000	-7.656671e+001
4616608188	-4.862119e+000	-7.184436e+001	-1.857778e+000	2.027807e+001	-1.261810e+001	2.828523e+001	-2.398549e+000	-7.666522e+001
4621920625	-4.858981e+000	-7.199972e+001	-1.830007e+000	2.004626e+001	-1.261416e+001	2.816622e+001	-2.397839e+000	-7.679371e+001
4627233063	-4.865067e+000	-7.211824e+001	-1.850493e+000	1.995508e+001	-1.261390e+001	2.807677e+001	-2.398128e+000	-7.692383e+001
4632545500	-4.842779e+000	-7.234593e+001	-1.875490e+000	1.996510e+001	-1.260920e+001	2.787195e+001	-2.399105e+000	-7.705477e+001
4637857938	-4.859574e+000	-7.219028e+001	-1.887353e+000	1.958017e+001	-1.260785e+001	2.779155e+001	-2.399438e+000	-7.716440e+001
4643170375	-4.847266e+000	-7.254451e+001	-1.895030e+000	1.948820e+001	-1.259649e+001	2.772659e+001	-2.396240e+000	-7.729410e+001
4648482813	-4.855602e+000	-7.267579e+001	-1.900421e+000	1.944080e+001	-1.259897e+001	2.761379e+001	-2.398680e+000	-7.741718e+001
4653795250	-4.844556e+000	-7.274497e+001	-1.904801e+000	1.920895e+001	-1.259602e+001	2.753340e+001	-2.399739e+000	-7.754539e+001
4659107688	-4.847502e+000	-7.285698e+001	-1.917612e+000	1.925400e+001	-1.258746e+001	2.741533e+001	-2.401351e+000	-7.764515e+001
4664420125	-4.852580e+000	-7.309688e+001	-1.922184e+000	1.898814e+001	-1.258963e+001	2.730262e+001	-2.397846e+000	-7.778354e+001
4669732563	-4.841457e+000	-7.331596e+001	-1.943697e+000	1.900749e+001	-1.259220e+001	2.720761e+001	-2.399642e+000	-7.793589e+001
4675045000	-4.850639e+000	-7.327725e+001	-1.960263e+000	1.865170e+001	-1.258232e+001	2.709515e+001	-2.401173e+000	-7.805472e+001
4680357438	-4.861930e+000	-7.345057e+001	-1.963420e+000	1.866879e+001	-1.257350e+001	2.697236e+001	-2.405516e+000	-7.817736e+001
4685669875	-4.846275e+000	-7.361682e+001	-1.981083e+000	1.845732e+001	-1.257800e+001	2.684502e+001	-2.399717e+000	-7.834249e+001
4690982313	-4.836769e+000	-7.371463e+001	-1.975885e+000	1.835002e+001	-1.257341e+001	2.665715e+001	-2.400015e+000	-7.845352e+001
4696294750	-4.844423e+000	-7.384019e+001	-1.988152e+000	1.819067e+001	-1.256683e+001	2.659951e+001	-2.400507e+000	-7.857384e+001
4701607188	-4.855286e+000	-7.404047e+001	-1.990200e+000	1.815544e+001	-1.256777e+001	2.646637e+001	-2.402303e+000	-7.872916e+001
4706919625	-4.830291e+000	-7.415038e+001	-2.014813e+000	1.802146e+001	-1.255667e+001	2.637422e+001	-2.399575e+000	-7.885960e+001
4712232063	-4.850149e+000	-7.436400e+001	-2.022159e+000	1.793452e+001	-1.256060e+001	2.628109e+001	-2.399108e+000	-7.899257e+001
4717544500	-4.836075e+000	-7.443484e+001	-2.065034e+000	1.774313e+001	-1.255617e+001	2.615181e+001	-2.402352e+000	-7.914265e+001
4722856938	-4.849048e+000	-7.458887e+001	-2.042830e+000	1.761255e+001	-1.255453e+001	2.603872e+001	-2.402125e+000	-7.927683e+001
4728169375	-4.846340e+000	-7.477637e+001	-2.068424e+000	1.740027e+001	-1.255772e+001	2.585363e+001	-2.400482e+000	-7.942596e+001
4733481813	-4.835763e+000	-7.500081e+001	-2.080889e+000	1.727605e+001	-1.255278e+001	2.576554e+001	-2.402098e+000	-7.955434e+001
4738794250	-4.848307e+000	-7.509472e+001	-2.086738e+000	1.720546e+001	-1.255202e+001	2.564872e+001	-2.400476e+000	-7.970025e+001
4744106688	-4.843653e+000	-7.526389e+001	-2.111456e+000	1.711433e+001	-1.255340e+001	2.550323e+001	-2.400118e+000	-7.984948e+001
4749419125	-4.841056e+000	-7.544307e+001	-2.128443e+000	1.695840e+001	-1.254284e+001	2.540543e+001	-2.401092e+000	-7.998859e+001
4754731563	-4.843725e+000	-7.556484e+001	-2.115220e+000	1.682632e+001	-1.254085e+001	2.530858e+001	-2.400318e+000	-8.013542e+001
4760044000	-4.840329e+000	-7.569606e+001	-2.132548e+000	1.648802e+001	-1.254466e+001	2.516893e+001	-2.399442e+000	-8.028990e+001
4765356438	-4.824120e+000	-7.585003e+001	-2.174099e+000	1.645645e+001	-1.254508e+001	2.509364e+001	-2.398455e+000	-8.042523e+001
4770668875	-4.842070e+000	-7.597178e+001	-2.177768e+000	1.624147e+001	-1.253897e+001	2.498702e+001	-2.391447e+000	-8.055442e+001
4775981313	-4.837114e+000	-7.616321e+001	-2.174329e+000	1.609479e+001	-1.254787e+001	2.481240e+001	-2.395345e+000	-8.072282e+001
4781293750	-4.830437e+000	-7.631489e+001	-2.183187e+000	1.601128e+001	-1.254858e+001	2.471145e+001	-2.388713e+000	-8.085098e+001
4786606188	-4.817517e+000	-7.640047e+001	-2.225369e+000	1.575168e+001	-1.254279e+001	2.458027e+001	-2.394034e+000	-8.099410e+001
4791918625	-4.826050e+000	-7.662164e+001	-2.221708e+000	1.573716e+001	-1.253693e+001	2.445747e+001	-2.392173e+000	-8.114787e+001
4797231063	-4.794951e+000	-7.679452e+001	-2.230721e+000	1.581166e+001	-1.253730e+001	2.438688e+001	-2.389575e+000	-8.128143e+001
4802543500	-4.816893e+000	-7.689619e+001	-2.238488e+000	1.539844e+001	-1.253331e+001	2.430453e+001	-2.387173e+000	-8.140078e+001
4807855938	-4.812656e+000	-7.704187e+001	-2.237624e+000	1.539246e+001	-1.254443e+001	2.413200e+001	-2.382952e+000	-8.152663e+001
4813168375	-4.807984e+000	-7.717911e+001	-2.267193e+000	1.515600e+001	-1.254136e+001	2.405668e+001	-2.384825e+000	-8.163866e+001
4818480813	-4.815626e+000	-7.737608e+001	-2.260543e+000	1.508205e+001	-1.253805e+001	2.393065e+001	-2.382979e+000	-8.177220e+001
4823793250	-4.798014e+000	-7.751699e+001	-2.308342e+000	1.499386e+001	-1.254422e+001	2.370364e+001	-2.388494e+000	-8.190074e+001
4829105688	-4.806060e+000	-7.764882e+001	-2.312745e+000	1.474849e+001	-1.254477e+001	2.360509e+001	-2.380928e+000	-8.205209e+001
4834418125	-4.786583e+000	-7.783737e+001	-2.325696e+000	1.474259e+001	-1.253464e+001	2.353077e+001	-2.375282e+000	-8.216560e+001
4839730563	-4.777975e+000	-7.786992e+001	-2.351369e+000	1.444025e+001	-1.253331e+001	2.340274e+001	-2.378229e+000	-8.231181e+001
4845043000	-4.801085e+000	-7.817964e+001	-2.353270e+000	1.441881e+001	-1.253072e+001	2.329844e+001	-2.376826e+000	-8.244296e+001
4850355438	-4.780645e+000	-7.825932e+001	-2.364708e+000	1.438722e+001	-1.253452e+001	2.320060e+001	-2.375259e+000	-8.255137e+001
4855667875	-4.791935e+000	-7.838334e+001	-2.384316e+000	1.406153e+001	-1.253555e+001	2.311535e+001	-2.370411e+000	-8.264940e+001
4860980313	-4.778005e+000	-7.855794e+001	-2.384034e+000	1.398975e+001	-1.253408e+001	2.298549e+001	-2.375422e+000	-8.279156e+001
4866292750	-4.780694e+000	-7.868165e+001	-2.404597e+000	1.384044e+001	-1.253504e+001	2.288742e+001	-2.372464e+000	-8.293368e+001
4871605188	-4.786029e+000	-7.884805e+001	-2.405388e+000	1.356194e+001	-1.253857e+001	2.274442e+001	-2.369159e+000	-8.305280e+001
4876917625	-4.774276e+000	-7.893777e+001	-2.419503e+000	1.364469e+001	-1.253063e+001	2.262756e+001	-2.367064e+000	-8.318676e+001
4882230063	-4.774188e+000	-7.906166e+001	-2.437743e+000	1.348893e+001	-1.253406e+001	2.248174e+001	-2.370465e+000	-8.331930e+001
4887542500	-4.769357e+000	-7.920513e+001	-2.471415e+000	1.338274e+001	-1.253581e+001	2.237555e+001	-2.368164e+000	-8.345160e+001
4892854938	-4.766421e+000	-7.938049e+001	-2.457486e+000	1.314702e+001	-1.253109e+001	2.228477e+001	-2.370784e+000	-8.357986e+001
4898167375	-4.767921e+000	-7.949294e+001	-2.465773e+000	1.305762e+001	-1.252237e+001	2.216719e+001	-2.369564e+000	-8.370703e+001
4903479813	-4.768408e+000	-7.961487e+001	-2.497147e+000	1.297667e+001	-1.252343e+001	2.207443e+001	-2.368501e+000	-8.386783e+001
4908792250	-4.769802e+000	-7.976753e+001	-2.505966e+000	1.278704e+001	-1.252235e+001	2.196015e+001	-2.367286e+000	-8.398615e+001
4914104688	-4.760669e+000	-7.992663e+001	-2.529328e+000	1.267252e+001	-1.251862e+001	2.181591e+001	-2.368320e+000	-8.414010e+001
4919417125	-4.767270e+000	-7.997794e+001	-2.541768e+000	1.257836e+001	-1.252037e+001	2.171022e+001	-2.363696e+000	-8.427191e+001
4924729563	-4.759946e+000	-8.009971e+001	-2.545847e+000	1.230592e+001	-1.251825e+001	2.162391e+001	-2.363049e+000	-8.440935e+001
4930042000	-4.752610e+000	-8.038156e+001	-2.560560e+000	1.232723e+001	-1.252516e+001	2.146617e+001	-2.361959e+000	-8.452860e+001
4935354438	-4.764736e+000	-8.051571e+001	-2.560719e+000	1.201457e+001	-1.251809e+001	2.130551e+001	-2.364013e+000	-8.469390e+001
4940666875	-4.762351e+000	-8.062147e+001	-2.580456e+000	1.187946e+001	-1.251665e+001	2.122848e+001	-2.360752e+000	-8.483238e+001
4945979313	-4.746510e+000	-8.077215e+001	-2.602154e+000	1.179527e+001	-1.252086e+001	2.110251e+001	-2.358710e+000	-8.496396e+001
4951291750	-4.741838e+000	-8.092397e+001	-2.627756e+000	1.162374e+001	-1.251246e+001	2.092403e+001	-2.363361e+000	-8.511894e+001
4956604188	-4.743345e+000	-8.110117e+001	-2.629432e+000	1.152437e+001	-1.251818e+001	2.085558e+001	-2.359534e+000	-8.523846e+001
4961916625	-4.747496e+000	-8.128766e+001	-2.628773e+000	1.126457e+001	-1.251954e+001	2.077962e+001	-2.355042e+000	-8.539352e+001
4967229063	-4.748891e+000	-8.130598e+001	-2.661918e+000	1.125211e+001	-1.252327e+001	2.059873e+001	-2.355088e+000	-8.552862e+001
4972541500	-4.735481e+000	-8.155205e+001	-2.674214e+000	1.109279e+001	-1.251859e+001	2.044720e+001	-2.357531e+000	-8.567238e+001
4977853938	-4.725422e+000	-8.178907e+001	-2.696897e+000	1.103538e+001	-1.252401e+001	2.028919e+001	-2.354113e+000	-8.581192e+001
4983166375	-4.727513e+000	-8.189750e+001	-2.698641e+000	1.084579e+001	-1.252365e+001	2.014709e+001	-2.351102e+000	-8.598778e+001
4988478813	-4.697601e+000	-8.195586e+001	-2.736965e+000	1.063514e+001	-1.252177e+001	2.003996e+001	-2.350800e+000	-8.610834e+001
4993791250	-4.736121e+000	-8.219145e+001	-2.722402e+000	1.046942e+001	-1.252494e+001	1.993483e+001	-2.350414e+000	-8.621039e+001
4999103688	-4.724201e+000	-8.235690e+001	-2.736777e+000	1.043708e+001	-1.253621e+001	1.978490e+001	-2.353963e+000	-8.633694e+001
5004416125	-4.718808e+000	-8.244847e+001	-2.769410e+000	1.010868e+001	-1.252612e+001	1.969443e+001	-2.344137e+000	-8.650024e+001
5009728563	-4.718458e+000	-8.273284e+001	-2.750224e+000	1.022728e+001	-1.252593e+001	1.957888e+001	-2.346181e+000	-8.662521e+001
5015041000	-4.693396e+000	-8.277061e+001	-2.806823e+000	1.002942e+001	-1.252711e+001	1.946457e+001	-2.340211e+000	-8.675617e+001
5020353438	-4.688453e+000	-8.291593e+001	-2.818119e+000	9.948908e+000	-1.253818e+001	1.931221e+001	-2.339169e+000	-8.687096e+001
5025665875	-4.671611e+000	-8.303301e+001	-2.835424e+000	9.787919e+000	-1.253889e+001	1.917085e+001	-2.339431e+000	-8.701350e+001
5030978313	-4.674284e+000	-8.310280e+001	-2.845104e+000	9.486505e+000	-1.253848e+001	1.905211e+001	-2.330256e+000	-8.711216e+001
5036290750	-4.663585e+000	-8.336790e+001	-2.880664e+000	9.469141e+000	-1.253564e+001	1.894432e+001	-2.333713e+000	-8.727699e+001
5041603188	-4.647346e+000	-8.359546e+001	-2.891636e+000	9.391945e+000	-1.254028e+001	1.878579e+001	-2.335092e+000	-8.738553e+001
5046915625	-4.651415e+000	-8.377894e+001	-2.898952e+000	9.368325e+000	-1.254845e+001	1.864061e+001	-2.330632e+000	-8.749608e+001
5052228063	-4.655418e+000	-8.385801e+001	-2.932639e+000	9.086233e+000	-1.255428e+001	1.858245e+001	-2.330127e+000	-8.762674e+001
5057540500	-4.646707e+000	-8.391218e+001	-2.930254e+000	8.857542e+000	-1.255552e+001	1.849443e+001	-2.325681e+000	-8.773434e+001
5062852938	-4.622794e+000	-8.418041e+001	-2.966400e+000	8.996490e+000	-1.255713e+001	1.837304e+001	-2.322916e+000	-8.784722e+001
5068165375	-4.627047e+000	-8.438832e+001	-2.954314e+000	8.807573e+000	-1.255430e+001	1.823443e+001	-2.325308e+000	-8.800666e+001
5073477813	-4.607690e+000	-8.450547e+001	-2.973334e+000	8.724012e+000	-1.256566e+001	1.809332e+001	-2.321957e+000	-8.809300e+001
5078790250	-4.600535e+000	-8.464518e+001	-2.999480e+000	8.580561e+000	-1.256542e+001	1.797144e+001	-2.323204e+000	-8.821944e+001
5084102688	-4.604427e+000	-8.485275e+001	-2.983522e+000	8.263894e+000	-1.257142e+001	1.781306e+001	-2.321249e+000	-8.833709e+001
5089415125	-4.597641e+000	-8.495078e+001	-3.031292e+000	8.183251e+000	-1.257572e+001	1.767935e+001	-2.320411e+000	-8.841810e+001
5094727563	-4.582612e+000	-8.512265e+001	-3.046036e+000	8.136213e+000	-1.257818e+001	1.761769e+001	-2.316752e+000	-8.855619e+001
5100040000	-4.578700e+000	-8.532446e+001	-3.043248e+000	8.101534e+000	-1.258527e+001	1.746932e+001	-2.317701e+000	-8.866210e+001
5105352438	-4.570090e+000	-8.541227e+001	-3.054375e+000	7.901798e+000	-1.258212e+001	1.743768e+001	-2.313768e+000	-8.878923e+001
5110664875	-4.579783e+000	-8.573908e+001	-3.059429e+000	7.888435e+000	-1.258771e+001	1.736370e+001	-2.308889e+000	-8.895298e+001
5115977313	-4.570401e+000	-8.575622e+001	-3.085473e+000	7.494040e+000	-1.258247e+001	1.720127e+001	-2.313816e+000	-8.904994e+001
5121289750	-4.557568e+000	-8.605179e+001	-3.097918e+000	7.662028e+000	-1.258308e+001	1.707248e+001	-2.315015e+000	-8.917804e+001
5126602188	-4.565191e+000	-8.620527e+001	-3.114164e+000	7.455909e+000	-1.259113e+001	1.695770e+001	-2.308975e+000	-8.933027e+001
5131914625	-4.556484e+000	-8.626316e+001	-3.128194e+000	7.213757e+000	-1.258873e+001	1.683550e+001	-2.308731e+000	-8.944302e+001
5137227063	-4.543829e+000	-8.649297e+001	-3.128010e+000	7.083618e+000	-1.258708e+001	1.669743e+001	-2.312353e+000	-8.957418e+001
5142539500	-4.551647e+000	-8.664222e+001	-3.155187e+000	6.999200e+000	-1.259229e+001	1.658436e+001	-2.307334e+000	-8.973005e+001
5147851938	-4.552708e+000	-8.685593e+001	-3.170587e+000	6.874831e+000	-1.259842e+001	1.647989e+001	-2.306095e+000	-8.986895e+001
5153164375	-4.543408e+000	-8.697206e+001	-3.180647e+000	6.749329e+000	-1.259865e+001	1.632095e+001	-2.304580e+000	-9.000954e+001
5158476813	-4.531172e+000	-8.700547e+001	-3.209472e+000	6.523504e+000	-1.259593e+001	1.622963e+001	-2.303648e+000	-9.016040e+001
5163789250	-4.513320e+000	-8.736650e+001	-3.232341e+000	6.537660e+000	-1.259538e+001	1.604961e+001	-2.299969e+000	-9.029877e+001
5169101688	-4.508756e+000	-8.748929e+001	-3.212005e+000	6.420342e+000	-1.260565e+001	1.595888e+001	-2.306074e+000	-9.043908e+001
5174414125	-4.510809e+000	-8.758674e+001	-3.263395e+000	6.271989e+000	-1.259825e+001	1.586314e+001	-2.297255e+000	-9.058645e+001
5179726563	-4.496395e+000	-8.780130e+001	-3.262182e+000	6.055917e+000	-1.260924e+001	1.570257e+001	-2.296448e+000	-9.073252e+001
5185039000	-4.491379e+000	-8.788653e+001	-3.275119e+000	5.887947e+000	-1.261446e+001	1.557089e+001	-2.296861e+000	-9.086839e+001
5190351438	-4.482053e+000	-8.809747e+001	-3.306280e+000	5.898716e+000	-1.262175e+001	1.546486e+001	-2.294820e+000	-9.103241e+001
5195663875	-4.478230e+000	-8.824872e+001	-3.310360e+000	5.715014e+000	-1.262697e+001	1.526939e+001	-2.291744e+000	-9.111681e+001
5200976313	-4.467677e+000	-8.844300e+001	-3.334579e+000	5.602785e+000	-1.262995e+001	1.519669e+001	-2.289164e+000	-9.126874e+001
5206288750	-4.450468e+000	-8.866722e+001	-3.345330e+000	5.516323e+000	-1.263718e+001	1.507445e+001	-2.284916e+000	-9.139799e+001
5211601188	-4.465692e+000	-8.887977e+001	-3.351820e+000	5.165812e+000	-1.264817e+001	1.500342e+001	-2.282621e+000	-9.154988e+001
5216913625	-4.431991e+000	-8.904567e+001	-3.371243e+000	5.146268e+000	-1.264299e+001	1.481109e+001	-2.279152e+000	-9.171776e+001
5222226063	-4.438060e+000	-8.920401e+001	-3.383636e+000	4.988158e+000	-1.265192e+001	1.469454e+001	-2.275482e+000	-9.179983e+001
5227538500	-4.433777e+000	-8.940979e+001	-3.408487e+000	4.972357e+000	-1.265998e+001	1.455396e+001	-2.272792e+000	-9.195773e+001
5232850938	-4.438304e+000	-8.954367e+001	-3.407029e+000	4.677655e+000	-1.266855e+001	1.442657e+001	-2.272461e+000	-9.204934e+001
5238163375	-4.398437e+000	-8.978443e+001	-3.426459e+000	4.635330e+000	-1.267341e+001	1.431109e+001	-2.269984e+000	-9.216074e+001
5243475813	-4.409044e+000	-9.005205e+001	-3.427099e+000	4.609804e+000	-1.268220e+001	1.415787e+001	-2.270048e+000	-9.229449e+001
5248788250	-4.405533e+000	-9.018149e+001	-3.468219e+000	4.414144e+000	-1.268241e+001	1.406100e+001	-2.259855e+000	-9.244077e+001
5254100688	-4.388132e+000	-9.042493e+001	-3.466205e+000	4.344655e+000	-1.269107e+001	1.395655e+001	-2.261778e+000	-9.252184e+001
5259413125	-4.374243e+000	-9.051709e+001	-3.513671e+000	4.141277e+000	-1.269390e+001	1.393895e+001	-2.255554e+000	-9.265807e+001
5264725563	-4.365890e+000	-9.067532e+001	-3.511187e+000	4.153429e+000	-1.270282e+001	1.373456e+001	-2.256381e+000	-9.277922e+001
5270038000	-4.366062e+000	-9.080536e+001	-3.524457e+000	3.898948e+000	-1.270637e+001	1.367281e+001	-2.249934e+000	-9.286239e+001
5275350438	-4.375418e+000	-9.092158e+001	-3.523190e+000	3.724486e+000	-1.271453e+001	1.357147e+001	-2.248570e+000	-9.300961e+001
5280662875	-4.356800e+000	-9.118305e+001	-3.553502e+000	3.649128e+000	-1.272158e+001	1.350531e+001	-2.246413e+000	-9.314399e+001
5285975313	-4.341394e+000	-9.137171e+001	-3.588559e+000	3.531477e+000	-1.273475e+001	1.333446e+001	-2.239307e+000	-9.322975e+001
5291287750	-4.341843e+000	-9.157195e+001	-3.586018e+000	3.327542e+000	-1.273614e+001	1.322786e+001	-2.240224e+000	-9.337011e+001
5296600188	-4.323820e+000	-9.168979e+001	-3.627891e+000	3.250024e+000	-1.273493e+001	1.315362e+001	-2.240807e+000	-9.347350e+001
5301912625	-4.317422e+000	-9.186926e+001	-3.627255e+000	3.123459e+000	-1.274464e+001	1.304988e+001	-2.233159e+000	-9.356640e+001
5307225063	-4.322150e+000	-9.194136e+001	-3.656452e+000	3.042219e+000	-1.275094e+001	1.298498e+001	-2.232922e+000	-9.372518e+001
5312537500	-4.313483e+000	-9.214105e+001	-3.672066e+000	2.938187e+000	-1.275969e+001	1.282203e+001	-2.234953e+000	-9.381079e+001
5317849938	-4.311314e+000	-9.228021e+001	-3.675461e+000	2.764378e+000	-1.275704e+001	1.270476e+001	-2.231174e+000	-9.394280e+001
5323162375	-4.303661e+000	-9.259510e+001	-3.699736e+000	2.720691e+000	-1.276645e+001	1.262100e+001	-2.229404e+000	-9.406007e+001
5328474813	-4.296671e+000	-9.261162e+001	-3.691198e+000	2.491858e+000	-1.276164e+001	1.249954e+001	-2.226934e+000	-9.418713e+001
5333787250	-4.295106e+000	-9.286420e+001	-3.716993e+000	2.311177e+000	-1.277160e+001	1.237901e+001	-2.219808e+000	-9.432315e+001
5339099688	-4.284152e+000	-9.302740e+001	-3.742285e+000	2.308009e+000	-1.277509e+001	1.226227e+001	-2.223326e+000	-9.442339e+001
5344412125	-4.290138e+000	-9.314586e+001	-3.724985e+000	2.017329e+000	-1.278371e+001	1.218384e+001	-2.216861e+000	-9.456309e+001
5349724563	-4.272924e+000	-9.331426e+001	-3.753926e+000	1.948234e+000	-1.278866e+001	1.208901e+001	-2.215015e+000	-9.472053e+001
5355037000	-4.280194e+000	-9.353578e+001	-3.773330e+000	1.894850e+000	-1.278815e+001	1.195099e+001	-2.213353e+000	-9.481892e+001
5360349438	-4.262352e+000	-9.365315e+001	-3.783046e+000	1.722944e+000	-1.279500e+001	1.183328e+001	-2.209356e+000	-9.494991e+001
5365661875	-4.264481e+000	-9.390983e+001	-3.794760e+000	1.589773e+000	-1.280490e+001	1.170746e+001	-2.212656e+000	-9.508418e+001
5370974313	-4.259860e+000	-9.397877e+001	-3.836417e+000	1.544719e+000	-1.280634e+001	1.159480e+001	-2.211098e+000	-9.521348e+001
5376286750	-4.252021e+000	-9.423539e+001	-3.841434e+000	1.255849e+000	-1.281799e+001	1.146080e+001	-2.204148e+000	-9.529096e+001
5381599188	-4.256439e+000	-9.420323e+001	-3.842691e+000	1.027490e+000	-1.282005e+001	1.137872e+001	-2.200352e+000	-9.545718e+001
5386911625	-4.244949e+000	-9.452422e+001	-3.863987e+000	1.055506e+000	-1.282267e+001	1.124854e+001	-2.197084e+000	-9.558456e+001
5392224063	-4.225174e+000	-9.465953e+001	-3.893117e+000	9.078565e-001	-1.283532e+001	1.111737e+001	-2.196561e+000	-9.570395e+001
5397536500	-4.226922e+000	-9.492302e+001	-3.892442e+000	8.763810e-001	-1.283625e+001	1.101394e+001	-2.192975e+000	-9.584275e+001
5402848938	-4.221513e+000	-9.498809e+001	-3.917138e+000	7.498789e-001	-1.284636e+001	1.091700e+001	-2.188651e+000	-9.596283e+001
5408161375	-4.213750e+000	-9.518629e+001	-3.937427e+000	5.714487e-001	-1.284997e+001	1.082813e+001	-2.179543e+000	-9.607815e+001
5413473813	-4.201782e+000	-9.528667e+001	-3.966842e+000	4.259081e-001	-1.285361e+001	1.071516e+001	-2.183067e+000	-9.621714e+001
5418786250	-4.200995e+000	-9.551445e+001	-3.965860e+000	3.380793e-001	-1.286654e+001	1.061434e+001	-2.174538e+000	-9.630745e+001
5424098688	-4.200862e+000	-9.561122e+001	-3.982518e+000	1.583526e-001	-1.287152e+001	1.053447e+001	-2.175799e+000	-9.645934e+001
5429411125	-4.182668e+000	-9.586615e+001	-4.019396e+000	1.311081e-001	-1.288229e+001	1.034977e+001	-2.172322e+000	-9.658269e+001
5434723563	-4.183596e+000	-9.596194e+001	-4.020108e+000	-3.610452e-002	-1.289224e+001	1.027904e+001	-2.167492e+000	-9.668892e+001
5440036000	-4.174811e+000	-9.610355e+001	-4.049547e+000	-2.697114e-001	-1.289476e+001	1.013888e+001	-2.164865e+000	-9.678859e+001
5445348438	-4.157231e+000	-9.639484e+001	-4.066203e+000	-3.283403e-001	-1.290602e+001	1.006943e+001	-2.161155e+000	-9.691812e+001
5450660875	-4.156982e+000	-9.646872e+001	-4.089553e+000	-5.456701e-001	-1.289810e+001	9.981007e+000	-2.158843e+000	-9.702236e+001
5455973313	-4.149322e+000	-9.663686e+001	-4.095869e+000	-6.324119e-001	-1.291602e+001	9.873330e+000	-2.153226e+000	-9.713959e+001
5461285750	-4.143844e+000	-9.684015e+001	-4.124438e+000	-7.126647e-001	-1.292369e+001	9.770584e+000	-2.150119e+000	-9.725176e+001
5466598188	-4.133589e+000	-9.701835e+001	-4.137879e+000	-9.491327e-001	-1.292912e+001	9.645254e+000	-2.148409e+000	-9.734618e+001
5471910625	-4.130624e+000	-9.720591e+001	-4.160699e+000	-9.513879e-001	-1.293973e+001	9.512801e+000	-2.144207e+000	-9.746425e+001
5477223063	-4.113840e+000	-9.736881e+001	-4.167790e+000	-1.035115e+000	-1.294886e+001	9.375261e+000	-2.142273e+000	-9.758017e+001
5482535500	-4.102072e+000	-9.748894e+001	-4.202316e+000	-1.164559e+000	-1.295442e+001	9.267997e+000	-2.137895e+000	-9.767907e+001
5487847938	-4.100040e+000	-9.767717e+001	-4.224997e+000	-1.350963e+000	-1.295904e+001	9.156274e+000	-2.135534e+000	-9.780716e+001
5493160375	-4.106044e+000	-9.785997e+001	-4.233876e+000	-1.388951e+000	-1.297135e+001	9.087401e+000	-2.133069e+000	-9.789749e+001
5498472813	-4.096663e+000	-9.789306e+001	-4.248364e+000	-1.558228e+000	-1.297718e+001	8.944280e+000	-2.129504e+000	-9.798607e+001
5503785250	-4.087876e+000	-9.814946e+001	-4.271254e+000	-1.727509e+000	-1.298288e+001	8.827318e+000	-2.127810e+000	-9.810493e+001
5509097688	-4.075898e+000	-9.823073e+001	-4.288269e+000	-1.921307e+000	-1.299387e+001	8.800692e+000	-2.124044e+000	-9.821548e+001
5514410125	-4.084895e+000	-9.839937e+001	-4.288480e+000	-1.974224e+000	-1.300265e+001	8.684626e+000	-2.123116e+000	-9.831487e+001
5519722563	-4.067869e+000	-9.862236e+001	-4.327213e+000	-1.965867e+000	-1.300520e+001	8.552657e+000	-2.117934e+000	-9.842871e+001
5525035000	-4.057225e+000	-9.872052e+001	-4.331406e+000	-2.237969e+000	-1.301106e+001	8.502554e+000	-2.114681e+000	-9.851821e+001
5530347438	-4.051337e+000	-9.896515e+001	-4.343080e+000	-2.259641e+000	-1.302165e+001	8.360793e+000	-2.108874e+000	-9.865199e+001
5535659875	-4.035193e+000	-9.909660e+001	-4.366107e+000	-2.284015e+000	-1.302140e+001	8.241562e+000	-2.106129e+000	-9.875378e+001
5540972313	-4.039066e+000	-9.921224e+001	-4.387736e+000	-2.561839e+000	-1.303820e+001	8.136590e+000	-2.103767e+000	-9.885522e+001
5546284750	-4.025357e+000	-9.948140e+001	-4.405286e+000	-2.780339e+000	-1.304332e+001	8.036921e+000	-2.099431e+000	-9.897324e+001
5551597188	-4.021445e+000	-9.959171e+001	-4.419086e+000	-2.777587e+000	-1.304561e+001	7.945771e+000	-2.099194e+000	-9.909809e+001
5556909625	-4.015206e+000	-9.979901e+001	-4.450570e+000	-2.918121e+000	-1.305548e+001	7.857160e+000	-2.093207e+000	-9.916396e+001
5562222063	-3.996992e+000	-9.991612e+001	-4.459449e+000	-2.960711e+000	-1.306048e+001	7.741015e+000	-2.092854e+000	-9.929090e+001
5567534500	-3.998819e+000	-1.000236e+002	-4.479993e+000	-3.164481e+000	-1.306745e+001	7.638444e+000	-2.089228e+000	-9.942601e+001
5572846938	-4.003863e+000	-1.001983e+002	-4.492755e+000	-3.402285e+000	-1.307989e+001	7.531461e+000	-2.084009e+000	-9.951056e+001
5578159375	-3.985835e+000	-1.003444e+002	-4.522322e+000	-3.300463e+000	-1.308238e+001	7.412287e+000	-2.082557e+000	-9.963750e+001
5583471813	-3.975702e+000	-1.005171e+002	-4.551419e+000	-3.476796e+000	-1.310040e+001	7.269380e+000	-2.079863e+000	-9.975381e+001
5588784250	-3.975030e+000	-1.007018e+002	-4.528850e+000	-3.713498e+000	-1.310372e+001	7.177711e+000	-2.074083e+000	-9.986836e+001
5594096688	-3.961752e+000	-1.008915e+002	-4.561693e+000	-3.730219e+000	-1.311644e+001	7.012718e+000	-2.072962e+000	-9.997242e+001
5599409125	-3.952629e+000	-1.010178e+002	-4.593455e+000	-3.870030e+000	-1.311584e+001	6.941470e+000	-2.072511e+000	-1.000894e+002
5604721563	-3.951466e+000	-1.012008e+002	-4.608880e+000	-4.039819e+000	-1.312373e+001	6.838881e+000	-2.066169e+000	-1.001707e+002
5610034000	-3.944476e+000	-1.013151e+002	-4.614023e+000	-4.184994e+000	-1.313498e+001	6.791222e+000	-2.065929e+000	-1.003136e+002
5615346438	-3.933615e+000	-1.015171e+002	-4.640008e+000	-4.228691e+000	-1.314331e+001	6.624220e+000	-2.063349e+000	-1.004139e+002
5620658875	-3.922681e+000	-1.016357e+002	-4.668307e+000	-4.405530e+000	-1.315901e+001	6.514919e+000	-2.059077e+000	-1.005378e+002
5625971313	-3.914607e+000	-1.018483e+002	-4.672210e+000	-4.497232e+000	-1.316153e+001	6.444372e+000	-2.055821e+000	-1.006468e+002
5631283750	-3.907174e+000	-1.019575e+002	-4.702386e+000	-4.689301e+000	-1.317114e+001	6.270292e+000	-2.052113e+000	-1.007356e+002
5636596188	-3.902390e+000	-1.021050e+002	-4.718599e+000	-4.779815e+000	-1.318164e+001	6.202772e+000	-2.045552e+000	-1.008673e+002
5641908625	-3.889824e+000	-1.022875e+002	-4.762102e+000	-4.850276e+000	-1.319672e+001	6.101952e+000	-2.047144e+000	-1.009615e+002
5647221063	-3.881905e+000	-1.025029e+002	-4.756467e+000	-5.016152e+000	-1.320512e+001	6.012481e+000	-2.039740e+000	-1.010546e+002
5652533500	-3.879521e+000	-1.026432e+002	-4.784737e+000	-5.115862e+000	-1.320912e+001	5.887993e+000	-2.038388e+000	-1.011714e+002
5657845938	-3.869683e+000	-1.027077e+002	-4.803774e+000	-5.245644e+000	-1.322337e+001	5.793501e+000	-2.039862e+000	-1.012783e+002
5663158375	-3.847600e+000	-1.029639e+002	-4.826532e+000	-5.510433e+000	-1.323482e+001	5.685570e+000	-2.032223e+000	-1.014070e+002
5668470813	-3.842293e+000	-1.030799e+002	-4.859095e+000	-5.465917e+000	-1.324487e+001	5.653437e+000	-2.031157e+000	-1.015151e+002
5673783250	-3.845003e+000	-1.031899e+002	-4.874441e+000	-5.639108e+000	-1.325340e+001	5.519990e+000	-2.023307e+000	-1.016168e+002
5679095688	-3.837775e+000	-1.033952e+002	-4.882487e+000	-5.744119e+000	-1.326487e+001	5.411936e+000	-2.019461e+000	-1.017384e+002
5684408125	-3.824717e+000	-1.035854e+002	-4.910053e+000	-5.806734e+000	-1.327426e+001	5.293464e+000	-2.018066e+000	-1.018164e+002
5689720563	-3.827548e+000	-1.036352e+002	-4.941521e+000	-5.990369e+000	-1.328976e+001	5.129461e+000	-2.011808e+000	-1.019454e+002
5695033000	-3.809008e+000	-1.038572e+002	-4.960948e+000	-6.133466e+000	-1.330033e+001	5.090241e+000	-2.008266e+000	-1.020302e+002
5700345438	-3.805043e+000	-1.040089e+002	-4.975349e+000	-6.160958e+000	-1.331019e+001	4.991208e+000	-2.003366e+000	-1.021549e+002
5705657875	-3.789323e+000	-1.040839e+002	-5.000146e+000	-6.379500e+000	-1.331753e+001	4.894226e+000	-2.002295e+000	-1.022464e+002
5710970313	-3.790276e+000	-1.043022e+002	-5.012047e+000	-6.401172e+000	-1.332402e+001	4.806238e+000	-1.996344e+000	-1.023565e+002
5716282750	-3.767837e+000	-1.044229e+002	-5.039028e+000	-6.487505e+000	-1.334036e+001	4.671725e+000	-1.993723e+000	-1.024601e+002
5721595188	-3.768149e+000	-1.045262e+002	-5.061575e+000	-6.623328e+000	-1.334816e+001	4.554851e+000	-1.990221e+000	-1.025456e+002
5726907625	-3.762007e+000	-1.047251e+002	-5.072163e+000	-6.759267e+000	-1.335842e+001	4.472839e+000	-1.987351e+000	-1.026501e+002
5732220063	-3.752279e+000	-1.048334e+002	-5.099425e+000	-6.803284e+000	-1.337056e+001	4.341215e+000	-1.982089e+000	-1.027638e+002
5737532500	-3.748098e+000	-1.050198e+002	-5.109939e+000	-7.025886e+000	-1.338065e+001	4.298173e+000	-1.980527e+000	-1.028447e+002
5742844938	-3.736648e+000	-1.051364e+002	-5.140780e+000	-7.136403e+000	-1.338870e+001	4.181998e+000	-1.975568e+000	-1.029728e+002
5748157375	-3.730500e+000	-1.053339e+002	-5.155683e+000	-7.234244e+000	-1.340435e+001	4.081350e+000	-1.971497e+000	-1.030405e+002
5753469813	-3.718437e+000	-1.054544e+002	-5.170327e+000	-7.346145e+000	-1.340343e+001	3.978298e+000	-1.967553e+000	-1.031607e+002
5758782250	-3.712164e+000	-1.056276e+002	-5.193315e+000	-7.410745e+000	-1.341663e+001	3.923834e+000	-1.963276e+000	-1.032495e+002
5764094688	-3.696326e+000	-1.056729e+002	-5.233819e+000	-7.583149e+000	-1.343469e+001	3.778997e+000	-1.961338e+000	-1.033176e+002
5769407125	-3.699558e+000	-1.059224e+002	-5.239625e+000	-7.603792e+000	-1.343949e+001	3.687969e+000	-1.956845e+000	-1.034353e+002
5774719563	-3.688686e+000	-1.060485e+002	-5.251891e+000	-7.744765e+000	-1.344951e+001	3.620377e+000	-1.952824e+000	-1.035172e+002
5780032000	-3.656298e+000	-1.062114e+002	-5.284168e+000	-7.815038e+000	-1.346660e+001	3.538262e+000	-1.949088e+000	-1.036205e+002
5785344438	-3.674908e+000	-1.062864e+002	-5.300301e+000	-7.971086e+000	-1.347236e+001	3.446879e+000	-1.948098e+000	-1.037065e+002
5790656875	-3.671045e+000	-1.064691e+002	-5.322678e+000	-8.058822e+000	-1.348625e+001	3.313631e+000	-1.943585e+000	-1.038026e+002
5795969313	-3.643671e+000	-1.066035e+002	-5.351336e+000	-8.093929e+000	-1.349705e+001	3.267709e+000	-1.939546e+000	-1.039133e+002
5801281750	-3.650358e+000	-1.067660e+002	-5.361002e+000	-8.257720e+000	-1.350582e+001	3.184250e+000	-1.935371e+000	-1.039814e+002
5806594188	-3.631250e+000	-1.069075e+002	-5.367907e+000	-8.337672e+000	-1.351876e+001	3.135807e+000	-1.932801e+000	-1.040560e+002
5811906625	-3.622636e+000	-1.069826e+002	-5.411293e+000	-8.431269e+000	-1.352450e+001	3.001308e+000	-1.931275e+000	-1.041576e+002
5817219063	-3.616815e+000	-1.071583e+002	-5.436896e+000	-8.579436e+000	-1.354551e+001	2.870265e+000	-1.926035e+000	-1.042532e+002
5822531500	-3.607963e+000	-1.073009e+002	-5.442783e+000	-8.649330e+000	-1.355593e+001	2.773773e+000	-1.920523e+000	-1.043463e+002
5827843938	-3.601307e+000	-1.074744e+002	-5.479499e+000	-8.828344e+000	-1.356575e+001	2.641918e+000	-1.920528e+000	-1.044360e+002
5833156375	-3.584881e+000	-1.076472e+002	-5.492084e+000	-8.804935e+000	-1.357954e+001	2.593320e+000	-1.910653e+000	-1.045505e+002
5838468813	-3.577319e+000	-1.077960e+002	-5.530358e+000	-9.067604e+000	-1.358883e+001	2.498491e+000	-1.912726e+000	-1.046380e+002
5843781250	-3.569268e+000	-1.078240e+002	-5.527503e+000	-9.158945e+000	-1.360493e+001	2.405743e+000	-1.905091e+000	-1.047266e+002
5849093688	-3.576837e+000	-1.079572e+002	-5.539080e+000	-9.351248e+000	-1.361423e+001	2.296808e+000	-1.905882e+000	-1.048087e+002
5854406125	-3.559558e+000	-1.081445e+002	-5.590091e+000	-9.251909e+000	-1.361702e+001	2.217033e+000	-1.901852e+000	-1.049041e+002
5859718563	-3.550282e+000	-1.082450e+002	-5.598895e+000	-9.563626e+000	-1.362757e+001	2.151577e+000	-1.898976e+000	-1.050305e+002
5865031000	-3.554174e+000	-1.084716e+002	-5.633482e+000	-9.689783e+000	-1.363029e+001	1.996109e+000	-1.895539e+000	-1.050793e+002
5870343438	-3.536613e+000	-1.085643e+002	-5.625318e+000	-9.575706e+000	-1.365254e+001	1.956336e+000	-1.889112e+000	-1.052064e+002
5875655875	-3.521617e+000	-1.086702e+002	-5.669151e+000	-9.759906e+000	-1.365839e+001	1.920073e+000	-1.888299e+000	-1.052796e+002
5880968313	-3.521620e+000	-1.089027e+002	-5.671597e+000	-9.795854e+000	-1.367790e+001	1.776740e+000	-1.885374e+000	-1.053836e+002
5886280750	-3.513263e+000	-1.089982e+002	-5.718438e+000	-1.002511e+001	-1.368009e+001	1.635696e+000	-1.880236e+000	-1.054743e+002
5891593188	-3.500167e+000	-1.090667e+002	-5.723738e+000	-1.020936e+001	-1.369587e+001	1.584620e+000	-1.876281e+000	-1.055451e+002
5896905625	-3.500371e+000	-1.092315e+002	-5.743192e+000	-1.020494e+001	-1.370320e+001	1.502022e+000	-1.874566e+000	-1.056559e+002
5902218063	-3.487219e+000	-1.093664e+002	-5.784596e+000	-1.024941e+001	-1.371218e+001	1.423267e+000	-1.870686e+000	-1.057444e+002
5907530500	-3.478621e+000	-1.095506e+002	-5.789168e+000	-1.030964e+001	-1.372796e+001	1.319964e+000	-1.864895e+000	-1.058331e+002
5912842938	-3.472158e+000	-1.096426e+002	-5.818114e+000	-1.047622e+001	-1.373482e+001	1.228133e+000	-1.861260e+000	-1.059002e+002
5918155375	-3.451398e+000	-1.098045e+002	-5.829425e+000	-1.052675e+001	-1.374407e+001	1.149295e+000	-1.860204e+000	-1.059894e+002
5923467813	-3.449820e+000	-1.099688e+002	-5.859234e+000	-1.074254e+001	-1.375775e+001	1.071694e+000	-1.848393e+000	-1.060818e+002
5928780250	-3.437089e+000	-1.100529e+002	-5.881805e+000	-1.083160e+001	-1.377156e+001	8.915736e-001	-1.848550e+000	-1.061512e+002
5934092688	-3.427995e+000	-1.101748e+002	-5.908437e+000	-1.092115e+001	-1.378508e+001	8.468512e-001	-1.846054e+000	-1.062413e+002
5939405125	-3.424551e+000	-1.102480e+002	-5.931128e+000	-1.096227e+001	-1.379330e+001	7.314045e-001	-1.843213e+000	-1.063051e+002
5944717563	-3.408918e+000	-1.104009e+002	-5.958299e+000	-1.124188e+001	-1.381087e+001	6.335003e-001	-1.838552e+000	-1.063876e+002
5950030000	-3.409833e+000	-1.104850e+002	-5.959950e+000	-1.131530e+001	-1.382559e+001	5.452536e-001	-1.833026e+000	-1.064449e+002
5955342438	-3.396457e+000	-1.107112e+002	-5.977589e+000	-1.141766e+001	-1.382980e+001	5.088449e-001	-1.833491e+000	-1.065342e+002
5960654875	-3.401504e+000	-1.108224e+002	-6.014311e+000	-1.143246e+001	-1.384335e+001	3.797852e-001	-1.827260e+000	-1.066109e+002
5965967313	-3.384955e+000	-1.109715e+002	-6.012054e+000	-1.154580e+001	-1.385683e+001	3.301195e-001	-1.820857e+000	-1.066813e+002
5971279750	-3.372624e+000	-1.110577e+002	-6.071012e+000	-1.162129e+001	-1.386863e+001	1.964452e-001	-1.818789e+000	-1.067351e+002
5976592188	-3.356265e+000	-1.112341e+002	-6.085090e+000	-1.157734e+001	-1.388190e+001	7.201999e-002	-1.814769e+000	-1.067910e+002
5981904625	-3.351654e+000	-1.113503e+002	-6.113604e+000	-1.189830e+001	-1.390556e+001	-4.629182e-003	-1.812686e+000	-1.068808e+002
5987217063	-3.345841e+000	-1.114738e+002	-6.124814e+000	-1.204920e+001	-1.391639e+001	-8.531481e-002	-1.807426e+000	-1.069600e+002
5992529500	-3.332159e+000	-1.116773e+002	-6.162014e+000	-1.206266e+001	-1.393083e+001	-1.222026e-001	-1.799621e+000	-1.070076e+002
5997841938	-3.324006e+000	-1.117609e+002	-6.161782e+000	-1.199910e+001	-1.394140e+001	-2.792267e-001	-1.794649e+000	-1.070786e+002
6003154375	-3.318174e+000	-1.118620e+002	-6.187662e+000	-1.224665e+001	-1.395072e+001	-3.274331e-001	-1.794058e+000	-1.071432e+002
6008466813	-3.299885e+000	-1.120185e+002	-6.230503e+000	-1.230127e+001	-1.396910e+001	-3.873539e-001	-1.790478e+000	-1.072199e+002
6013779250	-3.308604e+000	-1.121667e+002	-6.229997e+000	-1.237197e+001	-1.397780e+001	-4.792320e-001	-1.790379e+000	-1.072650e+002
6019091688	-3.282506e+000	-1.122867e+002	-6.270082e+000	-1.259204e+001	-1.398812e+001	-5.636436e-001	-1.785122e+000	-1.073217e+002
6024404125	-3.298292e+000	-1.124331e+002	-6.276664e+000	-1.241825e+001	-1.400642e+001	-6.526595e-001	-1.777568e+000	-1.073871e+002
6029716563	-3.278804e+000	-1.125873e+002	-6.311777e+000	-1.248285e+001	-1.401752e+001	-7.636938e-001	-1.780274e+000	-1.074405e+002
6035029000	-3.272326e+000	-1.126089e+002	-6.328597e+000	-1.281742e+001	-1.404287e+001	-8.123973e-001	-1.773947e+000	-1.075135e+002
6040341438	-3.268687e+000	-1.127724e+002	-6.341428e+000	-1.269468e+001	-1.403700e+001	-8.817607e-001	-1.772913e+000	-1.075866e+002
6045653875	-3.258561e+000	-1.129908e+002	-6.385597e+000	-1.285906e+001	-1.405336e+001	-9.593628e-001	-1.762999e+000	-1.076388e+002
6050966313	-3.254566e+000	-1.131104e+002	-6.401131e+000	-1.295348e+001	-1.406110e+001	-1.039635e+000	-1.764808e+000	-1.076982e+002
6056278750	-3.244128e+000	-1.132472e+002	-6.429060e+000	-1.299824e+001	-1.406593e+001	-1.053826e+000	-1.762544e+000	-1.077612e+002
6061591188	-3.234334e+000	-1.133925e+002	-6.418059e+000	-1.311487e+001	-1.408779e+001	-1.216524e+000	-1.759006e+000	-1.078487e+002
6066903625	-3.229869e+000	-1.134368e+002	-6.437009e+000	-1.308327e+001	-1.410245e+001	-1.253549e+000	-1.758456e+000	-1.079162e+002
6072216063	-3.211158e+000	-1.136284e+002	-6.504766e+000	-1.340966e+001	-1.411439e+001	-1.322478e+000	-1.754673e+000	-1.079708e+002
6077528500	-3.212119e+000	-1.137087e+002	-6.498284e+000	-1.339321e+001	-1.413216e+001	-1.399082e+000	-1.750313e+000	-1.080406e+002
6082840938	-3.195879e+000	-1.139702e+002	-6.535672e+000	-1.352610e+001	-1.414534e+001	-1.498511e+000	-1.745033e+000	-1.080984e+002
6088153375	-3.182604e+000	-1.140273e+002	-6.545250e+000	-1.367775e+001	-1.415822e+001	-1.620925e+000	-1.741182e+000	-1.082017e+002
6093465813	-3.191719e+000	-1.141334e+002	-6.572714e+000	-1.367487e+001	-1.417196e+001	-1.703245e+000	-1.741921e+000	-1.082594e+002
6098778250	-3.173267e+000	-1.143056e+002	-6.571384e+000	-1.383214e+001	-1.418482e+001	-1.744393e+000	-1.733740e+000	-1.083443e+002
6104090688	-3.164928e+000	-1.143893e+002	-6.595901e+000	-1.395059e+001	-1.419629e+001	-1.838110e+000	-1.733180e+000	-1.083779e+002
6109403125	-3.152697e+000	-1.144877e+002	-6.636801e+000	-1.398953e+001	-1.421419e+001	-1.870427e+000	-1.731481e+000	-1.084579e+002
6114715563	-3.142042e+000	-1.146655e+002	-6.664309e+000	-1.397046e+001	-1.422539e+001	-2.000715e+000	-1.730044e+000	-1.085298e+002
6120028000	-3.131018e+000	-1.147323e+002	-6.672896e+000	-1.416853e+001	-1.423242e+001	-2.065345e+000	-1.726561e+000	-1.086138e+002
6125340438	-3.129834e+000	-1.148896e+002	-6.680582e+000	-1.424063e+001	-1.425951e+001	-2.192954e+000	-1.721177e+000	-1.086398e+002
6130652875	-3.123169e+000	-1.150427e+002	-6.704206e+000	-1.447132e+001	-1.427259e+001	-2.344022e+000	-1.718352e+000	-1.087582e+002
6135965313	-3.105790e+000	-1.151932e+002	-6.753643e+000	-1.459089e+001	-1.429730e+001	-2.400273e+000	-1.714793e+000	-1.088065e+002
6141277750	-3.103476e+000	-1.153111e+002	-6.751316e+000	-1.474200e+001	-1.430400e+001	-2.517429e+000	-1.707856e+000	-1.088543e+002
6146590188	-3.090941e+000	-1.154319e+002	-6.799353e+000	-1.475939e+001	-1.431581e+001	-2.554456e+000	-1.707557e+000	-1.089053e+002
6151902625	-3.090331e+000	-1.155221e+002	-6.813888e+000	-1.481163e+001	-1.433186e+001	-2.607313e+000	-1.705786e+000	-1.089893e+002
6157215063	-3.078872e+000	-1.156359e+002	-6.844537e+000	-1.484644e+001	-1.433735e+001	-2.707536e+000	-1.700725e+000	-1.090577e+002
6162527500	-3.077318e+000	-1.157574e+002	-6.870737e+000	-1.496623e+001	-1.436292e+001	-2.837519e+000	-1.698361e+000	-1.091225e+002
6167839938	-3.057769e+000	-1.159017e+002	-6.874186e+000	-1.501270e+001	-1.437003e+001	-2.784601e+000	-1.695063e+000	-1.091749e+002
6173152375	-3.055964e+000	-1.159229e+002	-6.914897e+000	-1.508067e+001	-1.439303e+001	-2.867918e+000	-1.686320e+000	-1.092618e+002
6178464813	-3.030502e+000	-1.160367e+002	-6.925695e+000	-1.518169e+001	-1.441172e+001	-2.971610e+000	-1.683102e+000	-1.092835e+002
6183777250	-3.017934e+000	-1.163163e+002	-6.955601e+000	-1.532571e+001	-1.442237e+001	-3.026138e+000	-1.683705e+000	-1.093346e+002
6189089688	-3.022187e+000	-1.163823e+002	-7.021748e+000	-1.534269e+001	-1.443223e+001	-3.035175e+000	-1.675203e+000	-1.093919e+002
6194402125	-3.014627e+000	-1.163880e+002	-7.016107e+000	-1.563108e+001	-1.445261e+001	-3.162290e+000	-1.669624e+000	-1.094505e+002
6199714563	-2.999246e+000	-1.164989e+002	-7.024508e+000	-1.548181e+001	-1.445834e+001	-3.201677e+000	-1.670227e+000	-1.095064e+002
6205027000	-3.000638e+000	-1.165783e+002	-7.072722e+000	-1.565448e+001	-1.446152e+001	-3.257019e+000	-1.666469e+000	-1.095671e+002
6210339438	-2.988513e+000	-1.167103e+002	-7.086323e+000	-1.550285e+001	-1.448591e+001	-3.271929e+000	-1.662966e+000	-1.096008e+002
6215651875	-2.980881e+000	-1.168022e+002	-7.120750e+000	-1.573374e+001	-1.450190e+001	-3.335427e+000	-1.661314e+000	-1.096726e+002
6220964313	-2.962344e+000	-1.168684e+002	-7.134699e+000	-1.574110e+001	-1.450563e+001	-3.427184e+000	-1.658632e+000	-1.096981e+002
6226276750	-2.965443e+000	-1.169781e+002	-7.154162e+000	-1.595494e+001	-1.453324e+001	-3.535936e+000	-1.656795e+000	-1.097546e+002
6231589188	-2.959304e+000	-1.171032e+002	-7.165526e+000	-1.571675e+001	-1.454650e+001	-3.543430e+000	-1.654208e+000	-1.098415e+002
6236901625	-2.949108e+000	-1.171728e+002	-7.220251e+000	-1.612728e+001	-1.456085e+001	-3.706520e+000	-1.653062e+000	-1.098974e+002
6242214063	-2.945232e+000	-1.172635e+002	-7.235592e+000	-1.617001e+001	-1.457241e+001	-3.699586e+000	-1.646882e+000	-1.099475e+002
6247526500	-2.932681e+000	-1.174080e+002	-7.246991e+000	-1.624013e+001	-1.459521e+001	-3.735474e+000	-1.647012e+000	-1.100152e+002
6252838938	-2.918862e+000	-1.175243e+002	-7.277300e+000	-1.633746e+001	-1.459877e+001	-3.860036e+000	-1.642729e+000	-1.100288e+002
6258151375	-2.908865e+000	-1.175534e+002	-7.260586e+000	-1.612034e+001	-1.461521e+001	-3.921987e+000	-1.642699e+000	-1.101234e+002
6263463813	-2.908856e+000	-1.176472e+002	-7.291150e+000	-1.636704e+001	-1.462640e+001	-3.975807e+000	-1.638588e+000	-1.101492e+002
6268776250	-2.906704e+000	-1.177137e+002	-7.316634e+000	-1.652927e+001	-1.463334e+001	-4.074765e+000	-1.637627e+000	-1.102128e+002
6274088688	-2.886093e+000	-1.178416e+002	-7.346285e+000	-1.664876e+001	-1.465308e+001	-4.165220e+000	-1.629920e+000	-1.102959e+002
6279401125	-2.884035e+000	-1.179427e+002	-7.370871e+000	-1.662542e+001	-1.465817e+001	-4.217035e+000	-1.629347e+000	-1.103357e+002
6284713563	-2.869070e+000	-1.179900e+002	-7.396966e+000	-1.674087e+001	-1.468729e+001	-4.264237e+000	-1.624105e+000	-1.104017e+002
6290026000	-2.878852e+000	-1.180718e+002	-7.401176e+000	-1.670533e+001	-1.469276e+001	-4.407710e+000	-1.623971e+000	-1.104460e+002
6295338438	-2.854723e+000	-1.183205e+002	-7.450817e+000	-1.670252e+001	-1.470496e+001	-4.452806e+000	-1.622794e+000	-1.105609e+002
6300650875	-2.870453e+000	-1.183547e+002	-7.431903e+000	-1.669546e+001	-1.472228e+001	-4.558580e+000	-1.617326e+000	-1.105708e+002
6305963313	-2.856178e+000	-1.184860e+002	-7.491686e+000	-1.718823e+001	-1.473112e+001	-4.600921e+000	-1.615204e+000	-1.106564e+002
6311275750	-2.846459e+000	-1.185937e+002	-7.527276e+000	-1.733724e+001	-1.474030e+001	-4.586666e+000	-1.610509e+000	-1.107341e+002
6316588188	-2.845109e+000	-1.186908e+002	-7.514548e+000	-1.709001e+001	-1.475316e+001	-4.709051e+000	-1.607501e+000	-1.107539e+002
6321900625	-2.816669e+000	-1.187164e+002	-7.537254e+000	-1.745991e+001	-1.478581e+001	-4.656129e+000	-1.604067e+000	-1.108206e+002
6327213063	-2.832739e+000	-1.188422e+002	-7.585195e+000	-1.739456e+001	-1.480066e+001	-4.793817e+000	-1.599348e+000	-1.108947e+002
6332525500	-2.813363e+000	-1.189734e+002	-7.590463e+000	-1.748471e+001	-1.481767e+001	-4.875842e+000	-1.601886e+000	-1.109310e+002
6337837938	-2.802882e+000	-1.191133e+002	-7.598481e+000	-1.758715e+001	-1.483455e+001	-4.982333e+000	-1.593452e+000	-1.110716e+002
6343150375	-2.802058e+000	-1.191307e+002	-7.633119e+000	-1.758460e+001	-1.485086e+001	-5.055898e+000	-1.593416e+000	-1.110927e+002
6348462813	-2.788676e+000	-1.192658e+002	-7.665071e+000	-1.768945e+001	-1.485890e+001	-5.044857e+000	-1.588699e+000	-1.111720e+002
6353775250	-2.778743e+000	-1.193690e+002	-7.658892e+000	-1.769723e+001	-1.488025e+001	-5.102490e+000	-1.582642e+000	-1.112021e+002
6359087688	-2.778067e+000	-1.195106e+002	-7.688075e+000	-1.783695e+001	-1.487723e+001	-5.048174e+000	-1.581437e+000	-1.112746e+002
6364400125	-2.775049e+000	-1.196567e+002	-7.733792e+000	-1.794512e+001	-1.490834e+001	-5.191028e+000	-1.576926e+000	-1.113017e+002
6369712563	-2.757424e+000	-1.197624e+002	-7.771740e+000	-1.780608e+001	-1.492072e+001	-5.239850e+000	-1.575001e+000	-1.113790e+002
6375025000	-2.756815e+000	-1.198094e+002	-7.792324e+000	-1.793272e+001	-1.494625e+001	-5.266493e+000	-1.568450e+000	-1.113803e+002
6380337438	-2.738369e+000	-1.199127e+002	-7.807410e+000	-1.798227e+001	-1.496072e+001	-5.340738e+000	-1.563050e+000	-1.114609e+002
6385649875	-2.728792e+000	-1.200363e+002	-7.847721e+000	-1.798795e+001	-1.497044e+001	-5.460358e+000	-1.561328e+000	-1.115108e+002
6390962313	-2.739163e+000	-1.200862e+002	-7.845217e+000	-1.825600e+001	-1.498895e+001	-5.558448e+000	-1.564403e+000	-1.115206e+002
6396274750	-2.722622e+000	-1.202397e+002	-7.876224e+000	-1.843782e+001	-1.500878e+001	-5.595899e+000	-1.556774e+000	-1.116036e+002
6401587188	-2.710127e+000	-1.202876e+002	-7.932487e+000	-1.851609e+001	-1.501753e+001	-5.572819e+000	-1.553105e+000	-1.116151e+002
6406899625	-2.706421e+000	-1.203118e+002	-7.930426e+000	-1.818561e+001	-1.502852e+001	-5.687130e+000	-1.547621e+000	-1.116536e+002
6412212063	-2.687248e+000	-1.203972e+002	-7.972906e+000	-1.855167e+001	-1.504477e+001	-5.678993e+000	-1.547895e+000	-1.116540e+002
6417524500	-2.695426e+000	-1.204700e+002	-8.016502e+000	-1.842782e+001	-1.507451e+001	-5.732992e+000	-1.542044e+000	-1.116964e+002
6422836938	-2.672750e+000	-1.206612e+002	-7.973721e+000	-1.849171e+001	-1.507805e+001	-5.835030e+000	-1.538578e+000	-1.117705e+002
6428149375	-2.685600e+000	-1.205994e+002	-8.076462e+000	-1.875136e+001	-1.509278e+001	-5.934468e+000	-1.537498e+000	-1.117793e+002
6433461813	-2.677102e+000	-1.207774e+002	-8.052092e+000	-1.878485e+001	-1.511632e+001	-5.908000e+000	-1.530662e+000	-1.118107e+002
6438774250	-2.650119e+000	-1.208101e+002	-8.046996e+000	-1.861997e+001	-1.511941e+001	-5.995301e+000	-1.527706e+000	-1.118383e+002
6444086688	-2.654808e+000	-1.210056e+002	-8.085308e+000	-1.896293e+001	-1.513756e+001	-5.988278e+000	-1.525897e+000	-1.118905e+002
6449399125	-2.639471e+000	-1.210801e+002	-8.113887e+000	-1.914071e+001	-1.514548e+001	-6.042683e+000	-1.521061e+000	-1.119539e+002
6454711563	-2.644437e+000	-1.210480e+002	-8.158988e+000	-1.900184e+001	-1.516881e+001	-6.064910e+000	-1.520071e+000	-1.119418e+002
6460024000	-2.628701e+000	-1.211264e+002	-8.165246e+000	-1.901204e+001	-1.517399e+001	-6.061585e+000	-1.514578e+000	-1.119689e+002
6465336438	-2.617127e+000	-1.212563e+002	-8.200103e+000	-1.892207e+001	-1.519615e+001	-6.065307e+000	-1.513063e+000	-1.120093e+002
6470648875	-2.609172e+000	-1.211464e+002	-8.256927e+000	-1.889815e+001	-1.521391e+001	-6.200313e+000	-1.509990e+000	-1.120401e+002
6475961313	-2.616143e+000	-1.214731e+002	-8.243826e+000	-1.920399e+001	-1.523378e+001	-6.246055e+000	-1.512647e+000	-1.120545e+002
6481273750	-2.597254e+000	-1.214027e+002	-8.261772e+000	-1.912783e+001	-1.524741e+001	-6.339594e+000	-1.508105e+000	-1.120979e+002
6486586188	-2.598404e+000	-1.216596e+002	-8.262974e+000	-1.947461e+001	-1.525279e+001	-6.453387e+000	-1.504311e+000	-1.121798e+002
6491898625	-2.599403e+000	-1.216161e+002	-8.295603e+000	-1.947559e+001	-1.527825e+001	-6.396352e+000	-1.498569e+000	-1.121558e+002
6497211063	-2.586805e+000	-1.217045e+002	-8.324969e+000	-1.939557e+001	-1.528290e+001	-6.479240e+000	-1.498160e+000	-1.122653e+002
6502523500	-2.598192e+000	-1.219112e+002	-8.320123e+000	-1.977392e+001	-1.529603e+001	-6.483340e+000	-1.497448e+000	-1.122621e+002
6507835938	-2.576320e+000	-1.218975e+002	-8.363012e+000	-1.956545e+001	-1.530607e+001	-6.488223e+000	-1.490679e+000	-1.123106e+002
6513148375	-2.558107e+000	-1.221003e+002	-8.354798e+000	-1.940238e+001	-1.533515e+001	-6.525430e+000	-1.487608e+000	-1.123549e+002
6518460813	-2.566418e+000	-1.221452e+002	-8.407578e+000	-1.972337e+001	-1.533865e+001	-6.483388e+000	-1.483265e+000	-1.123711e+002
6523773250	-2.557431e+000	-1.221655e+002	-8.430233e+000	-1.969515e+001	-1.535805e+001	-6.687433e+000	-1.481002e+000	-1.123939e+002
6529085688	-2.548216e+000	-1.222691e+002	-8.461315e+000	-1.975554e+001	-1.537406e+001	-6.664474e+000	-1.477207e+000	-1.124367e+002
6534398125	-2.546337e+000	-1.224428e+002	-8.460490e+000	-1.995870e+001	-1.537929e+001	-6.790603e+000	-1.477713e+000	-1.125388e+002
6539710563	-2.526330e+000	-1.224866e+002	-8.482009e+000	-2.009621e+001	-1.541078e+001	-6.902844e+000	-1.479313e+000	-1.125517e+002
6545023000	-2.530898e+000	-1.226844e+002	-8.492170e+000	-1.993352e+001	-1.541414e+001	-6.964165e+000	-1.473512e+000	-1.125855e+002
6550335438	-2.528448e+000	-1.226544e+002	-8.546036e+000	-2.003813e+001	-1.543301e+001	-6.918531e+000	-1.470981e+000	-1.125832e+002
6555647875	-2.507217e+000	-1.227269e+002	-8.588653e+000	-2.016407e+001	-1.545238e+001	-6.989136e+000	-1.467836e+000	-1.126440e+002
6560960313	-2.499869e+000	-1.229177e+002	-8.590910e+000	-2.011012e+001	-1.546865e+001	-7.016574e+000	-1.466482e+000	-1.126496e+002
6566272750	-2.494155e+000	-1.230303e+002	-8.592168e+000	-2.023465e+001	-1.548692e+001	-7.020090e+000	-1.457957e+000	-1.126815e+002
6571585188	-2.501053e+000	-1.232076e+002	-8.638951e+000	-2.036797e+001	-1.549895e+001	-7.109232e+000	-1.456107e+000	-1.127337e+002
6576897625	-2.475443e+000	-1.231339e+002	-8.644563e+000	-2.032664e+001	-1.550814e+001	-7.192466e+000	-1.453419e+000	-1.127649e+002
6582210063	-2.457974e+000	-1.231865e+002	-8.700638e+000	-2.020469e+001	-1.553875e+001	-7.188315e+000	-1.452713e+000	-1.128019e+002
6587522500	-2.472092e+000	-1.233534e+002	-8.712889e+000	-2.060182e+001	-1.554415e+001	-7.292478e+000	-1.454750e+000	-1.127953e+002
6592834938	-2.455442e+000	-1.233202e+002	-8.737301e+000	-2.032533e+001	-1.557518e+001	-7.315725e+000	-1.449788e+000	-1.128301e+002
6598147375	-2.454782e+000	-1.234759e+002	-8.773138e+000	-2.065064e+001	-1.558630e+001	-7.260221e+000	-1.438443e+000	-1.128783e+002
6603459813	-2.451835e+000	-1.235298e+002	-8.784870e+000	-2.059336e+001	-1.560235e+001	-7.306786e+000	-1.437102e+000	-1.128498e+002
6608772250	-2.440482e+000	-1.237249e+002	-8.809538e+000	-2.057654e+001	-1.561621e+001	-7.373491e+000	-1.430314e+000	-1.129295e+002
6614084688	-2.422184e+000	-1.237312e+002	-8.816260e+000	-2.073284e+001	-1.563547e+001	-7.420814e+000	-1.431873e+000	-1.129667e+002
6619397125	-2.408728e+000	-1.237641e+002	-8.861533e+000	-2.061590e+001	-1.564886e+001	-7.458172e+000	-1.424662e+000	-1.129648e+002
6624709563	-2.403176e+000	-1.238562e+002	-8.903828e+000	-2.073630e+001	-1.567905e+001	-7.440731e+000	-1.424135e+000	-1.129861e+002
6630022000	-2.400011e+000	-1.238704e+002	-8.927680e+000	-2.077761e+001	-1.568277e+001	-7.589600e+000	-1.417684e+000	-1.129624e+002
6635334438	-2.394247e+000	-1.239763e+002	-8.941086e+000	-2.114911e+001	-1.570521e+001	-7.642642e+000	-1.418195e+000	-1.130387e+002
6640646875	-2.363721e+000	-1.241494e+002	-8.940888e+000	-2.069703e+001	-1.572296e+001	-7.653585e+000	-1.424392e+000	-1.130575e+002
6645959313	-2.396258e+000	-1.241571e+002	-8.983387e+000	-2.117211e+001	-1.573149e+001	-7.686964e+000	-1.418176e+000	-1.130704e+002
6651271750	-2.370873e+000	-1.242503e+002	-8.994469e+000	-2.110547e+001	-1.574774e+001	-7.665950e+000	-1.412700e+000	-1.130674e+002
6656584188	-2.372039e+000	-1.244377e+002	-9.010789e+000	-2.113665e+001	-1.576596e+001	-7.626838e+000	-1.411007e+000	-1.130969e+002
6661896625	-2.373708e+000	-1.244118e+002	-9.011776e+000	-2.139720e+001	-1.578579e+001	-7.693031e+000	-1.411163e+000	-1.131097e+002
6667209063	-2.351349e+000	-1.244395e+002	-9.094133e+000	-2.116566e+001	-1.579848e+001	-7.737540e+000	-1.403074e+000	-1.131409e+002
6672521500	-2.329852e+000	-1.244158e+002	-9.098159e+000	-2.115639e+001	-1.580662e+001	-7.756420e+000	-1.398003e+000	-1.131771e+002
6677833938	-2.334398e+000	-1.245543e+002	-9.094228e+000	-2.128755e+001	-1.583488e+001	-7.815460e+000	-1.404971e+000	-1.131791e+002
6683146375	-2.338859e+000	-1.245216e+002	-9.162572e+000	-2.129810e+001	-1.584760e+001	-7.890634e+000	-1.397215e+000	-1.132166e+002
6688458813	-2.345876e+000	-1.245549e+002	-9.145480e+000	-2.137277e+001	-1.585656e+001	-7.886214e+000	-1.394459e+000	-1.132541e+002
6693771250	-2.334576e+000	-1.246586e+002	-9.187699e+000	-2.164066e+001	-1.586595e+001	-7.946824e+000	-1.400755e+000	-1.132859e+002
6699083688	-2.302891e+000	-1.246893e+002	-9.215393e+000	-2.144379e+001	-1.589524e+001	-7.974379e+000	-1.391307e+000	-1.132861e+002
6704396125	-2.334111e+000	-1.247542e+002	-9.244967e+000	-2.175165e+001	-1.591056e+001	-7.969000e+000	-1.387318e+000	-1.133103e+002
6709708563	-2.327340e+000	-1.249369e+002	-9.226545e+000	-2.142679e+001	-1.592228e+001	-8.001980e+000	-1.383500e+000	-1.133517e+002
6715021000	-2.294820e+000	-1.248388e+002	-9.304415e+000	-2.144238e+001	-1.594165e+001	-8.007786e+000	-1.378970e+000	-1.133759e+002
6720333438	-2.306836e+000	-1.249721e+002	-9.283331e+000	-2.154047e+001	-1.595175e+001	-8.022238e+000	-1.377619e+000	-1.133937e+002
6725645875	-2.292638e+000	-1.250901e+002	-9.331314e+000	-2.164495e+001	-1.595770e+001	-8.109168e+000	-1.377007e+000	-1.134059e+002
6730958313	-2.275553e+000	-1.251405e+002	-9.326371e+000	-2.146251e+001	-1.596766e+001	-8.159167e+000	-1.372666e+000	-1.134798e+002
6736270750	-2.286055e+000	-1.251817e+002	-9.331584e+000	-2.194402e+001	-1.599323e+001	-8.199938e+000	-1.367812e+000	-1.134227e+002
6741583188	-2.266714e+000	-1.251574e+002	-9.396065e+000	-2.185574e+001	-1.600751e+001	-8.179566e+000	-1.367381e+000	-1.135009e+002
6746895625	-2.273319e+000	-1.252143e+002	-9.410855e+000	-2.182116e+001	-1.602424e+001	-8.234469e+000	-1.365484e+000	-1.135294e+002
6752208063	-2.258972e+000	-1.253733e+002	-9.404934e+000	-2.186064e+001	-1.603267e+001	-8.219930e+000	-1.361749e+000	-1.135977e+002
6757520500	-2.269308e+000	-1.253785e+002	-9.460956e+000	-2.220413e+001	-1.605304e+001	-8.260935e+000	-1.358405e+000	-1.136198e+002
6762832938	-2.271250e+000	-1.254540e+002	-9.439525e+000	-2.219790e+001	-1.607487e+001	-8.351803e+000	-1.363024e+000	-1.136246e+002
6768145375	-2.259455e+000	-1.255875e+002	-9.508972e+000	-2.197601e+001	-1.609245e+001	-8.350444e+000	-1.355103e+000	-1.136030e+002
6773457813	-2.249062e+000	-1.256462e+002	-9.526952e+000	-2.215857e+001	-1.611057e+001	-8.469007e+000	-1.348920e+000	-1.136902e+002
6778770250	-2.248323e+000	-1.257321e+002	-9.523826e+000	-2.232962e+001	-1.612250e+001	-8.511132e+000	-1.348230e+000	-1.136841e+002
6784082688	-2.224637e+000	-1.258576e+002	-9.551644e+000	-2.212356e+001	-1.614287e+001	-8.543308e+000	-1.347898e+000	-1.137644e+002
6789395125	-2.242562e+000	-1.260220e+002	-9.562558e+000	-2.223108e+001	-1.616004e+001	-8.625529e+000	-1.345306e+000	-1.137462e+002
6794707563	-2.215882e+000	-1.260069e+002	-9.620487e+000	-2.231232e+001	-1.617097e+001	-8.630668e+000	-1.337012e+000	-1.137754e+002
6800020000	-2.217867e+000	-1.260950e+002	-9.628349e+000	-2.229571e+001	-1.619371e+001	-8.663866e+000	-1.333748e+000	-1.137727e+002
6805332438	-2.210531e+000	-1.261306e+002	-9.649302e+000	-2.240201e+001	-1.620869e+001	-8.640290e+000	-1.340168e+000	-1.138085e+002
6810644875	-2.186009e+000	-1.260660e+002	-9.714009e+000	-2.256130e+001	-1.622800e+001	-8.676215e+000	-1.328668e+000	-1.138288e+002
6815957313	-2.211397e+000	-1.262159e+002	-9.744316e+000	-2.242664e+001	-1.624557e+001	-8.812836e+000	-1.329934e+000	-1.138548e+002
6821269750	-2.194303e+000	-1.263197e+002	-9.760598e+000	-2.244822e+001	-1.626268e+001	-8.867085e+000	-1.330492e+000	-1.138071e+002
6826582188	-2.197130e+000	-1.264106e+002	-9.786742e+000	-2.288585e+001	-1.629650e+001	-8.872462e+000	-1.322935e+000	-1.138397e+002
6831894625	-2.178474e+000	-1.263855e+002	-9.817225e+000	-2.260778e+001	-1.629868e+001	-8.950840e+000	-1.321944e+000	-1.138497e+002
6837207063	-2.179637e+000	-1.263159e+002	-9.849771e+000	-2.281804e+001	-1.632310e+001	-8.944605e+000	-1.314930e+000	-1.138645e+002
6842519500	-2.170065e+000	-1.265453e+002	-9.866833e+000	-2.269494e+001	-1.633485e+001	-8.945645e+000	-1.321371e+000	-1.139178e+002
6847831938	-2.175049e+000	-1.265990e+002	-9.883772e+000	-2.293335e+001	-1.635481e+001	-8.967398e+000	-1.313928e+000	-1.139023e+002
6853144375	-2.143216e+000	-1.266134e+002	-9.896024e+000	-2.282489e+001	-1.636862e+001	-8.988544e+000	-1.311130e+000	-1.139349e+002
6858456813	-2.128603e+000	-1.266647e+002	-9.950268e+000	-2.290411e+001	-1.639632e+001	-8.899874e+000	-1.307602e+000	-1.139059e+002
6863769250	-2.141843e+000	-1.268085e+002	-9.958643e+000	-2.286014e+001	-1.639591e+001	-8.896740e+000	-1.302589e+000	-1.139291e+002
6869081688	-2.118951e+000	-1.268628e+002	-9.977562e+000	-2.271260e+001	-1.643331e+001	-8.924425e+000	-1.306337e+000	-1.139531e+002
6874394125	-2.135396e+000	-1.267290e+002	-9.995833e+000	-2.314848e+001	-1.644882e+001	-9.013239e+000	-1.309094e+000	-1.139390e+002
6879706563	-2.117526e+000	-1.268293e+002	-1.002169e+001	-2.262692e+001	-1.647548e+001	-8.961499e+000	-1.298612e+000	-1.139741e+002
6885019000	-2.140031e+000	-1.268699e+002	-1.004793e+001	-2.307782e+001	-1.647989e+001	-9.027789e+000	-1.297568e+000	-1.139120e+002
6890331438	-2.112673e+000	-1.268432e+002	-1.006536e+001	-2.316663e+001	-1.651166e+001	-9.097282e+000	-1.294161e+000	-1.139637e+002
6895643875	-2.090584e+000	-1.268272e+002	-1.008960e+001	-2.302062e+001	-1.651471e+001	-9.037642e+000	-1.295143e+000	-1.139259e+002
6900956313	-2.091266e+000	-1.269827e+002	-1.011905e+001	-2.301979e+001	-1.653051e+001	-8.966744e+000	-1.285536e+000	-1.139488e+002
6906268750	-2.114730e+000	-1.271315e+002	-1.015739e+001	-2.290836e+001	-1.655903e+001	-8.988116e+000	-1.285899e+000	-1.139438e+002
6911581188	-2.087232e+000	-1.270327e+002	-1.016370e+001	-2.300335e+001	-1.656891e+001	-9.081970e+000	-1.287864e+000	-1.139356e+002
6916893625	-2.089268e+000	-1.270865e+002	-1.017168e+001	-2.303240e+001	-1.658400e+001	-9.074119e+000	-1.286817e+000	-1.139626e+002
6922206063	-2.070685e+000	-1.273166e+002	-1.021114e+001	-2.309659e+001	-1.660393e+001	-9.104261e+000	-1.275825e+000	-1.139900e+002
6927518500	-2.068897e+000	-1.272366e+002	-1.026170e+001	-2.312999e+001	-1.661644e+001	-9.052715e+000	-1.282656e+000	-1.139611e+002
6932830938	-2.076810e+000	-1.270948e+002	-1.023881e+001	-2.317941e+001	-1.663275e+001	-9.112795e+000	-1.276966e+000	-1.139920e+002
6938143375	-2.063202e+000	-1.272423e+002	-1.026397e+001	-2.344453e+001	-1.664416e+001	-9.133391e+000	-1.271782e+000	-1.139798e+002
6943455813	-2.065435e+000	-1.272991e+002	-1.029916e+001	-2.316466e+001	-1.665934e+001	-9.109548e+000	-1.267412e+000	-1.139962e+002
6948768250	-2.047261e+000	-1.274760e+002	-1.033683e+001	-2.323645e+001	-1.666938e+001	-9.086454e+000	-1.270780e+000	-1.140019e+002
6954080688	-2.047762e+000	-1.274951e+002	-1.036089e+001	-2.317826e+001	-1.669931e+001	-9.146633e+000	-1.266531e+000	-1.139901e+002
6959393125	-2.051135e+000	-1.275278e+002	-1.034282e+001	-2.319621e+001	-1.672475e+001	-9.115139e+000	-1.262981e+000	-1.140229e+002
6964705563	-2.025778e+000	-1.276661e+002	-1.036792e+001	-2.330550e+001	-1.673038e+001	-9.177691e+000	-1.260210e+000	-1.139962e+002
6970018000	-2.029051e+000	-1.275875e+002	-1.038320e+001	-2.349350e+001	-1.675338e+001	-9.195726e+000	-1.261245e+000	-1.139829e+002
6975330438	-2.033194e+000	-1.276924e+002	-1.044827e+001	-2.345064e+001	-1.676706e+001	-9.094333e+000	-1.256376e+000	-1.139623e+002
6980642875	-2.019977e+000	-1.277081e+002	-1.044119e+001	-2.348304e+001	-1.677519e+001	-9.233867e+000	-1.253955e+000	-1.139618e+002
6985955313	-2.021520e+000	-1.277506e+002	-1.047315e+001	-2.351792e+001	-1.679219e+001	-9.213117e+000	-1.251240e+000	-1.139916e+002
6991267750	-2.031061e+000	-1.278576e+002	-1.050002e+001	-2.353111e+001	-1.681958e+001	-9.204538e+000	-1.243018e+000	-1.139927e+002
6996580188	-2.001694e+000	-1.277607e+002	-1.054795e+001	-2.336945e+001	-1.684046e+001	-9.250186e+000	-1.251270e+000	-1.139681e+002
7001892625	-1.998284e+000	-1.279952e+002	-1.053436e+001	-2.344456e+001	-1.685456e+001	-9.124818e+000	-1.250944e+000	-1.139575e+002
7007205063	-2.011624e+000	-1.280651e+002	-1.056097e+001	-2.354412e+001	-1.687852e+001	-9.198218e+000	-1.246019e+000	-1.140062e+002
7012517500	-1.990047e+000	-1.281094e+002	-1.059873e+001	-2.352309e+001	-1.690300e+001	-9.201367e+000	-1.238212e+000	-1.140103e+002
7017829938	-1.963803e+000	-1.282253e+002	-1.069538e+001	-2.355207e+001	-1.691613e+001	-9.150740e+000	-1.241150e+000	-1.139627e+002
7023142375	-1.967066e+000	-1.281881e+002	-1.064869e+001	-2.337667e+001	-1.692031e+001	-9.184500e+000	-1.244459e+000	-1.139611e+002
7028454813	-1.960320e+000	-1.282600e+002	-1.067825e+001	-2.390611e+001	-1.695777e+001	-9.230726e+000	-1.233577e+000	-1.139446e+002
7033767250	-1.975523e+000	-1.283534e+002	-1.069726e+001	-2.341074e+001	-1.695405e+001	-9.277015e+000	-1.237051e+000	-1.140057e+002
7039079688	-1.957768e+000	-1.282988e+002	-1.074465e+001	-2.378868e+001	-1.698354e+001	-9.301343e+000	-1.235363e+000	-1.139233e+002
7044392125	-1.952506e+000	-1.284762e+002	-1.074817e+001	-2.356248e+001	-1.698504e+001	-9.324337e+000	-1.226271e+000	-1.139200e+002
7049704563	-1.936070e+000	-1.283562e+002	-1.079113e+001	-2.358600e+001	-1.699796e+001	-9.298939e+000	-1.233204e+000	-1.139156e+002
7055017000	-1.961646e+000	-1.285529e+002	-1.079475e+001	-2.367104e+001	-1.702308e+001	-9.357007e+000	-1.226756e+000	-1.139251e+002
7060329438	-1.930693e+000	-1.285102e+002	-1.081244e+001	-2.366106e+001	-1.704727e+001	-9.302328e+000	-1.223414e+000	-1.139431e+002
7065641875	-1.934062e+000	-1.285103e+002	-1.082834e+001	-2.346481e+001	-1.705136e+001	-9.211793e+000	-1.229330e+000	-1.139840e+002
7070954313	-1.917349e+000	-1.286613e+002	-1.086472e+001	-2.379413e+001	-1.707655e+001	-9.282135e+000	-1.219630e+000	-1.139035e+002
7076266750	-1.911831e+000	-1.286748e+002	-1.090130e+001	-2.369234e+001	-1.708710e+001	-9.267859e+000	-1.218759e+000	-1.139277e+002
7081579188	-1.912781e+000	-1.286051e+002	-1.090474e+001	-2.361489e+001	-1.711448e+001	-9.293767e+000	-1.215683e+000	-1.139189e+002
7086891625	-1.913887e+000	-1.286993e+002	-1.093932e+001	-2.363669e+001	-1.711163e+001	-9.219919e+000	-1.218552e+000	-1.138925e+002
7092204063	-1.917755e+000	-1.287397e+002	-1.095283e+001	-2.346824e+001	-1.713732e+001	-9.320221e+000	-1.208574e+000	-1.139085e+002
7097516500	-1.920654e+000	-1.288200e+002	-1.097127e+001	-2.351899e+001	-1.714990e+001	-9.322601e+000	-1.207084e+000	-1.138840e+002
7102828938	-1.888453e+000	-1.288597e+002	-1.101254e+001	-2.390831e+001	-1.716685e+001	-9.231973e+000	-1.203570e+000	-1.139175e+002
7108141375	-1.881504e+000	-1.289159e+002	-1.099992e+001	-2.385027e+001	-1.719937e+001	-9.230668e+000	-1.214514e+000	-1.138757e+002
7113453813	-1.872604e+000	-1.289405e+002	-1.103959e+001	-2.365213e+001	-1.722159e+001	-9.319383e+000	-1.198331e+000	-1.139576e+002
7118766250	-1.894934e+000	-1.290453e+002	-1.106526e+001	-2.368059e+001	-1.724093e+001	-9.187424e+000	-1.210046e+000	-1.139194e+002
7124078688	-1.890445e+000	-1.290745e+002	-1.112785e+001	-2.360011e+001	-1.725929e+001	-9.248377e+000	-1.208715e+000	-1.138935e+002
7129391125	-1.864758e+000	-1.289331e+002	-1.114569e+001	-2.394522e+001	-1.726474e+001	-9.224536e+000	-1.203655e+000	-1.139028e+002
7134703563	-1.868765e+000	-1.291151e+002	-1.113782e+001	-2.375997e+001	-1.729305e+001	-9.308642e+000	-1.203848e+000	-1.139157e+002
7140016000	-1.859776e+000	-1.292609e+002	-1.116074e+001	-2.387358e+001	-1.729961e+001	-9.217481e+000	-1.202453e+000	-1.139307e+002
7145328438	-1.864460e+000	-1.292864e+002	-1.119443e+001	-2.392524e+001	-1.731755e+001	-9.205805e+000	-1.197988e+000	-1.139116e+002
7150640875	-1.858455e+000	-1.292795e+002	-1.118023e+001	-2.386165e+001	-1.733772e+001	-9.280777e+000	-1.197801e+000	-1.138967e+002
7155953313	-1.846656e+000	-1.291650e+002	-1.123523e+001	-2.393386e+001	-1.735568e+001	-9.198974e+000	-1.195266e+000	-1.138830e+002
7161265750	-1.847766e+000	-1.292609e+002	-1.129060e+001	-2.386104e+001	-1.735588e+001	-9.143614e+000	-1.192684e+000	-1.138884e+002
7166578188	-1.849220e+000	-1.292733e+002	-1.125286e+001	-2.387580e+001	-1.738020e+001	-9.152374e+000	-1.191500e+000	-1.139292e+002
7171890625	-1.842675e+000	-1.293096e+002	-1.130232e+001	-2.396464e+001	-1.739489e+001	-9.202385e+000	-1.195650e+000	-1.139295e+002
7177203063	-1.820987e+000	-1.294405e+002	-1.135088e+001	-2.394497e+001	-1.741624e+001	-9.125801e+000	-1.187687e+000	-1.139429e+002
7182515500	-1.832186e+000	-1.294343e+002	-1.135259e+001	-2.394017e+001	-1.742188e+001	-9.184490e+000	-1.188673e+000	-1.139138e+002
7187827938	-1.817008e+000	-1.294371e+002	-1.137495e+001	-2.400025e+001	-1.745210e+001	-9.105737e+000	-1.189145e+000	-1.139115e+002
7193140375	-1.817163e+000	-1.295561e+002	-1.139512e+001	-2.386454e+001	-1.745876e+001	-9.037229e+000	-1.183742e+000	-1.139050e+002
7198452813	-1.827098e+000	-1.295775e+002	-1.144687e+001	-2.398526e+001	-1.747015e+001	-9.015781e+000	-1.187956e+000	-1.138958e+002
7203765250	-1.815861e+000	-1.296976e+002	-1.145565e+001	-2.393602e+001	-1.748469e+001	-9.092444e+000	-1.189867e+000	-1.139041e+002
7209077688	-1.817495e+000	-1.297129e+002	-1.152097e+001	-2.377038e+001	-1.750580e+001	-9.070636e+000	-1.185431e+000	-1.139291e+002
7214390125	-1.808625e+000	-1.297488e+002	-1.150360e+001	-2.385939e+001	-1.750237e+001	-8.977192e+000	-1.178214e+000	-1.139160e+002
7219702563	-1.801013e+000	-1.296758e+002	-1.150309e+001	-2.380035e+001	-1.753459e+001	-8.890420e+000	-1.185844e+000	-1.138822e+002
7225015000	-1.802866e+000	-1.298380e+002	-1.158597e+001	-2.403821e+001	-1.754616e+001	-8.862014e+000	-1.180323e+000	-1.138709e+002
7230327438	-1.791837e+000	-1.297936e+002	-1.157458e+001	-2.392218e+001	-1.755086e+001	-8.857653e+000	-1.177446e+000	-1.138594e+002
7235639875	-1.816004e+000	-1.297547e+002	-1.162713e+001	-2.374475e+001	-1.756477e+001	-8.920373e+000	-1.174574e+000	-1.138873e+002
7240952313	-1.802647e+000	-1.298572e+002	-1.162252e+001	-2.376285e+001	-1.758685e+001	-8.887421e+000	-1.175796e+000	-1.139015e+002
7246264750	-1.796329e+000	-1.299711e+002	-1.167110e+001	-2.387804e+001	-1.759052e+001	-8.840517e+000	-1.163455e+000	-1.138682e+002
7251577188	-1.790879e+000	-1.299157e+002	-1.165612e+001	-2.383974e+001	-1.761882e+001	-8.722802e+000	-1.173048e+000	-1.138273e+002
7256889625	-1.783935e+000	-1.299259e+002	-1.169510e+001	-2.390291e+001	-1.762906e+001	-8.761248e+000	-1.171211e+000	-1.138665e+002
7262202063	-1.789283e+000	-1.299336e+002	-1.172979e+001	-2.376555e+001	-1.762384e+001	-8.672652e+000	-1.166444e+000	-1.138350e+002
7267514500	-1.790775e+000	-1.299341e+002	-1.174442e+001	-2.389693e+001	-1.763512e+001	-8.661243e+000	-1.164083e+000	-1.137963e+002
7272826938	-1.774395e+000	-1.299923e+002	-1.175192e+001	-2.374836e+001	-1.764681e+001	-8.702941e+000	-1.167030e+000	-1.138316e+002
7278139375	-1.763437e+000	-1.300806e+002	-1.178091e+001	-2.383812e+001	-1.765535e+001	-8.671509e+000	-1.165830e+000	-1.137766e+002
7283451813	-1.773240e+000	-1.300010e+002	-1.178459e+001	-2.382391e+001	-1.767224e+001	-8.642001e+000	-1.162924e+000	-1.137514e+002
7288764250	-1.752538e+000	-1.299595e+002	-1.178549e+001	-2.374305e+001	-1.769422e+001	-8.588738e+000	-1.166485e+000	-1.137478e+002
7294076688	-1.763193e+000	-1.299742e+002	-1.182350e+001	-2.380011e+001	-1.769208e+001	-8.710129e+000	-1.160642e+000	-1.137505e+002
7299389125	-1.743668e+000	-1.301810e+002	-1.185436e+001	-2.384215e+001	-1.769419e+001	-8.566588e+000	-1.160567e+000	-1.137181e+002
7304701563	-1.743592e+000	-1.299882e+002	-1.189798e+001	-2.382613e+001	-1.771426e+001	-8.478405e+000	-1.166796e+000	-1.137138e+002
7310014000	-1.727444e+000	-1.300978e+002	-1.185367e+001	-2.354972e+001	-1.771518e+001	-8.664330e+000	-1.158782e+000	-1.136910e+002
7315326438	-1.750513e+000	-1.301905e+002	-1.187754e+001	-2.386610e+001	-1.771953e+001	-8.661163e+000	-1.155389e+000	-1.136548e+002
7320638875	-1.730076e+000	-1.301704e+002	-1.191066e+001	-2.365488e+001	-1.773923e+001	-8.651135e+000	-1.153217e+000	-1.136517e+002
7325951313	-1.728419e+000	-1.300386e+002	-1.193314e+001	-2.388794e+001	-1.774472e+001	-8.580679e+000	-1.155120e+000	-1.136458e+002
7331263750	-1.730950e+000	-1.299018e+002	-1.192391e+001	-2.347581e+001	-1.774057e+001	-8.669021e+000	-1.154597e+000	-1.136257e+002
7336576188	-1.737812e+000	-1.301746e+002	-1.197355e+001	-2.368401e+001	-1.775191e+001	-8.735462e+000	-1.154260e+000	-1.135896e+002
7341888625	-1.733126e+000	-1.299968e+002	-1.197854e+001	-2.369692e+001	-1.776905e+001	-8.821347e+000	-1.152248e+000	-1.136108e+002
7347201063	-1.721479e+000	-1.300806e+002	-1.199871e+001	-2.367139e+001	-1.776677e+001	-8.810438e+000	-1.143767e+000	-1.135652e+002
7352513500	-1.711700e+000	-1.300946e+002	-1.206454e+001	-2.394288e+001	-1.777081e+001	-8.797025e+000	-1.141262e+000	-1.135166e+002
7357825938	-1.702846e+000	-1.302424e+002	-1.208517e+001	-2.371687e+001	-1.780079e+001	-8.792608e+000	-1.145244e+000	-1.135064e+002
7363138375	-1.712254e+000	-1.301484e+002	-1.208737e+001	-2.385675e+001	-1.781027e+001	-8.930915e+000	-1.141640e+000	-1.135218e+002
7368450813	-1.695170e+000	-1.302318e+002	-1.210186e+001	-2.387824e+001	-1.781745e+001	-8.856298e+000	-1.140786e+000	-1.134811e+002
7373763250	-1.685556e+000	-1.303205e+002	-1.209069e+001	-2.399363e+001	-1.783511e+001	-8.855290e+000	-1.140231e+000	-1.134618e+002
7379075688	-1.682533e+000	-1.302709e+002	-1.211503e+001	-2.374664e+001	-1.786003e+001	-8.953754e+000	-1.137739e+000	-1.134579e+002
7384388125	-1.685686e+000	-1.303119e+002	-1.217606e+001	-2.395953e+001	-1.787858e+001	-8.995110e+000	-1.137594e+000	-1.134352e+002
7389700563	-1.686402e+000	-1.303892e+002	-1.221814e+001	-2.405638e+001	-1.789344e+001	-8.944045e+000	-1.141118e+000	-1.134145e+002
7395013000	-1.656962e+000	-1.305007e+002	-1.219461e+001	-2.409497e+001	-1.790462e+001	-9.013831e+000	-1.138576e+000	-1.134067e+002
7400325438	-1.673792e+000	-1.303533e+002	-1.222792e+001	-2.389715e+001	-1.791509e+001	-8.908637e+000	-1.131495e+000	-1.133655e+002
7405637875	-1.658817e+000	-1.304270e+002	-1.223289e+001	-2.393287e+001	-1.794891e+001	-8.998979e+000	-1.134249e+000	-1.133036e+002
7410950313	-1.657867e+000	-1.304800e+002	-1.225160e+001	-2.404707e+001	-1.795708e+001	-9.006496e+000	-1.129788e+000	-1.133165e+002
7416262750	-1.680104e+000	-1.303667e+002	-1.230960e+001	-2.393843e+001	-1.796815e+001	-8.993944e+000	-1.125116e+000	-1.132935e+002
7421575188	-1.633893e+000	-1.306147e+002	-1.225504e+001	-2.384836e+001	-1.799031e+001	-9.075295e+000	-1.124216e+000	-1.132412e+002
7426887625	-1.654129e+000	-1.305144e+002	-1.232974e+001	-2.393332e+001	-1.799861e+001	-9.076195e+000	-1.126187e+000	-1.132406e+002
7432200063	-1.661171e+000	-1.305704e+002	-1.236291e+001	-2.392361e+001	-1.801297e+001	-9.119963e+000	-1.120702e+000	-1.132032e+002
7437512500	-1.648383e+000	-1.305439e+002	-1.237006e+001	-2.386559e+001	-1.803500e+001	-9.171019e+000	-1.122031e+000	-1.131863e+002
7442824938	-1.652707e+000	-1.306509e+002	-1.238790e+001	-2.401974e+001	-1.804522e+001	-9.199141e+000	-1.114577e+000	-1.131632e+002
7448137375	-1.633543e+000	-1.305141e+002	-1.238464e+001	-2.373063e+001	-1.806126e+001	-9.133865e+000	-1.111784e+000	-1.131029e+002
7453449813	-1.618657e+000	-1.305951e+002	-1.241711e+001	-2.382439e+001	-1.809135e+001	-9.065740e+000	-1.119508e+000	-1.130644e+002
7458762250	-1.637367e+000	-1.306298e+002	-1.246747e+001	-2.398757e+001	-1.809226e+001	-9.056635e+000	-1.116676e+000	-1.131114e+002
7464074688	-1.626579e+000	-1.307824e+002	-1.243096e+001	-2.388501e+001	-1.809905e+001	-9.095626e+000	-1.106538e+000	-1.130792e+002
7469387125	-1.638137e+000	-1.306624e+002	-1.252370e+001	-2.405141e+001	-1.813547e+001	-9.160688e+000	-1.115770e+000	-1.130540e+002
7474699563	-1.630206e+000	-1.306946e+002	-1.251244e+001	-2.401662e+001	-1.816837e+001	-9.085491e+000	-1.117491e+000	-1.129768e+002
7480012000	-1.622653e+000	-1.308019e+002	-1.255235e+001	-2.404749e+001	-1.815642e+001	-9.184163e+000	-1.108676e+000	-1.130232e+002
7485324438	-1.597084e+000	-1.307323e+002	-1.255741e+001	-2.399096e+001	-1.818548e+001	-9.105843e+000	-1.112958e+000	-1.129546e+002
7490636875	-1.595849e+000	-1.309344e+002	-1.254258e+001	-2.390798e+001	-1.820332e+001	-9.048521e+000	-1.113009e+000	-1.129417e+002
7495949313	-1.606288e+000	-1.307941e+002	-1.259453e+001	-2.391623e+001	-1.820635e+001	-9.080111e+000	-1.106633e+000	-1.129020e+002
7501261750	-1.597506e+000	-1.307953e+002	-1.261849e+001	-2.387264e+001	-1.821427e+001	-9.042169e+000	-1.102125e+000	-1.128968e+002
7506574188	-1.584828e+000	-1.309035e+002	-1.263250e+001	-2.384492e+001	-1.823536e+001	-9.009711e+000	-1.107437e+000	-1.128726e+002
7511886625	-1.597406e+000	-1.309884e+002	-1.264944e+001	-2.403550e+001	-1.825904e+001	-9.054225e+000	-1.105628e+000	-1.128458e+002
7517199063	-1.589012e+000	-1.309348e+002	-1.266968e+001	-2.385193e+001	-1.827005e+001	-9.020438e+000	-1.102530e+000	-1.128185e+002
7522511500	-1.595846e+000	-1.308642e+002	-1.272157e+001	-2.378260e+001	-1.828524e+001	-9.055012e+000	-1.101540e+000	-1.128017e+002
7527823938	-1.587986e+000	-1.309765e+002	-1.276272e+001	-2.388115e+001	-1.830465e+001	-9.050100e+000	-1.099491e+000	-1.127349e+002
7533136375	-1.581605e+000	-1.309258e+002	-1.274180e+001	-2.405373e+001	-1.831479e+001	-9.115361e+000	-1.095232e+000	-1.127588e+002
7538448813	-1.570710e+000	-1.310871e+002	-1.277516e+001	-2.372426e+001	-1.831915e+001	-9.092199e+000	-1.092732e+000	-1.128118e+002
7543761250	-1.556936e+000	-1.309542e+002	-1.277717e+001	-2.375251e+001	-1.834778e+001	-9.135764e+000	-1.094497e+000	-1.127145e+002
7549073688	-1.586200e+000	-1.310121e+002	-1.283743e+001	-2.389312e+001	-1.835942e+001	-9.004257e+000	-1.090425e+000	-1.126463e+002
7554386125	-1.567204e+000	-1.309597e+002	-1.286531e+001	-2.386319e+001	-1.837966e+001	-8.982728e+000	-1.090208e+000	-1.126883e+002
7559698563	-1.560240e+000	-1.311911e+002	-1.285690e+001	-2.420014e+001	-1.838553e+001	-9.088106e+000	-1.092978e+000	-1.126656e+002
7565011000	-1.549334e+000	-1.310460e+002	-1.287636e+001	-2.393767e+001	-1.838950e+001	-9.038199e+000	-1.086982e+000	-1.126463e+002
7570323438	-1.538279e+000	-1.312072e+002	-1.288549e+001	-2.379159e+001	-1.842320e+001	-8.989716e+000	-1.085512e+000	-1.126089e+002
7575635875	-1.538721e+000	-1.313798e+002	-1.289497e+001	-2.384054e+001	-1.842824e+001	-9.104063e+000	-1.091632e+000	-1.126733e+002
7580948313	-1.545712e+000	-1.312006e+002	-1.295816e+001	-2.385847e+001	-1.844776e+001	-8.936828e+000	-1.084715e+000	-1.125718e+002
7586260750	-1.556348e+000	-1.311893e+002	-1.299543e+001	-2.386234e+001	-1.846818e+001	-9.006649e+000	-1.084037e+000	-1.125433e+002
7591573188	-1.547060e+000	-1.312198e+002	-1.300847e+001	-2.383426e+001	-1.848655e+001	-8.933259e+000	-1.088006e+000	-1.125057e+002
7596885625	-1.527207e+000	-1.312996e+002	-1.302375e+001	-2.385962e+001	-1.850367e+001	-8.924143e+000	-1.084926e+000	-1.125190e+002
7602198063	-1.539984e+000	-1.313002e+002	-1.306353e+001	-2.391036e+001	-1.850747e+001	-8.834809e+000	-1.078852e+000	-1.124748e+002
7607510500	-1.535129e+000	-1.312846e+002	-1.304361e+001	-2.384890e+001	-1.853474e+001	-8.824325e+000	-1.078994e+000	-1.124689e+002
7612822938	-1.538433e+000	-1.313873e+002	-1.306364e+001	-2.410667e+001	-1.853698e+001	-8.814145e+000	-1.078030e+000	-1.124302e+002
7618135375	-1.518889e+000	-1.312818e+002	-1.311491e+001	-2.368973e+001	-1.855809e+001	-8.731212e+000	-1.080071e+000	-1.124107e+002
7623447813	-1.525557e+000	-1.313915e+002	-1.313677e+001	-2.390786e+001	-1.856353e+001	-8.809322e+000	-1.081739e+000	-1.123971e+002
7628760250	-1.525916e+000	-1.312678e+002	-1.315618e+001	-2.384381e+001	-1.858876e+001	-8.821349e+000	-1.074728e+000	-1.123677e+002
7634072688	-1.512428e+000	-1.313310e+002	-1.316090e+001	-2.366148e+001	-1.860594e+001	-8.822977e+000	-1.079678e+000	-1.123320e+002
7639385125	-1.528320e+000	-1.314325e+002	-1.314228e+001	-2.395542e+001	-1.862511e+001	-8.764938e+000	-1.076580e+000	-1.122705e+002
7644697563	-1.521020e+000	-1.313882e+002	-1.321009e+001	-2.366381e+001	-1.863531e+001	-8.748727e+000	-1.076669e+000	-1.122592e+002
7650010000	-1.523643e+000	-1.315356e+002	-1.318314e+001	-2.415151e+001	-1.864052e+001	-8.657642e+000	-1.071194e+000	-1.122469e+002
7655322438	-1.489945e+000	-1.313183e+002	-1.325251e+001	-2.383798e+001	-1.865105e+001	-8.705239e+000	-1.073766e+000	-1.122349e+002
7660634875	-1.526264e+000	-1.314939e+002	-1.326198e+001	-2.376784e+001	-1.865962e+001	-8.701165e+000	-1.072607e+000	-1.122129e+002
7665947313	-1.496444e+000	-1.313652e+002	-1.327403e+001	-2.379797e+001	-1.869470e+001	-8.722657e+000	-1.073795e+000	-1.121799e+002
7671259750	-1.502533e+000	-1.314156e+002	-1.329820e+001	-2.364322e+001	-1.870690e+001	-8.583682e+000	-1.065098e+000	-1.121692e+002
7676572188	-1.499098e+000	-1.313513e+002	-1.333341e+001	-2.376146e+001	-1.872294e+001	-8.625684e+000	-1.070367e+000	-1.121127e+002
7681884625	-1.502304e+000	-1.315202e+002	-1.330222e+001	-2.366756e+001	-1.875414e+001	-8.646826e+000	-1.061548e+000	-1.120815e+002
7687197063	-1.498481e+000	-1.313890e+002	-1.335591e+001	-2.368945e+001	-1.875906e+001	-8.688080e+000	-1.065731e+000	-1.120571e+002
7692509500	-1.479718e+000	-1.315746e+002	-1.338213e+001	-2.360511e+001	-1.876195e+001	-8.762006e+000	-1.066341e+000	-1.120483e+002
7697821938	-1.483294e+000	-1.314472e+002	-1.336106e+001	-2.363912e+001	-1.876974e+001	-8.635287e+000	-1.062159e+000	-1.120599e+002
7703134375	-1.456279e+000	-1.314121e+002	-1.342391e+001	-2.363549e+001	-1.878434e+001	-8.562483e+000	-1.064973e+000	-1.120077e+002
7708446813	-1.487721e+000	-1.316646e+002	-1.337616e+001	-2.363939e+001	-1.879502e+001	-8.606518e+000	-1.066886e+000	-1.119898e+002
7713759250	-1.461113e+000	-1.313397e+002	-1.344930e+001	-2.370636e+001	-1.882421e+001	-8.483335e+000	-1.065042e+000	-1.119481e+002
7719071688	-1.486889e+000	-1.314611e+002	-1.346382e+001	-2.361311e+001	-1.882806e+001	-8.596017e+000	-1.058450e+000	-1.119782e+002
7724384125	-1.487351e+000	-1.314241e+002	-1.352715e+001	-2.385965e+001	-1.883849e+001	-8.540517e+000	-1.058792e+000	-1.119045e+002
7729696563	-1.470626e+000	-1.313780e+002	-1.349383e+001	-2.363028e+001	-1.885306e+001	-8.530666e+000	-1.061804e+000	-1.119275e+002
7735009000	-1.474538e+000	-1.314842e+002	-1.353434e+001	-2.361222e+001	-1.887027e+001	-8.540493e+000	-1.055670e+000	-1.118711e+002
7740321438	-1.460330e+000	-1.315350e+002	-1.353712e+001	-2.364902e+001	-1.889921e+001	-8.537449e+000	-1.063062e+000	-1.117969e+002
7745633875	-1.448354e+000	-1.316390e+002	-1.358945e+001	-2.354518e+001	-1.891259e+001	-8.597076e+000	-1.062935e+000	-1.118372e+002
7750946313	-1.472384e+000	-1.315140e+002	-1.361509e+001	-2.354644e+001	-1.890768e+001	-8.540175e+000	-1.059943e+000	-1.117724e+002
7756258750	-1.466879e+000	-1.315229e+002	-1.366374e+001	-2.357108e+001	-1.891813e+001	-8.442581e+000	-1.054545e+000	-1.117764e+002
7761571188	-1.468059e+000	-1.315144e+002	-1.363736e+001	-2.359341e+001	-1.895079e+001	-8.406539e+000	-1.059340e+000	-1.116815e+002
7766883625	-1.452020e+000	-1.315427e+002	-1.366347e+001	-2.349765e+001	-1.897247e+001	-8.376619e+000	-1.059101e+000	-1.117041e+002
7772196063	-1.459376e+000	-1.316797e+002	-1.368302e+001	-2.351821e+001	-1.897056e+001	-8.405828e+000	-1.056493e+000	-1.116824e+002
7777508500	-1.448137e+000	-1.315218e+002	-1.371825e+001	-2.372968e+001	-1.900333e+001	-8.423402e+000	-1.055077e+000	-1.116164e+002
7782820938	-1.453179e+000	-1.315619e+002	-1.374196e+001	-2.346186e+001	-1.902476e+001	-8.365228e+000	-1.047707e+000	-1.116063e+002
7788133375	-1.444206e+000	-1.314977e+002	-1.378166e+001	-2.354741e+001	-1.903017e+001	-8.466449e+000	-1.049584e+000	-1.115487e+002
7793445813	-1.439370e+000	-1.315631e+002	-1.380568e+001	-2.350315e+001	-1.904543e+001	-8.385510e+000	-1.052478e+000	-1.115393e+002
7798758250	-1.449308e+000	-1.316921e+002	-1.376233e+001	-2.356849e+001	-1.905520e+001	-8.320018e+000	-1.049459e+000	-1.115151e+002
7804070688	-1.436515e+000	-1.314841e+002	-1.385100e+001	-2.346877e+001	-1.907761e+001	-8.267109e+000	-1.058626e+000	-1.114556e+002
7809383125	-1.456752e+000	-1.316166e+002	-1.381715e+001	-2.347730e+001	-1.909873e+001	-8.159511e+000	-1.049117e+000	-1.114518e+002
7814695563	-1.445010e+000	-1.315452e+002	-1.384293e+001	-2.364397e+001	-1.911051e+001	-8.176372e+000	-1.044832e+000	-1.114389e+002
7820008000	-1.428898e+000	-1.316725e+002	-1.385600e+001	-2.342452e+001	-1.912874e+001	-8.229193e+000	-1.046326e+000	-1.113786e+002
7825320438	-1.446522e+000	-1.317637e+002	-1.386581e+001	-2.347326e+001	-1.913660e+001	-8.206608e+000	-1.048074e+000	-1.113440e+002
7830632875	-1.419281e+000	-1.315139e+002	-1.396099e+001	-2.315771e+001	-1.914168e+001	-8.251676e+000	-1.041262e+000	-1.112896e+002
7835945313	-1.411280e+000	-1.315623e+002	-1.393971e+001	-2.347440e+001	-1.917025e+001	-8.145776e+000	-1.032650e+000	-1.112543e+002
7841257750	-1.415510e+000	-1.315616e+002	-1.391502e+001	-2.333325e+001	-1.919051e+001	-8.074836e+000	-1.038856e+000	-1.112070e+002
7846570188	-1.427989e+000	-1.317433e+002	-1.395828e+001	-2.312836e+001	-1.918633e+001	-8.078087e+000	-1.041558e+000	-1.111700e+002
7851882625	-1.425358e+000	-1.315941e+002	-1.400551e+001	-2.337909e+001	-1.920043e+001	-8.135068e+000	-1.037413e+000	-1.111229e+002
7857195063	-1.411330e+000	-1.316160e+002	-1.399898e+001	-2.316475e+001	-1.920566e+001	-7.976431e+000	-1.037754e+000	-1.111033e+002
7862507500	-1.408246e+000	-1.314693e+002	-1.405912e+001	-2.312431e+001	-1.923979e+001	-7.920711e+000	-1.043155e+000	-1.110106e+002
7867819938	-1.412580e+000	-1.315936e+002	-1.402359e+001	-2.339487e+001	-1.925435e+001	-8.088612e+000	-1.040423e+000	-1.109675e+002
7873132375	-1.402378e+000	-1.315607e+002	-1.406620e+001	-2.328278e+001	-1.925608e+001	-7.840957e+000	-1.036511e+000	-1.109925e+002
7878444813	-1.388421e+000	-1.317199e+002	-1.410873e+001	-2.314306e+001	-1.927172e+001	-7.957481e+000	-1.046994e+000	-1.109014e+002
7883757250	-1.399428e+000	-1.316219e+002	-1.411190e+001	-2.306405e+001	-1.929917e+001	-7.913987e+000	-1.042660e+000	-1.108911e+002
7889069688	-1.382177e+000	-1.316345e+002	-1.416235e+001	-2.308533e+001	-1.930471e+001	-7.948784e+000	-1.037894e+000	-1.108284e+002
7894382125	-1.386716e+000	-1.316321e+002	-1.419262e+001	-2.318883e+001	-1.931630e+001	-7.901572e+000	-1.036456e+000	-1.108327e+002
7899694563	-1.402837e+000	-1.316088e+002	-1.422559e+001	-2.305434e+001	-1.933747e+001	-7.793801e+000	-1.039082e+000	-1.107850e+002
7905007000	-1.389610e+000	-1.317078e+002	-1.420599e+001	-2.309385e+001	-1.935199e+001	-7.670197e+000	-1.037762e+000	-1.107524e+002
7910319438	-1.374232e+000	-1.316578e+002	-1.417018e+001	-2.297021e+001	-1.936900e+001	-7.763655e+000	-1.040464e+000	-1.107053e+002
7915631875	-1.386445e+000	-1.317074e+002	-1.422636e+001	-2.309130e+001	-1.938533e+001	-7.702821e+000	-1.039497e+000	-1.106958e+002
7920944313	-1.390401e+000	-1.317035e+002	-1.423049e+001	-2.293643e+001	-1.939483e+001	-7.761466e+000	-1.040039e+000	-1.106220e+002
7926256750	-1.358990e+000	-1.317460e+002	-1.424060e+001	-2.297599e+001	-1.942097e+001	-7.742470e+000	-1.032659e+000	-1.106060e+002
7931569188	-1.378474e+000	-1.317193e+002	-1.428794e+001	-2.318211e+001	-1.943572e+001	-7.702782e+000	-1.036468e+000	-1.105605e+002
7936881625	-1.380149e+000	-1.316842e+002	-1.430793e+001	-2.299042e+001	-1.944903e+001	-7.722390e+000	-1.034963e+000	-1.105503e+002
7942194063	-1.375801e+000	-1.317072e+002	-1.434678e+001	-2.318254e+001	-1.947189e+001	-7.570158e+000	-1.033660e+000	-1.105294e+002
7947506500	-1.371090e+000	-1.317529e+002	-1.441078e+001	-2.319511e+001	-1.948375e+001	-7.602625e+000	-1.026425e+000	-1.104515e+002
7952818938	-1.362785e+000	-1.317784e+002	-1.437914e+001	-2.310145e+001	-1.949276e+001	-7.539715e+000	-1.035027e+000	-1.104146e+002
7958131375	-1.375485e+000	-1.317534e+002	-1.437489e+001	-2.281593e+001	-1.951263e+001	-7.477580e+000	-1.025631e+000	-1.104135e+002
7963443813	-1.356185e+000	-1.318096e+002	-1.442997e+001	-2.293213e+001	-1.953062e+001	-7.473554e+000	-1.030680e+000	-1.103672e+002
7968756250	-1.354662e+000	-1.318114e+002	-1.446946e+001	-2.290192e+001	-1.955207e+001	-7.360610e+000	-1.031208e+000	-1.103465e+002
7974068688	-1.360556e+000	-1.317952e+002	-1.448610e+001	-2.280344e+001	-1.953991e+001	-7.458324e+000	-1.023397e+000	-1.103146e+002
7979381125	-1.359180e+000	-1.318854e+002	-1.447690e+001	-2.327373e+001	-1.956632e+001	-7.257508e+000	-1.029244e+000	-1.102275e+002
7984693563	-1.351541e+000	-1.317344e+002	-1.452816e+001	-2.320168e+001	-1.958359e+001	-7.450311e+000	-1.022012e+000	-1.102179e+002
7990006000	-1.361831e+000	-1.318314e+002	-1.452426e+001	-2.291267e+001	-1.959041e+001	-7.253476e+000	-1.025121e+000	-1.101900e+002
7995318438	-1.356581e+000	-1.318930e+002	-1.454702e+001	-2.262905e+001	-1.961151e+001	-7.212536e+000	-1.025864e+000	-1.101040e+002
8000630875	-1.340560e+000	-1.319932e+002	-1.459669e+001	-2.280831e+001	-1.961896e+001	-7.205327e+000	-1.021527e+000	-1.100797e+002
8005943313	-1.344596e+000	-1.319517e+002	-1.457511e+001	-2.306664e+001	-1.964445e+001	-7.164764e+000	-1.023032e+000	-1.100853e+002
8011255750	-1.334845e+000	-1.319436e+002	-1.458557e+001	-2.295622e+001	-1.966850e+001	-7.086679e+000	-1.020956e+000	-1.100338e+002
8016568188	-1.322974e+000	-1.318089e+002	-1.464903e+001	-2.276482e+001	-1.967947e+001	-7.159730e+000	-1.023892e+000	-1.100074e+002
8021880625	-1.331113e+000	-1.318546e+002	-1.462689e+001	-2.267509e+001	-1.968803e+001	-6.996146e+000	-1.013682e+000	-1.099515e+002
8027193063	-1.330772e+000	-1.319483e+002	-1.471883e+001	-2.251156e+001	-1.969980e+001	-7.005483e+000	-1.025310e+000	-1.098755e+002
8032505500	-1.319493e+000	-1.318455e+002	-1.469580e+001	-2.258377e+001	-1.972937e+001	-7.047267e+000	-1.016418e+000	-1.098871e+002
8037817938	-1.323269e+000	-1.319884e+002	-1.474154e+001	-2.264499e+001	-1.972838e+001	-6.810180e+000	-1.014777e+000	-1.098020e+002
8043130375	-1.330472e+000	-1.319038e+002	-1.471216e+001	-2.245358e+001	-1.975844e+001	-6.913866e+000	-1.016702e+000	-1.098153e+002
8048442813	-1.323372e+000	-1.320070e+002	-1.473642e+001	-2.274834e+001	-1.974985e+001	-6.763823e+000	-1.021339e+000	-1.097155e+002
8053755250	-1.318293e+000	-1.319543e+002	-1.478961e+001	-2.244947e+001	-1.979155e+001	-6.541233e+000	-1.016454e+000	-1.097484e+002
8059067688	-1.318356e+000	-1.318980e+002	-1.483615e+001	-2.264976e+001	-1.980822e+001	-6.749196e+000	-1.016321e+000	-1.096628e+002
8064380125	-1.327402e+000	-1.319512e+002	-1.478452e+001	-2.261123e+001	-1.980907e+001	-6.793885e+000	-1.014508e+000	-1.096542e+002
8069692563	-1.330057e+000	-1.319502e+002	-1.481965e+001	-2.232989e+001	-1.982622e+001	-6.582773e+000	-1.012876e+000	-1.096229e+002
8075005000	-1.310862e+000	-1.319357e+002	-1.482911e+001	-2.187404e+001	-1.982813e+001	-6.519721e+000	-1.016604e+000	-1.095660e+002
8080317438	-1.324043e+000	-1.318582e+002	-1.489744e+001	-2.227099e+001	-1.984818e+001	-6.567028e+000	-1.024201e+000	-1.095221e+002
8085629875	-1.300488e+000	-1.319051e+002	-1.481037e+001	-2.256754e+001	-1.985933e+001	-6.453104e+000	-1.019640e+000	-1.094792e+002
8090942313	-1.307918e+000	-1.319451e+002	-1.493160e+001	-2.212545e+001	-1.989006e+001	-6.542554e+000	-1.013371e+000	-1.094781e+002
8096254750	-1.319247e+000	-1.318871e+002	-1.493569e+001	-2.182338e+001	-1.989402e+001	-6.442105e+000	-1.021261e+000	-1.094309e+002
8101567188	-1.313214e+000	-1.319272e+002	-1.495809e+001	-2.228260e+001	-1.990677e+001	-6.365182e+000	-1.015688e+000	-1.094135e+002
8106879625	-1.315076e+000	-1.318499e+002	-1.494149e+001	-2.225807e+001	-1.993081e+001	-6.283892e+000	-1.019194e+000	-1.093705e+002
8112192063	-1.301642e+000	-1.319478e+002	-1.494594e+001	-2.205769e+001	-1.994862e+001	-6.315305e+000	-1.021213e+000	-1.093554e+002
8117504500	-1.298478e+000	-1.319562e+002	-1.502380e+001	-2.204747e+001	-1.998182e+001	-6.172112e+000	-1.017798e+000	-1.093088e+002
8122816938	-1.290264e+000	-1.319865e+002	-1.505399e+001	-2.212021e+001	-1.998018e+001	-6.063880e+000	-1.018847e+000	-1.092535e+002
8128129375	-1.295074e+000	-1.318794e+002	-1.502824e+001	-2.214244e+001	-1.998349e+001	-6.177094e+000	-1.016057e+000	-1.092460e+002
8133441813	-1.290614e+000	-1.319925e+002	-1.506061e+001	-2.195650e+001	-2.001130e+001	-5.949428e+000	-1.017984e+000	-1.091674e+002
8138754250	-1.291036e+000	-1.319840e+002	-1.510675e+001	-2.181481e+001	-2.003162e+001	-5.979372e+000	-1.013136e+000	-1.091599e+002
8144066688	-1.291259e+000	-1.319228e+002	-1.511367e+001	-2.228955e+001	-2.002355e+001	-6.076150e+000	-1.015696e+000	-1.091678e+002
8149379125	-1.300499e+000	-1.319464e+002	-1.513069e+001	-2.194809e+001	-2.006262e+001	-5.764049e+000	-1.016154e+000	-1.091082e+002
8154691563	-1.282788e+000	-1.320051e+002	-1.511163e+001	-2.169096e+001	-2.006558e+001	-5.626426e+000	-1.012449e+000	-1.090864e+002
8160004000	-1.282845e+000	-1.319040e+002	-1.516778e+001	-2.178851e+001	-2.008794e+001	-5.662337e+000	-1.013555e+000	-1.090702e+002
8165316438	-1.280044e+000	-1.319890e+002	-1.515479e+001	-2.212677e+001	-2.013230e+001	-5.604736e+000	-1.014282e+000	-1.090223e+002
8170628875	-1.268386e+000	-1.319563e+002	-1.521718e+001	-2.206621e+001	-2.013145e+001	-5.503127e+000	-1.014302e+000	-1.089890e+002
8175941313	-1.285662e+000	-1.319333e+002	-1.519674e+001	-2.194560e+001	-2.013236e+001	-5.573377e+000	-1.009918e+000	-1.089718e+002
8181253750	-1.270531e+000	-1.319159e+002	-1.526179e+001	-2.190099e+001	-2.013353e+001	-5.606824e+000	-1.011019e+000	-1.089313e+002
8186566188	-1.267859e+000	-1.320880e+002	-1.529968e+001	-2.167868e+001	-2.017862e+001	-5.469459e+000	-1.009248e+000	-1.088785e+002
8191878625	-1.276880e+000	-1.320082e+002	-1.534057e+001	-2.153727e+001	-2.015995e+001	-5.329642e+000	-1.011901e+000	-1.088614e+002
8197191063	-1.271154e+000	-1.320764e+002	-1.532487e+001	-2.193908e+001	-2.019254e+001	-5.462754e+000	-1.004735e+000	-1.088371e+002
8202503500	-1.264591e+000	-1.319967e+002	-1.534453e+001	-2.155252e+001	-2.020054e+001	-5.274151e+000	-1.010546e+000	-1.087834e+002
8207815938	-1.277088e+000	-1.319873e+002	-1.538187e+001	-2.137388e+001	-2.023851e+001	-5.090715e+000	-1.005099e+000	-1.087812e+002
8213128375	-1.259501e+000	-1.319753e+002	-1.537902e+001	-2.163186e+001	-2.023881e+001	-5.093349e+000	-1.012904e+000	-1.087451e+002
8218440813	-1.285484e+000	-1.319652e+002	-1.537073e+001	-2.141133e+001	-2.027278e+001	-5.147828e+000	-1.004179e+000	-1.086851e+002
8223753250	-1.258071e+000	-1.320565e+002	-1.545952e+001	-2.166966e+001	-2.027510e+001	-4.931315e+000	-1.005199e+000	-1.086502e+002
8229065688	-1.270384e+000	-1.320017e+002	-1.537860e+001	-2.133317e+001	-2.026941e+001	-4.945365e+000	-1.011731e+000	-1.086218e+002
8234378125	-1.257570e+000	-1.320287e+002	-1.547485e+001	-2.125898e+001	-2.030311e+001	-4.942331e+000	-1.011724e+000	-1.085858e+002
8239690563	-1.274807e+000	-1.319595e+002	-1.549147e+001	-2.151484e+001	-2.030066e+001	-4.802312e+000	-1.005499e+000	-1.085270e+002
8245003000	-1.265341e+000	-1.319697e+002	-1.548690e+001	-2.121330e+001	-2.032512e+001	-4.710011e+000	-1.009435e+000	-1.085069e+002
8250315438	-1.257300e+000	-1.319363e+002	-1.551509e+001	-2.147583e+001	-2.035163e+001	-4.584395e+000	-1.009387e+000	-1.085040e+002
8255627875	-1.272049e+000	-1.320150e+002	-1.560502e+001	-2.122829e+001	-2.036189e+001	-4.480856e+000	-1.002118e+000	-1.084390e+002
8260940313	-1.262395e+000	-1.319897e+002	-1.556519e+001	-2.142225e+001	-2.039439e+001	-4.406212e+000	-1.010213e+000	-1.083799e+002
8266252750	-1.261806e+000	-1.319777e+002	-1.566144e+001	-2.110601e+001	-2.041901e+001	-4.448201e+000	-1.009985e+000	-1.083804e+002
8271565188	-1.250308e+000	-1.319987e+002	-1.558524e+001	-2.130322e+001	-2.044842e+001	-4.369293e+000	-1.007319e+000	-1.083389e+002
8276877625	-1.258699e+000	-1.319771e+002	-1.567111e+001	-2.071630e+001	-2.043080e+001	-4.322247e+000	-1.009593e+000	-1.082876e+002
8282190063	-1.257640e+000	-1.319574e+002	-1.568386e+001	-2.122661e+001	-2.046803e+001	-4.185261e+000	-1.007460e+000	-1.082598e+002
8287502500	-1.248186e+000	-1.319987e+002	-1.567988e+001	-2.109857e+001	-2.048552e+001	-4.261632e+000	-1.004587e+000	-1.082131e+002
8292814938	-1.261371e+000	-1.320178e+002	-1.570456e+001	-2.141951e+001	-2.049209e+001	-4.110786e+000	-1.002505e+000	-1.081928e+002
8298127375	-1.244753e+000	-1.320813e+002	-1.570257e+001	-2.096540e+001	-2.049402e+001	-3.989504e+000	-1.003806e+000	-1.081384e+002
8303439813	-1.257210e+000	-1.319532e+002	-1.570875e+001	-2.051029e+001	-2.053921e+001	-3.778521e+000	-1.001593e+000	-1.080806e+002
8308752250	-1.239610e+000	-1.320527e+002	-1.574771e+001	-2.088025e+001	-2.056270e+001	-3.793550e+000	-1.005782e+000	-1.080993e+002
8314064688	-1.266038e+000	-1.321173e+002	-1.575908e+001	-2.060196e+001	-2.057384e+001	-3.764748e+000	-1.006929e+000	-1.080890e+002
8319377125	-1.235145e+000	-1.320542e+002	-1.578021e+001	-2.068011e+001	-2.058966e+001	-3.517136e+000	-9.983596e-001	-1.080095e+002
8324689563	-1.247306e+000	-1.321157e+002	-1.590162e+001	-2.121008e+001	-2.060702e+001	-3.472718e+000	-1.003065e+000	-1.079602e+002
8330002000	-1.242128e+000	-1.320791e+002	-1.585033e+001	-2.085397e+001	-2.064471e+001	-3.599947e+000	-1.000288e+000	-1.079584e+002
8335314438	-1.237053e+000	-1.321149e+002	-1.589271e+001	-2.077626e+001	-2.064294e+001	-3.343482e+000	-1.003861e+000	-1.079024e+002
8340626875	-1.247505e+000	-1.321265e+002	-1.584569e+001	-2.065785e+001	-2.065497e+001	-3.354659e+000	-1.002847e+000	-1.078742e+002
8345939313	-1.233545e+000	-1.321055e+002	-1.581321e+001	-2.106685e+001	-2.066033e+001	-3.312091e+000	-9.977337e-001	-1.078200e+002
8351251750	-1.230053e+000	-1.321979e+002	-1.596088e+001	-1.996370e+001	-2.067587e+001	-3.056118e+000	-1.004304e+000	-1.077680e+002
8356564188	-1.237452e+000	-1.321722e+002	-1.591563e+001	-2.045467e+001	-2.070256e+001	-2.972266e+000	-1.001175e+000	-1.077362e+002
8361876625	-1.252337e+000	-1.321091e+002	-1.595106e+001	-2.036887e+001	-2.071807e+001	-2.912915e+000	-9.996808e-001	-1.077370e+002
8367189063	-1.253762e+000	-1.322412e+002	-1.603510e+001	-2.056653e+001	-2.073223e+001	-3.012061e+000	-1.002423e+000	-1.076929e+002
8372501500	-1.246544e+000	-1.321330e+002	-1.598523e+001	-2.022748e+001	-2.075371e+001	-2.763519e+000	-9.981609e-001	-1.077027e+002
8377813938	-1.247531e+000	-1.321683e+002	-1.604369e+001	-2.023885e+001	-2.074566e+001	-2.587227e+000	-9.967941e-001	-1.076156e+002
8383126375	-1.241452e+000	-1.322754e+002	-1.605610e+001	-2.023833e+001	-2.076121e+001	-2.621352e+000	-9.978380e-001	-1.075757e+002
8388438813	-1.256338e+000	-1.322206e+002	-1.606661e+001	-1.999415e+001	-2.080703e+001	-2.394213e+000	-9.985099e-001	-1.075065e+002
8393751250	-1.245102e+000	-1.322336e+002	-1.607023e+001	-2.018020e+001	-2.082069e+001	-2.507858e+000	-1.000402e+000	-1.074943e+002
8399063688	-1.238549e+000	-1.322505e+002	-1.611680e+001	-1.992870e+001	-2.083993e+001	-2.202950e+000	-1.000984e+000	-1.074700e+002
8404376125	-1.243679e+000	-1.321487e+002	-1.617596e+001	-2.006505e+001	-2.087825e+001	-2.130968e+000	-1.003546e+000	-1.074273e+002
8409688563	-1.244276e+000	-1.322592e+002	-1.619776e+001	-2.003227e+001	-2.089850e+001	-2.099234e+000	-9.968460e-001	-1.073721e+002
8415001000	-1.240168e+000	-1.322561e+002	-1.627577e+001	-2.005098e+001	-2.092210e+001	-1.957715e+000	-1.001361e+000	-1.073487e+002
8420313438	-1.238797e+000	-1.322178e+002	-1.626104e+001	-2.013794e+001	-2.094479e+001	-1.949039e+000	-1.000401e+000	-1.073050e+002
8425625875	-1.233354e+000	-1.322878e+002	-1.628259e+001	-1.988040e+001	-2.097968e+001	-1.846150e+000	-9.990361e-001	-1.072849e+002
8430938313	-1.243795e+000	-1.322890e+002	-1.628782e+001	-2.029916e+001	-2.097671e+001	-1.470315e+000	-1.000566e+000	-1.072256e+002
8436250750	-1.243233e+000	-1.322256e+002	-1.626032e+001	-1.999073e+001	-2.100587e+001	-1.422749e+000	-1.003571e+000	-1.071691e+002
8441563188	-1.245278e+000	-1.323459e+002	-1.635320e+001	-1.959375e+001	-2.103042e+001	-1.307397e+000	-9.997618e-001	-1.071892e+002
8446875625	-1.241487e+000	-1.322270e+002	-1.633987e+001	-1.967773e+001	-2.104175e+001	-1.138351e+000	-9.989554e-001	-1.071086e+002
8452188063	-1.233902e+000	-1.322711e+002	-1.629127e+001	-1.961976e+001	-2.109162e+001	-8.578762e-001	-9.996637e-001	-1.070490e+002
8457500500	-1.257020e+000	-1.322859e+002	-1.645544e+001	-1.926176e+001	-2.107513e+001	-9.333570e-001	-9.992985e-001	-1.070411e+002
8462812938	-1.254374e+000	-1.322107e+002	-1.643987e+001	-1.934873e+001	-2.113714e+001	-8.399909e-001	-1.001097e+000	-1.070140e+002
8468125375	-1.226271e+000	-1.324066e+002	-1.647376e+001	-1.939957e+001	-2.116922e+001	-4.176254e-001	-9.996920e-001	-1.069848e+002
8473437813	-1.227032e+000	-1.322926e+002	-1.648846e+001	-1.858103e+001	-2.114500e+001	-7.336827e-001	-9.997947e-001	-1.069251e+002
8478750250	-1.248208e+000	-1.323344e+002	-1.655242e+001	-1.868774e+001	-2.119409e+001	-3.968780e-001	-9.992776e-001	-1.069399e+002
8484062688	-1.244657e+000	-1.325126e+002	-1.657750e+001	-1.914259e+001	-2.120225e+001	-2.520575e-001	-1.000788e+000	-1.068830e+002
8489375125	-1.248615e+000	-1.324712e+002	-1.655506e+001	-1.891073e+001	-2.119739e+001	-7.992920e-002	-9.979116e-001	-1.068275e+002
8494687563	-1.243311e+000	-1.325073e+002	-1.655164e+001	-1.884163e+001	-2.124278e+001	-2.074749e-002	-9.989118e-001	-1.067842e+002
8500000000	-1.241706e+000	-1.322641e+002	-1.671175e+001	-1.899291e+001	-2.127455e+001	2.606046e-001	-1.000545e+000	-1.067438e+002


!Noise Parameters
!Freq  NFmin(dB)  Mag(GammaOpt)  Ang(GammaOpt)(deg)  rn(normalized by ref. impedance)
 700000000         0.63651      0.55341      24.587       0.23145     
 720000000         0.6206       0.56308      25.98        0.22702     
 740000000         0.60437      0.57344      27.258       0.22224     
 760000000         0.5969       0.58724      27.617       0.22344     
 780000000         0.59067      0.57847      28.137       0.20554     
 800000000         0.60475      0.56318      28.285       0.20915     
 820000000         0.61849      0.54911      28.461       0.21291     
 840000000         0.62081      0.54876      29.517       0.21307     
 860000000         0.6173       0.55798      31.054       0.2093      
 880000000         0.63047      0.5561       31.795       0.2058      
 900000000         0.64344      0.55519      32.49        0.20206     
 920000000         0.63538      0.55047      33.773       0.2003      
 940000000         0.64256      0.54455      33.839       0.21256     
 960000000         0.64471      0.53666      33.948       0.21629     
 980000000         0.64507      0.52867      34.082       0.2171      

