!Agilent Technologies,E5071C,MY46316587,B.13.01
!Date: Tue Nov 28 12:49:23 2017
!Data & Calibration Information:
!Freq	S11:SOLT2(ON)	S21:SOLT2(ON)	S12:SOLT2(ON)	S22:SOLT2(ON)
!PortZ  Port1:50+j0    Port2:50+j0
!Above PortZ is port z conversion or system Z0 setting when saving the data.
!When reading, reference impedance value at option line is always used.
# Hz S RI R 50
300000	8.603195e-001	2.228391e-002	2.628258e-003	-3.207461e-004	-7.304032e-004	2.474332e-004	9.946963e-001	5.091784e-004
6549813	8.884457e-001	6.062700e-004	-6.230438e-003	-2.426774e-002	-2.150099e-004	4.058825e-004	9.884195e-001	-1.975862e-002
12799625	9.379053e-001	-4.217540e-003	-9.624103e-003	-2.310674e-002	-5.278434e-005	-4.490598e-005	9.789988e-001	-3.310763e-002
19049438	9.091619e-001	-3.975975e-002	-1.460461e-002	6.116737e-003	-6.009070e-005	4.297209e-005	9.709742e-001	-4.122390e-002
25299250	9.460707e-001	-1.406295e-002	-3.224109e-002	-4.961965e-002	1.593426e-004	6.645851e-005	9.648955e-001	-4.655091e-002
31549063	9.438543e-001	-1.770548e-002	-6.177116e-002	-4.790885e-002	-3.673943e-006	1.150326e-005	9.597198e-001	-5.130200e-002
37798875	9.427347e-001	-2.138344e-002	-7.972585e-002	-3.303109e-002	1.004946e-004	2.563057e-004	9.559875e-001	-5.611584e-002
44048688	9.412860e-001	-2.514595e-002	-8.696555e-002	-1.677196e-002	-1.050960e-005	1.107019e-004	9.531700e-001	-6.038068e-002
50298500	9.410287e-001	-2.889246e-002	-8.840582e-002	-1.699210e-003	-8.320800e-005	1.261911e-004	9.503338e-001	-6.564652e-002
56548313	9.404159e-001	-3.330223e-002	-8.576108e-002	9.412904e-003	-2.610973e-004	1.132568e-004	9.478524e-001	-7.061096e-002
62798125	9.396796e-001	-3.734954e-002	-8.111073e-002	1.893944e-002	-3.602513e-004	5.476053e-004	9.457729e-001	-7.534136e-002
69047938	9.394100e-001	-4.160370e-002	-7.463175e-002	2.585034e-002	-2.618324e-004	5.411442e-004	9.431041e-001	-7.983192e-002
75297750	9.392814e-001	-4.542100e-002	-6.803659e-002	3.088824e-002	-1.513164e-004	5.891511e-004	9.409692e-001	-8.454198e-002
81547563	9.391173e-001	-4.995920e-002	-6.165863e-002	3.455903e-002	-1.682716e-004	3.753262e-004	9.381745e-001	-8.899954e-002
87797375	9.389419e-001	-5.342059e-002	-5.519820e-002	3.646838e-002	-2.051237e-004	6.321129e-004	9.362881e-001	-9.360620e-002
94047188	9.385734e-001	-5.735511e-002	-4.905675e-002	3.705004e-002	-1.750163e-004	4.350337e-004	9.343533e-001	-9.760752e-002
100297000	9.377250e-001	-6.220800e-002	-4.332983e-002	3.696025e-002	-3.772263e-004	6.730506e-004	9.320259e-001	-1.021699e-001
106546813	9.383773e-001	-6.563231e-002	-3.837934e-002	3.599460e-002	-2.753208e-004	6.313484e-004	9.299383e-001	-1.063541e-001
112796625	9.372160e-001	-6.973631e-002	-3.418991e-002	3.469223e-002	-3.855938e-004	6.096165e-004	9.281047e-001	-1.102267e-001
119046438	9.374322e-001	-7.467960e-002	-3.026593e-002	3.313466e-002	-3.001360e-004	7.255894e-004	9.263192e-001	-1.145588e-001
125296250	9.369511e-001	-7.782158e-002	-2.663278e-002	3.123004e-002	-9.519209e-006	8.003964e-004	9.240125e-001	-1.186373e-001
131546063	9.362747e-001	-8.160365e-002	-2.293055e-002	2.907459e-002	-1.430900e-004	1.091932e-003	9.224951e-001	-1.221151e-001
137795875	9.360268e-001	-8.645443e-002	-2.010944e-002	2.642434e-002	-1.070820e-004	8.751030e-004	9.205571e-001	-1.264331e-001
144045688	9.355928e-001	-9.051503e-002	-1.721934e-002	2.378332e-002	-4.557232e-004	1.191991e-003	9.187883e-001	-1.299770e-001
150295500	9.351710e-001	-9.571431e-002	-1.471801e-002	2.114958e-002	-2.999283e-004	8.646483e-004	9.169168e-001	-1.342669e-001
156545313	9.341802e-001	-9.867075e-002	-1.246696e-002	1.833623e-002	-2.917870e-004	1.053164e-003	9.151884e-001	-1.375802e-001
162795125	9.343215e-001	-1.032078e-001	-1.090753e-002	1.569528e-002	-3.797479e-004	8.267002e-004	9.133772e-001	-1.416545e-001
169044938	9.332990e-001	-1.075518e-001	-9.445695e-003	1.322282e-002	-2.582175e-004	1.376353e-003	9.118084e-001	-1.458066e-001
175294750	9.331154e-001	-1.108069e-001	-8.205773e-003	1.038421e-002	-4.693185e-004	1.155145e-003	9.107168e-001	-1.490222e-001
181544563	9.325638e-001	-1.150528e-001	-6.634258e-003	7.973357e-003	-3.538163e-004	1.094998e-003	9.089455e-001	-1.533545e-001
187794375	9.316797e-001	-1.190236e-001	-5.712195e-003	5.496278e-003	-4.258278e-004	1.169091e-003	9.073390e-001	-1.568549e-001
194044188	9.310253e-001	-1.232673e-001	-4.852446e-003	2.847266e-003	-4.567473e-004	1.292944e-003	9.060683e-001	-1.609560e-001
200294000	9.304882e-001	-1.272321e-001	-4.219117e-003	5.374449e-004	-3.647122e-004	1.374440e-003	9.042731e-001	-1.645968e-001
206543813	9.294543e-001	-1.321421e-001	-3.618703e-003	-1.527949e-003	-3.274667e-004	1.402232e-003	9.027263e-001	-1.685218e-001
212793625	9.287448e-001	-1.353931e-001	-3.138792e-003	-3.852520e-003	-4.056846e-004	1.563449e-003	9.010330e-001	-1.719183e-001
219043438	9.283388e-001	-1.387362e-001	-2.783447e-003	-5.926289e-003	-4.871136e-004	1.619280e-003	8.996972e-001	-1.755212e-001
225293250	9.277636e-001	-1.437277e-001	-2.294447e-003	-7.903352e-003	-3.379192e-004	1.726359e-003	8.986483e-001	-1.793658e-001
231543063	9.264997e-001	-1.478837e-001	-1.928108e-003	-9.859971e-003	-4.775378e-004	1.849394e-003	8.968517e-001	-1.833509e-001
237792875	9.265473e-001	-1.503978e-001	-1.799483e-003	-1.183074e-002	-5.921017e-004	1.584176e-003	8.961546e-001	-1.866338e-001
244042688	9.259705e-001	-1.550563e-001	-1.416863e-003	-1.365636e-002	-2.088539e-004	1.885504e-003	8.944015e-001	-1.906909e-001
250292500	9.245325e-001	-1.604348e-001	-1.149333e-003	-1.562815e-002	-6.348760e-004	1.757074e-003	8.924186e-001	-1.944341e-001
256542313	9.236547e-001	-1.636984e-001	-9.153346e-004	-1.745637e-002	-2.417986e-004	1.927595e-003	8.915079e-001	-1.977704e-001
262792125	9.226028e-001	-1.684685e-001	-1.160124e-003	-1.931140e-002	-4.384946e-004	1.866375e-003	8.898030e-001	-2.011611e-001
269041938	9.215519e-001	-1.718336e-001	-8.171886e-004	-2.132901e-002	-5.196097e-004	1.823524e-003	8.885608e-001	-2.057352e-001
275291750	9.202392e-001	-1.764221e-001	-8.760344e-004	-2.294119e-002	-3.860484e-004	1.933721e-003	8.871915e-001	-2.098490e-001
281541563	9.198496e-001	-1.796665e-001	-9.304604e-004	-2.474696e-002	-5.487320e-004	2.024851e-003	8.857910e-001	-2.127773e-001
287791375	9.182337e-001	-1.842458e-001	-9.626848e-004	-2.629846e-002	-5.346493e-004	2.101739e-003	8.845478e-001	-2.171300e-001
294041188	9.177491e-001	-1.871016e-001	-1.032946e-003	-2.809882e-002	-6.424288e-004	2.139422e-003	8.829841e-001	-2.201427e-001
300291000	9.166182e-001	-1.927969e-001	-9.096835e-004	-2.949062e-002	-4.428617e-004	2.378095e-003	8.811856e-001	-2.246168e-001
306540813	9.159280e-001	-1.943754e-001	-6.656853e-004	-3.100873e-002	-4.281072e-004	2.236567e-003	8.802835e-001	-2.275252e-001
312790625	9.144351e-001	-2.006350e-001	-8.196975e-004	-3.290464e-002	-3.914759e-004	2.194554e-003	8.785610e-001	-2.320937e-001
319040438	9.144169e-001	-2.017314e-001	-6.424693e-004	-3.411632e-002	-4.974695e-004	2.218148e-003	8.777400e-001	-2.349667e-001
325290250	9.126782e-001	-2.066227e-001	-7.838801e-004	-3.563678e-002	-7.402545e-004	2.522667e-003	8.759785e-001	-2.391370e-001
331540063	9.115884e-001	-2.105290e-001	-8.308969e-004	-3.700194e-002	-5.753580e-004	2.385561e-003	8.748478e-001	-2.425333e-001
337789875	9.109626e-001	-2.131371e-001	-6.824747e-004	-3.867281e-002	-5.003522e-004	2.719852e-003	8.730202e-001	-2.458636e-001
344039688	9.090734e-001	-2.195467e-001	-9.636520e-004	-4.016046e-002	-3.412701e-004	2.474948e-003	8.713626e-001	-2.503253e-001
350289500	9.085153e-001	-2.213314e-001	-8.951037e-004	-4.171459e-002	-4.395889e-004	2.508250e-003	8.702772e-001	-2.535491e-001
356539313	9.074874e-001	-2.248442e-001	-6.952639e-004	-4.329432e-002	-5.506456e-004	2.526237e-003	8.685271e-001	-2.569494e-001
362789125	9.060253e-001	-2.298236e-001	-7.077696e-004	-4.437871e-002	-5.704412e-004	2.826946e-003	8.666400e-001	-2.615051e-001
369038938	9.047857e-001	-2.338796e-001	-5.079678e-004	-4.603686e-002	-5.471431e-004	2.791198e-003	8.650087e-001	-2.648869e-001
375288750	9.034939e-001	-2.369119e-001	-7.679609e-004	-4.769160e-002	-6.436816e-004	2.706309e-003	8.637068e-001	-2.684520e-001
381538563	9.012369e-001	-2.413803e-001	-1.088413e-003	-4.942510e-002	-6.950610e-004	2.927596e-003	8.618322e-001	-2.724828e-001
387788375	9.001859e-001	-2.457900e-001	-9.474050e-004	-5.121352e-002	-5.844084e-004	2.870587e-003	8.603520e-001	-2.761615e-001
394038188	8.985933e-001	-2.494366e-001	-1.170226e-003	-5.268029e-002	-7.803034e-004	3.109956e-003	8.587910e-001	-2.799542e-001
400288000	8.979072e-001	-2.527623e-001	-1.559143e-003	-5.417001e-002	-6.728003e-004	3.066941e-003	8.571020e-001	-2.834348e-001
406537813	8.962948e-001	-2.562651e-001	-1.504686e-003	-5.558287e-002	-6.245127e-004	2.911794e-003	8.548735e-001	-2.871063e-001
412787625	8.950468e-001	-2.588257e-001	-1.465776e-003	-5.702072e-002	-7.480886e-004	3.218855e-003	8.537819e-001	-2.899449e-001
419037438	8.938225e-001	-2.636506e-001	-1.587194e-003	-5.852459e-002	-6.716579e-004	3.130269e-003	8.520910e-001	-2.947173e-001
425287250	8.927268e-001	-2.664892e-001	-2.043802e-003	-5.990067e-002	-6.216987e-004	3.202119e-003	8.501550e-001	-2.978575e-001
431537063	8.907184e-001	-2.708861e-001	-2.358489e-003	-6.123075e-002	-5.860476e-004	3.312461e-003	8.485043e-001	-3.013749e-001
437786875	8.899035e-001	-2.736628e-001	-2.206739e-003	-6.244539e-002	-6.390756e-004	3.507410e-003	8.471481e-001	-3.049557e-001
444036688	8.883305e-001	-2.781442e-001	-2.272982e-003	-6.408968e-002	-7.532503e-004	3.302529e-003	8.446545e-001	-3.091928e-001
450286500	8.873909e-001	-2.808995e-001	-2.032791e-003	-6.541859e-002	-5.687508e-004	3.474212e-003	8.435769e-001	-3.122541e-001
456536313	8.860845e-001	-2.850135e-001	-2.314939e-003	-6.708173e-002	-8.391229e-004	3.610528e-003	8.416267e-001	-3.158486e-001
462786125	8.844547e-001	-2.884101e-001	-2.552531e-003	-6.815098e-002	-4.738504e-004	3.523541e-003	8.398426e-001	-3.189405e-001
469035938	8.827658e-001	-2.921379e-001	-2.577869e-003	-7.036619e-002	-6.874325e-004	3.614527e-003	8.381073e-001	-3.231348e-001
475285750	8.815995e-001	-2.955836e-001	-2.778979e-003	-7.201203e-002	-5.786660e-004	3.606232e-003	8.367543e-001	-3.262173e-001
481535563	8.800211e-001	-2.991915e-001	-3.191769e-003	-7.355373e-002	-6.431612e-004	3.870662e-003	8.341048e-001	-3.299802e-001
487785375	8.784566e-001	-3.027560e-001	-3.620690e-003	-7.525452e-002	-5.765265e-004	3.803167e-003	8.327960e-001	-3.335740e-001
494035188	8.757266e-001	-3.064466e-001	-3.720886e-003	-7.705642e-002	-7.110969e-004	4.075519e-003	8.308243e-001	-3.369208e-001
500285000	8.746637e-001	-3.098429e-001	-4.148747e-003	-7.843670e-002	-7.062810e-004	4.127368e-003	8.286338e-001	-3.404944e-001
506534813	8.733082e-001	-3.133976e-001	-4.369845e-003	-7.993436e-002	-5.177548e-004	4.080829e-003	8.269382e-001	-3.437824e-001
512784625	8.719370e-001	-3.169979e-001	-4.486309e-003	-8.167758e-002	-7.676040e-004	4.039401e-003	8.247764e-001	-3.473724e-001
519034438	8.698718e-001	-3.202184e-001	-4.902182e-003	-8.290146e-002	-8.157316e-004	4.037414e-003	8.232923e-001	-3.507592e-001
525284250	8.684733e-001	-3.239830e-001	-5.382175e-003	-8.470897e-002	-8.026335e-004	4.175024e-003	8.210499e-001	-3.545136e-001
531534063	8.671409e-001	-3.273520e-001	-5.382863e-003	-8.598502e-002	-7.939316e-004	4.320303e-003	8.194962e-001	-3.581110e-001
537783875	8.653723e-001	-3.313228e-001	-6.162269e-003	-8.740246e-002	-8.236551e-004	4.245696e-003	8.175836e-001	-3.617393e-001
544033688	8.635883e-001	-3.337745e-001	-6.266850e-003	-8.900692e-002	-6.893958e-004	4.238602e-003	8.159046e-001	-3.642892e-001
550283500	8.623183e-001	-3.377736e-001	-6.579971e-003	-9.061005e-002	-7.113459e-004	4.474901e-003	8.133664e-001	-3.682625e-001
556533313	8.605207e-001	-3.408228e-001	-6.896402e-003	-9.201246e-002	-7.108044e-004	4.614477e-003	8.114852e-001	-3.719249e-001
562783125	8.590849e-001	-3.447901e-001	-7.296769e-003	-9.359538e-002	-6.577196e-004	4.650109e-003	8.100229e-001	-3.749701e-001
569032938	8.570252e-001	-3.478435e-001	-7.700076e-003	-9.540517e-002	-5.448971e-004	4.455769e-003	8.081637e-001	-3.784941e-001
575282750	8.550129e-001	-3.517816e-001	-8.197071e-003	-9.714412e-002	-8.346570e-004	4.810610e-003	8.054322e-001	-3.815399e-001
581532563	8.532000e-001	-3.550402e-001	-8.844900e-003	-9.881148e-002	-7.332414e-004	4.899086e-003	8.031659e-001	-3.854976e-001
587782375	8.507984e-001	-3.585658e-001	-9.643766e-003	-1.006939e-001	-7.914727e-004	4.672003e-003	8.011951e-001	-3.885902e-001
594032188	8.494673e-001	-3.617439e-001	-1.028416e-002	-1.022557e-001	-8.024888e-004	4.944270e-003	7.993184e-001	-3.918777e-001
600282000	8.472262e-001	-3.649297e-001	-1.101594e-002	-1.037437e-001	-8.411783e-004	4.919545e-003	7.970480e-001	-3.950996e-001
606531813	8.456439e-001	-3.678852e-001	-1.160238e-002	-1.051080e-001	-7.525647e-004	4.831240e-003	7.947052e-001	-3.985526e-001
612781625	8.440225e-001	-3.709823e-001	-1.217813e-002	-1.068268e-001	-8.475478e-004	5.020194e-003	7.929671e-001	-4.018283e-001
619031438	8.420922e-001	-3.750785e-001	-1.300148e-002	-1.081178e-001	-8.370434e-004	4.981299e-003	7.909591e-001	-4.048968e-001
625281250	8.401463e-001	-3.778508e-001	-1.340463e-002	-1.096246e-001	-6.232683e-004	5.309138e-003	7.885018e-001	-4.082483e-001
631531063	8.382406e-001	-3.816455e-001	-1.423754e-002	-1.111479e-001	-7.731126e-004	5.077954e-003	7.863747e-001	-4.116453e-001
637780875	8.363907e-001	-3.844314e-001	-1.481290e-002	-1.125788e-001	-8.526605e-004	5.232662e-003	7.839718e-001	-4.149256e-001
644030688	8.344866e-001	-3.876640e-001	-1.543922e-002	-1.139413e-001	-7.828658e-004	5.529831e-003	7.820389e-001	-4.181095e-001
650280500	8.325968e-001	-3.907559e-001	-1.618740e-002	-1.154434e-001	-8.124762e-004	5.465392e-003	7.797590e-001	-4.215016e-001
656530313	8.306029e-001	-3.939061e-001	-1.683765e-002	-1.168443e-001	-5.847105e-004	5.319893e-003	7.773026e-001	-4.250950e-001
662780125	8.286722e-001	-3.973091e-001	-1.759480e-002	-1.182787e-001	-8.477096e-004	5.678741e-003	7.751777e-001	-4.277765e-001
669029938	8.270554e-001	-4.002691e-001	-1.830131e-002	-1.199667e-001	-7.255309e-004	5.750588e-003	7.734433e-001	-4.312195e-001
675279750	8.248440e-001	-4.035334e-001	-1.916012e-002	-1.214440e-001	-9.100820e-004	5.732199e-003	7.707377e-001	-4.342395e-001
681529563	8.225656e-001	-4.072991e-001	-2.003463e-002	-1.230918e-001	-7.734100e-004	5.718314e-003	7.686816e-001	-4.378376e-001
687779375	8.207616e-001	-4.102933e-001	-2.124033e-002	-1.246104e-001	-7.075298e-004	5.840534e-003	7.667781e-001	-4.413867e-001
694029188	8.184333e-001	-4.132932e-001	-2.206407e-002	-1.264695e-001	-8.379627e-004	5.955913e-003	7.641611e-001	-4.444440e-001
700279000	8.173329e-001	-4.162934e-001	-2.277480e-002	-1.278192e-001	-8.684536e-004	5.732829e-003	7.615921e-001	-4.477615e-001
706528813	8.151581e-001	-4.206579e-001	-2.358848e-002	-1.294114e-001	-9.552980e-004	5.994424e-003	7.597527e-001	-4.505902e-001
712778625	8.120372e-001	-4.239870e-001	-2.521445e-002	-1.310258e-001	-8.291957e-004	6.074628e-003	7.569951e-001	-4.532326e-001
719028438	8.089478e-001	-4.261701e-001	-2.670379e-002	-1.320542e-001	-8.503900e-004	6.205854e-003	7.549496e-001	-4.563074e-001
725278250	8.067033e-001	-4.282255e-001	-2.773653e-002	-1.322898e-001	-9.073500e-004	6.441031e-003	7.529165e-001	-4.595168e-001
731528063	8.050671e-001	-4.302521e-001	-2.801572e-002	-1.330261e-001	-1.020840e-003	6.272191e-003	7.501515e-001	-4.627169e-001
737777875	8.043093e-001	-4.338349e-001	-2.838096e-002	-1.346016e-001	-6.830785e-004	6.380371e-003	7.477316e-001	-4.652163e-001
744027688	8.021028e-001	-4.363028e-001	-2.906207e-002	-1.357938e-001	-6.522090e-004	6.556992e-003	7.454143e-001	-4.683067e-001
750277500	8.003553e-001	-4.393540e-001	-2.967823e-002	-1.370725e-001	-7.515377e-004	6.496232e-003	7.430497e-001	-4.717405e-001
756527313	7.981790e-001	-4.425913e-001	-3.062047e-002	-1.381948e-001	-7.596751e-004	6.583951e-003	7.407150e-001	-4.742846e-001
762777125	7.960235e-001	-4.457774e-001	-3.147574e-002	-1.395750e-001	-7.620734e-004	6.468414e-003	7.382108e-001	-4.777116e-001
769026938	7.941938e-001	-4.486080e-001	-3.213447e-002	-1.407972e-001	-8.439993e-004	6.487793e-003	7.352320e-001	-4.807318e-001
775276750	7.922440e-001	-4.520893e-001	-3.338943e-002	-1.424683e-001	-8.052660e-004	6.603277e-003	7.328350e-001	-4.835247e-001
781526563	7.902741e-001	-4.546730e-001	-3.432649e-002	-1.439567e-001	-8.010121e-004	6.776876e-003	7.299756e-001	-4.862989e-001
787776375	7.890144e-001	-4.586680e-001	-3.492359e-002	-1.451021e-001	-5.934448e-004	6.839772e-003	7.276212e-001	-4.895435e-001
794026188	7.858339e-001	-4.629556e-001	-3.637407e-002	-1.469121e-001	-7.073761e-004	6.772796e-003	7.251480e-001	-4.924670e-001
800276000	7.831528e-001	-4.661147e-001	-3.795137e-002	-1.484633e-001	-7.565532e-004	6.905372e-003	7.224897e-001	-4.951168e-001
806525813	7.798382e-001	-4.690747e-001	-3.950058e-002	-1.496206e-001	-8.838278e-004	7.232365e-003	7.199614e-001	-4.979755e-001
812775625	7.774482e-001	-4.709511e-001	-4.088952e-002	-1.505879e-001	-6.493657e-004	7.023144e-003	7.172447e-001	-5.012428e-001
819025438	7.750277e-001	-4.739543e-001	-4.219454e-002	-1.509861e-001	-5.701962e-004	7.205215e-003	7.147781e-001	-5.040143e-001
825275250	7.726548e-001	-4.766513e-001	-4.390106e-002	-1.518732e-001	-6.462789e-004	7.262939e-003	7.123259e-001	-5.067930e-001
831525063	7.701351e-001	-4.790199e-001	-4.486521e-002	-1.517433e-001	-7.871578e-004	7.392190e-003	7.095221e-001	-5.096557e-001
837774875	7.680505e-001	-4.813565e-001	-4.571836e-002	-1.519650e-001	-7.836356e-004	7.392507e-003	7.073111e-001	-5.123685e-001
844024688	7.666664e-001	-4.837300e-001	-4.566548e-002	-1.525723e-001	-8.105959e-004	7.741603e-003	7.053817e-001	-5.155690e-001
850274500	7.651294e-001	-4.861120e-001	-4.618483e-002	-1.536857e-001	-5.224953e-004	7.574546e-003	7.024825e-001	-5.181558e-001
856524313	7.628517e-001	-4.887622e-001	-4.659186e-002	-1.548878e-001	-8.215461e-004	7.651107e-003	7.001544e-001	-5.211387e-001
862774125	7.605943e-001	-4.922824e-001	-4.791633e-002	-1.562791e-001	-6.541144e-004	7.532855e-003	6.973897e-001	-5.244377e-001
869023938	7.584628e-001	-4.946548e-001	-4.834288e-002	-1.575893e-001	-7.252088e-004	7.680459e-003	6.948913e-001	-5.269415e-001
875273750	7.557631e-001	-4.979713e-001	-4.964967e-002	-1.587998e-001	-9.077264e-004	7.758886e-003	6.924304e-001	-5.295131e-001
881523563	7.529673e-001	-5.009449e-001	-5.106825e-002	-1.597841e-001	-6.796093e-004	7.901942e-003	6.898572e-001	-5.319486e-001
887773375	7.506799e-001	-5.036778e-001	-5.232593e-002	-1.608563e-001	-7.597623e-004	7.832308e-003	6.867750e-001	-5.341232e-001
894023188	7.481440e-001	-5.064448e-001	-5.363326e-002	-1.618602e-001	-6.828176e-004	7.995261e-003	6.843922e-001	-5.370488e-001
900273000	7.455339e-001	-5.092085e-001	-5.480064e-002	-1.626276e-001	-6.932078e-004	8.135803e-003	6.816666e-001	-5.396791e-001
906522813	7.433847e-001	-5.117874e-001	-5.616338e-002	-1.636605e-001	-6.961255e-004	8.148603e-003	6.790515e-001	-5.426113e-001
912772625	7.405015e-001	-5.139566e-001	-5.732697e-002	-1.642905e-001	-5.808557e-004	8.101178e-003	6.763674e-001	-5.451292e-001
919022438	7.382548e-001	-5.167964e-001	-5.866656e-002	-1.647101e-001	-7.039128e-004	8.446742e-003	6.729803e-001	-5.476764e-001
925272250	7.356300e-001	-5.197409e-001	-5.971699e-002	-1.653168e-001	-5.254597e-004	8.322374e-003	6.709734e-001	-5.505562e-001
931522063	7.331479e-001	-5.222910e-001	-6.078612e-002	-1.656584e-001	-6.278233e-004	8.428104e-003	6.679290e-001	-5.530835e-001
937771875	7.309661e-001	-5.247383e-001	-6.177040e-002	-1.662324e-001	-5.225280e-004	8.422832e-003	6.648736e-001	-5.559749e-001
944021688	7.287554e-001	-5.266437e-001	-6.261726e-002	-1.667081e-001	-4.537031e-004	8.672122e-003	6.623584e-001	-5.582006e-001
950271500	7.260041e-001	-5.297623e-001	-6.316361e-002	-1.669454e-001	-6.232296e-004	8.825414e-003	6.593548e-001	-5.604361e-001
956521313	7.240667e-001	-5.330160e-001	-6.393393e-002	-1.672342e-001	-5.404825e-004	8.823810e-003	6.564973e-001	-5.632286e-001
962771125	7.218658e-001	-5.353757e-001	-6.459780e-002	-1.681678e-001	-4.987854e-004	8.698499e-003	6.536554e-001	-5.656642e-001
969020938	7.176486e-001	-5.379113e-001	-6.572041e-002	-1.688227e-001	-6.809143e-004	8.814462e-003	6.506311e-001	-5.681687e-001
975270750	7.152259e-001	-5.408308e-001	-6.638755e-002	-1.696163e-001	-5.231837e-004	8.912648e-003	6.480374e-001	-5.701120e-001
981520563	7.127835e-001	-5.429844e-001	-6.788027e-002	-1.703544e-001	-7.199106e-004	9.028142e-003	6.450418e-001	-5.729521e-001
987770375	7.088865e-001	-5.454990e-001	-6.883632e-002	-1.707548e-001	-6.042342e-004	9.340516e-003	6.427185e-001	-5.748607e-001
994020188	7.062477e-001	-5.471426e-001	-7.002123e-002	-1.715131e-001	-6.948724e-004	9.074006e-003	6.397929e-001	-5.778250e-001
1000270000	7.039378e-001	-5.485496e-001	-7.064702e-002	-1.719592e-001	-4.751422e-004	9.301856e-003	6.371752e-001	-5.796335e-001
1006519813	7.013687e-001	-5.504727e-001	-7.163603e-002	-1.723389e-001	-4.434952e-004	9.299514e-003	6.343793e-001	-5.828782e-001
1012769625	7.001470e-001	-5.536859e-001	-7.247247e-002	-1.728920e-001	-5.302614e-004	9.404300e-003	6.322134e-001	-5.852496e-001
1019019438	6.973064e-001	-5.555751e-001	-7.337244e-002	-1.734693e-001	-3.348861e-004	9.508454e-003	6.292152e-001	-5.878758e-001
1025269250	6.953012e-001	-5.581537e-001	-7.412969e-002	-1.737824e-001	-4.184173e-004	9.606107e-003	6.262586e-001	-5.902400e-001
1031519063	6.925992e-001	-5.613122e-001	-7.525495e-002	-1.740899e-001	-4.991145e-004	9.686616e-003	6.236751e-001	-5.924580e-001
1037768875	6.906471e-001	-5.630872e-001	-7.581528e-002	-1.742015e-001	-3.604654e-004	9.482441e-003	6.209767e-001	-5.950881e-001
1044018688	6.886486e-001	-5.656228e-001	-7.657981e-002	-1.751668e-001	-5.068845e-004	9.702980e-003	6.173484e-001	-5.977882e-001
1050268500	6.854224e-001	-5.679514e-001	-7.686603e-002	-1.750299e-001	-3.613319e-004	9.662995e-003	6.146093e-001	-5.995100e-001
1056518313	6.829659e-001	-5.700126e-001	-7.736761e-002	-1.751925e-001	-3.983136e-004	9.729550e-003	6.116236e-001	-6.013874e-001
1062768125	6.808946e-001	-5.731574e-001	-7.822419e-002	-1.757553e-001	-3.598723e-004	1.004955e-002	6.088800e-001	-6.037734e-001
1069017938	6.769367e-001	-5.762724e-001	-7.873041e-002	-1.760600e-001	-3.932271e-004	1.004614e-002	6.062649e-001	-6.058018e-001
1075267750	6.742438e-001	-5.788301e-001	-7.958983e-002	-1.765001e-001	-5.080487e-004	9.915738e-003	6.030998e-001	-6.081236e-001
1081517563	6.704370e-001	-5.805455e-001	-8.045742e-002	-1.767399e-001	-6.053620e-004	1.007522e-002	5.992448e-001	-6.100418e-001
1087767375	6.672415e-001	-5.822060e-001	-8.082971e-002	-1.766548e-001	-4.107403e-004	1.038810e-002	5.965271e-001	-6.119248e-001
1094017188	6.642962e-001	-5.835718e-001	-8.131306e-002	-1.768259e-001	-3.530478e-004	1.035024e-002	5.944873e-001	-6.138726e-001
1100267000	6.615535e-001	-5.855556e-001	-8.127074e-002	-1.772778e-001	-3.830594e-004	1.050296e-002	5.910855e-001	-6.163221e-001
1106516813	6.595747e-001	-5.870011e-001	-8.169185e-002	-1.780106e-001	-2.382341e-004	1.049468e-002	5.883544e-001	-6.186859e-001
1112766625	6.574742e-001	-5.890781e-001	-8.180287e-002	-1.786214e-001	1.114945e-004	1.053077e-002	5.851875e-001	-6.202451e-001
1119016438	6.543750e-001	-5.910940e-001	-8.221589e-002	-1.788355e-001	-2.068737e-004	1.055035e-002	5.823395e-001	-6.228771e-001
1125266250	6.524992e-001	-5.930052e-001	-8.236572e-002	-1.795242e-001	-2.996232e-004	1.067080e-002	5.790555e-001	-6.244071e-001
1131516063	6.499674e-001	-5.957223e-001	-8.302865e-002	-1.799074e-001	-6.567263e-006	1.080713e-002	5.763306e-001	-6.273168e-001
1137765875	6.472662e-001	-5.971775e-001	-8.305760e-002	-1.802731e-001	-1.348625e-004	1.082362e-002	5.724754e-001	-6.291658e-001
1144015688	6.450783e-001	-5.994799e-001	-8.355147e-002	-1.806452e-001	-2.449375e-005	1.074808e-002	5.701305e-001	-6.314092e-001
1150265500	6.414191e-001	-6.016858e-001	-8.386516e-002	-1.803771e-001	3.236609e-006	1.115393e-002	5.682994e-001	-6.331555e-001
1156515313	6.398726e-001	-6.031163e-001	-8.315876e-002	-1.800738e-001	-1.116830e-004	1.093360e-002	5.650975e-001	-6.349342e-001
1162765125	6.375582e-001	-6.057823e-001	-8.247514e-002	-1.811502e-001	-2.219774e-004	1.097824e-002	5.620966e-001	-6.379384e-001
1169014938	6.337797e-001	-6.085306e-001	-8.318291e-002	-1.829400e-001	-2.033947e-004	1.124065e-002	5.593964e-001	-6.400039e-001
1175264750	6.308807e-001	-6.102483e-001	-8.388749e-002	-1.834799e-001	-2.051711e-005	1.127194e-002	5.565034e-001	-6.424443e-001
1181514563	6.275278e-001	-6.119574e-001	-8.482969e-002	-1.840356e-001	1.475680e-004	1.125672e-002	5.530213e-001	-6.444897e-001
1187764375	6.244361e-001	-6.132161e-001	-8.504591e-002	-1.838469e-001	1.043391e-004	1.131328e-002	5.510182e-001	-6.466143e-001
1194014188	6.218967e-001	-6.146536e-001	-8.501285e-002	-1.840781e-001	3.796136e-005	1.138540e-002	5.473606e-001	-6.475596e-001
1200264000	6.199565e-001	-6.151673e-001	-8.475297e-002	-1.846818e-001	3.150371e-004	1.152863e-002	5.443528e-001	-6.503382e-001
1206513813	6.171562e-001	-6.169994e-001	-8.463908e-002	-1.850797e-001	-1.490587e-005	1.164159e-002	5.414248e-001	-6.514911e-001
1212763625	6.154684e-001	-6.192805e-001	-8.416622e-002	-1.862862e-001	2.036111e-004	1.156963e-002	5.384528e-001	-6.541948e-001
1219013438	6.127668e-001	-6.211631e-001	-8.407708e-002	-1.867757e-001	1.177184e-004	1.153767e-002	5.360738e-001	-6.561077e-001
1225263250	6.099265e-001	-6.228738e-001	-8.396526e-002	-1.876545e-001	1.442737e-004	1.144781e-002	5.323705e-001	-6.574214e-001
1231513063	6.076928e-001	-6.253941e-001	-8.400868e-002	-1.885066e-001	2.980781e-004	1.170899e-002	5.294257e-001	-6.584410e-001
1237762875	6.049387e-001	-6.271360e-001	-8.392802e-002	-1.893887e-001	1.798254e-004	1.178803e-002	5.261046e-001	-6.609193e-001
1244012688	6.020717e-001	-6.287564e-001	-8.378070e-002	-1.897038e-001	1.998716e-004	1.206238e-002	5.228576e-001	-6.629333e-001
1250262500	5.998368e-001	-6.308196e-001	-8.344315e-002	-1.902969e-001	1.703914e-004	1.196139e-002	5.198868e-001	-6.641594e-001
1256512313	5.968497e-001	-6.329110e-001	-8.277906e-002	-1.911101e-001	3.399223e-004	1.198115e-002	5.165105e-001	-6.656042e-001
1262762125	5.934445e-001	-6.337995e-001	-8.192657e-002	-1.918807e-001	1.731097e-004	1.216288e-002	5.140862e-001	-6.673265e-001
1269011938	5.917203e-001	-6.352754e-001	-8.064538e-002	-1.926739e-001	2.883376e-004	1.193199e-002	5.097490e-001	-6.688813e-001
1275261750	5.889723e-001	-6.373300e-001	-7.972785e-002	-1.950405e-001	4.697617e-004	1.235408e-002	5.070661e-001	-6.706205e-001
1281511563	5.870349e-001	-6.402790e-001	-7.975325e-002	-1.974362e-001	3.477694e-004	1.238850e-002	5.039377e-001	-6.723280e-001
1287761375	5.843987e-001	-6.423873e-001	-8.073638e-002	-2.002797e-001	6.031989e-004	1.237609e-002	5.003043e-001	-6.736422e-001
1294011188	5.811048e-001	-6.444049e-001	-8.175457e-002	-2.015703e-001	5.970849e-004	1.233315e-002	4.966700e-001	-6.760684e-001
1300261000	5.772051e-001	-6.461445e-001	-8.273890e-002	-2.021511e-001	6.717583e-004	1.250927e-002	4.934399e-001	-6.779299e-001
1306510813	5.736330e-001	-6.474916e-001	-8.380721e-002	-2.033931e-001	3.491879e-004	1.267418e-002	4.911612e-001	-6.801077e-001
1312760625	5.711656e-001	-6.493369e-001	-8.423446e-002	-2.044351e-001	4.973869e-004	1.263689e-002	4.872914e-001	-6.817453e-001
1319010438	5.676534e-001	-6.495595e-001	-8.408393e-002	-2.047244e-001	5.117667e-004	1.274465e-002	4.850710e-001	-6.831436e-001
1325260250	5.644918e-001	-6.510705e-001	-8.401122e-002	-2.053912e-001	3.982546e-004	1.285262e-002	4.827733e-001	-6.852933e-001
1331510063	5.614838e-001	-6.521274e-001	-8.424503e-002	-2.058460e-001	4.055074e-004	1.270033e-002	4.797941e-001	-6.882111e-001
1337759875	5.591999e-001	-6.512917e-001	-8.320227e-002	-2.063188e-001	5.442024e-004	1.301973e-002	4.772101e-001	-6.894798e-001
1344009688	5.570743e-001	-6.530911e-001	-8.239424e-002	-2.075386e-001	6.443431e-004	1.289460e-002	4.740096e-001	-6.919794e-001
1350259500	5.551151e-001	-6.545415e-001	-8.147201e-002	-2.090892e-001	6.892796e-004	1.302131e-002	4.713622e-001	-6.935689e-001
1356509313	5.531173e-001	-6.563237e-001	-8.134348e-002	-2.113509e-001	8.295578e-004	1.309389e-002	4.682865e-001	-6.944932e-001
1362759125	5.513057e-001	-6.590504e-001	-8.126547e-002	-2.130011e-001	5.434852e-004	1.319127e-002	4.646642e-001	-6.962938e-001
1369008938	5.489402e-001	-6.603876e-001	-8.076412e-002	-2.145092e-001	9.281135e-004	1.344985e-002	4.621350e-001	-6.975897e-001
1375258750	5.460129e-001	-6.623104e-001	-8.100286e-002	-2.160298e-001	8.101387e-004	1.342552e-002	4.587963e-001	-6.987088e-001
1381508563	5.431781e-001	-6.635777e-001	-8.084405e-002	-2.176816e-001	8.597238e-004	1.328166e-002	4.557864e-001	-7.005048e-001
1387758375	5.397625e-001	-6.652069e-001	-8.104979e-002	-2.193093e-001	7.815284e-004	1.340442e-002	4.522514e-001	-7.015621e-001
1394008188	5.377756e-001	-6.661650e-001	-8.101365e-002	-2.212330e-001	1.036018e-003	1.333268e-002	4.490460e-001	-7.027420e-001
1400258000	5.346347e-001	-6.678693e-001	-8.100274e-002	-2.227530e-001	8.237805e-004	1.376439e-002	4.465510e-001	-7.037304e-001
1406507813	5.321812e-001	-6.692014e-001	-8.100126e-002	-2.247916e-001	8.216110e-004	1.360552e-002	4.426292e-001	-7.052014e-001
1412757625	5.289096e-001	-6.709300e-001	-8.112724e-002	-2.263439e-001	7.480914e-004	1.361440e-002	4.390266e-001	-7.065518e-001
1419007438	5.252565e-001	-6.728235e-001	-8.174705e-002	-2.282751e-001	7.369362e-004	1.361541e-002	4.354612e-001	-7.072478e-001
1425257250	5.225708e-001	-6.744928e-001	-8.214451e-002	-2.299493e-001	8.958031e-004	1.412374e-002	4.330613e-001	-7.085894e-001
1431507063	5.196365e-001	-6.756157e-001	-8.216893e-002	-2.312631e-001	9.122911e-004	1.386142e-002	4.294432e-001	-7.094305e-001
1437756875	5.158601e-001	-6.764344e-001	-8.265924e-002	-2.328230e-001	8.764505e-004	1.372071e-002	4.266410e-001	-7.112521e-001
1444006688	5.122855e-001	-6.772376e-001	-8.242496e-002	-2.336287e-001	1.050301e-003	1.399285e-002	4.226438e-001	-7.127178e-001
1450256500	5.093781e-001	-6.784707e-001	-8.258403e-002	-2.351468e-001	9.396232e-004	1.400461e-002	4.187352e-001	-7.137621e-001
1456506313	5.066480e-001	-6.787459e-001	-8.169759e-002	-2.365471e-001	9.731777e-004	1.402847e-002	4.159499e-001	-7.145551e-001
1462756125	5.047520e-001	-6.792832e-001	-8.073962e-002	-2.380325e-001	1.076264e-003	1.420965e-002	4.123267e-001	-7.164688e-001
1469005938	5.025457e-001	-6.792371e-001	-7.964458e-002	-2.402916e-001	1.209535e-003	1.442776e-002	4.097112e-001	-7.171617e-001
1475255750	5.015090e-001	-6.810808e-001	-7.944989e-002	-2.436035e-001	1.019036e-003	1.438888e-002	4.058318e-001	-7.187854e-001
1481505563	4.989190e-001	-6.835861e-001	-8.027003e-002	-2.458321e-001	1.326319e-003	1.436245e-002	4.030821e-001	-7.196391e-001
1487755375	4.949767e-001	-6.853465e-001	-8.153458e-002	-2.481809e-001	1.186982e-003	1.432479e-002	4.002790e-001	-7.212858e-001
1494005188	4.917257e-001	-6.856830e-001	-8.176843e-002	-2.495967e-001	1.210763e-003	1.445671e-002	3.977199e-001	-7.227173e-001
1500255000	4.878132e-001	-6.860115e-001	-8.216840e-002	-2.506523e-001	1.294406e-003	1.464101e-002	3.950355e-001	-7.250525e-001
1506504813	4.853079e-001	-6.859398e-001	-8.180114e-002	-2.519902e-001	1.146310e-003	1.477449e-002	3.919158e-001	-7.270786e-001
1512754625	4.832828e-001	-6.853764e-001	-8.100402e-002	-2.540334e-001	1.349160e-003	1.489132e-002	3.886048e-001	-7.286598e-001
1519004438	4.822608e-001	-6.862144e-001	-8.034724e-002	-2.566865e-001	1.586375e-003	1.472869e-002	3.862640e-001	-7.297169e-001
1525254250	4.797544e-001	-6.872556e-001	-8.051585e-002	-2.591800e-001	1.327493e-003	1.510047e-002	3.833330e-001	-7.312536e-001
1531504063	4.774046e-001	-6.885536e-001	-8.067952e-002	-2.616323e-001	1.382453e-003	1.499380e-002	3.794211e-001	-7.321833e-001
1537753875	4.757308e-001	-6.887642e-001	-8.016485e-002	-2.638942e-001	1.784175e-003	1.524133e-002	3.768361e-001	-7.334096e-001
1544003688	4.748888e-001	-6.888401e-001	-7.907208e-002	-2.666455e-001	1.687741e-003	1.528619e-002	3.734568e-001	-7.337662e-001
1550253500	4.732601e-001	-6.907288e-001	-7.896446e-002	-2.694702e-001	1.958877e-003	1.524882e-002	3.706186e-001	-7.351488e-001
1556503313	4.720137e-001	-6.927767e-001	-7.929937e-002	-2.734857e-001	1.594612e-003	1.523103e-002	3.669621e-001	-7.351877e-001
1562753125	4.697646e-001	-6.954122e-001	-7.976289e-002	-2.768379e-001	1.715137e-003	1.539955e-002	3.632190e-001	-7.358090e-001
1569002938	4.667055e-001	-6.973854e-001	-8.029704e-002	-2.798914e-001	1.871217e-003	1.532997e-002	3.603841e-001	-7.372989e-001
1575252750	4.636315e-001	-7.000572e-001	-8.148517e-002	-2.826699e-001	1.707140e-003	1.522690e-002	3.571611e-001	-7.385058e-001
1581502563	4.607821e-001	-7.012558e-001	-8.219509e-002	-2.852649e-001	1.948505e-003	1.561964e-002	3.538637e-001	-7.394791e-001
1587752375	4.579765e-001	-7.029063e-001	-8.292381e-002	-2.882650e-001	1.934783e-003	1.547501e-002	3.501936e-001	-7.398495e-001
1594002188	4.555038e-001	-7.043407e-001	-8.400644e-002	-2.906241e-001	1.884424e-003	1.523778e-002	3.469542e-001	-7.408173e-001
1600252000	4.516916e-001	-7.048535e-001	-8.447615e-002	-2.924293e-001	1.816657e-003	1.549225e-002	3.439878e-001	-7.417535e-001
1606501813	4.484744e-001	-7.065195e-001	-8.560316e-002	-2.952217e-001	1.860976e-003	1.553202e-002	3.410474e-001	-7.426028e-001
1612751625	4.461226e-001	-7.065660e-001	-8.583277e-002	-2.982899e-001	1.912035e-003	1.548276e-002	3.364425e-001	-7.427409e-001
1619001438	4.432357e-001	-7.078362e-001	-8.671831e-002	-3.006229e-001	2.094407e-003	1.563308e-002	3.327802e-001	-7.438217e-001
1625251250	4.405407e-001	-7.088763e-001	-8.714665e-002	-3.032909e-001	1.854755e-003	1.592975e-002	3.304371e-001	-7.440824e-001
1631501063	4.374514e-001	-7.098775e-001	-8.828157e-002	-3.060326e-001	2.149283e-003	1.581597e-002	3.269336e-001	-7.455282e-001
1637750875	4.340894e-001	-7.104503e-001	-8.911558e-002	-3.086956e-001	2.220417e-003	1.583245e-002	3.238645e-001	-7.471595e-001
1644000688	4.310166e-001	-7.120642e-001	-9.048062e-002	-3.114174e-001	2.264739e-003	1.599738e-002	3.207586e-001	-7.481875e-001
1650250500	4.290382e-001	-7.122478e-001	-9.064292e-002	-3.141103e-001	2.457236e-003	1.583337e-002	3.184303e-001	-7.490054e-001
1656500313	4.256969e-001	-7.130544e-001	-9.155056e-002	-3.169936e-001	2.217421e-003	1.590872e-002	3.151202e-001	-7.504852e-001
1662750125	4.231232e-001	-7.141075e-001	-9.227273e-002	-3.195888e-001	2.442138e-003	1.618767e-002	3.121268e-001	-7.525775e-001
1668999938	4.205627e-001	-7.141696e-001	-9.270810e-002	-3.223617e-001	2.299764e-003	1.633192e-002	3.096056e-001	-7.535260e-001
1675249750	4.175266e-001	-7.144765e-001	-9.305976e-002	-3.248885e-001	2.411448e-003	1.618952e-002	3.068748e-001	-7.542818e-001
1681499563	4.152487e-001	-7.162473e-001	-9.419478e-002	-3.289542e-001	2.434969e-003	1.622415e-002	3.037265e-001	-7.552027e-001
1687749375	4.120155e-001	-7.164245e-001	-9.542512e-002	-3.314664e-001	2.354782e-003	1.634136e-002	2.996869e-001	-7.559727e-001
1693999188	4.101927e-001	-7.173934e-001	-9.637707e-002	-3.346288e-001	2.549091e-003	1.615197e-002	2.972139e-001	-7.566194e-001
1700249000	4.060429e-001	-7.176297e-001	-9.770254e-002	-3.374796e-001	2.631375e-003	1.663929e-002	2.938612e-001	-7.573389e-001
1706498813	4.048611e-001	-7.188187e-001	-9.849131e-002	-3.410057e-001	2.467217e-003	1.633201e-002	2.907130e-001	-7.573083e-001
1712748625	4.016795e-001	-7.198092e-001	-9.982409e-002	-3.438220e-001	2.637424e-003	1.662591e-002	2.870271e-001	-7.588083e-001
1718998438	3.993718e-001	-7.209168e-001	-1.011213e-001	-3.473949e-001	2.480971e-003	1.655536e-002	2.842451e-001	-7.589265e-001
1725248250	3.968611e-001	-7.216599e-001	-1.024871e-001	-3.503298e-001	2.513192e-003	1.666953e-002	2.806656e-001	-7.583675e-001
1731498063	3.935674e-001	-7.221151e-001	-1.036701e-001	-3.530398e-001	2.525722e-003	1.675576e-002	2.779648e-001	-7.594805e-001
1737747875	3.909317e-001	-7.228015e-001	-1.050468e-001	-3.561993e-001	2.742313e-003	1.692663e-002	2.743258e-001	-7.593664e-001
1743997688	3.881084e-001	-7.227922e-001	-1.061752e-001	-3.585774e-001	2.714476e-003	1.696402e-002	2.708942e-001	-7.600398e-001
1750247500	3.845563e-001	-7.238213e-001	-1.076407e-001	-3.613571e-001	2.832849e-003	1.704717e-002	2.676692e-001	-7.608267e-001
1756497313	3.829420e-001	-7.246079e-001	-1.087558e-001	-3.653312e-001	2.786544e-003	1.698646e-002	2.643995e-001	-7.608664e-001
1762747125	3.794874e-001	-7.252067e-001	-1.104998e-001	-3.681618e-001	2.866299e-003	1.699285e-002	2.601702e-001	-7.618549e-001
1768996938	3.772621e-001	-7.254747e-001	-1.115943e-001	-3.710802e-001	2.449238e-003	1.704807e-002	2.572179e-001	-7.615722e-001
1775246750	3.749576e-001	-7.255675e-001	-1.124864e-001	-3.740455e-001	3.032820e-003	1.731104e-002	2.538103e-001	-7.622454e-001
1781496563	3.726817e-001	-7.267268e-001	-1.138266e-001	-3.774157e-001	3.094330e-003	1.721579e-002	2.500731e-001	-7.625693e-001
1787746375	3.696778e-001	-7.272333e-001	-1.155621e-001	-3.806378e-001	2.926913e-003	1.702111e-002	2.462850e-001	-7.633343e-001
1793996188	3.667406e-001	-7.276881e-001	-1.173135e-001	-3.833524e-001	2.954867e-003	1.731374e-002	2.436450e-001	-7.636247e-001
1800246000	3.643638e-001	-7.281964e-001	-1.188186e-001	-3.866687e-001	3.059768e-003	1.749194e-002	2.400008e-001	-7.651260e-001
1806495813	3.621845e-001	-7.287101e-001	-1.200610e-001	-3.901432e-001	2.935875e-003	1.730852e-002	2.370090e-001	-7.652760e-001
1812745625	3.594904e-001	-7.291825e-001	-1.220154e-001	-3.932912e-001	3.066122e-003	1.746477e-002	2.346364e-001	-7.672135e-001
1818995438	3.565994e-001	-7.292639e-001	-1.240095e-001	-3.963026e-001	3.022907e-003	1.757802e-002	2.320036e-001	-7.685286e-001
1825245250	3.542470e-001	-7.303238e-001	-1.255849e-001	-4.001545e-001	3.297230e-003	1.777140e-002	2.288695e-001	-7.710442e-001
1831495063	3.514445e-001	-7.300799e-001	-1.274695e-001	-4.029668e-001	3.174622e-003	1.772215e-002	2.267725e-001	-7.718845e-001
1837744875	3.490733e-001	-7.312902e-001	-1.293898e-001	-4.069710e-001	3.321813e-003	1.790712e-002	2.228989e-001	-7.719902e-001
1843994688	3.471109e-001	-7.314965e-001	-1.310563e-001	-4.106647e-001	3.204119e-003	1.794282e-002	2.200648e-001	-7.718131e-001
1850244500	3.435958e-001	-7.324388e-001	-1.334741e-001	-4.139619e-001	3.116371e-003	1.805710e-002	2.169904e-001	-7.729802e-001
1856494313	3.419114e-001	-7.319290e-001	-1.350261e-001	-4.175211e-001	3.405632e-003	1.800005e-002	2.137674e-001	-7.725676e-001
1862744125	3.387656e-001	-7.326092e-001	-1.379004e-001	-4.205518e-001	3.380257e-003	1.812385e-002	2.106320e-001	-7.724387e-001
1868993938	3.358724e-001	-7.327296e-001	-1.399457e-001	-4.236320e-001	3.270763e-003	1.794772e-002	2.080700e-001	-7.730194e-001
1875243750	3.333910e-001	-7.330852e-001	-1.425927e-001	-4.269665e-001	3.536629e-003	1.830231e-002	2.045399e-001	-7.731062e-001
1881493563	3.312336e-001	-7.334647e-001	-1.438089e-001	-4.301314e-001	3.589719e-003	1.840331e-002	2.019933e-001	-7.723464e-001
1887743375	3.278336e-001	-7.339710e-001	-1.463444e-001	-4.331807e-001	3.224488e-003	1.835078e-002	1.982125e-001	-7.729745e-001
1893993188	3.252072e-001	-7.342867e-001	-1.486677e-001	-4.365907e-001	3.443992e-003	1.820639e-002	1.944796e-001	-7.731452e-001
1900243000	3.234394e-001	-7.349539e-001	-1.506263e-001	-4.399892e-001	3.722787e-003	1.848495e-002	1.910983e-001	-7.718608e-001
1906492813	3.216537e-001	-7.348469e-001	-1.515066e-001	-4.430619e-001	3.516595e-003	1.827194e-002	1.884750e-001	-7.727702e-001
1912742625	3.179560e-001	-7.348550e-001	-1.548007e-001	-4.459387e-001	3.651389e-003	1.857138e-002	1.846807e-001	-7.723563e-001
1918992438	3.162036e-001	-7.357742e-001	-1.561078e-001	-4.495940e-001	3.656227e-003	1.869014e-002	1.820732e-001	-7.719052e-001
1925242250	3.146645e-001	-7.358353e-001	-1.579476e-001	-4.536276e-001	3.745098e-003	1.850360e-002	1.777384e-001	-7.724290e-001
1931492063	3.106203e-001	-7.352797e-001	-1.608554e-001	-4.561314e-001	3.896148e-003	1.831831e-002	1.751785e-001	-7.722104e-001
1937741875	3.088519e-001	-7.359755e-001	-1.631712e-001	-4.602979e-001	3.934237e-003	1.859545e-002	1.713848e-001	-7.717987e-001
1943991688	3.064449e-001	-7.363772e-001	-1.660814e-001	-4.638482e-001	3.938391e-003	1.888642e-002	1.682076e-001	-7.721209e-001
1950241500	3.038972e-001	-7.372159e-001	-1.686981e-001	-4.672122e-001	4.049833e-003	1.874877e-002	1.652685e-001	-7.724436e-001
1956491313	3.019554e-001	-7.363520e-001	-1.708240e-001	-4.705837e-001	4.089841e-003	1.900757e-002	1.612085e-001	-7.735163e-001
1962741125	3.000130e-001	-7.370294e-001	-1.732408e-001	-4.741723e-001	3.842741e-003	1.888161e-002	1.580296e-001	-7.738478e-001
1968990938	2.979625e-001	-7.372652e-001	-1.756314e-001	-4.776819e-001	4.378902e-003	1.885969e-002	1.536496e-001	-7.739319e-001
1975240750	2.962887e-001	-7.387372e-001	-1.780204e-001	-4.819743e-001	4.415676e-003	1.892470e-002	1.503521e-001	-7.753557e-001
1981490563	2.935438e-001	-7.389437e-001	-1.812727e-001	-4.859624e-001	4.419593e-003	1.932054e-002	1.473725e-001	-7.776506e-001
1987740375	2.905015e-001	-7.398738e-001	-1.847035e-001	-4.901697e-001	4.322349e-003	1.925491e-002	1.452881e-001	-7.791288e-001
1993990188	2.889455e-001	-7.408859e-001	-1.873038e-001	-4.948703e-001	4.608835e-003	1.934290e-002	1.422984e-001	-7.802060e-001
2000240000	2.861786e-001	-7.410294e-001	-1.909545e-001	-4.981636e-001	4.375915e-003	1.956791e-002	1.405814e-001	-7.807760e-001
2006489813	2.838610e-001	-7.418139e-001	-1.939859e-001	-5.028745e-001	4.389809e-003	1.925683e-002	1.371966e-001	-7.804600e-001
2012739625	2.812811e-001	-7.418404e-001	-1.974715e-001	-5.059551e-001	4.434875e-003	1.964412e-002	1.345148e-001	-7.797978e-001
2018989438	2.779335e-001	-7.418865e-001	-2.010899e-001	-5.084942e-001	4.335069e-003	1.959586e-002	1.320678e-001	-7.797721e-001
2025239250	2.760208e-001	-7.418751e-001	-2.042420e-001	-5.120111e-001	4.551129e-003	1.975303e-002	1.291499e-001	-7.799470e-001
2031489063	2.730816e-001	-7.421247e-001	-2.071751e-001	-5.155487e-001	4.657076e-003	1.947562e-002	1.261603e-001	-7.797507e-001
2037738875	2.714306e-001	-7.427715e-001	-2.111055e-001	-5.189948e-001	4.584773e-003	1.982465e-002	1.237841e-001	-7.794705e-001
2043988688	2.683606e-001	-7.425413e-001	-2.140338e-001	-5.218865e-001	4.388325e-003	1.984745e-002	1.202421e-001	-7.782935e-001
2050238500	2.666608e-001	-7.428302e-001	-2.171456e-001	-5.255372e-001	4.347448e-003	1.974225e-002	1.173557e-001	-7.777837e-001
2056488313	2.631879e-001	-7.428719e-001	-2.210234e-001	-5.285130e-001	4.657743e-003	1.964404e-002	1.143022e-001	-7.779600e-001
2062738125	2.623423e-001	-7.433152e-001	-2.238030e-001	-5.328384e-001	4.537374e-003	1.979896e-002	1.112167e-001	-7.768496e-001
2068987938	2.594719e-001	-7.435869e-001	-2.272875e-001	-5.362452e-001	4.606353e-003	1.991436e-002	1.079054e-001	-7.767337e-001
2075237750	2.568906e-001	-7.437913e-001	-2.303375e-001	-5.400174e-001	4.835945e-003	2.006595e-002	1.050162e-001	-7.764043e-001
2081487563	2.549228e-001	-7.440646e-001	-2.332841e-001	-5.441648e-001	4.740811e-003	1.999938e-002	1.015806e-001	-7.762686e-001
2087737375	2.510627e-001	-7.453633e-001	-2.386345e-001	-5.481698e-001	5.020135e-003	2.005176e-002	9.851346e-002	-7.762322e-001
2093987188	2.488142e-001	-7.457919e-001	-2.419051e-001	-5.523725e-001	4.973470e-003	1.984852e-002	9.509818e-002	-7.753083e-001
2100237000	2.464809e-001	-7.456296e-001	-2.457262e-001	-5.553606e-001	4.794771e-003	1.988571e-002	9.188767e-002	-7.749346e-001
2106486813	2.443859e-001	-7.461325e-001	-2.498925e-001	-5.596101e-001	5.121958e-003	2.027866e-002	8.850931e-002	-7.737518e-001
2112736625	2.410116e-001	-7.450154e-001	-2.544916e-001	-5.619642e-001	4.914803e-003	1.997056e-002	8.551108e-002	-7.739995e-001
2118986438	2.380517e-001	-7.462109e-001	-2.590860e-001	-5.653698e-001	5.239887e-003	2.005253e-002	8.167251e-002	-7.748088e-001
2125236250	2.354752e-001	-7.467880e-001	-2.633368e-001	-5.701956e-001	4.963610e-003	2.032655e-002	7.848607e-002	-7.738696e-001
2131486063	2.324126e-001	-7.462995e-001	-2.680016e-001	-5.723307e-001	5.222537e-003	2.037189e-002	7.446489e-002	-7.745846e-001
2137735875	2.300441e-001	-7.470825e-001	-2.726156e-001	-5.762742e-001	5.241116e-003	2.064055e-002	7.083635e-002	-7.736894e-001
2143985688	2.279047e-001	-7.461992e-001	-2.761192e-001	-5.791764e-001	5.376717e-003	2.050073e-002	6.785847e-002	-7.739582e-001
2150235500	2.247974e-001	-7.467879e-001	-2.816712e-001	-5.832489e-001	5.724907e-003	2.032253e-002	6.343283e-002	-7.744282e-001
2156485313	2.230965e-001	-7.464624e-001	-2.850207e-001	-5.864496e-001	5.678516e-003	2.045623e-002	6.117571e-002	-7.760429e-001
2162735125	2.199030e-001	-7.462000e-001	-2.899114e-001	-5.888529e-001	5.322943e-003	2.083315e-002	5.721598e-002	-7.776954e-001
2168984938	2.181219e-001	-7.463962e-001	-2.940175e-001	-5.926727e-001	5.466879e-003	2.089863e-002	5.612986e-002	-7.792910e-001
2175234750	2.157581e-001	-7.461426e-001	-2.981926e-001	-5.955849e-001	5.403387e-003	2.091137e-002	5.355538e-002	-7.788775e-001
2181484563	2.139103e-001	-7.462975e-001	-3.021587e-001	-5.990715e-001	5.582403e-003	2.083428e-002	5.065548e-002	-7.782555e-001
2187734375	2.107447e-001	-7.463004e-001	-3.074522e-001	-6.017131e-001	5.538717e-003	2.095645e-002	4.775790e-002	-7.781840e-001
2193984188	2.081359e-001	-7.463306e-001	-3.112380e-001	-6.048222e-001	5.561599e-003	2.081794e-002	4.513081e-002	-7.767650e-001
2200234000	2.061736e-001	-7.463114e-001	-3.158295e-001	-6.083642e-001	5.702372e-003	2.097094e-002	4.250320e-002	-7.764212e-001
2206483813	2.035382e-001	-7.462822e-001	-3.204735e-001	-6.114644e-001	5.637295e-003	2.056870e-002	3.994190e-002	-7.769519e-001
2212733625	2.020890e-001	-7.471174e-001	-3.245257e-001	-6.151682e-001	5.763888e-003	2.094968e-002	3.721122e-002	-7.758367e-001
2218983438	1.985984e-001	-7.462408e-001	-3.295192e-001	-6.173764e-001	5.488896e-003	2.086193e-002	3.407318e-002	-7.745075e-001
2225233250	1.965782e-001	-7.465496e-001	-3.340187e-001	-6.217805e-001	5.729005e-003	2.131019e-002	3.119049e-002	-7.748034e-001
2231483063	1.941971e-001	-7.466677e-001	-3.393398e-001	-6.247437e-001	5.703594e-003	2.130232e-002	2.828804e-002	-7.738041e-001
2237732875	1.913674e-001	-7.474896e-001	-3.444862e-001	-6.290530e-001	5.846915e-003	2.124741e-002	2.548845e-002	-7.725225e-001
2243982688	1.893079e-001	-7.460299e-001	-3.485875e-001	-6.302263e-001	5.646429e-003	2.131716e-002	2.193976e-002	-7.726761e-001
2250232500	1.863369e-001	-7.465581e-001	-3.555151e-001	-6.343223e-001	6.000443e-003	2.142639e-002	1.894893e-002	-7.712245e-001
2256482313	1.841292e-001	-7.459768e-001	-3.602519e-001	-6.386596e-001	6.049580e-003	2.135316e-002	1.533033e-002	-7.710301e-001
2262732125	1.814701e-001	-7.460264e-001	-3.658724e-001	-6.406952e-001	6.074607e-003	2.160032e-002	1.277726e-002	-7.704566e-001
2268981938	1.793914e-001	-7.457504e-001	-3.704491e-001	-6.442674e-001	6.128811e-003	2.159136e-002	9.281489e-003	-7.693428e-001
2275231750	1.770176e-001	-7.454664e-001	-3.754574e-001	-6.467542e-001	6.212002e-003	2.158507e-002	6.886938e-003	-7.687242e-001
2281481563	1.739986e-001	-7.455142e-001	-3.811436e-001	-6.491669e-001	6.071411e-003	2.165521e-002	3.666666e-003	-7.675685e-001
2287731375	1.730688e-001	-7.445444e-001	-3.848806e-001	-6.520802e-001	6.109669e-003	2.150357e-002	6.417519e-005	-7.675434e-001
2293981188	1.700800e-001	-7.442307e-001	-3.904707e-001	-6.545645e-001	6.305619e-003	2.159705e-002	-3.029741e-003	-7.671307e-001
2300231000	1.676774e-001	-7.437063e-001	-3.959268e-001	-6.568040e-001	6.316884e-003	2.192118e-002	-6.195663e-003	-7.664668e-001
2306480813	1.649837e-001	-7.447670e-001	-4.016508e-001	-6.616610e-001	5.990237e-003	2.163095e-002	-9.053400e-003	-7.658975e-001
2312730625	1.625843e-001	-7.444688e-001	-4.073335e-001	-6.644545e-001	6.515785e-003	2.202943e-002	-1.222698e-002	-7.656823e-001
2318980438	1.608974e-001	-7.440367e-001	-4.116442e-001	-6.679849e-001	6.585713e-003	2.190345e-002	-1.553969e-002	-7.648345e-001
2325230250	1.579465e-001	-7.435046e-001	-4.176995e-001	-6.695642e-001	6.574665e-003	2.186331e-002	-1.841753e-002	-7.650816e-001
2331480063	1.558112e-001	-7.440590e-001	-4.239612e-001	-6.735248e-001	6.124925e-003	2.188997e-002	-2.138487e-002	-7.656604e-001
2337729875	1.530860e-001	-7.431017e-001	-4.299978e-001	-6.761409e-001	6.489264e-003	2.210697e-002	-2.362883e-002	-7.661057e-001
2343979688	1.503974e-001	-7.429161e-001	-4.359669e-001	-6.792133e-001	6.443201e-003	2.245100e-002	-2.780309e-002	-7.664836e-001
2350229500	1.485916e-001	-7.427282e-001	-4.418725e-001	-6.818343e-001	6.603158e-003	2.250402e-002	-2.997092e-002	-7.656515e-001
2356479313	1.463378e-001	-7.426735e-001	-4.465995e-001	-6.837930e-001	6.611528e-003	2.222538e-002	-3.334277e-002	-7.654556e-001
2362729125	1.436445e-001	-7.424957e-001	-4.542571e-001	-6.869832e-001	6.570886e-003	2.238794e-002	-3.644780e-002	-7.645491e-001
2368978938	1.415797e-001	-7.419586e-001	-4.598528e-001	-6.904770e-001	6.749371e-003	2.263337e-002	-3.899759e-002	-7.645179e-001
2375228750	1.396041e-001	-7.414263e-001	-4.649320e-001	-6.924831e-001	6.635355e-003	2.268829e-002	-4.250757e-002	-7.632607e-001
2381478563	1.370188e-001	-7.416548e-001	-4.702655e-001	-6.957785e-001	6.774542e-003	2.259376e-002	-4.492145e-002	-7.624538e-001
2387728375	1.340342e-001	-7.414804e-001	-4.771899e-001	-6.993871e-001	6.413147e-003	2.281254e-002	-4.780643e-002	-7.620213e-001
2393978188	1.321920e-001	-7.412633e-001	-4.837626e-001	-7.011404e-001	6.797140e-003	2.245031e-002	-4.993920e-002	-7.606525e-001
2400228000	1.291233e-001	-7.409348e-001	-4.894305e-001	-7.035961e-001	7.063309e-003	2.288155e-002	-5.261582e-002	-7.599365e-001
2406477813	1.272784e-001	-7.412714e-001	-4.957683e-001	-7.083944e-001	6.737933e-003	2.270707e-002	-5.617609e-002	-7.590316e-001
2412727625	1.246658e-001	-7.406679e-001	-5.025552e-001	-7.103223e-001	6.884320e-003	2.291868e-002	-5.870180e-002	-7.584058e-001
2418977438	1.220285e-001	-7.401164e-001	-5.097245e-001	-7.133486e-001	7.172267e-003	2.308145e-002	-6.245186e-002	-7.565307e-001
2425227250	1.204177e-001	-7.398655e-001	-5.147686e-001	-7.149357e-001	7.093946e-003	2.275803e-002	-6.450212e-002	-7.558791e-001
2431477063	1.176320e-001	-7.396623e-001	-5.225646e-001	-7.171402e-001	6.734023e-003	2.292731e-002	-6.693291e-002	-7.549138e-001
2437726875	1.155672e-001	-7.396322e-001	-5.288896e-001	-7.203187e-001	7.359973e-003	2.294191e-002	-7.123666e-002	-7.543624e-001
2443976688	1.137602e-001	-7.381037e-001	-5.341315e-001	-7.214265e-001	7.398880e-003	2.279090e-002	-7.345832e-002	-7.532195e-001
2450226500	1.114095e-001	-7.388543e-001	-5.422445e-001	-7.267790e-001	7.319601e-003	2.322181e-002	-7.658916e-002	-7.520497e-001
2456476313	1.087372e-001	-7.385138e-001	-5.500838e-001	-7.282535e-001	7.397157e-003	2.298928e-002	-7.912185e-002	-7.518535e-001
2462726125	1.066182e-001	-7.375396e-001	-5.557479e-001	-7.305765e-001	7.243118e-003	2.354325e-002	-8.257384e-002	-7.507225e-001
2468975938	1.045613e-001	-7.365412e-001	-5.632080e-001	-7.333407e-001	7.466011e-003	2.313874e-002	-8.572783e-002	-7.492190e-001
2475225750	1.026558e-001	-7.361553e-001	-5.692131e-001	-7.355285e-001	7.334648e-003	2.354496e-002	-8.911552e-002	-7.483046e-001
2481475563	9.942744e-002	-7.359759e-001	-5.772131e-001	-7.371479e-001	7.461125e-003	2.332249e-002	-9.178107e-002	-7.481294e-001
2487725375	9.752942e-002	-7.362491e-001	-5.854827e-001	-7.408889e-001	7.743437e-003	2.345880e-002	-9.435441e-002	-7.479310e-001
2493975188	9.555328e-002	-7.360667e-001	-5.923909e-001	-7.445561e-001	7.484893e-003	2.343280e-002	-9.715045e-002	-7.471652e-001
2500225000	9.275455e-002	-7.347514e-001	-5.987221e-001	-7.441640e-001	7.691211e-003	2.337596e-002	-1.007241e-001	-7.460552e-001
2506474813	9.066236e-002	-7.347010e-001	-6.056907e-001	-7.470625e-001	7.893446e-003	2.364115e-002	-1.030971e-001	-7.460735e-001
2512724625	8.873014e-002	-7.343625e-001	-6.127943e-001	-7.510178e-001	7.841333e-003	2.350570e-002	-1.065340e-001	-7.461940e-001
2518974438	8.575977e-002	-7.341056e-001	-6.203155e-001	-7.518291e-001	7.834940e-003	2.386052e-002	-1.086703e-001	-7.456175e-001
2525224250	8.360602e-002	-7.341050e-001	-6.285018e-001	-7.541765e-001	7.635339e-003	2.381832e-002	-1.115889e-001	-7.443795e-001
2531474063	8.152748e-002	-7.331029e-001	-6.337672e-001	-7.578425e-001	7.848915e-003	2.371437e-002	-1.157116e-001	-7.441752e-001
2537723875	7.909014e-002	-7.331231e-001	-6.413064e-001	-7.581745e-001	8.000622e-003	2.377998e-002	-1.173462e-001	-7.435275e-001
2543973688	7.603407e-002	-7.325454e-001	-6.503068e-001	-7.616143e-001	7.946340e-003	2.378963e-002	-1.208881e-001	-7.417259e-001
2550223500	7.341425e-002	-7.322401e-001	-6.572960e-001	-7.642180e-001	7.860817e-003	2.383958e-002	-1.228805e-001	-7.404860e-001
2556473313	7.018907e-002	-7.311553e-001	-6.679436e-001	-7.651958e-001	8.141006e-003	2.389995e-002	-1.262012e-001	-7.394754e-001
2562723125	6.850378e-002	-7.310311e-001	-6.742867e-001	-7.681890e-001	8.152425e-003	2.417904e-002	-1.293518e-001	-7.385577e-001
2568972938	6.556831e-002	-7.297612e-001	-6.818680e-001	-7.680390e-001	8.245090e-003	2.397749e-002	-1.316930e-001	-7.373460e-001
2575222750	6.323670e-002	-7.299582e-001	-6.914854e-001	-7.708121e-001	8.100870e-003	2.435175e-002	-1.354806e-001	-7.364347e-001
2581472563	6.002717e-002	-7.287552e-001	-7.005036e-001	-7.704981e-001	8.151792e-003	2.417731e-002	-1.376096e-001	-7.347020e-001
2587722375	5.896619e-002	-7.286032e-001	-7.058503e-001	-7.744181e-001	8.349614e-003	2.438769e-002	-1.411360e-001	-7.345152e-001
2593972188	5.598763e-002	-7.280468e-001	-7.152110e-001	-7.750758e-001	8.294276e-003	2.430703e-002	-1.440208e-001	-7.330199e-001
2600222000	5.335071e-002	-7.278110e-001	-7.244986e-001	-7.771937e-001	8.221827e-003	2.438513e-002	-1.470067e-001	-7.317641e-001
2606471813	5.008037e-002	-7.269730e-001	-7.334051e-001	-7.773747e-001	8.309481e-003	2.432306e-002	-1.494301e-001	-7.299521e-001
2612721625	4.868629e-002	-7.258902e-001	-7.398515e-001	-7.797438e-001	8.312118e-003	2.456114e-002	-1.525372e-001	-7.296764e-001
2618971438	4.611414e-002	-7.258963e-001	-7.486115e-001	-7.822234e-001	8.607486e-003	2.467236e-002	-1.558596e-001	-7.282047e-001
2625221250	4.395418e-002	-7.257279e-001	-7.569232e-001	-7.848610e-001	8.772915e-003	2.455766e-002	-1.579459e-001	-7.268794e-001
2631471063	4.146048e-002	-7.255232e-001	-7.649170e-001	-7.866120e-001	8.452798e-003	2.481565e-002	-1.605387e-001	-7.254350e-001
2637720875	3.871025e-002	-7.245374e-001	-7.755624e-001	-7.859963e-001	8.629946e-003	2.471455e-002	-1.634221e-001	-7.241099e-001
2643970688	3.617300e-002	-7.241705e-001	-7.850194e-001	-7.887331e-001	8.665992e-003	2.460530e-002	-1.671901e-001	-7.230271e-001
2650220500	3.335527e-002	-7.233225e-001	-7.949210e-001	-7.887871e-001	8.999094e-003	2.488366e-002	-1.694877e-001	-7.228886e-001
2656470313	3.162723e-002	-7.225517e-001	-8.014957e-001	-7.916880e-001	9.069751e-003	2.494114e-002	-1.729099e-001	-7.208918e-001
2662720125	2.890536e-002	-7.218160e-001	-8.120322e-001	-7.929849e-001	9.181087e-003	2.484378e-002	-1.752532e-001	-7.206235e-001
2668969938	2.602935e-002	-7.209156e-001	-8.213756e-001	-7.927113e-001	9.170664e-003	2.510986e-002	-1.795247e-001	-7.190020e-001
2675219750	2.393077e-002	-7.201358e-001	-8.301149e-001	-7.926414e-001	9.103929e-003	2.499069e-002	-1.817224e-001	-7.177748e-001
2681469563	2.176534e-002	-7.194009e-001	-8.401511e-001	-7.935869e-001	9.056358e-003	2.516700e-002	-1.851530e-001	-7.179954e-001
2687719375	1.968018e-002	-7.187472e-001	-8.493395e-001	-7.935169e-001	8.941568e-003	2.505267e-002	-1.878130e-001	-7.160330e-001
2693969188	1.636848e-002	-7.178114e-001	-8.583010e-001	-7.944929e-001	9.071714e-003	2.521720e-002	-1.911459e-001	-7.150285e-001
2700219000	1.409912e-002	-7.168102e-001	-8.669498e-001	-7.942984e-001	9.129474e-003	2.542822e-002	-1.938800e-001	-7.130771e-001
2706468813	1.176243e-002	-7.160986e-001	-8.758735e-001	-7.952681e-001	9.175992e-003	2.535557e-002	-1.968007e-001	-7.122941e-001
2712718625	9.016677e-003	-7.156796e-001	-8.851239e-001	-7.965657e-001	9.124216e-003	2.557642e-002	-1.997790e-001	-7.111160e-001
2718968438	6.454749e-003	-7.152128e-001	-8.946327e-001	-7.970270e-001	9.085684e-003	2.536106e-002	-2.023278e-001	-7.089724e-001
2725218250	3.984139e-003	-7.145868e-001	-9.047691e-001	-7.984720e-001	9.242215e-003	2.542090e-002	-2.048059e-001	-7.084050e-001
2731468063	1.556463e-003	-7.133438e-001	-9.133752e-001	-8.001355e-001	9.383065e-003	2.538578e-002	-2.081378e-001	-7.062527e-001
2737717875	-9.475937e-004	-7.124048e-001	-9.242033e-001	-8.000450e-001	9.606863e-003	2.571373e-002	-2.100930e-001	-7.056208e-001
2743967688	-3.755056e-003	-7.113472e-001	-9.334669e-001	-7.978975e-001	9.678757e-003	2.548786e-002	-2.129503e-001	-7.041241e-001
2750217500	-5.855794e-003	-7.109864e-001	-9.428369e-001	-7.993793e-001	9.653543e-003	2.579192e-002	-2.156354e-001	-7.022126e-001
2756467313	-8.223163e-003	-7.093537e-001	-9.518172e-001	-7.980671e-001	9.592524e-003	2.584883e-002	-2.183111e-001	-7.018233e-001
2762717125	-1.101531e-002	-7.095236e-001	-9.620991e-001	-7.980483e-001	9.897630e-003	2.586984e-002	-2.218309e-001	-6.998833e-001
2768966938	-1.389882e-002	-7.083164e-001	-9.720643e-001	-7.994340e-001	9.741329e-003	2.580392e-002	-2.246697e-001	-6.978298e-001
2775216750	-1.613750e-002	-7.073207e-001	-9.817884e-001	-7.999191e-001	9.921090e-003	2.604516e-002	-2.270993e-001	-6.957493e-001
2781466563	-1.791978e-002	-7.063956e-001	-9.889412e-001	-8.012343e-001	9.696215e-003	2.597134e-002	-2.297178e-001	-6.946428e-001
2787716375	-2.143710e-002	-7.053601e-001	-1.000863e+000	-7.993809e-001	9.962150e-003	2.599447e-002	-2.328129e-001	-6.933183e-001
2793966188	-2.317599e-002	-7.042537e-001	-1.008268e+000	-7.992279e-001	1.006842e-002	2.609084e-002	-2.360419e-001	-6.913746e-001
2800216000	-2.595908e-002	-7.034606e-001	-1.019129e+000	-7.983213e-001	9.990747e-003	2.631725e-002	-2.380430e-001	-6.900276e-001
2806465813	-2.786128e-002	-7.021897e-001	-1.027972e+000	-7.984230e-001	1.001766e-002	2.626832e-002	-2.416135e-001	-6.879385e-001
2812715625	-3.097998e-002	-7.015617e-001	-1.040124e+000	-7.990680e-001	9.965740e-003	2.625601e-002	-2.444748e-001	-6.865326e-001
2818965438	-3.342908e-002	-7.004368e-001	-1.051209e+000	-7.980335e-001	1.023194e-002	2.641632e-002	-2.467785e-001	-6.854011e-001
2825215250	-3.536670e-002	-7.000398e-001	-1.060220e+000	-7.993354e-001	1.034479e-002	2.632644e-002	-2.498862e-001	-6.830911e-001
2831465063	-3.787156e-002	-6.981759e-001	-1.068981e+000	-7.968894e-001	1.023636e-002	2.652438e-002	-2.531418e-001	-6.814966e-001
2837714875	-4.023784e-002	-6.977882e-001	-1.081294e+000	-7.978757e-001	1.040420e-002	2.660561e-002	-2.556991e-001	-6.797854e-001
2843964688	-4.324523e-002	-6.963502e-001	-1.092330e+000	-7.963148e-001	1.021825e-002	2.642866e-002	-2.585559e-001	-6.790527e-001
2850214500	-4.528266e-002	-6.954910e-001	-1.102172e+000	-7.967462e-001	1.031363e-002	2.672074e-002	-2.622859e-001	-6.776690e-001
2856464313	-4.778014e-002	-6.942048e-001	-1.112344e+000	-7.940477e-001	1.067839e-002	2.668745e-002	-2.645116e-001	-6.752618e-001
2862714125	-5.090241e-002	-6.931666e-001	-1.125531e+000	-7.939945e-001	1.055246e-002	2.674077e-002	-2.674570e-001	-6.737674e-001
2868963938	-5.325349e-002	-6.917319e-001	-1.135911e+000	-7.937207e-001	1.044089e-002	2.689941e-002	-2.698170e-001	-6.721813e-001
2875213750	-5.540692e-002	-6.904877e-001	-1.146220e+000	-7.912235e-001	1.044114e-002	2.708219e-002	-2.733168e-001	-6.716861e-001
2881463563	-5.804373e-002	-6.892289e-001	-1.158569e+000	-7.917814e-001	1.079451e-002	2.699860e-002	-2.757187e-001	-6.689377e-001
2887713375	-6.065360e-002	-6.880591e-001	-1.169210e+000	-7.901928e-001	1.078365e-002	2.720119e-002	-2.787351e-001	-6.672938e-001
2893963188	-6.338012e-002	-6.869246e-001	-1.180784e+000	-7.901312e-001	1.073035e-002	2.709353e-002	-2.817374e-001	-6.661918e-001
2900213000	-6.557445e-002	-6.860720e-001	-1.192578e+000	-7.909455e-001	1.073218e-002	2.709946e-002	-2.841594e-001	-6.643840e-001
2906462813	-6.786986e-002	-6.850247e-001	-1.201601e+000	-7.883715e-001	1.066365e-002	2.725628e-002	-2.862737e-001	-6.626824e-001
2912712625	-7.092213e-002	-6.836553e-001	-1.214495e+000	-7.861065e-001	1.102090e-002	2.756768e-002	-2.892950e-001	-6.604658e-001
2918962438	-7.278155e-002	-6.827302e-001	-1.224764e+000	-7.838920e-001	1.085632e-002	2.748963e-002	-2.921516e-001	-6.581613e-001
2925212250	-7.550546e-002	-6.810164e-001	-1.237178e+000	-7.827002e-001	1.105554e-002	2.768352e-002	-2.945747e-001	-6.572755e-001
2931462063	-7.818954e-002	-6.809519e-001	-1.247600e+000	-7.822033e-001	1.105564e-002	2.755890e-002	-2.965381e-001	-6.544113e-001
2937711875	-8.003611e-002	-6.786801e-001	-1.259288e+000	-7.798089e-001	1.132871e-002	2.791434e-002	-2.994372e-001	-6.530414e-001
2943961688	-8.304093e-002	-6.772403e-001	-1.272968e+000	-7.767767e-001	1.146880e-002	2.761123e-002	-3.020366e-001	-6.507286e-001
2950211500	-8.536207e-002	-6.758936e-001	-1.284359e+000	-7.763821e-001	1.136952e-002	2.783754e-002	-3.050916e-001	-6.493099e-001
2956461313	-8.753714e-002	-6.748560e-001	-1.296545e+000	-7.745943e-001	1.144340e-002	2.799189e-002	-3.075745e-001	-6.468166e-001
2962711125	-8.972944e-002	-6.733746e-001	-1.308663e+000	-7.726835e-001	1.133937e-002	2.807432e-002	-3.102120e-001	-6.447740e-001
2968960938	-9.179892e-002	-6.717074e-001	-1.320784e+000	-7.679185e-001	1.141178e-002	2.826909e-002	-3.128262e-001	-6.425071e-001
2975210750	-9.477709e-002	-6.696938e-001	-1.335258e+000	-7.653087e-001	1.160574e-002	2.821945e-002	-3.155681e-001	-6.407719e-001
2981460563	-9.699281e-002	-6.681483e-001	-1.348852e+000	-7.620618e-001	1.165863e-002	2.808964e-002	-3.178820e-001	-6.383516e-001
2987710375	-9.886397e-002	-6.665626e-001	-1.360552e+000	-7.576069e-001	1.164403e-002	2.828843e-002	-3.206354e-001	-6.357360e-001
2993960188	-1.016303e-001	-6.650503e-001	-1.372914e+000	-7.551790e-001	1.175587e-002	2.857833e-002	-3.232041e-001	-6.340551e-001
3000210000	-1.041591e-001	-6.632467e-001	-1.387904e+000	-7.502803e-001	1.186548e-002	2.873585e-002	-3.260893e-001	-6.319785e-001
3006459813	-1.058894e-001	-6.617800e-001	-1.397474e+000	-7.464723e-001	1.205618e-002	2.860035e-002	-3.285982e-001	-6.289804e-001
3012709625	-1.086872e-001	-6.595809e-001	-1.409296e+000	-7.408286e-001	1.235202e-002	2.873219e-002	-3.310968e-001	-6.274306e-001
3018959438	-1.108152e-001	-6.579246e-001	-1.422916e+000	-7.378719e-001	1.237671e-002	2.896367e-002	-3.332664e-001	-6.257019e-001
3025209250	-1.126496e-001	-6.561093e-001	-1.433766e+000	-7.319692e-001	1.269678e-002	2.905135e-002	-3.362587e-001	-6.235491e-001
3031459063	-1.151836e-001	-6.541116e-001	-1.449961e+000	-7.265554e-001	1.241103e-002	2.910165e-002	-3.380589e-001	-6.212972e-001
3037708875	-1.167593e-001	-6.525868e-001	-1.460753e+000	-7.221761e-001	1.266476e-002	2.919935e-002	-3.406847e-001	-6.193745e-001
3043958688	-1.189923e-001	-6.505665e-001	-1.470387e+000	-7.171541e-001	1.277466e-002	2.933008e-002	-3.429675e-001	-6.173560e-001
3050208500	-1.204643e-001	-6.494380e-001	-1.482332e+000	-7.143508e-001	1.275736e-002	2.934693e-002	-3.457442e-001	-6.162441e-001
3056458313	-1.225070e-001	-6.474291e-001	-1.494563e+000	-7.093930e-001	1.279820e-002	2.916394e-002	-3.480474e-001	-6.136679e-001
3062708125	-1.242572e-001	-6.462824e-001	-1.505859e+000	-7.023490e-001	1.323742e-002	2.937120e-002	-3.508899e-001	-6.117604e-001
3068957938	-1.263930e-001	-6.451540e-001	-1.516844e+000	-7.011168e-001	1.316046e-002	2.931401e-002	-3.534251e-001	-6.097475e-001
3075207750	-1.281452e-001	-6.432198e-001	-1.527949e+000	-6.941472e-001	1.331279e-002	2.956116e-002	-3.564994e-001	-6.081295e-001
3081457563	-1.298401e-001	-6.416790e-001	-1.539397e+000	-6.895731e-001	1.333215e-002	2.945166e-002	-3.581073e-001	-6.058123e-001
3087707375	-1.317417e-001	-6.406799e-001	-1.550935e+000	-6.839321e-001	1.339434e-002	2.930938e-002	-3.602621e-001	-6.035086e-001
3093957188	-1.336113e-001	-6.392768e-001	-1.563272e+000	-6.786143e-001	1.376401e-002	2.918208e-002	-3.625920e-001	-6.011761e-001
3100207000	-1.353929e-001	-6.383522e-001	-1.573430e+000	-6.746961e-001	1.369509e-002	2.916377e-002	-3.655094e-001	-5.993675e-001
3106456813	-1.378010e-001	-6.375176e-001	-1.588898e+000	-6.698540e-001	1.344992e-002	2.926408e-002	-3.676621e-001	-5.967587e-001
3112706625	-1.395812e-001	-6.362167e-001	-1.599455e+000	-6.653938e-001	1.363310e-002	2.915757e-002	-3.698136e-001	-5.946780e-001
3118956438	-1.419838e-001	-6.358977e-001	-1.609296e+000	-6.656754e-001	1.355203e-002	2.929361e-002	-3.724085e-001	-5.924227e-001
3125206250	-1.443259e-001	-6.344709e-001	-1.621438e+000	-6.576337e-001	1.347029e-002	2.935624e-002	-3.746717e-001	-5.897747e-001
3131456063	-1.476527e-001	-6.334268e-001	-1.637260e+000	-6.553584e-001	1.343489e-002	2.940508e-002	-3.769188e-001	-5.875443e-001
3137705875	-1.498123e-001	-6.320302e-001	-1.649282e+000	-6.502161e-001	1.356045e-002	2.964854e-002	-3.796524e-001	-5.844929e-001
3143955688	-1.526033e-001	-6.304609e-001	-1.662501e+000	-6.451475e-001	1.378263e-002	2.959650e-002	-3.820056e-001	-5.818298e-001
3150205500	-1.545433e-001	-6.291859e-001	-1.674782e+000	-6.371369e-001	1.382368e-002	2.981222e-002	-3.843784e-001	-5.793931e-001
3156455313	-1.573120e-001	-6.273931e-001	-1.691604e+000	-6.347170e-001	1.380824e-002	2.996613e-002	-3.871284e-001	-5.770385e-001
3162705125	-1.597862e-001	-6.260145e-001	-1.700377e+000	-6.285936e-001	1.396985e-002	2.999631e-002	-3.892505e-001	-5.747342e-001
3168954938	-1.622434e-001	-6.232891e-001	-1.713901e+000	-6.184941e-001	1.407165e-002	3.013162e-002	-3.916821e-001	-5.712989e-001
3175204750	-1.645435e-001	-6.218772e-001	-1.728265e+000	-6.136554e-001	1.426856e-002	3.004505e-002	-3.943551e-001	-5.692577e-001
3181454563	-1.670130e-001	-6.204236e-001	-1.740061e+000	-6.083947e-001	1.422045e-002	3.019836e-002	-3.963927e-001	-5.667483e-001
3187704375	-1.694565e-001	-6.184415e-001	-1.756807e+000	-5.997515e-001	1.453721e-002	3.001135e-002	-3.988690e-001	-5.642480e-001
3193954188	-1.719474e-001	-6.170486e-001	-1.768002e+000	-5.932060e-001	1.443745e-002	3.021498e-002	-4.010552e-001	-5.618416e-001
3200204000	-1.737691e-001	-6.149854e-001	-1.782283e+000	-5.889360e-001	1.459825e-002	3.006956e-002	-4.045630e-001	-5.597487e-001
3206453813	-1.758715e-001	-6.134664e-001	-1.793373e+000	-5.789531e-001	1.473967e-002	3.041577e-002	-4.063839e-001	-5.575469e-001
3212703625	-1.787020e-001	-6.119925e-001	-1.808454e+000	-5.750387e-001	1.484385e-002	3.005788e-002	-4.094173e-001	-5.555537e-001
3218953438	-1.805637e-001	-6.103615e-001	-1.819773e+000	-5.689901e-001	1.463244e-002	3.019176e-002	-4.118345e-001	-5.534667e-001
3225203250	-1.829502e-001	-6.086926e-001	-1.833488e+000	-5.578612e-001	1.460956e-002	3.040578e-002	-4.148042e-001	-5.518909e-001
3231453063	-1.854492e-001	-6.070325e-001	-1.848371e+000	-5.520448e-001	1.471442e-002	3.046956e-002	-4.174919e-001	-5.500141e-001
3237702875	-1.881434e-001	-6.058352e-001	-1.863643e+000	-5.458931e-001	1.487124e-002	3.066262e-002	-4.196892e-001	-5.462572e-001
3243952688	-1.904876e-001	-6.036274e-001	-1.874828e+000	-5.370926e-001	1.492539e-002	3.048843e-002	-4.216550e-001	-5.440493e-001
3250202500	-1.932368e-001	-6.023174e-001	-1.887902e+000	-5.314075e-001	1.495187e-002	3.060853e-002	-4.243153e-001	-5.408114e-001
3256452313	-1.955311e-001	-6.004534e-001	-1.902357e+000	-5.231945e-001	1.460717e-002	3.060309e-002	-4.262535e-001	-5.381165e-001
3262702125	-1.983480e-001	-5.982780e-001	-1.918567e+000	-5.145203e-001	1.536068e-002	3.086402e-002	-4.284869e-001	-5.353712e-001
3268951938	-2.008829e-001	-5.966869e-001	-1.931840e+000	-5.055706e-001	1.485855e-002	3.093450e-002	-4.307572e-001	-5.328035e-001
3275201750	-2.038176e-001	-5.948065e-001	-1.946227e+000	-4.947985e-001	1.514809e-002	3.087911e-002	-4.328968e-001	-5.301737e-001
3281451563	-2.062743e-001	-5.928449e-001	-1.960467e+000	-4.882449e-001	1.498703e-002	3.098704e-002	-4.354701e-001	-5.268326e-001
3287701375	-2.088513e-001	-5.907376e-001	-1.975206e+000	-4.773887e-001	1.491584e-002	3.100973e-002	-4.372080e-001	-5.237244e-001
3293951188	-2.114368e-001	-5.884409e-001	-1.992124e+000	-4.679047e-001	1.519847e-002	3.138604e-002	-4.402451e-001	-5.211624e-001
3300201000	-2.135484e-001	-5.863947e-001	-2.002924e+000	-4.618971e-001	1.529735e-002	3.137073e-002	-4.417384e-001	-5.179742e-001
3306450813	-2.163127e-001	-5.839075e-001	-2.018639e+000	-4.479320e-001	1.547417e-002	3.143639e-002	-4.426912e-001	-5.145718e-001
3312700625	-2.190104e-001	-5.812310e-001	-2.033412e+000	-4.383938e-001	1.552917e-002	3.155019e-002	-4.455364e-001	-5.110752e-001
3318950438	-2.213390e-001	-5.795658e-001	-2.044043e+000	-4.290244e-001	1.592113e-002	3.197786e-002	-4.477174e-001	-5.076650e-001
3325200250	-2.234152e-001	-5.771775e-001	-2.058313e+000	-4.177609e-001	1.588603e-002	3.184669e-002	-4.492447e-001	-5.047099e-001
3331450063	-2.254146e-001	-5.744574e-001	-2.071998e+000	-4.055257e-001	1.609620e-002	3.182758e-002	-4.510508e-001	-5.017301e-001
3337699875	-2.273201e-001	-5.719834e-001	-2.086808e+000	-3.941287e-001	1.634337e-002	3.200152e-002	-4.528979e-001	-4.983633e-001
3343949688	-2.295453e-001	-5.701022e-001	-2.101506e+000	-3.820176e-001	1.641105e-002	3.196884e-002	-4.549028e-001	-4.954313e-001
3350199500	-2.315848e-001	-5.678255e-001	-2.114095e+000	-3.721596e-001	1.656627e-002	3.211706e-002	-4.569617e-001	-4.929612e-001
3356449313	-2.332867e-001	-5.661613e-001	-2.125639e+000	-3.638834e-001	1.684453e-002	3.188023e-002	-4.596260e-001	-4.901559e-001
3362699125	-2.356971e-001	-5.645304e-001	-2.137061e+000	-3.502938e-001	1.676881e-002	3.206127e-002	-4.623747e-001	-4.872668e-001
3368948938	-2.375718e-001	-5.622700e-001	-2.149317e+000	-3.390190e-001	1.686090e-002	3.193455e-002	-4.647866e-001	-4.847986e-001
3375198750	-2.400109e-001	-5.601505e-001	-2.163499e+000	-3.270285e-001	1.669923e-002	3.169644e-002	-4.670558e-001	-4.821977e-001
3381448563	-2.420281e-001	-5.586436e-001	-2.174430e+000	-3.195732e-001	1.687826e-002	3.210008e-002	-4.697975e-001	-4.797969e-001
3387698375	-2.451557e-001	-5.564676e-001	-2.190244e+000	-3.056221e-001	1.702819e-002	3.184011e-002	-4.724278e-001	-4.769954e-001
3393948188	-2.468910e-001	-5.545525e-001	-2.202387e+000	-2.953007e-001	1.707841e-002	3.208748e-002	-4.742757e-001	-4.743317e-001
3400198000	-2.498970e-001	-5.525497e-001	-2.218955e+000	-2.828651e-001	1.699563e-002	3.199046e-002	-4.765942e-001	-4.712194e-001
3406447813	-2.526786e-001	-5.500027e-001	-2.231502e+000	-2.692053e-001	1.691941e-002	3.228509e-002	-4.780537e-001	-4.675340e-001
3412697625	-2.547236e-001	-5.481318e-001	-2.247943e+000	-2.574392e-001	1.723602e-002	3.214335e-002	-4.806755e-001	-4.651127e-001
3418947438	-2.574921e-001	-5.455628e-001	-2.260854e+000	-2.446519e-001	1.691428e-002	3.217489e-002	-4.822135e-001	-4.614509e-001
3425197250	-2.603318e-001	-5.430954e-001	-2.274649e+000	-2.323664e-001	1.714056e-002	3.272242e-002	-4.845695e-001	-4.581515e-001
3431447063	-2.626927e-001	-5.407096e-001	-2.292281e+000	-2.192090e-001	1.706455e-002	3.277475e-002	-4.853351e-001	-4.552677e-001
3437696875	-2.655053e-001	-5.380461e-001	-2.307736e+000	-2.056345e-001	1.732422e-002	3.292460e-002	-4.873268e-001	-4.516737e-001
3443946688	-2.680524e-001	-5.354517e-001	-2.315538e+000	-1.877104e-001	1.754938e-002	3.298993e-002	-4.893368e-001	-4.478299e-001
3450196500	-2.709283e-001	-5.328763e-001	-2.333302e+000	-1.768765e-001	1.770827e-002	3.291490e-002	-4.902423e-001	-4.442359e-001
3456446313	-2.725471e-001	-5.300286e-001	-2.345289e+000	-1.632301e-001	1.781931e-002	3.303617e-002	-4.917026e-001	-4.408504e-001
3462696125	-2.749766e-001	-5.270856e-001	-2.360103e+000	-1.441456e-001	1.823929e-002	3.325481e-002	-4.932692e-001	-4.375215e-001
3468945938	-2.769569e-001	-5.241647e-001	-2.370653e+000	-1.302335e-001	1.833727e-002	3.326326e-002	-4.951247e-001	-4.337511e-001
3475195750	-2.788363e-001	-5.216504e-001	-2.386924e+000	-1.135162e-001	1.835812e-002	3.322691e-002	-4.967917e-001	-4.305923e-001
3481445563	-2.806866e-001	-5.189372e-001	-2.398126e+000	-9.861051e-002	1.851736e-002	3.333549e-002	-4.980772e-001	-4.268768e-001
3487695375	-2.827175e-001	-5.164771e-001	-2.410145e+000	-8.340288e-002	1.874158e-002	3.324263e-002	-4.999132e-001	-4.234811e-001
3493945188	-2.851498e-001	-5.143936e-001	-2.423405e+000	-6.728395e-002	1.894976e-002	3.326239e-002	-5.018250e-001	-4.202549e-001
3500195000	-2.873547e-001	-5.122270e-001	-2.439006e+000	-5.425697e-002	1.889922e-002	3.308020e-002	-5.039614e-001	-4.162630e-001
3506444813	-2.897985e-001	-5.098791e-001	-2.449400e+000	-3.779808e-002	1.897848e-002	3.344175e-002	-5.055042e-001	-4.133190e-001
3512694625	-2.922960e-001	-5.079696e-001	-2.461202e+000	-2.219910e-002	1.893378e-002	3.323598e-002	-5.079460e-001	-4.097270e-001
3518944438	-2.953857e-001	-5.056613e-001	-2.481388e+000	-7.423265e-003	1.888020e-002	3.347490e-002	-5.107447e-001	-4.056521e-001
3525194250	-2.981595e-001	-5.023341e-001	-2.493515e+000	1.308019e-002	1.909449e-002	3.367914e-002	-5.130666e-001	-4.016769e-001
3531444063	-3.009051e-001	-5.000333e-001	-2.505120e+000	2.825038e-002	1.904390e-002	3.370347e-002	-5.158640e-001	-3.988104e-001
3537693875	-3.032201e-001	-4.971231e-001	-2.519465e+000	4.789749e-002	1.913849e-002	3.399407e-002	-5.176231e-001	-3.959729e-001
3543943688	-3.057509e-001	-4.944545e-001	-2.532698e+000	6.441648e-002	1.903621e-002	3.399316e-002	-5.198684e-001	-3.926895e-001
3550193500	-3.090746e-001	-4.915675e-001	-2.547464e+000	8.094449e-002	1.910588e-002	3.416952e-002	-5.216318e-001	-3.896361e-001
3556443313	-3.113841e-001	-4.884173e-001	-2.562666e+000	9.822559e-002	1.916138e-002	3.418714e-002	-5.231450e-001	-3.862477e-001
3562693125	-3.139767e-001	-4.854099e-001	-2.570842e+000	1.151515e-001	1.922808e-002	3.423173e-002	-5.239561e-001	-3.824270e-001
3568942938	-3.167186e-001	-4.821423e-001	-2.588308e+000	1.359322e-001	1.940025e-002	3.465193e-002	-5.260682e-001	-3.789981e-001
3575192750	-3.192236e-001	-4.792726e-001	-2.598472e+000	1.552445e-001	1.943255e-002	3.461760e-002	-5.265316e-001	-3.755859e-001
3581442563	-3.217586e-001	-4.759987e-001	-2.614230e+000	1.784126e-001	1.981210e-002	3.444927e-002	-5.282288e-001	-3.713801e-001
3587692375	-3.242458e-001	-4.724332e-001	-2.626506e+000	1.972048e-001	1.985765e-002	3.450328e-002	-5.294035e-001	-3.685601e-001
3593942188	-3.261730e-001	-4.689181e-001	-2.634449e+000	2.122877e-001	1.997417e-002	3.497150e-002	-5.308374e-001	-3.638176e-001
3600192000	-3.290222e-001	-4.650774e-001	-2.651606e+000	2.353230e-001	2.010784e-002	3.501305e-002	-5.315309e-001	-3.604060e-001
3606441813	-3.311548e-001	-4.613901e-001	-2.663718e+000	2.615912e-001	2.003299e-002	3.488201e-002	-5.321075e-001	-3.567625e-001
3612691625	-3.331742e-001	-4.577634e-001	-2.674631e+000	2.824498e-001	2.034618e-002	3.517012e-002	-5.332132e-001	-3.522358e-001
3618941438	-3.357076e-001	-4.539689e-001	-2.687466e+000	3.060386e-001	2.047011e-002	3.532742e-002	-5.344242e-001	-3.481339e-001
3625191250	-3.375420e-001	-4.499014e-001	-2.697648e+000	3.292728e-001	2.094544e-002	3.557473e-002	-5.346769e-001	-3.444807e-001
3631441063	-3.392859e-001	-4.458888e-001	-2.706435e+000	3.534780e-001	2.104346e-002	3.563974e-002	-5.358019e-001	-3.402396e-001
3637690875	-3.413668e-001	-4.417027e-001	-2.716281e+000	3.770778e-001	2.138618e-002	3.577187e-002	-5.365004e-001	-3.358585e-001
3643940688	-3.425935e-001	-4.378456e-001	-2.727783e+000	4.030477e-001	2.149818e-002	3.607945e-002	-5.377016e-001	-3.316955e-001
3650190500	-3.438244e-001	-4.330258e-001	-2.735939e+000	4.303778e-001	2.190426e-002	3.591297e-002	-5.376585e-001	-3.273563e-001
3656440313	-3.448253e-001	-4.289818e-001	-2.746313e+000	4.545662e-001	2.223841e-002	3.611275e-002	-5.388332e-001	-3.234841e-001
3662690125	-3.461099e-001	-4.243448e-001	-2.750811e+000	4.820998e-001	2.248141e-002	3.595765e-002	-5.390494e-001	-3.197306e-001
3668939938	-3.468509e-001	-4.200100e-001	-2.751740e+000	5.048956e-001	2.303339e-002	3.633038e-002	-5.399432e-001	-3.156419e-001
3675189750	-3.469365e-001	-4.158905e-001	-2.761070e+000	5.297087e-001	2.323338e-002	3.610481e-002	-5.410593e-001	-3.120900e-001
3681439563	-3.468461e-001	-4.113888e-001	-2.766038e+000	5.516538e-001	2.368376e-002	3.617818e-002	-5.422628e-001	-3.081477e-001
3687689375	-3.466841e-001	-4.077522e-001	-2.771280e+000	5.774525e-001	2.392851e-002	3.601361e-002	-5.426663e-001	-3.045198e-001
3693939188	-3.459024e-001	-4.045890e-001	-2.771323e+000	5.971985e-001	2.418250e-002	3.605482e-002	-5.449751e-001	-3.021615e-001
3700189000	-3.457616e-001	-4.021137e-001	-2.772560e+000	6.179911e-001	2.440657e-002	3.572842e-002	-5.459896e-001	-2.988773e-001
3706438813	-3.449847e-001	-3.998911e-001	-2.774660e+000	6.351308e-001	2.452914e-002	3.543645e-002	-5.472235e-001	-2.964868e-001
3712688625	-3.449331e-001	-3.980331e-001	-2.778447e+000	6.582781e-001	2.448178e-002	3.498811e-002	-5.493816e-001	-2.939930e-001
3718938438	-3.452816e-001	-3.965818e-001	-2.782720e+000	6.743154e-001	2.463259e-002	3.482231e-002	-5.504179e-001	-2.912103e-001
3725188250	-3.461487e-001	-3.950186e-001	-2.788842e+000	6.938904e-001	2.433816e-002	3.459537e-002	-5.518262e-001	-2.882353e-001
3731438063	-3.470759e-001	-3.944215e-001	-2.793746e+000	7.097743e-001	2.412072e-002	3.453470e-002	-5.533066e-001	-2.849690e-001
3737687875	-3.486717e-001	-3.924289e-001	-2.799952e+000	7.292527e-001	2.446216e-002	3.444522e-002	-5.548118e-001	-2.818297e-001
3743937688	-3.506514e-001	-3.914533e-001	-2.803113e+000	7.478288e-001	2.429144e-002	3.416083e-002	-5.560551e-001	-2.783410e-001
3750187500	-3.525193e-001	-3.891419e-001	-2.815074e+000	7.682434e-001	2.420552e-002	3.407603e-002	-5.572137e-001	-2.742980e-001
3756437313	-3.545990e-001	-3.875815e-001	-2.824207e+000	7.877068e-001	2.399774e-002	3.409331e-002	-5.580394e-001	-2.709150e-001
3762687125	-3.566239e-001	-3.853858e-001	-2.829841e+000	8.065630e-001	2.417789e-002	3.425367e-002	-5.591922e-001	-2.672475e-001
3768936938	-3.584188e-001	-3.836071e-001	-2.838965e+000	8.273168e-001	2.420744e-002	3.406671e-002	-5.601618e-001	-2.629997e-001
3775186750	-3.602233e-001	-3.818316e-001	-2.851324e+000	8.505215e-001	2.402727e-002	3.420292e-002	-5.614214e-001	-2.592137e-001
3781436563	-3.624572e-001	-3.802504e-001	-2.856019e+000	8.728120e-001	2.399462e-002	3.414418e-002	-5.621409e-001	-2.551076e-001
3787686375	-3.653768e-001	-3.780634e-001	-2.866233e+000	8.924150e-001	2.407217e-002	3.422297e-002	-5.627879e-001	-2.507939e-001
3793936188	-3.678112e-001	-3.764681e-001	-2.875623e+000	9.132559e-001	2.392987e-002	3.447024e-002	-5.641666e-001	-2.464445e-001
3800186000	-3.708604e-001	-3.741682e-001	-2.887966e+000	9.421463e-001	2.424485e-002	3.442891e-002	-5.648081e-001	-2.419499e-001
3806435813	-3.735277e-001	-3.715256e-001	-2.901059e+000	9.693887e-001	2.419066e-002	3.458270e-002	-5.656193e-001	-2.372293e-001
3812685625	-3.765302e-001	-3.682805e-001	-2.906333e+000	9.930259e-001	2.417905e-002	3.491097e-002	-5.662011e-001	-2.328232e-001
3818935438	-3.798614e-001	-3.651894e-001	-2.917355e+000	1.015416e+000	2.442318e-002	3.525089e-002	-5.668337e-001	-2.279307e-001
3825185250	-3.825007e-001	-3.617276e-001	-2.928064e+000	1.042139e+000	2.437857e-002	3.536042e-002	-5.678284e-001	-2.230807e-001
3831435063	-3.850879e-001	-3.584099e-001	-2.934955e+000	1.070548e+000	2.449989e-002	3.543711e-002	-5.680887e-001	-2.182887e-001
3837684875	-3.879035e-001	-3.547210e-001	-2.941254e+000	1.102050e+000	2.476789e-002	3.564897e-002	-5.690084e-001	-2.136693e-001
3843934688	-3.903596e-001	-3.510966e-001	-2.946376e+000	1.128828e+000	2.467129e-002	3.561719e-002	-5.701985e-001	-2.088905e-001
3850184500	-3.922427e-001	-3.472469e-001	-2.955186e+000	1.158574e+000	2.464378e-002	3.582511e-002	-5.706101e-001	-2.041730e-001
3856434313	-3.946542e-001	-3.437250e-001	-2.961198e+000	1.181887e+000	2.527236e-002	3.625122e-002	-5.719077e-001	-1.993573e-001
3862684125	-3.969580e-001	-3.401790e-001	-2.963968e+000	1.212083e+000	2.505055e-002	3.600278e-002	-5.730803e-001	-1.954615e-001
3868933938	-3.992194e-001	-3.360348e-001	-2.967388e+000	1.242805e+000	2.523709e-002	3.619137e-002	-5.740012e-001	-1.908697e-001
3875183750	-4.012594e-001	-3.326723e-001	-2.976642e+000	1.273932e+000	2.540680e-002	3.633178e-002	-5.747113e-001	-1.865571e-001
3881433563	-4.032507e-001	-3.285599e-001	-2.978360e+000	1.303387e+000	2.503553e-002	3.660056e-002	-5.748776e-001	-1.831055e-001
3887683375	-4.055585e-001	-3.250138e-001	-2.981118e+000	1.330173e+000	2.562057e-002	3.656400e-002	-5.755135e-001	-1.789138e-001
3893933188	-4.075165e-001	-3.209217e-001	-2.986099e+000	1.361884e+000	2.555742e-002	3.653572e-002	-5.761502e-001	-1.746472e-001
3900183000	-4.096527e-001	-3.171702e-001	-2.987382e+000	1.393456e+000	2.559920e-002	3.673065e-002	-5.759167e-001	-1.706219e-001
3906432813	-4.112998e-001	-3.130274e-001	-2.992886e+000	1.422191e+000	2.590704e-002	3.679538e-002	-5.765334e-001	-1.662125e-001
3912682625	-4.126049e-001	-3.092835e-001	-2.991377e+000	1.453386e+000	2.598996e-002	3.683112e-002	-5.762131e-001	-1.622483e-001
3918932438	-4.150212e-001	-3.051111e-001	-2.997549e+000	1.481551e+000	2.595389e-002	3.690418e-002	-5.761394e-001	-1.587807e-001
3925182250	-4.168391e-001	-3.010321e-001	-2.994746e+000	1.513880e+000	2.611147e-002	3.697306e-002	-5.752995e-001	-1.545752e-001
3931432063	-4.189370e-001	-2.969013e-001	-3.001954e+000	1.543803e+000	2.621399e-002	3.724423e-002	-5.754976e-001	-1.492500e-001
3937681875	-4.206887e-001	-2.922826e-001	-3.000607e+000	1.580257e+000	2.653562e-002	3.738870e-002	-5.750393e-001	-1.452402e-001
3943931688	-4.224458e-001	-2.885023e-001	-2.999692e+000	1.614893e+000	2.645363e-002	3.742748e-002	-5.751576e-001	-1.408954e-001
3950181500	-4.240426e-001	-2.840082e-001	-2.999489e+000	1.645296e+000	2.663009e-002	3.750568e-002	-5.737881e-001	-1.363857e-001
3956431313	-4.258842e-001	-2.792407e-001	-3.000152e+000	1.676630e+000	2.707406e-002	3.748089e-002	-5.735921e-001	-1.314870e-001
3962681125	-4.274284e-001	-2.750007e-001	-2.997589e+000	1.706982e+000	2.723441e-002	3.770384e-002	-5.727174e-001	-1.274318e-001
3968930938	-4.283664e-001	-2.703767e-001	-3.000772e+000	1.742964e+000	2.753420e-002	3.792766e-002	-5.716483e-001	-1.230177e-001
3975180750	-4.295512e-001	-2.659075e-001	-2.990287e+000	1.774371e+000	2.767358e-002	3.790870e-002	-5.712982e-001	-1.185292e-001
3981430563	-4.302103e-001	-2.615901e-001	-2.987460e+000	1.803308e+000	2.809382e-002	3.810421e-002	-5.704102e-001	-1.139861e-001
3987680375	-4.312466e-001	-2.575627e-001	-2.988645e+000	1.841259e+000	2.816884e-002	3.779694e-002	-5.697150e-001	-1.102166e-001
3993930188	-4.318385e-001	-2.532139e-001	-2.980272e+000	1.872154e+000	2.850986e-002	3.792550e-002	-5.695639e-001	-1.055869e-001
4000180000	-4.330617e-001	-2.497510e-001	-2.978890e+000	1.897071e+000	2.866169e-002	3.817928e-002	-5.690539e-001	-1.009250e-001
4006429813	-4.343631e-001	-2.464763e-001	-2.971148e+000	1.931405e+000	2.858678e-002	3.822673e-002	-5.691811e-001	-9.648233e-002
4012679625	-4.356599e-001	-2.425960e-001	-2.964452e+000	1.960565e+000	2.871900e-002	3.872576e-002	-5.691438e-001	-9.163043e-002
4018929438	-4.374817e-001	-2.386921e-001	-2.962755e+000	1.992564e+000	2.887808e-002	3.852331e-002	-5.687071e-001	-8.614089e-002
4025179250	-4.385270e-001	-2.343526e-001	-2.963190e+000	2.027395e+000	2.895301e-002	3.885778e-002	-5.688096e-001	-8.128350e-002
4031429063	-4.404791e-001	-2.301809e-001	-2.954864e+000	2.056933e+000	2.930296e-002	3.890436e-002	-5.689156e-001	-7.710647e-002
4037678875	-4.417172e-001	-2.261499e-001	-2.945654e+000	2.093742e+000	2.920700e-002	3.885511e-002	-5.685453e-001	-7.230969e-002
4043928688	-4.427860e-001	-2.217390e-001	-2.941656e+000	2.126018e+000	2.952371e-002	3.910414e-002	-5.683314e-001	-6.801227e-002
4050178500	-4.440956e-001	-2.171227e-001	-2.934326e+000	2.164323e+000	2.980641e-002	3.894426e-002	-5.671542e-001	-6.364019e-002
4056428313	-4.450582e-001	-2.121912e-001	-2.926413e+000	2.196866e+000	2.994024e-002	3.928767e-002	-5.672174e-001	-5.986291e-002
4062678125	-4.458158e-001	-2.081558e-001	-2.916161e+000	2.235153e+000	3.039845e-002	3.917966e-002	-5.656628e-001	-5.558226e-002
4068927938	-4.464707e-001	-2.032076e-001	-2.910263e+000	2.261766e+000	3.054310e-002	3.942390e-002	-5.643876e-001	-5.235893e-002
4075177750	-4.472753e-001	-1.989879e-001	-2.901305e+000	2.300040e+000	3.074034e-002	3.927426e-002	-5.632871e-001	-4.865072e-002
4081427563	-4.480610e-001	-1.940588e-001	-2.888531e+000	2.330897e+000	3.119298e-002	3.922243e-002	-5.624417e-001	-4.439810e-002
4087677375	-4.481371e-001	-1.894342e-001	-2.879407e+000	2.367459e+000	3.137800e-002	3.936806e-002	-5.606518e-001	-4.166774e-002
4093927188	-4.488989e-001	-1.850757e-001	-2.868808e+000	2.395085e+000	3.170319e-002	3.960328e-002	-5.589720e-001	-3.760447e-002
4100177000	-4.487064e-001	-1.801535e-001	-2.852520e+000	2.433315e+000	3.198615e-002	3.940736e-002	-5.577196e-001	-3.420532e-002
4106426813	-4.483548e-001	-1.760828e-001	-2.840118e+000	2.463028e+000	3.251659e-002	3.940067e-002	-5.563950e-001	-3.051898e-002
4112676625	-4.478748e-001	-1.719250e-001	-2.827962e+000	2.496378e+000	3.278737e-002	3.918548e-002	-5.550373e-001	-2.700936e-002
4118926438	-4.477996e-001	-1.678356e-001	-2.812219e+000	2.522548e+000	3.289311e-002	3.910833e-002	-5.538936e-001	-2.353574e-002
4125176250	-4.469589e-001	-1.648046e-001	-2.800184e+000	2.554239e+000	3.314049e-002	3.908864e-002	-5.522562e-001	-1.990356e-002
4131426063	-4.475403e-001	-1.615179e-001	-2.786399e+000	2.580863e+000	3.314236e-002	3.869528e-002	-5.514016e-001	-1.674511e-002
4137675875	-4.480027e-001	-1.591137e-001	-2.776883e+000	2.601694e+000	3.304673e-002	3.884441e-002	-5.506145e-001	-1.293916e-002
4143925688	-4.488987e-001	-1.559126e-001	-2.765649e+000	2.638090e+000	3.325455e-002	3.875981e-002	-5.495089e-001	-8.517852e-003
4150175500	-4.510931e-001	-1.525574e-001	-2.757858e+000	2.665598e+000	3.334559e-002	3.880300e-002	-5.485333e-001	-4.314423e-003
4156425313	-4.523635e-001	-1.494074e-001	-2.749174e+000	2.699680e+000	3.366378e-002	3.880076e-002	-5.468972e-001	5.157963e-004
4162675125	-4.544055e-001	-1.451147e-001	-2.738905e+000	2.729650e+000	3.373096e-002	3.901319e-002	-5.459678e-001	5.568547e-003
4168924938	-4.557593e-001	-1.407017e-001	-2.726018e+000	2.768731e+000	3.390581e-002	3.929390e-002	-5.444900e-001	1.000544e-002
4175174750	-4.572659e-001	-1.361656e-001	-2.712525e+000	2.797982e+000	3.425834e-002	3.950145e-002	-5.427772e-001	1.473369e-002
4181424563	-4.582447e-001	-1.312317e-001	-2.699135e+000	2.837084e+000	3.438197e-002	3.980247e-002	-5.415739e-001	1.938061e-002
4187674375	-4.590336e-001	-1.262754e-001	-2.681154e+000	2.871762e+000	3.472670e-002	3.989776e-002	-5.403760e-001	2.436935e-002
4193924188	-4.601975e-001	-1.214058e-001	-2.666575e+000	2.902896e+000	3.490124e-002	4.000216e-002	-5.390248e-001	2.863890e-002
4200174000	-4.606145e-001	-1.164566e-001	-2.651330e+000	2.940682e+000	3.513071e-002	3.994483e-002	-5.380930e-001	3.274680e-002
4206423813	-4.614989e-001	-1.118738e-001	-2.634681e+000	2.972246e+000	3.547620e-002	4.009556e-002	-5.364955e-001	3.717534e-002
4212673625	-4.616471e-001	-1.068785e-001	-2.614938e+000	3.006138e+000	3.562169e-002	3.976192e-002	-5.352566e-001	4.091949e-002
4218923438	-4.622521e-001	-1.022780e-001	-2.593361e+000	3.043231e+000	3.582283e-002	4.006536e-002	-5.339865e-001	4.491518e-002
4225173250	-4.626438e-001	-9.698728e-002	-2.576185e+000	3.075707e+000	3.614828e-002	3.998014e-002	-5.324853e-001	4.789544e-002
4231423063	-4.626552e-001	-9.239398e-002	-2.555457e+000	3.108884e+000	3.660353e-002	3.997847e-002	-5.308666e-001	5.170400e-002
4237672875	-4.628205e-001	-8.713243e-002	-2.536004e+000	3.138267e+000	3.675884e-002	4.000426e-002	-5.289725e-001	5.495727e-002
4243922688	-4.625301e-001	-8.213401e-002	-2.514499e+000	3.174353e+000	3.695368e-002	3.999211e-002	-5.270892e-001	5.797706e-002
4250172500	-4.621317e-001	-7.755541e-002	-2.490718e+000	3.204484e+000	3.762946e-002	3.993762e-002	-5.255071e-001	6.079958e-002
4256422313	-4.617142e-001	-7.251609e-002	-2.470519e+000	3.237960e+000	3.783203e-002	3.994470e-002	-5.229728e-001	6.436524e-002
4262672125	-4.606590e-001	-6.759504e-002	-2.444351e+000	3.272988e+000	3.800716e-002	3.975373e-002	-5.207772e-001	6.714107e-002
4268921938	-4.604532e-001	-6.315964e-002	-2.418790e+000	3.298423e+000	3.837971e-002	3.966750e-002	-5.185864e-001	7.048146e-002
4275171750	-4.599761e-001	-5.921460e-002	-2.387042e+000	3.331168e+000	3.862879e-002	3.932539e-002	-5.171357e-001	7.373792e-002
4281421563	-4.592788e-001	-5.476805e-002	-2.367455e+000	3.357811e+000	3.875443e-002	3.932484e-002	-5.149180e-001	7.667358e-002
4287671375	-4.584760e-001	-5.059862e-002	-2.341666e+000	3.386659e+000	3.908827e-002	3.947934e-002	-5.124642e-001	7.997281e-002
4293921188	-4.579723e-001	-4.631325e-002	-2.319326e+000	3.412808e+000	3.923188e-002	3.922446e-002	-5.103938e-001	8.255866e-002
4300171000	-4.572623e-001	-4.240545e-002	-2.290302e+000	3.443844e+000	3.962496e-002	3.935750e-002	-5.081167e-001	8.665771e-002
4306420813	-4.570110e-001	-3.778580e-002	-2.267645e+000	3.466359e+000	3.988543e-002	3.904910e-002	-5.055821e-001	8.970306e-002
4312670625	-4.559566e-001	-3.337802e-002	-2.243317e+000	3.496237e+000	4.029174e-002	3.901190e-002	-5.028611e-001	9.309330e-002
4318920438	-4.552417e-001	-2.924624e-002	-2.217202e+000	3.530679e+000	4.063553e-002	3.923203e-002	-5.005668e-001	9.715079e-002
4325170250	-4.544080e-001	-2.535599e-002	-2.186242e+000	3.553868e+000	4.070261e-002	3.907788e-002	-4.984631e-001	1.006530e-001
4331420063	-4.537609e-001	-2.131327e-002	-2.158434e+000	3.581920e+000	4.096925e-002	3.924971e-002	-4.967144e-001	1.047182e-001
4337669875	-4.527932e-001	-1.721150e-002	-2.130802e+000	3.609491e+000	4.130583e-002	3.908937e-002	-4.945281e-001	1.083784e-001
4343919688	-4.519653e-001	-1.331516e-002	-2.105848e+000	3.635448e+000	4.125676e-002	3.928934e-002	-4.930338e-001	1.125609e-001
4350169500	-4.513948e-001	-9.397474e-003	-2.077181e+000	3.656021e+000	4.153334e-002	3.905310e-002	-4.918063e-001	1.162568e-001
4356419313	-4.507200e-001	-5.602858e-003	-2.055039e+000	3.685273e+000	4.163831e-002	3.907885e-002	-4.899024e-001	1.201008e-001
4362669125	-4.498988e-001	-1.785297e-003	-2.024504e+000	3.705738e+000	4.182896e-002	3.884986e-002	-4.882749e-001	1.233249e-001
4368918938	-4.496980e-001	1.845402e-003	-1.995414e+000	3.732518e+000	4.197630e-002	3.885223e-002	-4.862122e-001	1.269414e-001
4375168750	-4.487341e-001	5.428346e-003	-1.965362e+000	3.760472e+000	4.221856e-002	3.881221e-002	-4.846526e-001	1.299478e-001
4381418563	-4.484210e-001	9.591837e-003	-1.940159e+000	3.787221e+000	4.266699e-002	3.879143e-002	-4.818130e-001	1.329717e-001
4387668375	-4.479764e-001	1.331950e-002	-1.916133e+000	3.813407e+000	4.304132e-002	3.869210e-002	-4.795888e-001	1.350092e-001
4393918188	-4.474809e-001	1.775797e-002	-1.879899e+000	3.835577e+000	4.307885e-002	3.862962e-002	-4.773346e-001	1.380466e-001
4400168000	-4.472193e-001	2.145515e-002	-1.853870e+000	3.862243e+000	4.338586e-002	3.851045e-002	-4.753726e-001	1.404782e-001
4406417813	-4.466108e-001	2.556618e-002	-1.819750e+000	3.886472e+000	4.366701e-002	3.854772e-002	-4.727951e-001	1.433635e-001
4412667625	-4.459207e-001	2.973870e-002	-1.790157e+000	3.914144e+000	4.387461e-002	3.832246e-002	-4.703609e-001	1.454613e-001
4418917438	-4.449543e-001	3.407634e-002	-1.755608e+000	3.935597e+000	4.410248e-002	3.838436e-002	-4.677138e-001	1.484360e-001
4425167250	-4.437897e-001	3.792573e-002	-1.725805e+000	3.962190e+000	4.454664e-002	3.816527e-002	-4.652810e-001	1.512356e-001
4431417063	-4.422318e-001	4.158696e-002	-1.690436e+000	3.985512e+000	4.478925e-002	3.824828e-002	-4.626494e-001	1.537494e-001
4437666875	-4.416008e-001	4.586680e-002	-1.653628e+000	4.002650e+000	4.510827e-002	3.794137e-002	-4.599234e-001	1.562182e-001
4443916688	-4.400791e-001	5.001621e-002	-1.622566e+000	4.026689e+000	4.517013e-002	3.783419e-002	-4.576402e-001	1.587091e-001
4450166500	-4.386818e-001	5.338193e-002	-1.585994e+000	4.047498e+000	4.553273e-002	3.769187e-002	-4.551391e-001	1.612155e-001
4456416313	-4.374739e-001	5.746949e-002	-1.548207e+000	4.069990e+000	4.569171e-002	3.750746e-002	-4.521577e-001	1.634339e-001
4462666125	-4.361998e-001	6.098794e-002	-1.517099e+000	4.089139e+000	4.620050e-002	3.752152e-002	-4.483843e-001	1.657158e-001
4468915938	-4.339099e-001	6.451014e-002	-1.478480e+000	4.107392e+000	4.665090e-002	3.717233e-002	-4.457884e-001	1.674798e-001
4475165750	-4.330591e-001	6.765928e-002	-1.447841e+000	4.119836e+000	4.674171e-002	3.722303e-002	-4.420571e-001	1.702283e-001
4481415563	-4.316776e-001	7.064187e-002	-1.412707e+000	4.135783e+000	4.737568e-002	3.713738e-002	-4.396272e-001	1.723761e-001
4487665375	-4.298131e-001	7.363655e-002	-1.378067e+000	4.150780e+000	4.745006e-002	3.665717e-002	-4.369447e-001	1.745543e-001
4493915188	-4.284171e-001	7.554355e-002	-1.345649e+000	4.167817e+000	4.782861e-002	3.647863e-002	-4.350897e-001	1.770585e-001
4500165000	-4.273191e-001	7.833218e-002	-1.315394e+000	4.176189e+000	4.796111e-002	3.633845e-002	-4.332522e-001	1.792365e-001
4506414813	-4.271103e-001	8.066623e-002	-1.290817e+000	4.190588e+000	4.779347e-002	3.612031e-002	-4.325058e-001	1.827687e-001
4512664625	-4.271046e-001	8.309281e-002	-1.259634e+000	4.208603e+000	4.776755e-002	3.600669e-002	-4.308017e-001	1.857978e-001
4518914438	-4.276908e-001	8.548665e-002	-1.227152e+000	4.223272e+000	4.769690e-002	3.585685e-002	-4.296490e-001	1.886935e-001
4525164250	-4.280026e-001	8.838009e-002	-1.196382e+000	4.249741e+000	4.799370e-002	3.583180e-002	-4.274694e-001	1.923888e-001
4531414063	-4.286468e-001	9.242788e-002	-1.165056e+000	4.269439e+000	4.782423e-002	3.587524e-002	-4.256648e-001	1.952428e-001
4537663875	-4.283599e-001	9.683504e-002	-1.134944e+000	4.288022e+000	4.803395e-002	3.590932e-002	-4.226665e-001	1.980202e-001
4543913688	-4.284182e-001	1.009239e-001	-1.098781e+000	4.306192e+000	4.830051e-002	3.600980e-002	-4.201952e-001	2.005190e-001
4550163500	-4.283656e-001	1.047640e-001	-1.061487e+000	4.327230e+000	4.847659e-002	3.572025e-002	-4.174896e-001	2.030206e-001
4556413313	-4.274711e-001	1.089653e-001	-1.021764e+000	4.343217e+000	4.878610e-002	3.558563e-002	-4.149008e-001	2.052061e-001
4562663125	-4.267674e-001	1.127338e-001	-9.914046e-001	4.360780e+000	4.913021e-002	3.566396e-002	-4.117132e-001	2.068640e-001
4568912938	-4.266715e-001	1.166419e-001	-9.514719e-001	4.376188e+000	4.944250e-002	3.551680e-002	-4.100512e-001	2.085557e-001
4575162750	-4.254301e-001	1.205865e-001	-9.161513e-001	4.397676e+000	4.951545e-002	3.534765e-002	-4.073766e-001	2.100632e-001
4581412563	-4.246190e-001	1.249964e-001	-8.799337e-001	4.411231e+000	4.974566e-002	3.539856e-002	-4.049893e-001	2.118219e-001
4587662375	-4.237980e-001	1.288093e-001	-8.377811e-001	4.431781e+000	4.995480e-002	3.501275e-002	-4.019560e-001	2.135024e-001
4593912188	-4.230167e-001	1.331886e-001	-8.005505e-001	4.445487e+000	5.007378e-002	3.480802e-002	-3.989634e-001	2.156198e-001
4600162000	-4.219482e-001	1.378735e-001	-7.599266e-001	4.458672e+000	5.054311e-002	3.477787e-002	-3.964588e-001	2.171877e-001
4606411813	-4.209237e-001	1.418462e-001	-7.196511e-001	4.474453e+000	5.077191e-002	3.492745e-002	-3.930473e-001	2.192499e-001
4612661625	-4.195439e-001	1.464027e-001	-6.777310e-001	4.485023e+000	5.084023e-002	3.470000e-002	-3.900366e-001	2.205568e-001
4618911438	-4.181036e-001	1.513117e-001	-6.388642e-001	4.499120e+000	5.144909e-002	3.466902e-002	-3.868311e-001	2.226917e-001
4625161250	-4.161898e-001	1.548404e-001	-5.935927e-001	4.511289e+000	5.156189e-002	3.453344e-002	-3.834353e-001	2.245861e-001
4631411063	-4.148382e-001	1.600456e-001	-5.512398e-001	4.519732e+000	5.209301e-002	3.459011e-002	-3.797348e-001	2.273585e-001
4637660875	-4.123398e-001	1.638131e-001	-5.060709e-001	4.532203e+000	5.227422e-002	3.446147e-002	-3.766114e-001	2.287674e-001
4643910688	-4.104746e-001	1.683509e-001	-4.672516e-001	4.538139e+000	5.265250e-002	3.433318e-002	-3.735988e-001	2.315334e-001
4650160500	-4.079003e-001	1.723419e-001	-4.242817e-001	4.547666e+000	5.261852e-002	3.437662e-002	-3.706931e-001	2.335992e-001
4656410313	-4.058534e-001	1.760708e-001	-3.747873e-001	4.548216e+000	5.323123e-002	3.423111e-002	-3.679907e-001	2.347316e-001
4662660125	-4.031127e-001	1.802473e-001	-3.338915e-001	4.559974e+000	5.367482e-002	3.414041e-002	-3.653922e-001	2.364236e-001
4668909938	-4.004567e-001	1.834306e-001	-2.952742e-001	4.563199e+000	5.398199e-002	3.385975e-002	-3.624572e-001	2.370764e-001
4675159750	-3.979106e-001	1.868716e-001	-2.476492e-001	4.559256e+000	5.426578e-002	3.367804e-002	-3.596914e-001	2.370004e-001
4681409563	-3.951756e-001	1.897525e-001	-2.059320e-001	4.563487e+000	5.490134e-002	3.341206e-002	-3.571421e-001	2.381582e-001
4687659375	-3.922919e-001	1.924074e-001	-1.637372e-001	4.566261e+000	5.491402e-002	3.305904e-002	-3.550440e-001	2.387100e-001
4693909188	-3.897645e-001	1.950270e-001	-1.252753e-001	4.563882e+000	5.555002e-002	3.256785e-002	-3.526899e-001	2.391288e-001
4700159000	-3.866614e-001	1.978082e-001	-8.725311e-002	4.571116e+000	5.573691e-002	3.239522e-002	-3.507296e-001	2.398572e-001
4706408813	-3.845382e-001	1.999361e-001	-4.591448e-002	4.568150e+000	5.595181e-002	3.193659e-002	-3.496727e-001	2.403684e-001
4712658625	-3.821255e-001	2.020075e-001	-7.945190e-003	4.563966e+000	5.610977e-002	3.148043e-002	-3.474751e-001	2.409658e-001
4718908438	-3.802153e-001	2.035028e-001	2.421486e-002	4.565821e+000	5.663280e-002	3.102849e-002	-3.459125e-001	2.420153e-001
4725158250	-3.789643e-001	2.052653e-001	6.794370e-002	4.564682e+000	5.663434e-002	3.059916e-002	-3.443986e-001	2.425785e-001
4731408063	-3.768716e-001	2.075672e-001	1.047111e-001	4.567297e+000	5.657343e-002	3.002427e-002	-3.432625e-001	2.440141e-001
4737657875	-3.748089e-001	2.094017e-001	1.465550e-001	4.570070e+000	5.682685e-002	2.991999e-002	-3.410928e-001	2.447322e-001
4743907688	-3.729399e-001	2.118828e-001	1.799963e-001	4.571515e+000	5.679682e-002	2.932702e-002	-3.397845e-001	2.461587e-001
4750157500	-3.713250e-001	2.143598e-001	2.190349e-001	4.569044e+000	5.681639e-002	2.902537e-002	-3.382382e-001	2.470134e-001
4756407313	-3.697933e-001	2.160376e-001	2.583545e-001	4.568048e+000	5.699950e-002	2.862279e-002	-3.364861e-001	2.478669e-001
4762657125	-3.677298e-001	2.185496e-001	3.006344e-001	4.560209e+000	5.728785e-002	2.827504e-002	-3.344739e-001	2.486647e-001
4768906938	-3.657822e-001	2.208383e-001	3.391900e-001	4.556711e+000	5.746345e-002	2.794313e-002	-3.321245e-001	2.494782e-001
4775156750	-3.631154e-001	2.224761e-001	3.738544e-001	4.553909e+000	5.721373e-002	2.762215e-002	-3.298854e-001	2.497435e-001
4781406563	-3.607505e-001	2.238939e-001	4.129472e-001	4.548752e+000	5.760618e-002	2.707693e-002	-3.277907e-001	2.511390e-001
4787656375	-3.593210e-001	2.251072e-001	4.452394e-001	4.540233e+000	5.766403e-002	2.692650e-002	-3.255100e-001	2.528430e-001
4793906188	-3.574488e-001	2.261641e-001	4.773155e-001	4.534650e+000	5.740727e-002	2.632717e-002	-3.241489e-001	2.548592e-001
4800156000	-3.563774e-001	2.271166e-001	5.112540e-001	4.530179e+000	5.726898e-002	2.636481e-002	-3.224109e-001	2.570810e-001
4806405813	-3.550963e-001	2.282916e-001	5.416006e-001	4.524282e+000	5.712953e-002	2.627260e-002	-3.209180e-001	2.588450e-001
4812655625	-3.542264e-001	2.289910e-001	5.777132e-001	4.523348e+000	5.699836e-002	2.564321e-002	-3.198144e-001	2.611867e-001
4818905438	-3.539075e-001	2.296692e-001	6.091997e-001	4.517425e+000	5.687950e-002	2.513323e-002	-3.182044e-001	2.626573e-001
4825155250	-3.540040e-001	2.307982e-001	6.404660e-001	4.515085e+000	5.657714e-002	2.532816e-002	-3.166694e-001	2.655630e-001
4831405063	-3.540569e-001	2.315629e-001	6.751115e-001	4.515166e+000	5.622721e-002	2.503747e-002	-3.157317e-001	2.673655e-001
4837654875	-3.546292e-001	2.336766e-001	7.028027e-001	4.513357e+000	5.609524e-002	2.486785e-002	-3.137035e-001	2.694605e-001
4843904688	-3.548503e-001	2.351587e-001	7.328485e-001	4.517251e+000	5.607624e-002	2.479824e-002	-3.121121e-001	2.713787e-001
4850154500	-3.557907e-001	2.370721e-001	7.651839e-001	4.515716e+000	5.547971e-002	2.501960e-002	-3.101146e-001	2.738231e-001
4856404313	-3.569138e-001	2.393523e-001	7.963104e-001	4.517166e+000	5.542664e-002	2.479410e-002	-3.080227e-001	2.756522e-001
4862654125	-3.581532e-001	2.420148e-001	8.305412e-001	4.519620e+000	5.519553e-002	2.466067e-002	-3.057107e-001	2.781972e-001
4868903938	-3.594106e-001	2.454681e-001	8.681298e-001	4.521689e+000	5.529533e-002	2.447889e-002	-3.033669e-001	2.801191e-001
4875153750	-3.601491e-001	2.490033e-001	9.027129e-001	4.528321e+000	5.502517e-002	2.474838e-002	-3.004721e-001	2.824942e-001
4881403563	-3.606789e-001	2.535082e-001	9.454208e-001	4.532164e+000	5.468088e-002	2.497474e-002	-2.972208e-001	2.846016e-001
4887653375	-3.611360e-001	2.576999e-001	9.860407e-001	4.528799e+000	5.491683e-002	2.511255e-002	-2.940360e-001	2.863355e-001
4893903188	-3.606675e-001	2.624487e-001	1.028587e+000	4.534831e+000	5.498228e-002	2.542642e-002	-2.906254e-001	2.878352e-001
4900153000	-3.604088e-001	2.669193e-001	1.074396e+000	4.531443e+000	5.499171e-002	2.559169e-002	-2.869514e-001	2.893615e-001
4906402813	-3.593997e-001	2.715357e-001	1.119306e+000	4.526111e+000	5.505663e-002	2.593218e-002	-2.832230e-001	2.907407e-001
4912652625	-3.578487e-001	2.763418e-001	1.162172e+000	4.523885e+000	5.550241e-002	2.623326e-002	-2.791040e-001	2.915250e-001
4918902438	-3.567266e-001	2.805423e-001	1.208946e+000	4.512354e+000	5.575992e-002	2.630889e-002	-2.754005e-001	2.922606e-001
4925152250	-3.544925e-001	2.851458e-001	1.255398e+000	4.507121e+000	5.595477e-002	2.634850e-002	-2.710161e-001	2.923859e-001
4931402063	-3.525330e-001	2.895026e-001	1.295290e+000	4.493197e+000	5.648286e-002	2.655741e-002	-2.669949e-001	2.922694e-001
4937651875	-3.503295e-001	2.932582e-001	1.341820e+000	4.484573e+000	5.678286e-002	2.646508e-002	-2.632482e-001	2.925277e-001
4943901688	-3.478349e-001	2.969190e-001	1.386590e+000	4.471655e+000	5.704121e-002	2.661074e-002	-2.594779e-001	2.929103e-001
4950151500	-3.451718e-001	3.005791e-001	1.428192e+000	4.456354e+000	5.757030e-002	2.667788e-002	-2.563666e-001	2.927812e-001
4956401313	-3.426572e-001	3.035469e-001	1.467862e+000	4.443315e+000	5.811902e-002	2.666443e-002	-2.526457e-001	2.928703e-001
4962651125	-3.402222e-001	3.070432e-001	1.510417e+000	4.426676e+000	5.839718e-002	2.667349e-002	-2.496693e-001	2.921993e-001
4968900938	-3.376329e-001	3.100218e-001	1.554246e+000	4.410959e+000	5.848422e-002	2.674572e-002	-2.464286e-001	2.927794e-001
4975150750	-3.345322e-001	3.129611e-001	1.588748e+000	4.394527e+000	5.886536e-002	2.649294e-002	-2.438016e-001	2.920734e-001
4981400563	-3.311567e-001	3.154583e-001	1.629785e+000	4.381337e+000	5.930939e-002	2.644187e-002	-2.412105e-001	2.917051e-001
4987650375	-3.290236e-001	3.178064e-001	1.670494e+000	4.363891e+000	5.953535e-002	2.621373e-002	-2.389968e-001	2.912318e-001
4993900188	-3.257832e-001	3.203527e-001	1.704865e+000	4.347662e+000	6.007611e-002	2.603206e-002	-2.364899e-001	2.905985e-001
5000150000	-3.233898e-001	3.224110e-001	1.742412e+000	4.325927e+000	6.029544e-002	2.580661e-002	-2.339738e-001	2.896582e-001
5006399813	-3.206685e-001	3.249500e-001	1.776991e+000	4.312409e+000	6.064113e-002	2.563264e-002	-2.322267e-001	2.900153e-001
5012649625	-3.180330e-001	3.267135e-001	1.812775e+000	4.291525e+000	6.075906e-002	2.527000e-002	-2.305992e-001	2.891793e-001
5018899438	-3.155617e-001	3.287696e-001	1.849297e+000	4.271401e+000	6.122850e-002	2.491302e-002	-2.289013e-001	2.883188e-001
5025149250	-3.134908e-001	3.309840e-001	1.882911e+000	4.258927e+000	6.135772e-002	2.453106e-002	-2.271742e-001	2.879297e-001
5031399063	-3.109850e-001	3.333276e-001	1.918107e+000	4.238134e+000	6.173783e-002	2.465527e-002	-2.254499e-001	2.877952e-001
5037648875	-3.091460e-001	3.352824e-001	1.954254e+000	4.221317e+000	6.170238e-002	2.411159e-002	-2.237659e-001	2.873832e-001
5043898688	-3.066227e-001	3.376127e-001	1.990129e+000	4.201162e+000	6.174608e-002	2.379254e-002	-2.222653e-001	2.878197e-001
5050148500	-3.045266e-001	3.399006e-001	2.025334e+000	4.180548e+000	6.181136e-002	2.356910e-002	-2.205802e-001	2.877371e-001
5056398313	-3.020414e-001	3.421023e-001	2.054667e+000	4.163165e+000	6.231464e-002	2.337919e-002	-2.187656e-001	2.874035e-001
5062648125	-2.994758e-001	3.440951e-001	2.093925e+000	4.143837e+000	6.221600e-002	2.320329e-002	-2.168251e-001	2.870238e-001
5068897938	-2.968441e-001	3.463754e-001	2.128410e+000	4.118862e+000	6.253190e-002	2.306016e-002	-2.143822e-001	2.862802e-001
5075147750	-2.948012e-001	3.482975e-001	2.162313e+000	4.102306e+000	6.282523e-002	2.304475e-002	-2.115830e-001	2.848977e-001
5081397563	-2.924218e-001	3.505450e-001	2.192212e+000	4.075333e+000	6.322882e-002	2.252875e-002	-2.099618e-001	2.843495e-001
5087647375	-2.897351e-001	3.517922e-001	2.231181e+000	4.053555e+000	6.358013e-002	2.230872e-002	-2.070954e-001	2.835166e-001
5093897188	-2.874190e-001	3.535210e-001	2.257638e+000	4.031152e+000	6.396076e-002	2.229037e-002	-2.049516e-001	2.827634e-001
5100147000	-2.851900e-001	3.546547e-001	2.290890e+000	4.004310e+000	6.390097e-002	2.197389e-002	-2.030829e-001	2.817105e-001
5106396813	-2.823132e-001	3.562087e-001	2.316214e+000	3.988526e+000	6.427027e-002	2.168511e-002	-2.007007e-001	2.810962e-001
5112646625	-2.802359e-001	3.581521e-001	2.349214e+000	3.958423e+000	6.471469e-002	2.171425e-002	-1.991707e-001	2.807247e-001
5118896438	-2.776772e-001	3.597007e-001	2.379672e+000	3.935640e+000	6.470800e-002	2.127259e-002	-1.976849e-001	2.801871e-001
5125146250	-2.755981e-001	3.613839e-001	2.404623e+000	3.910429e+000	6.491519e-002	2.124648e-002	-1.961525e-001	2.804894e-001
5131396063	-2.731015e-001	3.623182e-001	2.434573e+000	3.890050e+000	6.510354e-002	2.092175e-002	-1.939051e-001	2.802697e-001
5137645875	-2.710756e-001	3.642827e-001	2.465199e+000	3.866695e+000	6.500362e-002	2.085088e-002	-1.926524e-001	2.801939e-001
5143895688	-2.678479e-001	3.653030e-001	2.494777e+000	3.845992e+000	6.549848e-002	2.045589e-002	-1.913501e-001	2.790247e-001
5150145500	-2.658623e-001	3.665298e-001	2.522242e+000	3.817965e+000	6.547673e-002	2.003226e-002	-1.902948e-001	2.788356e-001
5156395313	-2.636691e-001	3.675275e-001	2.552068e+000	3.792640e+000	6.558050e-002	1.948066e-002	-1.892947e-001	2.781209e-001
5162645125	-2.618155e-001	3.692425e-001	2.579244e+000	3.767213e+000	6.613737e-002	1.939478e-002	-1.883337e-001	2.773058e-001
5168894938	-2.593426e-001	3.703021e-001	2.604764e+000	3.744288e+000	6.604551e-002	1.919621e-002	-1.868328e-001	2.772843e-001
5175144750	-2.574231e-001	3.719380e-001	2.627729e+000	3.719135e+000	6.612539e-002	1.874575e-002	-1.855360e-001	2.763449e-001
5181394563	-2.551824e-001	3.724606e-001	2.659734e+000	3.691330e+000	6.655623e-002	1.839199e-002	-1.841763e-001	2.751972e-001
5187644375	-2.530946e-001	3.737255e-001	2.687038e+000	3.669242e+000	6.673799e-002	1.835973e-002	-1.830417e-001	2.746038e-001
5193894188	-2.513152e-001	3.750145e-001	2.712882e+000	3.640781e+000	6.678836e-002	1.768240e-002	-1.812332e-001	2.740166e-001
5200144000	-2.485462e-001	3.766479e-001	2.734585e+000	3.615624e+000	6.703886e-002	1.767271e-002	-1.802959e-001	2.728315e-001
5206393813	-2.458770e-001	3.773219e-001	2.763629e+000	3.588925e+000	6.681086e-002	1.730682e-002	-1.789216e-001	2.724375e-001
5212643625	-2.439331e-001	3.784756e-001	2.784871e+000	3.562403e+000	6.717411e-002	1.720634e-002	-1.778128e-001	2.720118e-001
5218893438	-2.417240e-001	3.791810e-001	2.814476e+000	3.536906e+000	6.722471e-002	1.669353e-002	-1.777806e-001	2.722209e-001
5225143250	-2.393356e-001	3.796941e-001	2.836728e+000	3.506846e+000	6.763745e-002	1.653816e-002	-1.763999e-001	2.713548e-001
5231393063	-2.372407e-001	3.806671e-001	2.859066e+000	3.478466e+000	6.751236e-002	1.609009e-002	-1.759330e-001	2.706673e-001
5237642875	-2.347683e-001	3.812351e-001	2.884443e+000	3.454868e+000	6.812129e-002	1.553913e-002	-1.751372e-001	2.697185e-001
5243892688	-2.326214e-001	3.811243e-001	2.903869e+000	3.425933e+000	6.813418e-002	1.512517e-002	-1.743730e-001	2.685128e-001
5250142500	-2.308132e-001	3.819287e-001	2.925771e+000	3.398297e+000	6.846550e-002	1.445691e-002	-1.739088e-001	2.672705e-001
5256392313	-2.288431e-001	3.823494e-001	2.947353e+000	3.369460e+000	6.829515e-002	1.442831e-002	-1.734297e-001	2.662539e-001
5262642125	-2.269655e-001	3.825518e-001	2.965184e+000	3.347713e+000	6.850248e-002	1.384826e-002	-1.723973e-001	2.652812e-001
5268891938	-2.254042e-001	3.832487e-001	2.986263e+000	3.321593e+000	6.868753e-002	1.358462e-002	-1.718800e-001	2.649418e-001
5275141750	-2.236758e-001	3.836916e-001	3.005682e+000	3.295922e+000	6.865236e-002	1.330434e-002	-1.709913e-001	2.648631e-001
5281391563	-2.221165e-001	3.847110e-001	3.023911e+000	3.270027e+000	6.898023e-002	1.273576e-002	-1.704755e-001	2.643922e-001
5287641375	-2.205565e-001	3.853610e-001	3.047028e+000	3.244064e+000	6.875411e-002	1.250393e-002	-1.694023e-001	2.645188e-001
5293891188	-2.183207e-001	3.860330e-001	3.065524e+000	3.218713e+000	6.876654e-002	1.223913e-002	-1.675225e-001	2.649991e-001
5300141000	-2.168431e-001	3.868963e-001	3.086576e+000	3.190957e+000	6.875363e-002	1.185584e-002	-1.659070e-001	2.647440e-001
5306390813	-2.154041e-001	3.875789e-001	3.106418e+000	3.166208e+000	6.873472e-002	1.193451e-002	-1.656793e-001	2.643325e-001
5312640625	-2.140358e-001	3.882106e-001	3.122454e+000	3.140796e+000	6.840456e-002	1.160403e-002	-1.652174e-001	2.642362e-001
5318890438	-2.125570e-001	3.889296e-001	3.143916e+000	3.107599e+000	6.855396e-002	1.119273e-002	-1.656284e-001	2.636106e-001
5325140250	-2.108063e-001	3.897161e-001	3.162850e+000	3.082105e+000	6.870338e-002	1.080380e-002	-1.653017e-001	2.632069e-001
5331390063	-2.091364e-001	3.904213e-001	3.180569e+000	3.056696e+000	6.843058e-002	1.043452e-002	-1.647051e-001	2.632551e-001
5337639875	-2.074940e-001	3.911630e-001	3.203503e+000	3.025414e+000	6.842960e-002	1.031649e-002	-1.636802e-001	2.629482e-001
5343889688	-2.062716e-001	3.922208e-001	3.218184e+000	2.998854e+000	6.834462e-002	9.891009e-003	-1.631268e-001	2.622133e-001
5350139500	-2.039323e-001	3.928889e-001	3.233626e+000	2.973361e+000	6.831485e-002	9.304976e-003	-1.627636e-001	2.621891e-001
5356389313	-2.024318e-001	3.931677e-001	3.256325e+000	2.940404e+000	6.833559e-002	9.384064e-003	-1.624137e-001	2.613885e-001
5362639125	-2.004862e-001	3.936441e-001	3.271373e+000	2.914164e+000	6.874973e-002	9.029394e-003	-1.620228e-001	2.606931e-001
5368888938	-1.987325e-001	3.941092e-001	3.287462e+000	2.888954e+000	6.861068e-002	8.572044e-003	-1.613624e-001	2.603570e-001
5375138750	-1.969251e-001	3.940845e-001	3.302371e+000	2.855653e+000	6.853529e-002	8.400394e-003	-1.606847e-001	2.601808e-001
5381388563	-1.956794e-001	3.950608e-001	3.314404e+000	2.829822e+000	6.826477e-002	7.957589e-003	-1.606366e-001	2.600623e-001
5387638375	-1.944483e-001	3.946147e-001	3.332640e+000	2.801198e+000	6.809851e-002	7.648437e-003	-1.604473e-001	2.612044e-001
5393888188	-1.932022e-001	3.948245e-001	3.342004e+000	2.777785e+000	6.785683e-002	7.160986e-003	-1.609004e-001	2.616605e-001
5400138000	-1.918305e-001	3.945712e-001	3.361247e+000	2.750811e+000	6.775948e-002	6.873120e-003	-1.600513e-001	2.621435e-001
5406387813	-1.907249e-001	3.950722e-001	3.372565e+000	2.725191e+000	6.784215e-002	6.465510e-003	-1.598860e-001	2.619123e-001
5412637625	-1.901568e-001	3.948457e-001	3.389280e+000	2.700507e+000	6.761388e-002	6.262938e-003	-1.589386e-001	2.627674e-001
5418887438	-1.890074e-001	3.954901e-001	3.403015e+000	2.677813e+000	6.741910e-002	6.063648e-003	-1.580538e-001	2.626405e-001
5425137250	-1.888328e-001	3.956599e-001	3.417075e+000	2.652485e+000	6.723266e-002	5.606447e-003	-1.570771e-001	2.634496e-001
5431387063	-1.884437e-001	3.961429e-001	3.431356e+000	2.627567e+000	6.686218e-002	5.679095e-003	-1.559004e-001	2.645395e-001
5437636875	-1.886866e-001	3.977938e-001	3.448731e+000	2.600924e+000	6.662398e-002	5.637939e-003	-1.543578e-001	2.653399e-001
5443886688	-1.881547e-001	3.996832e-001	3.466738e+000	2.580813e+000	6.647041e-002	5.897456e-003	-1.518155e-001	2.656596e-001
5450136500	-1.873301e-001	4.013684e-001	3.489195e+000	2.551873e+000	6.624922e-002	5.997601e-003	-1.494682e-001	2.656933e-001
5456386313	-1.856505e-001	4.038383e-001	3.504379e+000	2.525650e+000	6.630618e-002	6.552549e-003	-1.463076e-001	2.659042e-001
5462636125	-1.838999e-001	4.057192e-001	3.527690e+000	2.494259e+000	6.626028e-002	6.552538e-003	-1.433169e-001	2.654926e-001
5468885938	-1.818414e-001	4.079330e-001	3.544070e+000	2.461292e+000	6.615016e-002	6.959694e-003	-1.410670e-001	2.644561e-001
5475135750	-1.785835e-001	4.095211e-001	3.561619e+000	2.428511e+000	6.694804e-002	6.996361e-003	-1.392446e-001	2.623765e-001
5481385563	-1.760163e-001	4.106830e-001	3.574769e+000	2.394828e+000	6.686584e-002	6.893350e-003	-1.376311e-001	2.604472e-001
5487635375	-1.729860e-001	4.111271e-001	3.586384e+000	2.361201e+000	6.708186e-002	6.825862e-003	-1.371473e-001	2.585649e-001
5493885188	-1.707976e-001	4.115857e-001	3.599258e+000	2.330706e+000	6.741986e-002	7.008981e-003	-1.369590e-001	2.569188e-001
5500135000	-1.686732e-001	4.120237e-001	3.607428e+000	2.295299e+000	6.797238e-002	6.768574e-003	-1.361893e-001	2.552576e-001
5506384813	-1.655424e-001	4.122713e-001	3.617410e+000	2.265283e+000	6.800942e-002	6.648309e-003	-1.353347e-001	2.539724e-001
5512634625	-1.636485e-001	4.120377e-001	3.628237e+000	2.235632e+000	6.837764e-002	6.182948e-003	-1.349764e-001	2.526384e-001
5518884438	-1.615438e-001	4.124387e-001	3.631416e+000	2.206412e+000	6.860887e-002	5.855699e-003	-1.349949e-001	2.509573e-001
5525134250	-1.599088e-001	4.120050e-001	3.643008e+000	2.173507e+000	6.890859e-002	5.695348e-003	-1.350846e-001	2.498894e-001
5531384063	-1.582213e-001	4.119328e-001	3.652179e+000	2.141629e+000	6.885976e-002	5.352596e-003	-1.345030e-001	2.485577e-001
5537633875	-1.564800e-001	4.118465e-001	3.664110e+000	2.114932e+000	6.904098e-002	5.008173e-003	-1.348605e-001	2.476434e-001
5543883688	-1.546676e-001	4.123115e-001	3.670140e+000	2.087034e+000	6.930356e-002	4.773833e-003	-1.348453e-001	2.471245e-001
5550133500	-1.536533e-001	4.119356e-001	3.677042e+000	2.059841e+000	6.926477e-002	4.531634e-003	-1.352958e-001	2.460869e-001
5556383313	-1.516818e-001	4.121608e-001	3.685998e+000	2.028989e+000	6.923509e-002	4.218783e-003	-1.353815e-001	2.453780e-001
5562633125	-1.502542e-001	4.122638e-001	3.694903e+000	1.999066e+000	6.936806e-002	3.769612e-003	-1.353014e-001	2.448240e-001
5568882938	-1.490549e-001	4.122579e-001	3.703028e+000	1.971916e+000	6.968064e-002	3.406895e-003	-1.350322e-001	2.441182e-001
5575132750	-1.477670e-001	4.121637e-001	3.709683e+000	1.939331e+000	6.997541e-002	3.438269e-003	-1.343882e-001	2.430595e-001
5581382563	-1.456842e-001	4.120165e-001	3.717291e+000	1.913376e+000	7.008739e-002	3.228600e-003	-1.338438e-001	2.420667e-001
5587632375	-1.450847e-001	4.123501e-001	3.721155e+000	1.881759e+000	7.031064e-002	2.895609e-003	-1.329237e-001	2.404566e-001
5593882188	-1.435497e-001	4.118302e-001	3.732160e+000	1.851798e+000	7.036961e-002	2.785831e-003	-1.323771e-001	2.401549e-001
5600132000	-1.421385e-001	4.122017e-001	3.738711e+000	1.827766e+000	7.041873e-002	2.764019e-003	-1.315582e-001	2.392718e-001
5606381813	-1.410965e-001	4.125793e-001	3.744531e+000	1.794618e+000	7.050166e-002	2.546791e-003	-1.314072e-001	2.383225e-001
5612631625	-1.396728e-001	4.130501e-001	3.753981e+000	1.766837e+000	7.075427e-002	2.135861e-003	-1.303312e-001	2.372743e-001
5618881438	-1.383804e-001	4.132280e-001	3.761414e+000	1.735425e+000	7.077395e-002	1.973658e-003	-1.302270e-001	2.366475e-001
5625131250	-1.360978e-001	4.132626e-001	3.770110e+000	1.705512e+000	7.113480e-002	1.860078e-003	-1.291153e-001	2.353414e-001
5631381063	-1.343014e-001	4.134292e-001	3.772120e+000	1.674603e+000	7.114583e-002	1.808190e-003	-1.285859e-001	2.340075e-001
5637630875	-1.326291e-001	4.128330e-001	3.776021e+000	1.642838e+000	7.138949e-002	1.509461e-003	-1.289795e-001	2.329322e-001
5643880688	-1.301640e-001	4.127360e-001	3.777861e+000	1.611930e+000	7.128450e-002	1.095919e-003	-1.296041e-001	2.311543e-001
5650130500	-1.286699e-001	4.120913e-001	3.780239e+000	1.579465e+000	7.158728e-002	8.533247e-004	-1.304649e-001	2.295390e-001
5656380313	-1.266994e-001	4.117625e-001	3.783114e+000	1.551609e+000	7.165020e-002	4.411345e-004	-1.312533e-001	2.273565e-001
5662630125	-1.247321e-001	4.108215e-001	3.783815e+000	1.525209e+000	7.200662e-002	1.821922e-004	-1.323757e-001	2.265220e-001
5668879938	-1.232382e-001	4.098221e-001	3.787582e+000	1.499113e+000	7.238401e-002	-2.692622e-004	-1.329955e-001	2.248964e-001
5675129750	-1.219704e-001	4.096859e-001	3.788375e+000	1.470708e+000	7.260270e-002	-7.864032e-004	-1.337246e-001	2.237008e-001
5681379563	-1.205377e-001	4.088429e-001	3.791027e+000	1.444258e+000	7.263391e-002	-9.998477e-004	-1.342559e-001	2.231019e-001
5687629375	-1.194592e-001	4.080127e-001	3.790594e+000	1.416869e+000	7.283008e-002	-1.654216e-003	-1.347641e-001	2.225854e-001
5693879188	-1.180105e-001	4.074726e-001	3.793011e+000	1.393791e+000	7.296367e-002	-1.812229e-003	-1.355316e-001	2.211904e-001
5700129000	-1.175622e-001	4.071454e-001	3.795027e+000	1.364247e+000	7.322747e-002	-2.333396e-003	-1.363748e-001	2.209454e-001
5706378813	-1.162809e-001	4.060987e-001	3.797253e+000	1.340761e+000	7.302544e-002	-2.813224e-003	-1.372934e-001	2.206099e-001
5712628625	-1.155040e-001	4.059166e-001	3.800691e+000	1.312933e+000	7.293435e-002	-3.556977e-003	-1.385349e-001	2.201307e-001
5718878438	-1.144960e-001	4.054306e-001	3.802453e+000	1.284630e+000	7.308737e-002	-3.972593e-003	-1.399019e-001	2.204135e-001
5725128250	-1.139228e-001	4.048137e-001	3.806725e+000	1.254958e+000	7.310643e-002	-4.150259e-003	-1.401593e-001	2.206478e-001
5731378063	-1.133886e-001	4.050531e-001	3.808244e+000	1.227600e+000	7.310565e-002	-4.949043e-003	-1.413503e-001	2.206042e-001
5737627875	-1.125605e-001	4.043431e-001	3.810161e+000	1.200955e+000	7.300947e-002	-5.360894e-003	-1.415198e-001	2.202635e-001
5743877688	-1.115739e-001	4.043991e-001	3.809797e+000	1.172921e+000	7.282182e-002	-5.631608e-003	-1.418395e-001	2.204870e-001
5750127500	-1.109707e-001	4.044534e-001	3.811890e+000	1.145002e+000	7.282124e-002	-6.028685e-003	-1.421171e-001	2.194209e-001
5756377313	-1.093728e-001	4.045564e-001	3.808146e+000	1.118342e+000	7.284659e-002	-5.992748e-003	-1.424937e-001	2.189665e-001
5762627125	-1.082890e-001	4.040403e-001	3.811524e+000	1.092099e+000	7.273378e-002	-6.359700e-003	-1.422756e-001	2.184612e-001
5768876938	-1.067825e-001	4.035342e-001	3.810458e+000	1.066528e+000	7.297699e-002	-6.659671e-003	-1.424272e-001	2.175499e-001
5775126750	-1.058159e-001	4.030234e-001	3.808651e+000	1.037995e+000	7.296336e-002	-6.971617e-003	-1.425350e-001	2.171903e-001
5781376563	-1.041716e-001	4.023474e-001	3.808266e+000	1.013131e+000	7.309563e-002	-6.942142e-003	-1.427939e-001	2.164693e-001
5787626375	-1.032681e-001	4.015693e-001	3.806870e+000	9.825836e-001	7.304207e-002	-7.012819e-003	-1.428552e-001	2.161868e-001
5793876188	-1.019817e-001	4.013542e-001	3.807150e+000	9.626990e-001	7.286984e-002	-7.667499e-003	-1.432697e-001	2.153464e-001
5800126000	-1.012006e-001	4.003251e-001	3.802383e+000	9.364053e-001	7.317876e-002	-8.011334e-003	-1.440327e-001	2.148929e-001
5806375813	-1.005965e-001	3.995449e-001	3.805204e+000	9.125808e-001	7.313396e-002	-8.398965e-003	-1.445479e-001	2.141659e-001
5812625625	-1.000871e-001	3.988030e-001	3.800829e+000	8.833585e-001	7.315818e-002	-9.026612e-003	-1.458766e-001	2.135476e-001
5818875438	-9.964087e-002	3.984830e-001	3.801269e+000	8.613148e-001	7.311789e-002	-9.547994e-003	-1.470232e-001	2.129729e-001
5825125250	-9.902486e-002	3.982360e-001	3.801368e+000	8.366492e-001	7.310912e-002	-9.963403e-003	-1.481479e-001	2.123102e-001
5831375063	-9.880012e-002	3.980962e-001	3.798939e+000	8.070627e-001	7.292647e-002	-1.007868e-002	-1.491767e-001	2.122768e-001
5837624875	-9.813788e-002	3.987231e-001	3.796447e+000	7.867729e-001	7.283399e-002	-1.073906e-002	-1.505502e-001	2.117853e-001
5843874688	-9.732641e-002	3.986838e-001	3.795637e+000	7.609107e-001	7.262818e-002	-1.105806e-002	-1.506562e-001	2.115448e-001
5850124500	-9.644134e-002	3.985619e-001	3.794144e+000	7.330358e-001	7.251330e-002	-1.124170e-002	-1.512054e-001	2.111084e-001
5856374313	-9.506908e-002	3.988388e-001	3.796254e+000	7.098630e-001	7.266150e-002	-1.167521e-002	-1.519828e-001	2.106060e-001
5862624125	-9.362577e-002	3.984825e-001	3.792925e+000	6.798912e-001	7.236523e-002	-1.190768e-002	-1.521185e-001	2.105090e-001
5868873938	-9.270601e-002	3.981524e-001	3.790748e+000	6.525971e-001	7.224612e-002	-1.217497e-002	-1.526206e-001	2.104862e-001
5875123750	-9.046718e-002	3.980641e-001	3.789952e+000	6.274271e-001	7.222085e-002	-1.246982e-002	-1.531501e-001	2.099349e-001
5881373563	-8.949383e-002	3.973708e-001	3.783182e+000	6.043383e-001	7.256240e-002	-1.272031e-002	-1.540721e-001	2.099540e-001
5887623375	-8.815351e-002	3.961794e-001	3.777608e+000	5.795129e-001	7.248961e-002	-1.282125e-002	-1.547403e-001	2.096884e-001
5893873188	-8.738045e-002	3.947357e-001	3.773752e+000	5.526597e-001	7.282792e-002	-1.298003e-002	-1.558122e-001	2.095090e-001
5900123000	-8.605001e-002	3.934605e-001	3.766910e+000	5.292401e-001	7.294636e-002	-1.346225e-002	-1.567364e-001	2.087960e-001
5906372813	-8.556952e-002	3.922488e-001	3.764032e+000	5.074092e-001	7.310139e-002	-1.422734e-002	-1.578425e-001	2.083473e-001
5912622625	-8.492060e-002	3.909210e-001	3.757186e+000	4.857728e-001	7.301625e-002	-1.420217e-002	-1.589182e-001	2.083110e-001
5918872438	-8.414738e-002	3.899148e-001	3.753119e+000	4.627284e-001	7.316064e-002	-1.476988e-002	-1.603228e-001	2.083324e-001
5925122250	-8.415882e-002	3.884636e-001	3.750448e+000	4.412166e-001	7.346234e-002	-1.544383e-002	-1.615609e-001	2.081065e-001
5931372063	-8.461609e-002	3.874473e-001	3.743231e+000	4.185481e-001	7.298488e-002	-1.600415e-002	-1.631338e-001	2.086328e-001
5937621875	-8.452044e-002	3.868846e-001	3.739739e+000	3.995445e-001	7.289182e-002	-1.661469e-002	-1.644725e-001	2.093404e-001
5943871688	-8.485344e-002	3.864776e-001	3.738779e+000	3.730986e-001	7.247652e-002	-1.734344e-002	-1.654345e-001	2.099395e-001
5950121500	-8.504285e-002	3.863373e-001	3.735279e+000	3.545576e-001	7.250593e-002	-1.779939e-002	-1.661730e-001	2.105529e-001
5956371313	-8.542962e-002	3.868090e-001	3.735572e+000	3.308280e-001	7.164339e-002	-1.826794e-002	-1.668636e-001	2.115126e-001
5962621125	-8.527123e-002	3.874543e-001	3.730279e+000	3.063840e-001	7.161799e-002	-1.873537e-002	-1.670597e-001	2.122666e-001
5968870938	-8.456469e-002	3.880196e-001	3.727842e+000	2.822444e-001	7.110511e-002	-1.889273e-002	-1.668460e-001	2.126130e-001
5975120750	-8.417032e-002	3.893621e-001	3.725873e+000	2.542296e-001	7.042802e-002	-1.894270e-002	-1.662893e-001	2.131294e-001
5981370563	-8.296920e-002	3.899434e-001	3.723630e+000	2.284633e-001	6.967963e-002	-1.920029e-002	-1.660309e-001	2.131686e-001
5987620375	-8.100798e-002	3.904985e-001	3.719242e+000	2.022451e-001	6.976137e-002	-1.917263e-002	-1.659875e-001	2.125876e-001
5993870188	-7.886713e-002	3.906327e-001	3.711511e+000	1.779042e-001	6.948235e-002	-1.894200e-002	-1.658481e-001	2.115927e-001
6000120000	-7.651981e-002	3.900255e-001	3.704367e+000	1.502360e-001	6.940865e-002	-1.874434e-002	-1.658703e-001	2.111633e-001
6006369813	-7.468256e-002	3.894668e-001	3.698335e+000	1.272283e-001	6.924928e-002	-1.862476e-002	-1.660870e-001	2.099013e-001
6012619625	-7.271547e-002	3.883964e-001	3.690175e+000	1.000020e-001	6.950921e-002	-1.855430e-002	-1.665177e-001	2.091879e-001
6018869438	-7.073130e-002	3.869141e-001	3.681422e+000	8.011617e-002	6.977783e-002	-1.867947e-002	-1.672896e-001	2.080205e-001
6025119250	-6.918443e-002	3.849568e-001	3.670421e+000	5.677786e-002	6.998206e-002	-1.878487e-002	-1.684163e-001	2.074671e-001
6031369063	-6.815464e-002	3.832700e-001	3.662841e+000	3.519101e-002	7.038700e-002	-1.926364e-002	-1.698139e-001	2.069794e-001
6037618875	-6.706310e-002	3.820348e-001	3.654750e+000	1.121082e-002	7.081712e-002	-1.957998e-002	-1.716138e-001	2.069989e-001
6043868688	-6.671904e-002	3.794657e-001	3.645224e+000	-6.599803e-003	7.097273e-002	-1.985843e-002	-1.731784e-001	2.064778e-001
6050118500	-6.648877e-002	3.776433e-001	3.638521e+000	-2.536822e-002	7.142791e-002	-2.050385e-002	-1.747101e-001	2.068268e-001
6056368313	-6.638204e-002	3.754270e-001	3.631963e+000	-4.410742e-002	7.137769e-002	-2.105238e-002	-1.762460e-001	2.071532e-001
6062618125	-6.708285e-002	3.740420e-001	3.623841e+000	-6.151860e-002	7.182085e-002	-2.183552e-002	-1.780540e-001	2.074351e-001
6068867938	-6.756762e-002	3.731010e-001	3.619086e+000	-8.263162e-002	7.165157e-002	-2.229221e-002	-1.792054e-001	2.082146e-001
6075117750	-6.832836e-002	3.722578e-001	3.612397e+000	-1.023768e-001	7.177344e-002	-2.273953e-002	-1.801051e-001	2.089507e-001
6081367563	-6.849843e-002	3.719564e-001	3.604051e+000	-1.236369e-001	7.161401e-002	-2.356116e-002	-1.813923e-001	2.098136e-001
6087617375	-6.900243e-002	3.713618e-001	3.599665e+000	-1.387242e-001	7.108781e-002	-2.397302e-002	-1.819762e-001	2.104267e-001
6093867188	-6.983929e-002	3.713563e-001	3.593227e+000	-1.631291e-001	7.079404e-002	-2.449027e-002	-1.827315e-001	2.119235e-001
6100117000	-6.976038e-002	3.711134e-001	3.590265e+000	-1.824163e-001	7.043039e-002	-2.529665e-002	-1.830340e-001	2.128236e-001
6106366813	-6.992191e-002	3.717755e-001	3.585066e+000	-2.055897e-001	6.959436e-002	-2.556588e-002	-1.829253e-001	2.138301e-001
6112616625	-6.956478e-002	3.720581e-001	3.578315e+000	-2.313067e-001	6.924440e-002	-2.595352e-002	-1.834157e-001	2.145243e-001
6118866438	-6.879795e-002	3.724841e-001	3.573367e+000	-2.519106e-001	6.878035e-002	-2.618958e-002	-1.829216e-001	2.153289e-001
6125116250	-6.799812e-002	3.732551e-001	3.567539e+000	-2.791653e-001	6.826882e-002	-2.646861e-002	-1.827568e-001	2.157223e-001
6131366063	-6.674638e-002	3.737157e-001	3.556026e+000	-3.013479e-001	6.762481e-002	-2.622716e-002	-1.821385e-001	2.154648e-001
6137615875	-6.498719e-002	3.738017e-001	3.550554e+000	-3.243514e-001	6.741668e-002	-2.615204e-002	-1.816817e-001	2.152817e-001
6143865688	-6.303825e-002	3.734199e-001	3.540247e+000	-3.474683e-001	6.691962e-002	-2.585826e-002	-1.814516e-001	2.138319e-001
6150115500	-6.087548e-002	3.724318e-001	3.526475e+000	-3.730567e-001	6.737736e-002	-2.549995e-002	-1.816597e-001	2.129597e-001
6156365313	-5.848138e-002	3.709900e-001	3.516283e+000	-3.919373e-001	6.759378e-002	-2.509871e-002	-1.826382e-001	2.113951e-001
6162615125	-5.670168e-002	3.685466e-001	3.504470e+000	-4.128130e-001	6.812489e-002	-2.518198e-002	-1.834934e-001	2.099512e-001
6168864938	-5.505796e-002	3.666365e-001	3.488813e+000	-4.289573e-001	6.836649e-002	-2.535601e-002	-1.849150e-001	2.084034e-001
6175114750	-5.420552e-002	3.637643e-001	3.479228e+000	-4.471578e-001	6.912905e-002	-2.564933e-002	-1.864463e-001	2.077091e-001
6181364563	-5.338914e-002	3.612571e-001	3.467743e+000	-4.643535e-001	6.956310e-002	-2.604922e-002	-1.886751e-001	2.075067e-001
6187614375	-5.292451e-002	3.588691e-001	3.456011e+000	-4.834619e-001	6.993888e-002	-2.645761e-002	-1.901387e-001	2.076074e-001
6193864188	-5.322587e-002	3.565020e-001	3.445747e+000	-4.985609e-001	7.024480e-002	-2.732209e-002	-1.921846e-001	2.081760e-001
6200114000	-5.388039e-002	3.546113e-001	3.435085e+000	-5.114695e-001	7.060296e-002	-2.831471e-002	-1.944624e-001	2.090419e-001
6206363813	-5.514335e-002	3.518216e-001	3.426782e+000	-5.280361e-001	7.082507e-002	-2.911336e-002	-1.962821e-001	2.107079e-001
6212613625	-5.629800e-002	3.501987e-001	3.420792e+000	-5.419585e-001	7.076126e-002	-2.993679e-002	-1.978545e-001	2.122306e-001
6218863438	-5.700836e-002	3.495947e-001	3.411514e+000	-5.592508e-001	7.054550e-002	-3.123479e-002	-1.993360e-001	2.137546e-001
6225113250	-5.906477e-002	3.490832e-001	3.403092e+000	-5.773884e-001	7.029271e-002	-3.202349e-002	-2.008651e-001	2.156699e-001
6231363063	-6.013052e-002	3.485494e-001	3.396662e+000	-5.943211e-001	6.979717e-002	-3.295766e-002	-2.016946e-001	2.175059e-001
6237612875	-6.128759e-002	3.484699e-001	3.391965e+000	-6.119903e-001	6.922747e-002	-3.381456e-002	-2.021205e-001	2.191452e-001
6243862688	-6.217779e-002	3.490928e-001	3.385566e+000	-6.322124e-001	6.834753e-002	-3.433601e-002	-2.021821e-001	2.208746e-001
6250112500	-6.254381e-002	3.503310e-001	3.377335e+000	-6.523661e-001	6.745756e-002	-3.439826e-002	-2.017324e-001	2.225198e-001
6256362313	-6.235193e-002	3.512840e-001	3.368262e+000	-6.737853e-001	6.653822e-002	-3.469510e-002	-2.008247e-001	2.235234e-001
6262612125	-6.130109e-002	3.518802e-001	3.358207e+000	-6.962006e-001	6.584593e-002	-3.472480e-002	-1.999020e-001	2.234965e-001
6268861938	-6.072197e-002	3.526256e-001	3.348155e+000	-7.158885e-001	6.527354e-002	-3.460333e-002	-1.989436e-001	2.235624e-001
6275111750	-5.906135e-002	3.524138e-001	3.335752e+000	-7.388525e-001	6.463173e-002	-3.417341e-002	-1.978808e-001	2.232115e-001
6281361563	-5.719658e-002	3.520544e-001	3.324954e+000	-7.581210e-001	6.469707e-002	-3.375560e-002	-1.973833e-001	2.225702e-001
6287611375	-5.487627e-002	3.513115e-001	3.311246e+000	-7.763134e-001	6.482219e-002	-3.334684e-002	-1.969491e-001	2.215409e-001
6293861188	-5.356274e-002	3.493650e-001	3.297622e+000	-7.941662e-001	6.512437e-002	-3.302288e-002	-1.971497e-001	2.200668e-001
6300111000	-5.265473e-002	3.474147e-001	3.282483e+000	-8.122338e-001	6.558070e-002	-3.346520e-002	-1.982043e-001	2.189337e-001
6306360813	-5.178314e-002	3.450286e-001	3.271684e+000	-8.258423e-001	6.601269e-002	-3.332947e-002	-1.996868e-001	2.178845e-001
6312610625	-5.140303e-002	3.428067e-001	3.257498e+000	-8.399616e-001	6.665669e-002	-3.390204e-002	-2.015539e-001	2.175710e-001
6318860438	-5.172979e-002	3.403256e-001	3.247648e+000	-8.516703e-001	6.712721e-002	-3.448201e-002	-2.039180e-001	2.173755e-001
6325110250	-5.283896e-002	3.384354e-001	3.236025e+000	-8.664338e-001	6.724549e-002	-3.534319e-002	-2.059369e-001	2.172090e-001
6331360063	-5.353681e-002	3.362889e-001	3.226656e+000	-8.798546e-001	6.750227e-002	-3.611326e-002	-2.079549e-001	2.177262e-001
6337609875	-5.489226e-002	3.352399e-001	3.217221e+000	-8.923598e-001	6.753798e-002	-3.703210e-002	-2.103341e-001	2.188801e-001
6343859688	-5.623694e-002	3.340336e-001	3.211791e+000	-9.073360e-001	6.750383e-002	-3.810458e-002	-2.118340e-001	2.203910e-001
6350109500	-5.768472e-002	3.336503e-001	3.203282e+000	-9.239752e-001	6.697078e-002	-3.911956e-002	-2.126245e-001	2.223025e-001
6356359313	-5.895080e-002	3.336651e-001	3.194303e+000	-9.393135e-001	6.668184e-002	-4.003563e-002	-2.133437e-001	2.247572e-001
6362609125	-5.973591e-002	3.333413e-001	3.184239e+000	-9.584691e-001	6.589140e-002	-4.063634e-002	-2.135619e-001	2.262166e-001
6368858938	-6.044087e-002	3.335432e-001	3.175922e+000	-9.765758e-001	6.509740e-002	-4.127824e-002	-2.133437e-001	2.279741e-001
6375108750	-6.025188e-002	3.341005e-001	3.166324e+000	-9.934254e-001	6.472097e-002	-4.152220e-002	-2.126720e-001	2.287768e-001
6381358563	-6.053480e-002	3.339508e-001	3.156356e+000	-1.011248e+000	6.401748e-002	-4.162473e-002	-2.119188e-001	2.298686e-001
6387608375	-6.029398e-002	3.332623e-001	3.144174e+000	-1.027670e+000	6.350192e-002	-4.200842e-002	-2.118355e-001	2.301220e-001
6393858188	-5.995622e-002	3.335299e-001	3.131691e+000	-1.045495e+000	6.296746e-002	-4.206198e-002	-2.118053e-001	2.306549e-001
6400108000	-5.976042e-002	3.333816e-001	3.121161e+000	-1.057542e+000	6.269012e-002	-4.177853e-002	-2.119033e-001	2.309836e-001
6406357813	-5.967399e-002	3.328101e-001	3.106509e+000	-1.073072e+000	6.238930e-002	-4.219873e-002	-2.121737e-001	2.309802e-001
6412607625	-5.962935e-002	3.321276e-001	3.097814e+000	-1.088525e+000	6.228628e-002	-4.223200e-002	-2.126423e-001	2.308144e-001
6418857438	-5.937769e-002	3.319840e-001	3.084535e+000	-1.105786e+000	6.234689e-002	-4.234131e-002	-2.135192e-001	2.304369e-001
6425107250	-5.950178e-002	3.308704e-001	3.075573e+000	-1.117655e+000	6.223949e-002	-4.283481e-002	-2.144840e-001	2.304248e-001
6431357063	-5.991922e-002	3.305464e-001	3.064307e+000	-1.135881e+000	6.237383e-002	-4.294420e-002	-2.153923e-001	2.307298e-001
6437606875	-5.985732e-002	3.300448e-001	3.052534e+000	-1.151287e+000	6.218246e-002	-4.339192e-002	-2.159924e-001	2.307582e-001
6443856688	-6.054253e-002	3.296361e-001	3.041863e+000	-1.165751e+000	6.231482e-002	-4.409972e-002	-2.172417e-001	2.314458e-001
6450106500	-6.087930e-002	3.292408e-001	3.033214e+000	-1.180765e+000	6.236294e-002	-4.455268e-002	-2.181892e-001	2.320132e-001
6456356313	-6.116545e-002	3.293454e-001	3.020649e+000	-1.196418e+000	6.198302e-002	-4.533012e-002	-2.187792e-001	2.330040e-001
6462606125	-6.135221e-002	3.296056e-001	3.009252e+000	-1.212480e+000	6.172185e-002	-4.601415e-002	-2.190559e-001	2.341069e-001
6468855938	-6.162264e-002	3.294670e-001	2.998476e+000	-1.228579e+000	6.135441e-002	-4.663693e-002	-2.194056e-001	2.349288e-001
6475105750	-6.132421e-002	3.298470e-001	2.987896e+000	-1.243192e+000	6.093032e-002	-4.719843e-002	-2.197554e-001	2.354529e-001
6481355563	-6.160894e-002	3.299854e-001	2.977459e+000	-1.259036e+000	6.049622e-002	-4.780489e-002	-2.198687e-001	2.363966e-001
6487605375	-6.112134e-002	3.300329e-001	2.964171e+000	-1.275263e+000	5.999818e-002	-4.806092e-002	-2.204534e-001	2.369628e-001
6493855188	-6.093609e-002	3.296738e-001	2.952340e+000	-1.288630e+000	5.962710e-002	-4.868970e-002	-2.209009e-001	2.377269e-001
6500105000	-6.104120e-002	3.298247e-001	2.941594e+000	-1.305255e+000	5.935255e-002	-4.927237e-002	-2.215309e-001	2.384803e-001
6506354813	-6.063838e-002	3.294819e-001	2.928734e+000	-1.320377e+000	5.864053e-002	-4.974510e-002	-2.222157e-001	2.393482e-001
6512604625	-6.078478e-002	3.289918e-001	2.914754e+000	-1.334763e+000	5.831968e-002	-5.021744e-002	-2.220105e-001	2.405057e-001
6518854438	-6.086752e-002	3.290624e-001	2.903678e+000	-1.350343e+000	5.750232e-002	-5.076421e-002	-2.224099e-001	2.419180e-001
6525104250	-6.106038e-002	3.289244e-001	2.890155e+000	-1.366138e+000	5.740361e-002	-5.107442e-002	-2.223171e-001	2.425831e-001
6531354063	-6.149311e-002	3.288140e-001	2.879079e+000	-1.380972e+000	5.681920e-002	-5.154615e-002	-2.223239e-001	2.439800e-001
6537603875	-6.164898e-002	3.288341e-001	2.866945e+000	-1.396038e+000	5.618615e-002	-5.189145e-002	-2.222704e-001	2.446292e-001
6543853688	-6.232850e-002	3.290981e-001	2.854421e+000	-1.413307e+000	5.541882e-002	-5.224019e-002	-2.221499e-001	2.454836e-001
6550103500	-6.156167e-002	3.295943e-001	2.842892e+000	-1.425259e+000	5.535649e-002	-5.269336e-002	-2.224935e-001	2.464217e-001
6556353313	-6.225025e-002	3.303080e-001	2.829167e+000	-1.441826e+000	5.463227e-002	-5.297050e-002	-2.218155e-001	2.475750e-001
6562603125	-6.195377e-002	3.305903e-001	2.817712e+000	-1.456227e+000	5.397987e-002	-5.353822e-002	-2.217122e-001	2.477957e-001
6568852938	-6.191107e-002	3.314330e-001	2.802409e+000	-1.469628e+000	5.319608e-002	-5.344177e-002	-2.212370e-001	2.487511e-001
6575102750	-6.102202e-002	3.324666e-001	2.789269e+000	-1.485080e+000	5.258006e-002	-5.395179e-002	-2.210714e-001	2.490507e-001
6581352563	-6.044911e-002	3.329323e-001	2.775106e+000	-1.500168e+000	5.197399e-002	-5.439818e-002	-2.203636e-001	2.495919e-001
6587602375	-5.935832e-002	3.335946e-001	2.760336e+000	-1.516534e+000	5.117012e-002	-5.444916e-002	-2.199648e-001	2.497508e-001
6593852188	-5.789742e-002	3.339726e-001	2.744860e+000	-1.529507e+000	5.036099e-002	-5.455324e-002	-2.191310e-001	2.498913e-001
6600102000	-5.637118e-002	3.348301e-001	2.727966e+000	-1.544134e+000	4.974487e-002	-5.475215e-002	-2.189951e-001	2.499356e-001
6606351813	-5.496717e-002	3.350036e-001	2.716322e+000	-1.558201e+000	4.913773e-002	-5.486194e-002	-2.184180e-001	2.500748e-001
6612601625	-5.320206e-002	3.349773e-001	2.697436e+000	-1.571227e+000	4.846673e-002	-5.469050e-002	-2.182320e-001	2.496144e-001
6618851438	-5.157362e-002	3.347183e-001	2.682196e+000	-1.585720e+000	4.798923e-002	-5.476110e-002	-2.181166e-001	2.495760e-001
6625101250	-5.011947e-002	3.345502e-001	2.668462e+000	-1.599877e+000	4.743937e-002	-5.475135e-002	-2.179763e-001	2.491411e-001
6631351063	-4.884448e-002	3.339216e-001	2.651594e+000	-1.610156e+000	4.721658e-002	-5.481618e-002	-2.181398e-001	2.487407e-001
6637600875	-4.763604e-002	3.331490e-001	2.636805e+000	-1.622853e+000	4.682332e-002	-5.492946e-002	-2.185455e-001	2.486197e-001
6643850688	-4.656826e-002	3.325193e-001	2.620459e+000	-1.635169e+000	4.679440e-002	-5.507929e-002	-2.192038e-001	2.477684e-001
6650100500	-4.593757e-002	3.318159e-001	2.606687e+000	-1.644295e+000	4.614449e-002	-5.501115e-002	-2.196293e-001	2.479393e-001
6656350313	-4.476138e-002	3.310847e-001	2.592210e+000	-1.657433e+000	4.579145e-002	-5.526983e-002	-2.203120e-001	2.481328e-001
6662600125	-4.461889e-002	3.307928e-001	2.577696e+000	-1.669121e+000	4.570325e-002	-5.561597e-002	-2.205116e-001	2.484412e-001
6668849938	-4.401459e-002	3.305457e-001	2.562368e+000	-1.678828e+000	4.510633e-002	-5.591913e-002	-2.206215e-001	2.492231e-001
6675099750	-4.343159e-002	3.305889e-001	2.546324e+000	-1.692389e+000	4.477071e-002	-5.612937e-002	-2.202777e-001	2.503976e-001
6681349563	-4.256001e-002	3.307753e-001	2.532122e+000	-1.702641e+000	4.404189e-002	-5.630701e-002	-2.199273e-001	2.509653e-001
6687599375	-4.182203e-002	3.306120e-001	2.518032e+000	-1.715626e+000	4.321316e-002	-5.656835e-002	-2.194693e-001	2.512944e-001
6693849188	-4.064579e-002	3.311229e-001	2.500162e+000	-1.728521e+000	4.263231e-002	-5.676461e-002	-2.189344e-001	2.516180e-001
6700099000	-3.927922e-002	3.312486e-001	2.485118e+000	-1.738688e+000	4.197515e-002	-5.690877e-002	-2.192032e-001	2.523835e-001
6706348813	-3.758723e-002	3.313276e-001	2.469624e+000	-1.750801e+000	4.150545e-002	-5.675812e-002	-2.190497e-001	2.521075e-001
6712598625	-3.570921e-002	3.314755e-001	2.450190e+000	-1.760932e+000	4.079154e-002	-5.673028e-002	-2.188921e-001	2.519988e-001
6718848438	-3.420362e-002	3.307846e-001	2.435240e+000	-1.770246e+000	4.016728e-002	-5.661195e-002	-2.195599e-001	2.520158e-001
6725098250	-3.195875e-002	3.303799e-001	2.417781e+000	-1.781794e+000	3.947113e-002	-5.640788e-002	-2.196202e-001	2.518345e-001
6731348063	-3.062803e-002	3.296959e-001	2.403384e+000	-1.790623e+000	3.897827e-002	-5.656603e-002	-2.198136e-001	2.515916e-001
6737597875	-2.892354e-002	3.291518e-001	2.385575e+000	-1.801310e+000	3.833023e-002	-5.644600e-002	-2.201003e-001	2.509542e-001
6743847688	-2.678057e-002	3.283340e-001	2.369070e+000	-1.811288e+000	3.786107e-002	-5.618540e-002	-2.203280e-001	2.508715e-001
6750097500	-2.522239e-002	3.273074e-001	2.353181e+000	-1.820172e+000	3.746894e-002	-5.611628e-002	-2.203435e-001	2.504792e-001
6756347313	-2.370062e-002	3.257882e-001	2.336202e+000	-1.827025e+000	3.707881e-002	-5.608341e-002	-2.204098e-001	2.504832e-001
6762597125	-2.226851e-002	3.248388e-001	2.318712e+000	-1.837760e+000	3.665291e-002	-5.581902e-002	-2.203746e-001	2.502656e-001
6768846938	-2.062627e-002	3.235044e-001	2.303640e+000	-1.844713e+000	3.638148e-002	-5.574320e-002	-2.204942e-001	2.502923e-001
6775096750	-1.946511e-002	3.224424e-001	2.285803e+000	-1.851667e+000	3.605842e-002	-5.569089e-002	-2.204267e-001	2.498989e-001
6781346563	-1.814432e-002	3.212804e-001	2.271193e+000	-1.861654e+000	3.573301e-002	-5.562671e-002	-2.206038e-001	2.497923e-001
6787596375	-1.734467e-002	3.201637e-001	2.256254e+000	-1.869114e+000	3.514641e-002	-5.542964e-002	-2.205414e-001	2.498087e-001
6793846188	-1.594714e-002	3.189815e-001	2.239668e+000	-1.875064e+000	3.498128e-002	-5.547159e-002	-2.206209e-001	2.493242e-001
6800096000	-1.458193e-002	3.173485e-001	2.223607e+000	-1.883661e+000	3.475778e-002	-5.543641e-002	-2.209579e-001	2.487318e-001
6806345813	-1.343896e-002	3.164770e-001	2.208481e+000	-1.889982e+000	3.447530e-002	-5.527941e-002	-2.214632e-001	2.485752e-001
6812595625	-1.230433e-002	3.148652e-001	2.191937e+000	-1.897555e+000	3.414163e-002	-5.520957e-002	-2.221135e-001	2.480889e-001
6818845438	-1.136054e-002	3.139110e-001	2.175409e+000	-1.906004e+000	3.370061e-002	-5.539473e-002	-2.227870e-001	2.482351e-001
6825095250	-1.010905e-002	3.127369e-001	2.159688e+000	-1.912857e+000	3.331322e-002	-5.558099e-002	-2.235256e-001	2.481729e-001
6831345063	-9.152768e-003	3.120202e-001	2.144845e+000	-1.919055e+000	3.286673e-002	-5.547592e-002	-2.239878e-001	2.483869e-001
6837594875	-7.793573e-003	3.104297e-001	2.129466e+000	-1.925393e+000	3.231913e-002	-5.556292e-002	-2.244421e-001	2.494565e-001
6843844688	-6.254546e-003	3.097083e-001	2.112528e+000	-1.933601e+000	3.210226e-002	-5.553794e-002	-2.238670e-001	2.492743e-001
6850094500	-5.198763e-003	3.082038e-001	2.098116e+000	-1.939260e+000	3.151148e-002	-5.566401e-002	-2.240957e-001	2.495753e-001
6856344313	-3.978804e-003	3.070934e-001	2.081609e+000	-1.945018e+000	3.127254e-002	-5.535813e-002	-2.239646e-001	2.496928e-001
6862594125	-2.428626e-003	3.059056e-001	2.065116e+000	-1.953181e+000	3.099318e-002	-5.526470e-002	-2.244214e-001	2.505184e-001
6868843938	-8.618466e-004	3.048900e-001	2.048500e+000	-1.959512e+000	3.069127e-002	-5.505539e-002	-2.251349e-001	2.507184e-001
6875093750	2.289791e-004	3.034837e-001	2.033761e+000	-1.966226e+000	3.001246e-002	-5.487285e-002	-2.256192e-001	2.506201e-001
6881343563	1.881065e-003	3.022286e-001	2.015923e+000	-1.971805e+000	3.000048e-002	-5.463058e-002	-2.258974e-001	2.507108e-001
6887593375	3.103681e-003	2.999674e-001	2.000367e+000	-1.978790e+000	2.926190e-002	-5.493041e-002	-2.266379e-001	2.507801e-001
6893843188	4.261124e-003	2.987413e-001	1.984924e+000	-1.981861e+000	2.911417e-002	-5.460297e-002	-2.272288e-001	2.511231e-001
6900093000	5.506080e-003	2.971634e-001	1.968076e+000	-1.986695e+000	2.879624e-002	-5.461391e-002	-2.274795e-001	2.510377e-001
6906342813	7.065721e-003	2.956569e-001	1.955162e+000	-1.992493e+000	2.849590e-002	-5.429677e-002	-2.277566e-001	2.508798e-001
6912592625	7.696201e-003	2.937093e-001	1.937211e+000	-1.997121e+000	2.823426e-002	-5.415546e-002	-2.280101e-001	2.511161e-001
6918842438	8.957336e-003	2.922826e-001	1.923611e+000	-2.002946e+000	2.787156e-002	-5.396380e-002	-2.281092e-001	2.507893e-001
6925092250	1.016488e-002	2.909533e-001	1.908114e+000	-2.006078e+000	2.784521e-002	-5.420169e-002	-2.286630e-001	2.502644e-001
6931342063	1.119244e-002	2.886761e-001	1.892964e+000	-2.011106e+000	2.737374e-002	-5.415689e-002	-2.289603e-001	2.505868e-001
6937591875	1.217935e-002	2.869854e-001	1.878533e+000	-2.016126e+000	2.725265e-002	-5.414320e-002	-2.293988e-001	2.500871e-001
6943841688	1.324865e-002	2.859088e-001	1.864043e+000	-2.019734e+000	2.697763e-002	-5.398880e-002	-2.294539e-001	2.504763e-001
6950091500	1.384857e-002	2.843050e-001	1.850017e+000	-2.024142e+000	2.661204e-002	-5.405936e-002	-2.295946e-001	2.502642e-001
6956341313	1.512407e-002	2.821748e-001	1.832979e+000	-2.027518e+000	2.636659e-002	-5.387848e-002	-2.294319e-001	2.500304e-001
6962591125	1.572379e-002	2.805688e-001	1.818680e+000	-2.033085e+000	2.589103e-002	-5.398846e-002	-2.296465e-001	2.502134e-001
6968840938	1.675717e-002	2.790844e-001	1.803862e+000	-2.036623e+000	2.563914e-002	-5.384013e-002	-2.298858e-001	2.497004e-001
6975090750	1.760132e-002	2.769139e-001	1.788753e+000	-2.038982e+000	2.540989e-002	-5.373610e-002	-2.303193e-001	2.490429e-001
6981340563	1.872267e-002	2.759074e-001	1.774170e+000	-2.044645e+000	2.482581e-002	-5.361951e-002	-2.311462e-001	2.489896e-001
6987590375	1.964380e-002	2.742397e-001	1.758269e+000	-2.046603e+000	2.467463e-002	-5.343293e-002	-2.319370e-001	2.489389e-001
6993840188	2.061233e-002	2.725799e-001	1.745275e+000	-2.049927e+000	2.425320e-002	-5.334800e-002	-2.322277e-001	2.495746e-001
7000090000	2.134345e-002	2.709257e-001	1.729804e+000	-2.054235e+000	2.390377e-002	-5.322185e-002	-2.324437e-001	2.497546e-001
7006339813	2.251919e-002	2.696684e-001	1.714336e+000	-2.057803e+000	2.378062e-002	-5.317487e-002	-2.326209e-001	2.500604e-001
7012589625	2.339834e-002	2.674275e-001	1.701160e+000	-2.062508e+000	2.381380e-002	-5.314759e-002	-2.325920e-001	2.503344e-001
7018839438	2.381438e-002	2.661056e-001	1.686113e+000	-2.063849e+000	2.338007e-002	-5.290965e-002	-2.327122e-001	2.502637e-001
7025089250	2.446220e-002	2.644123e-001	1.671831e+000	-2.068208e+000	2.303114e-002	-5.270174e-002	-2.333416e-001	2.506154e-001
7031339063	2.505603e-002	2.626288e-001	1.659103e+000	-2.071258e+000	2.301030e-002	-5.263806e-002	-2.342546e-001	2.508976e-001
7037588875	2.637657e-002	2.606824e-001	1.642822e+000	-2.074143e+000	2.287141e-002	-5.233663e-002	-2.345578e-001	2.510808e-001
7043838688	2.716044e-002	2.587641e-001	1.629193e+000	-2.077030e+000	2.252714e-002	-5.240108e-002	-2.353199e-001	2.511957e-001
7050088500	2.766527e-002	2.572934e-001	1.615261e+000	-2.079637e+000	2.219560e-002	-5.255141e-002	-2.362072e-001	2.513250e-001
7056338313	2.840419e-002	2.554522e-001	1.600129e+000	-2.082071e+000	2.202106e-002	-5.238421e-002	-2.365484e-001	2.514848e-001
7062588125	2.898318e-002	2.537840e-001	1.586014e+000	-2.083939e+000	2.188546e-002	-5.215548e-002	-2.365497e-001	2.512801e-001
7068837938	2.998587e-002	2.517133e-001	1.571934e+000	-2.085325e+000	2.163566e-002	-5.231619e-002	-2.368085e-001	2.515741e-001
7075087750	3.077258e-002	2.499893e-001	1.558091e+000	-2.087764e+000	2.150354e-002	-5.206109e-002	-2.368144e-001	2.511745e-001
7081337563	3.147431e-002	2.479029e-001	1.543114e+000	-2.089163e+000	2.119123e-002	-5.230060e-002	-2.371718e-001	2.513451e-001
7087587375	3.206172e-002	2.464058e-001	1.529969e+000	-2.090995e+000	2.081311e-002	-5.196546e-002	-2.371799e-001	2.513281e-001
7093837188	3.263638e-002	2.440099e-001	1.517018e+000	-2.094053e+000	2.037634e-002	-5.171536e-002	-2.373087e-001	2.512097e-001
7100087000	3.331668e-002	2.419742e-001	1.502865e+000	-2.093854e+000	2.046012e-002	-5.149505e-002	-2.375160e-001	2.510161e-001
7106336813	3.375965e-002	2.402332e-001	1.489557e+000	-2.095730e+000	1.987410e-002	-5.141016e-002	-2.378446e-001	2.507900e-001
7112586625	3.423760e-002	2.387799e-001	1.475427e+000	-2.097497e+000	1.995458e-002	-5.117457e-002	-2.377374e-001	2.505177e-001
7118836438	3.491508e-002	2.364896e-001	1.462521e+000	-2.099183e+000	1.960260e-002	-5.134641e-002	-2.382186e-001	2.505855e-001
7125086250	3.537938e-002	2.341300e-001	1.449469e+000	-2.101083e+000	1.971467e-002	-5.113414e-002	-2.382796e-001	2.503696e-001
7131336063	3.581428e-002	2.325927e-001	1.434996e+000	-2.102432e+000	1.937979e-002	-5.104716e-002	-2.384959e-001	2.498227e-001
7137585875	3.633906e-002	2.308269e-001	1.422374e+000	-2.105309e+000	1.941909e-002	-5.070522e-002	-2.390813e-001	2.493915e-001
7143835688	3.707849e-002	2.290261e-001	1.408730e+000	-2.107202e+000	1.909068e-002	-5.066298e-002	-2.399214e-001	2.487856e-001
7150085500	3.723480e-002	2.274889e-001	1.396913e+000	-2.108007e+000	1.906814e-002	-5.071892e-002	-2.412511e-001	2.484674e-001
7156335313	3.750394e-002	2.255852e-001	1.384190e+000	-2.108126e+000	1.894461e-002	-5.070370e-002	-2.422501e-001	2.488559e-001
7162585125	3.831667e-002	2.236227e-001	1.370108e+000	-2.109246e+000	1.874267e-002	-5.037611e-002	-2.426830e-001	2.487302e-001
7168834938	3.898947e-002	2.223682e-001	1.358424e+000	-2.111596e+000	1.868596e-002	-5.034098e-002	-2.430236e-001	2.495353e-001
7175084750	3.906861e-002	2.206623e-001	1.345673e+000	-2.112514e+000	1.848667e-002	-5.012743e-002	-2.429251e-001	2.498253e-001
7181334563	3.959773e-002	2.190436e-001	1.332928e+000	-2.113254e+000	1.832620e-002	-5.020129e-002	-2.430978e-001	2.502045e-001
7187584375	3.975161e-002	2.174023e-001	1.321518e+000	-2.113763e+000	1.839842e-002	-5.023443e-002	-2.433758e-001	2.509971e-001
7193834188	4.027588e-002	2.155717e-001	1.307907e+000	-2.115398e+000	1.799973e-002	-5.023383e-002	-2.445090e-001	2.513381e-001
7200084000	4.070176e-002	2.141609e-001	1.295673e+000	-2.115852e+000	1.812521e-002	-5.007462e-002	-2.452926e-001	2.517527e-001
7206333813	4.141753e-002	2.120497e-001	1.282261e+000	-2.118042e+000	1.770892e-002	-5.015734e-002	-2.464636e-001	2.525910e-001
7212583625	4.184078e-002	2.102852e-001	1.270141e+000	-2.116461e+000	1.776250e-002	-5.015615e-002	-2.467606e-001	2.528401e-001
7218833438	4.238691e-002	2.079050e-001	1.258158e+000	-2.117240e+000	1.755308e-002	-5.022139e-002	-2.471349e-001	2.530640e-001
7225083250	4.223831e-002	2.060166e-001	1.245760e+000	-2.119104e+000	1.743842e-002	-5.010183e-002	-2.477396e-001	2.529367e-001
7231333063	4.291019e-002	2.041937e-001	1.233187e+000	-2.121089e+000	1.690898e-002	-4.989877e-002	-2.482421e-001	2.525330e-001
7237582875	4.308824e-002	2.023261e-001	1.221216e+000	-2.120253e+000	1.711688e-002	-4.969798e-002	-2.481897e-001	2.527018e-001
7243832688	4.317561e-002	2.001028e-001	1.209610e+000	-2.119574e+000	1.681804e-002	-4.967481e-002	-2.484513e-001	2.524198e-001
7250082500	4.310854e-002	1.982205e-001	1.199168e+000	-2.121571e+000	1.673779e-002	-4.947866e-002	-2.491934e-001	2.525052e-001
7256332313	4.332289e-002	1.964850e-001	1.186764e+000	-2.121369e+000	1.659743e-002	-4.955763e-002	-2.493132e-001	2.520130e-001
7262582125	4.306451e-002	1.946887e-001	1.174171e+000	-2.122221e+000	1.654208e-002	-4.930486e-002	-2.497863e-001	2.519098e-001
7268831938	4.307264e-002	1.931339e-001	1.164392e+000	-2.123806e+000	1.634321e-002	-4.917850e-002	-2.501078e-001	2.520422e-001
7275081750	4.247013e-002	1.915173e-001	1.153145e+000	-2.124871e+000	1.658701e-002	-4.953690e-002	-2.507783e-001	2.523602e-001
7281331563	4.237302e-002	1.900352e-001	1.142148e+000	-2.124128e+000	1.646260e-002	-4.916061e-002	-2.509482e-001	2.524640e-001
7287581375	4.218379e-002	1.888494e-001	1.130265e+000	-2.125893e+000	1.648858e-002	-4.929984e-002	-2.517108e-001	2.526910e-001
7293831188	4.241868e-002	1.874290e-001	1.118983e+000	-2.125121e+000	1.643526e-002	-4.940660e-002	-2.520134e-001	2.528972e-001
7300081000	4.271949e-002	1.860657e-001	1.107999e+000	-2.128600e+000	1.640352e-002	-4.939468e-002	-2.526617e-001	2.529702e-001
7306330813	4.294255e-002	1.852991e-001	1.094695e+000	-2.129291e+000	1.615121e-002	-4.970798e-002	-2.529211e-001	2.528592e-001
7312580625	4.324353e-002	1.838325e-001	1.084690e+000	-2.129430e+000	1.638857e-002	-4.978997e-002	-2.542022e-001	2.529552e-001
7318830438	4.399842e-002	1.824248e-001	1.073189e+000	-2.129775e+000	1.640824e-002	-4.991382e-002	-2.559058e-001	2.530276e-001
7325080250	4.395806e-002	1.813492e-001	1.060360e+000	-2.131585e+000	1.596131e-002	-5.008623e-002	-2.560333e-001	2.532080e-001
7331330063	4.462623e-002	1.800216e-001	1.050082e+000	-2.131595e+000	1.582198e-002	-5.017881e-002	-2.570441e-001	2.538597e-001
7337579875	4.525324e-002	1.782976e-001	1.037801e+000	-2.133603e+000	1.577201e-002	-4.988723e-002	-2.565241e-001	2.546701e-001
7343829688	4.555806e-002	1.770470e-001	1.025912e+000	-2.133537e+000	1.571632e-002	-5.026638e-002	-2.563469e-001	2.554769e-001
7350079500	4.638643e-002	1.755519e-001	1.015423e+000	-2.134005e+000	1.533082e-002	-5.033619e-002	-2.566539e-001	2.563569e-001
7356329313	4.671570e-002	1.738702e-001	1.002479e+000	-2.133418e+000	1.539831e-002	-5.026057e-002	-2.568117e-001	2.569840e-001
7362579125	4.752380e-002	1.725698e-001	9.924531e-001	-2.134536e+000	1.505343e-002	-5.053073e-002	-2.580586e-001	2.579115e-001
7368828938	4.766048e-002	1.707244e-001	9.801675e-001	-2.135318e+000	1.478471e-002	-5.017239e-002	-2.581821e-001	2.589647e-001
7375078750	4.800994e-002	1.691806e-001	9.666082e-001	-2.135004e+000	1.457782e-002	-5.007957e-002	-2.589289e-001	2.602079e-001
7381328563	4.826509e-002	1.671380e-001	9.570458e-001	-2.134934e+000	1.432812e-002	-5.036331e-002	-2.589961e-001	2.603875e-001
7387578375	4.867444e-002	1.660772e-001	9.457449e-001	-2.135271e+000	1.447037e-002	-5.028159e-002	-2.590040e-001	2.605347e-001
7393828188	4.877343e-002	1.646974e-001	9.329745e-001	-2.136141e+000	1.422009e-002	-5.053484e-002	-2.593335e-001	2.611279e-001
7400078000	4.887954e-002	1.633824e-001	9.223713e-001	-2.135799e+000	1.413920e-002	-5.052021e-002	-2.592708e-001	2.613203e-001
7406327813	4.916312e-002	1.620473e-001	9.114036e-001	-2.135050e+000	1.374799e-002	-5.059888e-002	-2.598716e-001	2.615497e-001
7412577625	4.943394e-002	1.609287e-001	9.010923e-001	-2.134742e+000	1.397289e-002	-5.073457e-002	-2.601230e-001	2.618395e-001
7418827438	4.917996e-002	1.596830e-001	8.886553e-001	-2.136468e+000	1.350687e-002	-5.087473e-002	-2.604800e-001	2.622461e-001
7425077250	4.987089e-002	1.593612e-001	8.782855e-001	-2.137131e+000	1.347001e-002	-5.084469e-002	-2.602692e-001	2.623484e-001
7431327063	5.040891e-002	1.579249e-001	8.663498e-001	-2.137448e+000	1.326491e-002	-5.110684e-002	-2.600113e-001	2.628387e-001
7437576875	5.088034e-002	1.567167e-001	8.542642e-001	-2.137683e+000	1.313081e-002	-5.142598e-002	-2.603599e-001	2.634012e-001
7443826688	5.149696e-002	1.558367e-001	8.422798e-001	-2.137978e+000	1.309383e-002	-5.146199e-002	-2.604120e-001	2.635869e-001
7450076500	5.197773e-002	1.545842e-001	8.299713e-001	-2.138721e+000	1.277080e-002	-5.152450e-002	-2.603117e-001	2.637031e-001
7456326313	5.219382e-002	1.532193e-001	8.205677e-001	-2.137486e+000	1.242547e-002	-5.155870e-002	-2.598943e-001	2.641594e-001
7462576125	5.319342e-002	1.521494e-001	8.086809e-001	-2.138121e+000	1.239603e-002	-5.164329e-002	-2.598412e-001	2.645414e-001
7468825938	5.405945e-002	1.507903e-001	7.962148e-001	-2.137044e+000	1.178003e-002	-5.165785e-002	-2.596052e-001	2.646317e-001
7475075750	5.408075e-002	1.492967e-001	7.853621e-001	-2.136433e+000	1.172492e-002	-5.211038e-002	-2.598746e-001	2.648515e-001
7481325563	5.475661e-002	1.481423e-001	7.743808e-001	-2.135106e+000	1.114257e-002	-5.174118e-002	-2.607668e-001	2.645104e-001
7487575375	5.562401e-002	1.464892e-001	7.628294e-001	-2.134765e+000	1.100490e-002	-5.192959e-002	-2.609216e-001	2.644681e-001
7493825188	5.630673e-002	1.451157e-001	7.519099e-001	-2.135949e+000	1.071784e-002	-5.185686e-002	-2.613876e-001	2.647855e-001
7500075000	5.695538e-002	1.437328e-001	7.404274e-001	-2.135058e+000	1.063023e-002	-5.200174e-002	-2.608960e-001	2.647112e-001
7506324813	5.727947e-002	1.420835e-001	7.291151e-001	-2.133626e+000	1.039205e-002	-5.200604e-002	-2.606174e-001	2.656827e-001
7512574625	5.801551e-002	1.410349e-001	7.179219e-001	-2.132526e+000	9.966141e-003	-5.208800e-002	-2.607032e-001	2.669193e-001
7518824438	5.847723e-002	1.391284e-001	7.064359e-001	-2.131117e+000	9.905539e-003	-5.204086e-002	-2.608832e-001	2.676550e-001
7525074250	5.857509e-002	1.375002e-001	6.947997e-001	-2.129886e+000	9.706904e-003	-5.199249e-002	-2.613654e-001	2.687785e-001
7531324063	5.929540e-002	1.360053e-001	6.839838e-001	-2.128183e+000	9.458508e-003	-5.203291e-002	-2.611738e-001	2.691731e-001
7537573875	5.983579e-002	1.343607e-001	6.724999e-001	-2.127581e+000	9.512688e-003	-5.196906e-002	-2.612037e-001	2.700235e-001
7543823688	6.000539e-002	1.329542e-001	6.621201e-001	-2.126022e+000	9.052894e-003	-5.203237e-002	-2.615637e-001	2.706256e-001
7550073500	6.048540e-002	1.312693e-001	6.503613e-001	-2.124539e+000	8.885311e-003	-5.227066e-002	-2.610292e-001	2.705047e-001
7556323313	6.050368e-002	1.301011e-001	6.394083e-001	-2.123104e+000	8.339302e-003	-5.207868e-002	-2.607340e-001	2.709691e-001
7562573125	6.161373e-002	1.286258e-001	6.283729e-001	-2.122689e+000	8.434253e-003	-5.212053e-002	-2.606480e-001	2.708987e-001
7568822938	6.248264e-002	1.273543e-001	6.174550e-001	-2.121203e+000	8.328716e-003	-5.244417e-002	-2.604289e-001	2.709420e-001
7575072750	6.312065e-002	1.259763e-001	6.073835e-001	-2.120439e+000	7.851298e-003	-5.222397e-002	-2.603645e-001	2.713059e-001
7581322563	6.346768e-002	1.243098e-001	5.959518e-001	-2.117547e+000	7.571531e-003	-5.239561e-002	-2.603822e-001	2.714838e-001
7587572375	6.408379e-002	1.230896e-001	5.859413e-001	-2.116617e+000	7.352941e-003	-5.238669e-002	-2.602942e-001	2.720023e-001
7593822188	6.497309e-002	1.216146e-001	5.751267e-001	-2.115596e+000	7.114803e-003	-5.245028e-002	-2.599197e-001	2.717121e-001
7600072000	6.528448e-002	1.203346e-001	5.646702e-001	-2.113609e+000	6.844975e-003	-5.255217e-002	-2.595940e-001	2.719210e-001
7606321813	6.632121e-002	1.189430e-001	5.535996e-001	-2.114229e+000	6.419414e-003	-5.260425e-002	-2.588880e-001	2.720873e-001
7612571625	6.725796e-002	1.172856e-001	5.434701e-001	-2.111726e+000	6.437219e-003	-5.248618e-002	-2.596615e-001	2.719459e-001
7618821438	6.782432e-002	1.159650e-001	5.325443e-001	-2.111020e+000	5.826190e-003	-5.268512e-002	-2.591092e-001	2.719412e-001
7625071250	6.841221e-002	1.143078e-001	5.227245e-001	-2.107968e+000	5.880918e-003	-5.251619e-002	-2.590271e-001	2.721102e-001
7631321063	6.935020e-002	1.130352e-001	5.111117e-001	-2.106073e+000	5.333477e-003	-5.261696e-002	-2.589736e-001	2.720679e-001
7637570875	7.014728e-002	1.114857e-001	5.007586e-001	-2.105242e+000	5.036294e-003	-5.283494e-002	-2.590734e-001	2.714244e-001
7643820688	7.088430e-002	1.096873e-001	4.895241e-001	-2.104011e+000	4.790730e-003	-5.264840e-002	-2.589308e-001	2.716308e-001
7650070500	7.111541e-002	1.083183e-001	4.789673e-001	-2.101244e+000	4.431931e-003	-5.237100e-002	-2.595809e-001	2.716915e-001
7656320313	7.166519e-002	1.066679e-001	4.697588e-001	-2.099073e+000	4.451976e-003	-5.269489e-002	-2.593949e-001	2.715551e-001
7662570125	7.252594e-002	1.058455e-001	4.595902e-001	-2.096806e+000	4.147987e-003	-5.243547e-002	-2.589884e-001	2.719456e-001
7668819938	7.351379e-002	1.039947e-001	4.485320e-001	-2.094724e+000	3.645901e-003	-5.257889e-002	-2.584484e-001	2.731968e-001
7675069750	7.341102e-002	1.028212e-001	4.382737e-001	-2.092321e+000	3.687599e-003	-5.227116e-002	-2.587658e-001	2.742225e-001
7681319563	7.460975e-002	1.009001e-001	4.278956e-001	-2.089929e+000	3.374202e-003	-5.252817e-002	-2.586418e-001	2.751067e-001
7687569375	7.470996e-002	9.975044e-002	4.176793e-001	-2.087958e+000	3.096508e-003	-5.246578e-002	-2.587728e-001	2.759231e-001
7693819188	7.567318e-002	9.800988e-002	4.072231e-001	-2.084231e+000	2.873734e-003	-5.224565e-002	-2.585907e-001	2.762728e-001
7700069000	7.570275e-002	9.660844e-002	3.983031e-001	-2.083330e+000	2.669079e-003	-5.237908e-002	-2.588733e-001	2.766659e-001
7706318813	7.683577e-002	9.499919e-002	3.863216e-001	-2.081011e+000	2.328574e-003	-5.221990e-002	-2.582986e-001	2.768089e-001
7712568625	7.725536e-002	9.363260e-002	3.771003e-001	-2.077934e+000	2.050054e-003	-5.231590e-002	-2.583947e-001	2.767755e-001
7718818438	7.786819e-002	9.182494e-002	3.672746e-001	-2.075425e+000	1.684780e-003	-5.260515e-002	-2.577835e-001	2.766901e-001
7725068250	7.802590e-002	9.048074e-002	3.590090e-001	-2.074244e+000	1.552260e-003	-5.233813e-002	-2.579813e-001	2.765441e-001
7731318063	7.896517e-002	8.892792e-002	3.494297e-001	-2.071085e+000	1.427007e-003	-5.254877e-002	-2.576238e-001	2.765392e-001
7737567875	7.898144e-002	8.742398e-002	3.392864e-001	-2.070201e+000	1.124125e-003	-5.233127e-002	-2.576813e-001	2.764513e-001
7743817688	7.990680e-002	8.579209e-002	3.288469e-001	-2.067865e+000	8.893882e-004	-5.250959e-002	-2.575417e-001	2.764040e-001
7750067500	8.036689e-002	8.430428e-002	3.182351e-001	-2.065624e+000	4.569718e-004	-5.236926e-002	-2.572569e-001	2.766222e-001
7756317313	8.114551e-002	8.260939e-002	3.079530e-001	-2.064003e+000	1.802059e-004	-5.249206e-002	-2.568362e-001	2.762833e-001
7762567125	8.169096e-002	8.121014e-002	2.997000e-001	-2.060225e+000	1.035135e-004	-5.217243e-002	-2.568155e-001	2.763675e-001
7768816938	8.239475e-002	7.995061e-002	2.888895e-001	-2.059413e+000	-4.613215e-005	-5.205260e-002	-2.568511e-001	2.766931e-001
7775066750	8.306288e-002	7.856135e-002	2.802234e-001	-2.055134e+000	-4.391827e-004	-5.236966e-002	-2.563168e-001	2.768443e-001
7781316563	8.385733e-002	7.649500e-002	2.685257e-001	-2.052442e+000	-6.176591e-004	-5.222575e-002	-2.559461e-001	2.773287e-001
7787566375	8.419742e-002	7.526007e-002	2.589524e-001	-2.050075e+000	-9.829855e-004	-5.239566e-002	-2.558901e-001	2.775217e-001
7793816188	8.540772e-002	7.372422e-002	2.499189e-001	-2.047240e+000	-1.357309e-003	-5.230955e-002	-2.558902e-001	2.771212e-001
7800066000	8.572221e-002	7.182805e-002	2.397924e-001	-2.044882e+000	-1.630242e-003	-5.196275e-002	-2.560517e-001	2.773901e-001
7806315813	8.636210e-002	7.044452e-002	2.302573e-001	-2.042223e+000	-1.948080e-003	-5.212729e-002	-2.557564e-001	2.768717e-001
7812565625	8.689633e-002	6.874499e-002	2.214791e-001	-2.038516e+000	-2.002266e-003	-5.201170e-002	-2.560069e-001	2.765647e-001
7818815438	8.771534e-002	6.697045e-002	2.126098e-001	-2.035618e+000	-2.490078e-003	-5.183941e-002	-2.559766e-001	2.758831e-001
7825065250	8.821415e-002	6.551271e-002	2.033447e-001	-2.032177e+000	-2.545280e-003	-5.197265e-002	-2.548390e-001	2.768162e-001
7831315063	8.880458e-002	6.415253e-002	1.936136e-001	-2.031029e+000	-2.746728e-003	-5.175381e-002	-2.551219e-001	2.773365e-001
7837564875	8.975674e-002	6.215988e-002	1.837573e-001	-2.027658e+000	-3.211781e-003	-5.181106e-002	-2.551325e-001	2.783837e-001
7843814688	9.009334e-002	6.035073e-002	1.742858e-001	-2.024761e+000	-3.293928e-003	-5.182139e-002	-2.546119e-001	2.797348e-001
7850064500	9.084169e-002	5.956644e-002	1.661879e-001	-2.022306e+000	-3.593934e-003	-5.148081e-002	-2.541335e-001	2.800945e-001
7856314313	9.135077e-002	5.796286e-002	1.564524e-001	-2.018427e+000	-3.946169e-003	-5.157512e-002	-2.542289e-001	2.802190e-001
7862564125	9.174993e-002	5.644721e-002	1.477179e-001	-2.016521e+000	-4.285606e-003	-5.149428e-002	-2.540943e-001	2.806175e-001
7868813938	9.295583e-002	5.488542e-002	1.381092e-001	-2.013068e+000	-4.120758e-003	-5.134685e-002	-2.537168e-001	2.807914e-001
7875063750	9.298468e-002	5.346155e-002	1.290006e-001	-2.009968e+000	-4.310387e-003	-5.135681e-002	-2.537294e-001	2.809390e-001
7881313563	9.383058e-002	5.149991e-002	1.193922e-001	-2.006231e+000	-4.829456e-003	-5.114616e-002	-2.532109e-001	2.810383e-001
7887563375	9.438244e-002	5.007684e-002	1.102143e-001	-2.002910e+000	-4.913804e-003	-5.119435e-002	-2.533097e-001	2.809622e-001
7893813188	9.516816e-002	4.862347e-002	1.014714e-001	-1.999995e+000	-4.959953e-003	-5.112929e-002	-2.538701e-001	2.812799e-001
7900063000	9.600391e-002	4.733573e-002	9.106901e-002	-1.997459e+000	-5.319780e-003	-5.126990e-002	-2.531371e-001	2.813886e-001
7906312813	9.672179e-002	4.550528e-002	8.367661e-002	-1.994687e+000	-5.687443e-003	-5.104836e-002	-2.527124e-001	2.813875e-001
7912562625	9.739320e-002	4.419371e-002	7.332801e-002	-1.990975e+000	-5.770585e-003	-5.134622e-002	-2.528533e-001	2.816679e-001
7918812438	9.751363e-002	4.287351e-002	6.380013e-002	-1.988751e+000	-5.786131e-003	-5.094933e-002	-2.526928e-001	2.815476e-001
7925062250	9.844596e-002	4.132907e-002	5.534981e-002	-1.984510e+000	-6.173866e-003	-5.077239e-002	-2.523173e-001	2.815205e-001
7931312063	9.910122e-002	3.916521e-002	4.530480e-002	-1.981413e+000	-6.332508e-003	-5.108093e-002	-2.520051e-001	2.814052e-001
7937561875	9.993194e-002	3.754258e-002	3.594835e-002	-1.978030e+000	-6.627629e-003	-5.129935e-002	-2.511207e-001	2.816798e-001
7943811688	1.006006e-001	3.622913e-002	2.686186e-002	-1.974937e+000	-7.066599e-003	-5.111923e-002	-2.508934e-001	2.814844e-001
7950061500	1.012954e-001	3.456729e-002	1.896304e-002	-1.971550e+000	-7.183691e-003	-5.099345e-002	-2.504788e-001	2.813567e-001
7956311313	1.022870e-001	3.332423e-002	1.002345e-002	-1.969081e+000	-7.677119e-003	-5.096419e-002	-2.502398e-001	2.813811e-001
7962561125	1.024245e-001	3.180749e-002	3.660149e-004	-1.964266e+000	-7.932509e-003	-5.083287e-002	-2.500332e-001	2.817358e-001
7968810938	1.036574e-001	2.976201e-002	-8.941672e-003	-1.961337e+000	-8.107918e-003	-5.073126e-002	-2.494326e-001	2.819247e-001
7975060750	1.040691e-001	2.829846e-002	-1.705582e-002	-1.956545e+000	-8.309197e-003	-5.071629e-002	-2.491936e-001	2.810373e-001
7981310563	1.045928e-001	2.668075e-002	-2.609517e-002	-1.953463e+000	-8.637490e-003	-5.063682e-002	-2.490646e-001	2.803607e-001
7987560375	1.054735e-001	2.511826e-002	-3.403777e-002	-1.950060e+000	-8.798594e-003	-5.052349e-002	-2.489057e-001	2.809383e-001
7993810188	1.061827e-001	2.337748e-002	-4.281836e-002	-1.945932e+000	-8.761481e-003	-5.041473e-002	-2.484561e-001	2.814557e-001
8000060000	1.069913e-001	2.158764e-002	-5.106125e-002	-1.942358e+000	-9.235683e-003	-5.032976e-002	-2.477189e-001	2.822607e-001
8006309813	1.073750e-001	1.986654e-002	-5.942586e-002	-1.938418e+000	-9.339352e-003	-5.011897e-002	-2.470815e-001	2.839628e-001
8012559625	1.080951e-001	1.863503e-002	-6.755474e-002	-1.935131e+000	-9.704507e-003	-5.011145e-002	-2.463006e-001	2.845804e-001
8018809438	1.090365e-001	1.727835e-002	-7.601558e-002	-1.930647e+000	-9.830858e-003	-5.027608e-002	-2.460468e-001	2.849643e-001
8025059250	1.096891e-001	1.546993e-002	-8.522550e-002	-1.927199e+000	-1.016730e-002	-4.988216e-002	-2.461386e-001	2.851588e-001
8031309063	1.103445e-001	1.355176e-002	-9.375523e-002	-1.922646e+000	-1.033952e-002	-5.031490e-002	-2.452705e-001	2.852448e-001
8037558875	1.111094e-001	1.232707e-002	-1.023660e-001	-1.919049e+000	-1.056252e-002	-4.989201e-002	-2.448493e-001	2.849987e-001
8043808688	1.119022e-001	1.025028e-002	-1.109818e-001	-1.915170e+000	-1.086507e-002	-4.994663e-002	-2.444283e-001	2.846874e-001
8050058500	1.125478e-001	8.697272e-003	-1.193497e-001	-1.910561e+000	-1.105712e-002	-4.980094e-002	-2.438186e-001	2.846180e-001
8056308313	1.130001e-001	7.060765e-003	-1.276418e-001	-1.907263e+000	-1.120294e-002	-4.971457e-002	-2.439013e-001	2.846614e-001
8062558125	1.137630e-001	6.084976e-003	-1.353577e-001	-1.903156e+000	-1.146503e-002	-4.953279e-002	-2.436508e-001	2.847232e-001
8068807938	1.147848e-001	3.739956e-003	-1.437562e-001	-1.900365e+000	-1.174089e-002	-4.967246e-002	-2.433754e-001	2.845504e-001
8075057750	1.151361e-001	2.731233e-003	-1.522530e-001	-1.895676e+000	-1.191473e-002	-4.925635e-002	-2.428106e-001	2.849151e-001
8081307563	1.160362e-001	6.975151e-004	-1.598282e-001	-1.890374e+000	-1.210026e-002	-4.937618e-002	-2.427980e-001	2.850192e-001
8087557375	1.165401e-001	-7.303925e-004	-1.684134e-001	-1.888174e+000	-1.223192e-002	-4.931267e-002	-2.425677e-001	2.850412e-001
8093807188	1.171586e-001	-2.290086e-003	-1.771006e-001	-1.883226e+000	-1.260829e-002	-4.928360e-002	-2.423289e-001	2.850766e-001
8100057000	1.179579e-001	-3.685789e-003	-1.836934e-001	-1.879436e+000	-1.265374e-002	-4.925842e-002	-2.421008e-001	2.851066e-001
8106306813	1.187098e-001	-5.037130e-003	-1.908873e-001	-1.875011e+000	-1.295188e-002	-4.912921e-002	-2.416887e-001	2.852782e-001
8112556625	1.193511e-001	-6.845370e-003	-1.992731e-001	-1.871207e+000	-1.281321e-002	-4.889173e-002	-2.411064e-001	2.848308e-001
8118806438	1.196020e-001	-8.271783e-003	-2.082251e-001	-1.867262e+000	-1.323263e-002	-4.896158e-002	-2.406368e-001	2.848529e-001
8125056250	1.203970e-001	-1.027892e-002	-2.163404e-001	-1.862565e+000	-1.334432e-002	-4.874443e-002	-2.408370e-001	2.853685e-001
8131306063	1.210115e-001	-1.169533e-002	-2.240248e-001	-1.859048e+000	-1.378022e-002	-4.886895e-002	-2.399965e-001	2.860372e-001
8137555875	1.219116e-001	-1.299321e-002	-2.316834e-001	-1.855604e+000	-1.396954e-002	-4.865217e-002	-2.394134e-001	2.856050e-001
8143805688	1.229273e-001	-1.452686e-002	-2.402736e-001	-1.850159e+000	-1.394699e-002	-4.878042e-002	-2.385106e-001	2.852303e-001
8150055500	1.234362e-001	-1.629609e-002	-2.486948e-001	-1.845514e+000	-1.425071e-002	-4.874989e-002	-2.380230e-001	2.840944e-001
8156305313	1.239556e-001	-1.752554e-002	-2.562009e-001	-1.841422e+000	-1.414782e-002	-4.845282e-002	-2.380721e-001	2.840843e-001
8162555125	1.256155e-001	-1.911289e-002	-2.644671e-001	-1.838222e+000	-1.445879e-002	-4.860137e-002	-2.371538e-001	2.848749e-001
8168804938	1.255800e-001	-2.085974e-002	-2.731701e-001	-1.833127e+000	-1.503346e-002	-4.845229e-002	-2.364696e-001	2.862936e-001
8175054750	1.264650e-001	-2.237545e-002	-2.801295e-001	-1.829275e+000	-1.510270e-002	-4.854977e-002	-2.353269e-001	2.874453e-001
8181304563	1.268587e-001	-2.377396e-002	-2.872332e-001	-1.823611e+000	-1.530939e-002	-4.836603e-002	-2.343997e-001	2.880106e-001
8187554375	1.277659e-001	-2.516092e-002	-2.965649e-001	-1.821193e+000	-1.551554e-002	-4.829497e-002	-2.337391e-001	2.882370e-001
8193804188	1.286828e-001	-2.699801e-002	-3.036301e-001	-1.815490e+000	-1.562931e-002	-4.840549e-002	-2.331260e-001	2.882793e-001
8200054000	1.292855e-001	-2.911217e-002	-3.123052e-001	-1.811135e+000	-1.601173e-002	-4.825334e-002	-2.329235e-001	2.885384e-001
8206303813	1.298105e-001	-3.033480e-002	-3.202254e-001	-1.806545e+000	-1.607126e-002	-4.825472e-002	-2.318913e-001	2.882178e-001
8212553625	1.306770e-001	-3.190607e-002	-3.276911e-001	-1.802145e+000	-1.651957e-002	-4.823638e-002	-2.311433e-001	2.880361e-001
8218803438	1.315012e-001	-3.328066e-002	-3.361936e-001	-1.797079e+000	-1.649402e-002	-4.856490e-002	-2.309833e-001	2.878268e-001
8225053250	1.321700e-001	-3.540103e-002	-3.438930e-001	-1.792947e+000	-1.666175e-002	-4.840136e-002	-2.298766e-001	2.883092e-001
8231303063	1.326538e-001	-3.679058e-002	-3.516396e-001	-1.787947e+000	-1.688417e-002	-4.814302e-002	-2.290024e-001	2.887006e-001
8237552875	1.336758e-001	-3.855300e-002	-3.591417e-001	-1.784292e+000	-1.735867e-002	-4.820621e-002	-2.280615e-001	2.885688e-001
8243802688	1.343845e-001	-3.986522e-002	-3.662448e-001	-1.778680e+000	-1.753443e-002	-4.812998e-002	-2.273499e-001	2.889400e-001
8250052500	1.352794e-001	-4.147541e-002	-3.743166e-001	-1.773426e+000	-1.765618e-002	-4.806598e-002	-2.270361e-001	2.886287e-001
8256302313	1.362692e-001	-4.320317e-002	-3.809966e-001	-1.768820e+000	-1.793471e-002	-4.820230e-002	-2.265009e-001	2.887511e-001
8262552125	1.365959e-001	-4.488231e-002	-3.891315e-001	-1.764512e+000	-1.834288e-002	-4.787016e-002	-2.256779e-001	2.890245e-001
8268801938	1.375321e-001	-4.649532e-002	-3.970542e-001	-1.759258e+000	-1.843800e-002	-4.815353e-002	-2.249224e-001	2.891743e-001
8275051750	1.381923e-001	-4.835731e-002	-4.059828e-001	-1.754081e+000	-1.848883e-002	-4.798858e-002	-2.236567e-001	2.891701e-001
8281301563	1.395450e-001	-4.974920e-002	-4.122669e-001	-1.750247e+000	-1.882951e-002	-4.803826e-002	-2.227035e-001	2.890794e-001
8287551375	1.400027e-001	-5.148353e-002	-4.198498e-001	-1.744044e+000	-1.937262e-002	-4.797745e-002	-2.221786e-001	2.890345e-001
8293801188	1.410906e-001	-5.319888e-002	-4.272235e-001	-1.738881e+000	-1.936187e-002	-4.764983e-002	-2.215852e-001	2.891514e-001
8300051000	1.417642e-001	-5.488284e-002	-4.352792e-001	-1.732925e+000	-1.985989e-002	-4.816898e-002	-2.206099e-001	2.890284e-001
8306300813	1.428613e-001	-5.662736e-002	-4.426751e-001	-1.728364e+000	-2.015063e-002	-4.778190e-002	-2.197939e-001	2.888544e-001
8312550625	1.439813e-001	-5.801976e-002	-4.482941e-001	-1.723831e+000	-2.034169e-002	-4.798362e-002	-2.182691e-001	2.883250e-001
8318800438	1.444859e-001	-5.977768e-002	-4.565457e-001	-1.717008e+000	-2.057639e-002	-4.791330e-002	-2.173435e-001	2.872535e-001
8325050250	1.458069e-001	-6.152365e-002	-4.635245e-001	-1.712524e+000	-2.084707e-002	-4.769263e-002	-2.161551e-001	2.864242e-001
8331300063	1.463132e-001	-6.343433e-002	-4.715314e-001	-1.707393e+000	-2.130816e-002	-4.766759e-002	-2.158639e-001	2.873067e-001
8337549875	1.470872e-001	-6.491444e-002	-4.780947e-001	-1.702805e+000	-2.126808e-002	-4.722342e-002	-2.148578e-001	2.881860e-001
8343799688	1.480094e-001	-6.641076e-002	-4.849339e-001	-1.695854e+000	-2.167862e-002	-4.743314e-002	-2.132374e-001	2.884777e-001
8350049500	1.488397e-001	-6.808259e-002	-4.910206e-001	-1.690653e+000	-2.184660e-002	-4.718151e-002	-2.117176e-001	2.889361e-001
8356299313	1.500285e-001	-6.985775e-002	-4.989569e-001	-1.686055e+000	-2.211151e-002	-4.735427e-002	-2.113246e-001	2.887781e-001
8362549125	1.507011e-001	-7.142860e-002	-5.055576e-001	-1.680695e+000	-2.235607e-002	-4.729458e-002	-2.100247e-001	2.888412e-001
8368798938	1.519842e-001	-7.294038e-002	-5.119957e-001	-1.675809e+000	-2.258202e-002	-4.719828e-002	-2.090892e-001	2.883905e-001
8375048750	1.523779e-001	-7.465113e-002	-5.188722e-001	-1.669905e+000	-2.280518e-002	-4.723040e-002	-2.082846e-001	2.881259e-001
8381298563	1.530832e-001	-7.592389e-002	-5.254394e-001	-1.663393e+000	-2.327075e-002	-4.712448e-002	-2.075645e-001	2.881583e-001
8387548375	1.542118e-001	-7.757375e-002	-5.326611e-001	-1.659064e+000	-2.344824e-002	-4.698910e-002	-2.063258e-001	2.875530e-001
8393798188	1.545577e-001	-7.933110e-002	-5.392868e-001	-1.652320e+000	-2.390458e-002	-4.707319e-002	-2.055285e-001	2.873061e-001
8400048000	1.557805e-001	-8.078495e-002	-5.464969e-001	-1.646140e+000	-2.425651e-002	-4.680433e-002	-2.044780e-001	2.872445e-001
8406297813	1.563060e-001	-8.257719e-002	-5.531035e-001	-1.640469e+000	-2.436331e-002	-4.676064e-002	-2.039764e-001	2.869166e-001
8412547625	1.569542e-001	-8.450149e-002	-5.601906e-001	-1.635953e+000	-2.457113e-002	-4.687902e-002	-2.028385e-001	2.866445e-001
8418797438	1.575215e-001	-8.662977e-002	-5.672267e-001	-1.627966e+000	-2.480664e-002	-4.684787e-002	-2.018112e-001	2.863316e-001
8425047250	1.588490e-001	-8.802141e-002	-5.747763e-001	-1.623670e+000	-2.529231e-002	-4.671740e-002	-2.003791e-001	2.858437e-001
8431297063	1.590211e-001	-8.991049e-002	-5.796702e-001	-1.617899e+000	-2.538679e-002	-4.658835e-002	-1.996279e-001	2.854184e-001
8437546875	1.602976e-001	-9.176470e-002	-5.858994e-001	-1.612254e+000	-2.553432e-002	-4.628647e-002	-1.985212e-001	2.852685e-001
8443796688	1.613006e-001	-9.350430e-002	-5.924074e-001	-1.604850e+000	-2.577287e-002	-4.648259e-002	-1.977612e-001	2.845995e-001
8450046500	1.616736e-001	-9.527957e-002	-5.997624e-001	-1.600677e+000	-2.625835e-002	-4.622767e-002	-1.963476e-001	2.838323e-001
8456296313	1.625371e-001	-9.704986e-002	-6.049033e-001	-1.593289e+000	-2.669455e-002	-4.600852e-002	-1.959183e-001	2.836487e-001
8462546125	1.634685e-001	-9.898760e-002	-6.109534e-001	-1.587655e+000	-2.704358e-002	-4.567215e-002	-1.952309e-001	2.835737e-001
8468795938	1.644035e-001	-1.006310e-001	-6.170314e-001	-1.582044e+000	-2.732981e-002	-4.597283e-002	-1.939329e-001	2.823655e-001
8475045750	1.649768e-001	-1.023714e-001	-6.234976e-001	-1.576095e+000	-2.750179e-002	-4.579592e-002	-1.927882e-001	2.823688e-001
8481295563	1.660453e-001	-1.041623e-001	-6.290011e-001	-1.570833e+000	-2.769876e-002	-4.586721e-002	-1.918954e-001	2.818102e-001
8487545375	1.664733e-001	-1.063891e-001	-6.359615e-001	-1.565522e+000	-2.801918e-002	-4.544394e-002	-1.903908e-001	2.814811e-001
8493795188	1.672662e-001	-1.078054e-001	-6.419500e-001	-1.557990e+000	-2.855029e-002	-4.552239e-002	-1.891694e-001	2.809759e-001
8500045000	1.703202e-001	-1.140063e-001	-6.593332e-001	-1.559013e+000	-2.937964e-002	-4.509794e-002	-1.876339e-001	2.812937e-001
8506294813	1.717194e-001	-1.157031e-001	-6.663263e-001	-1.554857e+000	-3.064816e-002	-4.539711e-002	-1.869142e-001	2.812089e-001
8512544625	1.725323e-001	-1.178174e-001	-6.729178e-001	-1.549496e+000	-3.055845e-002	-4.449564e-002	-1.845879e-001	2.806011e-001
8518794438	1.731416e-001	-1.176914e-001	-6.788114e-001	-1.542120e+000	-3.062097e-002	-4.486848e-002	-1.828129e-001	2.803050e-001
8525044250	1.744131e-001	-1.196429e-001	-6.858628e-001	-1.537111e+000	-3.200325e-002	-4.491926e-002	-1.810129e-001	2.808065e-001
8531294063	1.732339e-001	-1.202101e-001	-6.915385e-001	-1.528093e+000	-3.105020e-002	-4.388182e-002	-1.808689e-001	2.807125e-001
8537543875	1.754183e-001	-1.220183e-001	-6.990646e-001	-1.524072e+000	-3.110794e-002	-4.393158e-002	-1.791295e-001	2.800182e-001
8543793688	1.751618e-001	-1.229092e-001	-6.991098e-001	-1.516099e+000	-3.185020e-002	-4.427341e-002	-1.788962e-001	2.788351e-001
8550043500	1.750671e-001	-1.243685e-001	-7.059018e-001	-1.508924e+000	-3.115266e-002	-4.444974e-002	-1.771557e-001	2.798833e-001
8556293313	1.753084e-001	-1.245173e-001	-7.129500e-001	-1.501866e+000	-3.228465e-002	-4.439484e-002	-1.761505e-001	2.791717e-001
8562543125	1.748121e-001	-1.279593e-001	-7.196969e-001	-1.496625e+000	-3.220989e-002	-4.355971e-002	-1.758227e-001	2.784557e-001
8568792938	1.750249e-001	-1.295439e-001	-7.248090e-001	-1.491907e+000	-3.189618e-002	-4.373996e-002	-1.748077e-001	2.785198e-001
8575042750	1.754716e-001	-1.307109e-001	-7.281065e-001	-1.483001e+000	-3.274975e-002	-4.383033e-002	-1.743917e-001	2.780005e-001
8581292563	1.755001e-001	-1.343169e-001	-7.317824e-001	-1.480214e+000	-3.305187e-002	-4.376604e-002	-1.730999e-001	2.783054e-001
8587542375	1.754381e-001	-1.364351e-001	-7.431194e-001	-1.470478e+000	-3.331466e-002	-4.356223e-002	-1.724619e-001	2.778111e-001
8593792188	1.765943e-001	-1.376371e-001	-7.445339e-001	-1.468378e+000	-3.354879e-002	-4.352628e-002	-1.712327e-001	2.770506e-001
8600042000	1.770551e-001	-1.408118e-001	-7.517321e-001	-1.458286e+000	-3.415074e-002	-4.336499e-002	-1.718267e-001	2.767578e-001
8606291813	1.785168e-001	-1.425488e-001	-7.571008e-001	-1.454614e+000	-3.472230e-002	-4.296231e-002	-1.700220e-001	2.745405e-001
8612541625	1.802005e-001	-1.455523e-001	-7.611350e-001	-1.447020e+000	-3.463885e-002	-4.246481e-002	-1.699980e-001	2.744120e-001
8618791438	1.800385e-001	-1.471788e-001	-7.683747e-001	-1.439579e+000	-3.474568e-002	-4.281191e-002	-1.693881e-001	2.746686e-001
8625041250	1.814833e-001	-1.494815e-001	-7.700318e-001	-1.434662e+000	-3.507215e-002	-4.207526e-002	-1.691258e-001	2.745306e-001
8631291063	1.816275e-001	-1.520526e-001	-7.748314e-001	-1.423656e+000	-3.522928e-002	-4.190056e-002	-1.679238e-001	2.728472e-001
8637540875	1.826812e-001	-1.526653e-001	-7.786517e-001	-1.416799e+000	-3.520946e-002	-4.130143e-002	-1.668136e-001	2.728412e-001
8643790688	1.836120e-001	-1.557157e-001	-7.863619e-001	-1.412995e+000	-3.558901e-002	-4.197732e-002	-1.651326e-001	2.714149e-001
8650040500	1.854855e-001	-1.568651e-001	-7.900953e-001	-1.403643e+000	-3.568643e-002	-4.168898e-002	-1.636797e-001	2.705193e-001
8656290313	1.862831e-001	-1.589886e-001	-7.946007e-001	-1.400130e+000	-3.577621e-002	-4.162080e-002	-1.627471e-001	2.693524e-001
8662540125	1.877792e-001	-1.606100e-001	-7.991310e-001	-1.391347e+000	-3.602479e-002	-4.080768e-002	-1.601487e-001	2.691756e-001
8668789938	1.862669e-001	-1.615352e-001	-8.031826e-001	-1.384047e+000	-3.630029e-002	-4.009203e-002	-1.588188e-001	2.677324e-001
8675039750	1.894777e-001	-1.635218e-001	-8.060525e-001	-1.378381e+000	-3.619405e-002	-3.997924e-002	-1.573701e-001	2.678131e-001
8681289563	1.894579e-001	-1.650648e-001	-8.151438e-001	-1.372310e+000	-3.767374e-002	-4.003817e-002	-1.565899e-001	2.682928e-001
8687539375	1.898435e-001	-1.677270e-001	-8.196014e-001	-1.364934e+000	-3.741569e-002	-4.004982e-002	-1.553905e-001	2.660187e-001
8693789188	1.907996e-001	-1.682267e-001	-8.237735e-001	-1.357984e+000	-3.782468e-002	-4.019129e-002	-1.532416e-001	2.658704e-001
8700039000	1.924190e-001	-1.701411e-001	-8.251184e-001	-1.350966e+000	-3.744357e-002	-3.995425e-002	-1.522659e-001	2.655882e-001
8706288813	1.919739e-001	-1.714398e-001	-8.354580e-001	-1.345326e+000	-3.772130e-002	-3.947089e-002	-1.511169e-001	2.648123e-001
8712538625	1.924396e-001	-1.722086e-001	-8.392377e-001	-1.339290e+000	-3.824749e-002	-3.957763e-002	-1.496877e-001	2.651426e-001
8718788438	1.934811e-001	-1.753126e-001	-8.420191e-001	-1.335085e+000	-3.846893e-002	-3.960577e-002	-1.486708e-001	2.636320e-001
8725038250	1.938077e-001	-1.758477e-001	-8.462851e-001	-1.325264e+000	-3.889902e-002	-3.908058e-002	-1.459884e-001	2.630255e-001
8731288063	1.929787e-001	-1.785240e-001	-8.536593e-001	-1.320156e+000	-3.888860e-002	-3.937178e-002	-1.458280e-001	2.632668e-001
8737537875	1.930704e-001	-1.800331e-001	-8.584202e-001	-1.312091e+000	-3.897408e-002	-3.900588e-002	-1.449690e-001	2.618933e-001
8743787688	1.946586e-001	-1.818419e-001	-8.598577e-001	-1.304881e+000	-3.874953e-002	-3.881761e-002	-1.441240e-001	2.621615e-001
8750037500	1.951411e-001	-1.835056e-001	-8.663848e-001	-1.296851e+000	-3.918857e-002	-3.869273e-002	-1.432615e-001	2.613382e-001
8756287313	1.947563e-001	-1.842788e-001	-8.691377e-001	-1.287204e+000	-3.976837e-002	-3.895801e-002	-1.420236e-001	2.610581e-001
8762537125	1.961149e-001	-1.874797e-001	-8.725372e-001	-1.284040e+000	-3.974844e-002	-3.764757e-002	-1.413270e-001	2.598595e-001
8768786938	1.970081e-001	-1.900632e-001	-8.788370e-001	-1.280243e+000	-4.017491e-002	-3.811212e-002	-1.404270e-001	2.599591e-001
8775036750	1.977826e-001	-1.906781e-001	-8.792923e-001	-1.269177e+000	-3.979875e-002	-3.822345e-002	-1.397758e-001	2.580527e-001
8781286563	1.975609e-001	-1.945563e-001	-8.839764e-001	-1.264937e+000	-4.066622e-002	-3.871199e-002	-1.400594e-001	2.579980e-001
8787536375	1.994067e-001	-1.962041e-001	-8.858129e-001	-1.258569e+000	-4.022264e-002	-3.781248e-002	-1.388056e-001	2.582410e-001
8793786188	1.981069e-001	-1.987073e-001	-8.914676e-001	-1.251466e+000	-4.092407e-002	-3.690798e-002	-1.367675e-001	2.566962e-001
8800036000	1.996204e-001	-2.007093e-001	-8.967517e-001	-1.242820e+000	-4.171211e-002	-3.725231e-002	-1.354358e-001	2.559431e-001
8806285813	2.005283e-001	-2.019814e-001	-8.990212e-001	-1.236577e+000	-4.120352e-002	-3.700811e-002	-1.332154e-001	2.541633e-001
8812535625	2.000392e-001	-2.032473e-001	-9.050726e-001	-1.227160e+000	-4.154022e-002	-3.632995e-002	-1.329080e-001	2.535541e-001
8818785438	2.027324e-001	-2.050113e-001	-9.058431e-001	-1.222463e+000	-4.174884e-002	-3.620284e-002	-1.306085e-001	2.522063e-001
8825035250	2.030362e-001	-2.070946e-001	-9.093135e-001	-1.213831e+000	-4.259571e-002	-3.586328e-002	-1.301369e-001	2.518779e-001
8831285063	2.039848e-001	-2.097523e-001	-9.142879e-001	-1.208079e+000	-4.270032e-002	-3.566481e-002	-1.297110e-001	2.498902e-001
8837534875	2.061002e-001	-2.109207e-001	-9.152275e-001	-1.202931e+000	-4.312504e-002	-3.545584e-002	-1.279295e-001	2.483124e-001
8843784688	2.045844e-001	-2.132120e-001	-9.232033e-001	-1.194374e+000	-4.229344e-002	-3.467423e-002	-1.260819e-001	2.476923e-001
8850034500	2.051007e-001	-2.148836e-001	-9.211990e-001	-1.186056e+000	-4.294312e-002	-3.562397e-002	-1.243504e-001	2.469242e-001
8856284313	2.063956e-001	-2.161926e-001	-9.309563e-001	-1.180971e+000	-4.322188e-002	-3.453767e-002	-1.233553e-001	2.464855e-001
8862534125	2.058292e-001	-2.172888e-001	-9.312107e-001	-1.172655e+000	-4.395584e-002	-3.469559e-002	-1.221307e-001	2.451983e-001
8868783938	2.081433e-001	-2.193085e-001	-9.350606e-001	-1.165826e+000	-4.332485e-002	-3.506823e-002	-1.206938e-001	2.454082e-001
8875033750	2.083617e-001	-2.199353e-001	-9.381186e-001	-1.160547e+000	-4.399565e-002	-3.444152e-002	-1.191069e-001	2.442089e-001
8881283563	2.090581e-001	-2.215470e-001	-9.408081e-001	-1.153584e+000	-4.433559e-002	-3.438240e-002	-1.177683e-001	2.430329e-001
8887533375	2.071328e-001	-2.237497e-001	-9.476743e-001	-1.144519e+000	-4.408546e-002	-3.452672e-002	-1.162891e-001	2.429592e-001
8893783188	2.083253e-001	-2.260122e-001	-9.519388e-001	-1.137582e+000	-4.505475e-002	-3.300701e-002	-1.145982e-001	2.414113e-001
8900033000	2.086763e-001	-2.275331e-001	-9.564688e-001	-1.134212e+000	-4.452664e-002	-3.318918e-002	-1.135650e-001	2.416216e-001
8906282813	2.091015e-001	-2.303887e-001	-9.575096e-001	-1.126703e+000	-4.471277e-002	-3.352315e-002	-1.127567e-001	2.406058e-001
8912532625	2.099159e-001	-2.324169e-001	-9.616690e-001	-1.119261e+000	-4.454236e-002	-3.294228e-002	-1.125904e-001	2.396159e-001
8918782438	2.109284e-001	-2.341595e-001	-9.641440e-001	-1.113557e+000	-4.541735e-002	-3.300404e-002	-1.104637e-001	2.394446e-001
8925032250	2.117316e-001	-2.356414e-001	-9.668042e-001	-1.103113e+000	-4.510065e-002	-3.247301e-002	-1.099737e-001	2.386957e-001
8931282063	2.115208e-001	-2.371943e-001	-9.690335e-001	-1.096106e+000	-4.626347e-002	-3.217081e-002	-1.094141e-001	2.381251e-001
8937531875	2.110094e-001	-2.396229e-001	-9.738729e-001	-1.088197e+000	-4.588847e-002	-3.251021e-002	-1.081220e-001	2.376588e-001
8943781688	2.113656e-001	-2.421969e-001	-9.775863e-001	-1.082714e+000	-4.614391e-002	-3.208609e-002	-1.072085e-001	2.371828e-001
8950031500	2.123265e-001	-2.445278e-001	-9.795786e-001	-1.077015e+000	-4.650745e-002	-3.169114e-002	-1.056178e-001	2.352428e-001
8956281313	2.134671e-001	-2.465868e-001	-9.836816e-001	-1.069349e+000	-4.739349e-002	-3.092526e-002	-1.042465e-001	2.359211e-001
8962531125	2.142712e-001	-2.487070e-001	-9.825193e-001	-1.060813e+000	-4.652892e-002	-3.168380e-002	-1.031251e-001	2.340722e-001
8968780938	2.149164e-001	-2.507630e-001	-9.858871e-001	-1.053696e+000	-4.637095e-002	-3.114993e-002	-1.013295e-001	2.322037e-001
8975030750	2.157478e-001	-2.523697e-001	-9.860731e-001	-1.047375e+000	-4.671101e-002	-3.049388e-002	-9.989255e-002	2.309599e-001
8981280563	2.158394e-001	-2.554431e-001	-9.925941e-001	-1.042892e+000	-4.708172e-002	-3.043166e-002	-9.967265e-002	2.290539e-001
8987530375	2.170307e-001	-2.566102e-001	-9.940850e-001	-1.035014e+000	-4.699018e-002	-3.079465e-002	-9.856589e-002	2.269909e-001
8993780188	2.174616e-001	-2.572798e-001	-9.971788e-001	-1.022841e+000	-4.715759e-002	-2.952403e-002	-9.768095e-002	2.265538e-001
9000030000	2.172163e-001	-2.610774e-001	-1.000703e+000	-1.019674e+000	-4.732220e-002	-2.912496e-002	-9.758554e-002	2.247050e-001
9006279813	2.188007e-001	-2.608557e-001	-1.001912e+000	-1.010722e+000	-4.766524e-002	-2.904967e-002	-9.589450e-002	2.233224e-001
9012529625	2.192130e-001	-2.632539e-001	-1.001127e+000	-1.006378e+000	-4.801197e-002	-2.907115e-002	-9.411873e-002	2.224210e-001
9018779438	2.198922e-001	-2.646193e-001	-1.007083e+000	-1.000152e+000	-4.808501e-002	-2.911068e-002	-9.302835e-002	2.211485e-001
9025029250	2.216398e-001	-2.661100e-001	-1.008751e+000	-9.925063e-001	-4.845318e-002	-2.933249e-002	-9.067346e-002	2.206156e-001
9031279063	2.217805e-001	-2.678580e-001	-1.012951e+000	-9.860888e-001	-4.810536e-002	-2.928391e-002	-8.959528e-002	2.196691e-001
9037528875	2.220307e-001	-2.691449e-001	-1.015192e+000	-9.775288e-001	-4.796175e-002	-2.768363e-002	-8.774286e-002	2.186180e-001
9043778688	2.218449e-001	-2.724634e-001	-1.016248e+000	-9.711656e-001	-4.891483e-002	-2.744094e-002	-8.605795e-002	2.185021e-001
9050028500	2.233517e-001	-2.739007e-001	-1.016191e+000	-9.639737e-001	-4.878719e-002	-2.715844e-002	-8.413850e-002	2.171603e-001
9056278313	2.230709e-001	-2.751945e-001	-1.021943e+000	-9.604066e-001	-4.998403e-002	-2.748176e-002	-8.224602e-002	2.158181e-001
9062528125	2.221712e-001	-2.763573e-001	-1.024099e+000	-9.493644e-001	-4.885353e-002	-2.820173e-002	-8.197381e-002	2.151265e-001
9068777938	2.234424e-001	-2.792457e-001	-1.025307e+000	-9.420813e-001	-4.904789e-002	-2.689200e-002	-8.041998e-002	2.148782e-001
9075027750	2.240215e-001	-2.803331e-001	-1.027551e+000	-9.328101e-001	-4.947113e-002	-2.718430e-002	-7.882907e-002	2.130197e-001
9081277563	2.238917e-001	-2.820348e-001	-1.029842e+000	-9.276083e-001	-4.955674e-002	-2.689303e-002	-7.801331e-002	2.128884e-001
9087527375	2.246012e-001	-2.842312e-001	-1.033219e+000	-9.196848e-001	-4.941511e-002	-2.693055e-002	-7.616545e-002	2.125555e-001
9093777188	2.246475e-001	-2.877505e-001	-1.034178e+000	-9.136311e-001	-4.986108e-002	-2.648599e-002	-7.485629e-002	2.123468e-001
9100027000	2.246851e-001	-2.896582e-001	-1.038491e+000	-9.039542e-001	-4.908446e-002	-2.533405e-002	-7.555769e-002	2.107129e-001
9106276813	2.243432e-001	-2.901759e-001	-1.038072e+000	-8.987973e-001	-4.958462e-002	-2.502958e-002	-7.305391e-002	2.096453e-001
9112526625	2.259000e-001	-2.943114e-001	-1.039883e+000	-8.924653e-001	-5.034385e-002	-2.514489e-002	-7.236132e-002	2.082830e-001
9118776438	2.262507e-001	-2.957575e-001	-1.042081e+000	-8.855087e-001	-5.060325e-002	-2.491884e-002	-7.007891e-002	2.079602e-001
9125026250	2.272711e-001	-2.978687e-001	-1.041292e+000	-8.800858e-001	-5.029835e-002	-2.549495e-002	-6.810665e-002	2.068032e-001
9131276063	2.279917e-001	-3.002161e-001	-1.043147e+000	-8.724368e-001	-5.094604e-002	-2.399136e-002	-6.643515e-002	2.053301e-001
9137525875	2.276837e-001	-3.025385e-001	-1.045685e+000	-8.651889e-001	-5.115294e-002	-2.399489e-002	-6.575063e-002	2.033195e-001
9143775688	2.289766e-001	-3.033525e-001	-1.046570e+000	-8.575355e-001	-5.044252e-002	-2.479701e-002	-6.404530e-002	2.011843e-001
9150025500	2.287920e-001	-3.055893e-001	-1.046314e+000	-8.506638e-001	-5.047835e-002	-2.399453e-002	-6.464321e-002	2.001721e-001
9156275313	2.295310e-001	-3.072707e-001	-1.049434e+000	-8.434352e-001	-5.121984e-002	-2.412677e-002	-6.320189e-002	1.987283e-001
9162525125	2.294359e-001	-3.098178e-001	-1.048255e+000	-8.376283e-001	-5.082574e-002	-2.435916e-002	-6.291147e-002	1.959278e-001
9168774938	2.313455e-001	-3.115448e-001	-1.051266e+000	-8.278617e-001	-5.144433e-002	-2.363924e-002	-6.200117e-002	1.946618e-001
9175024750	2.320893e-001	-3.120998e-001	-1.048872e+000	-8.239273e-001	-5.195381e-002	-2.258153e-002	-5.881756e-002	1.929448e-001
9181274563	2.324632e-001	-3.152777e-001	-1.051204e+000	-8.129365e-001	-5.117656e-002	-2.356723e-002	-5.814109e-002	1.921650e-001
9187524375	2.328342e-001	-3.156860e-001	-1.052225e+000	-8.113330e-001	-5.099766e-002	-2.260933e-002	-5.574109e-002	1.915545e-001
9193774188	2.334098e-001	-3.194828e-001	-1.053494e+000	-8.002972e-001	-5.157429e-002	-2.233769e-002	-5.484945e-002	1.898456e-001
9200024000	2.337459e-001	-3.198838e-001	-1.052618e+000	-7.962456e-001	-5.183338e-002	-2.249705e-002	-5.271946e-002	1.889860e-001
9206273813	2.334187e-001	-3.234893e-001	-1.056166e+000	-7.899076e-001	-5.138140e-002	-2.248522e-002	-5.083491e-002	1.879818e-001
9212523625	2.330085e-001	-3.229482e-001	-1.055389e+000	-7.811244e-001	-5.196697e-002	-2.167679e-002	-4.908123e-002	1.861029e-001
9218773438	2.334894e-001	-3.265899e-001	-1.059421e+000	-7.755767e-001	-5.194144e-002	-2.133970e-002	-4.658928e-002	1.855137e-001
9225023250	2.342850e-001	-3.283215e-001	-1.057967e+000	-7.695206e-001	-5.221338e-002	-2.136283e-002	-4.461917e-002	1.846082e-001
9231273063	2.336666e-001	-3.300896e-001	-1.060508e+000	-7.641213e-001	-5.215464e-002	-2.131518e-002	-4.342345e-002	1.830696e-001
9237522875	2.335473e-001	-3.317147e-001	-1.062152e+000	-7.572671e-001	-5.213855e-002	-2.094405e-002	-4.118262e-002	1.817661e-001
9243772688	2.332212e-001	-3.345512e-001	-1.064105e+000	-7.515672e-001	-5.277263e-002	-2.090943e-002	-3.892487e-002	1.820488e-001
9250022500	2.349533e-001	-3.356433e-001	-1.062079e+000	-7.433352e-001	-5.199296e-002	-1.998515e-002	-3.774974e-002	1.802284e-001
9256272313	2.337012e-001	-3.384179e-001	-1.064543e+000	-7.370578e-001	-5.275689e-002	-2.007511e-002	-3.784523e-002	1.801616e-001
9262522125	2.349082e-001	-3.411237e-001	-1.060816e+000	-7.316441e-001	-5.256160e-002	-2.069139e-002	-3.529562e-002	1.784323e-001
9268771938	2.341421e-001	-3.425687e-001	-1.062053e+000	-7.218481e-001	-5.251790e-002	-1.961136e-002	-3.402250e-002	1.778214e-001
9275021750	2.347303e-001	-3.460018e-001	-1.062814e+000	-7.165492e-001	-5.264533e-002	-1.941528e-002	-3.160460e-002	1.770557e-001
9281271563	2.345190e-001	-3.484723e-001	-1.065160e+000	-7.126867e-001	-5.250863e-002	-1.935101e-002	-3.066645e-002	1.753469e-001
9287521375	2.352362e-001	-3.490871e-001	-1.064164e+000	-7.032245e-001	-5.297863e-002	-1.936545e-002	-2.829320e-002	1.743227e-001
9293771188	2.368131e-001	-3.524450e-001	-1.061245e+000	-6.988791e-001	-5.364887e-002	-1.888189e-002	-2.736483e-002	1.725029e-001
9300021000	2.349164e-001	-3.535933e-001	-1.065190e+000	-6.906866e-001	-5.397356e-002	-1.873982e-002	-2.752587e-002	1.701541e-001
9306270813	2.351019e-001	-3.568728e-001	-1.063077e+000	-6.842092e-001	-5.402431e-002	-1.825121e-002	-2.612924e-002	1.690114e-001
9312520625	2.361199e-001	-3.596822e-001	-1.064900e+000	-6.799763e-001	-5.361342e-002	-1.843831e-002	-2.685112e-002	1.667205e-001
9318770438	2.374366e-001	-3.602862e-001	-1.063451e+000	-6.742877e-001	-5.384685e-002	-1.796684e-002	-2.535207e-002	1.640651e-001
9325020250	2.364590e-001	-3.628192e-001	-1.065758e+000	-6.693085e-001	-5.309415e-002	-1.788416e-002	-2.510139e-002	1.631575e-001
9331270063	2.363311e-001	-3.640742e-001	-1.064208e+000	-6.623251e-001	-5.344333e-002	-1.774494e-002	-2.300990e-002	1.611295e-001
9337519875	2.384026e-001	-3.654900e-001	-1.065883e+000	-6.561751e-001	-5.417427e-002	-1.749363e-002	-2.202119e-002	1.587053e-001
9343769688	2.386347e-001	-3.675243e-001	-1.065795e+000	-6.504204e-001	-5.339753e-002	-1.730968e-002	-1.940104e-002	1.564336e-001
9350019500	2.381197e-001	-3.698843e-001	-1.066589e+000	-6.464742e-001	-5.335894e-002	-1.759266e-002	-1.738891e-002	1.546600e-001
9356269313	2.390603e-001	-3.703304e-001	-1.065772e+000	-6.373249e-001	-5.405673e-002	-1.699856e-002	-1.525420e-002	1.531963e-001
9362519125	2.399576e-001	-3.728147e-001	-1.065211e+000	-6.320156e-001	-5.354106e-002	-1.689550e-002	-1.382758e-002	1.511794e-001
9368768938	2.397286e-001	-3.740719e-001	-1.064398e+000	-6.257656e-001	-5.332959e-002	-1.699583e-002	-1.105748e-002	1.495735e-001
9375018750	2.382430e-001	-3.771563e-001	-1.064963e+000	-6.208721e-001	-5.265942e-002	-1.650725e-002	-8.921632e-003	1.484474e-001
9381268563	2.384495e-001	-3.786297e-001	-1.063036e+000	-6.133282e-001	-5.407605e-002	-1.610557e-002	-7.068364e-003	1.465328e-001
9387518375	2.392227e-001	-3.810188e-001	-1.062548e+000	-6.080305e-001	-5.324351e-002	-1.596133e-002	-5.019604e-003	1.454132e-001
9393768188	2.393959e-001	-3.810735e-001	-1.064009e+000	-6.006450e-001	-5.427856e-002	-1.606795e-002	-2.157072e-003	1.430046e-001
9400018000	2.381339e-001	-3.834820e-001	-1.063367e+000	-5.951019e-001	-5.421728e-002	-1.570980e-002	-4.003637e-004	1.417164e-001
9406267813	2.381044e-001	-3.851435e-001	-1.062088e+000	-5.880093e-001	-5.409771e-002	-1.570573e-002	2.032580e-003	1.405021e-001
9412517625	2.377335e-001	-3.868361e-001	-1.063676e+000	-5.831323e-001	-5.422249e-002	-1.614260e-002	3.406461e-003	1.393308e-001
9418767438	2.368984e-001	-3.902211e-001	-1.065829e+000	-5.774044e-001	-5.436387e-002	-1.548863e-002	4.459716e-003	1.377431e-001
9425017250	2.371436e-001	-3.912601e-001	-1.063001e+000	-5.701041e-001	-5.497687e-002	-1.566823e-002	6.649242e-003	1.376734e-001
9431267063	2.364754e-001	-3.947361e-001	-1.063286e+000	-5.666347e-001	-5.425537e-002	-1.516719e-002	8.270420e-003	1.359017e-001
9437516875	2.359172e-001	-3.966230e-001	-1.060993e+000	-5.617573e-001	-5.506964e-002	-1.478713e-002	1.027141e-002	1.333269e-001
9443766688	2.364131e-001	-3.972062e-001	-1.062834e+000	-5.553580e-001	-5.463278e-002	-1.430480e-002	1.273046e-002	1.329902e-001
9450016500	2.362042e-001	-4.002489e-001	-1.064364e+000	-5.492134e-001	-5.527437e-002	-1.468562e-002	1.405862e-002	1.306965e-001
9456266313	2.362435e-001	-4.014570e-001	-1.063619e+000	-5.443368e-001	-5.525577e-002	-1.465831e-002	1.447865e-002	1.297093e-001
9462516125	2.362482e-001	-4.051736e-001	-1.060437e+000	-5.390924e-001	-5.546618e-002	-1.419484e-002	1.453613e-002	1.273482e-001
9468765938	2.363941e-001	-4.079258e-001	-1.061364e+000	-5.360242e-001	-5.575788e-002	-1.464273e-002	1.562321e-002	1.260947e-001
9475015750	2.352836e-001	-4.098112e-001	-1.061121e+000	-5.286252e-001	-5.574487e-002	-1.426873e-002	1.625047e-002	1.243935e-001
9481265563	2.365881e-001	-4.128949e-001	-1.060222e+000	-5.230458e-001	-5.585976e-002	-1.425111e-002	1.653225e-002	1.208777e-001
9487515375	2.362960e-001	-4.134735e-001	-1.059797e+000	-5.160314e-001	-5.539349e-002	-1.406057e-002	1.716726e-002	1.187374e-001
9493765188	2.350160e-001	-4.158383e-001	-1.059315e+000	-5.099675e-001	-5.523889e-002	-1.445542e-002	1.822876e-002	1.147411e-001
9500015000	2.363232e-001	-4.175697e-001	-1.060371e+000	-5.058218e-001	-5.502354e-002	-1.373523e-002	1.960396e-002	1.131694e-001
9506264813	2.372060e-001	-4.190578e-001	-1.057190e+000	-4.995544e-001	-5.525611e-002	-1.384845e-002	2.149786e-002	1.107553e-001
9512514625	2.368861e-001	-4.208182e-001	-1.057192e+000	-4.954256e-001	-5.472639e-002	-1.301462e-002	2.426204e-002	1.078999e-001
9518764438	2.362210e-001	-4.229131e-001	-1.057986e+000	-4.905952e-001	-5.608830e-002	-1.357411e-002	2.483275e-002	1.041645e-001
9525014250	2.360819e-001	-4.253353e-001	-1.056060e+000	-4.850735e-001	-5.571860e-002	-1.336218e-002	2.737464e-002	1.033398e-001
9531264063	2.364046e-001	-4.272638e-001	-1.056734e+000	-4.816124e-001	-5.584563e-002	-1.367271e-002	2.966202e-002	1.002568e-001
9537513875	2.365346e-001	-4.283133e-001	-1.055548e+000	-4.761826e-001	-5.588467e-002	-1.396044e-002	3.228704e-002	9.767240e-002
9543763688	2.348331e-001	-4.306561e-001	-1.055853e+000	-4.700481e-001	-5.590562e-002	-1.336185e-002	3.457504e-002	9.440385e-002
9550013500	2.337298e-001	-4.318926e-001	-1.055318e+000	-4.644399e-001	-5.638127e-002	-1.263716e-002	3.599176e-002	9.274083e-002
9556263313	2.344691e-001	-4.335701e-001	-1.053885e+000	-4.608461e-001	-5.647673e-002	-1.295408e-002	3.821938e-002	9.031768e-002
9562513125	2.334426e-001	-4.354839e-001	-1.054616e+000	-4.545726e-001	-5.704100e-002	-1.223821e-002	4.036540e-002	8.797279e-002
9568762938	2.339001e-001	-4.353922e-001	-1.052306e+000	-4.463412e-001	-5.691441e-002	-1.308263e-002	4.223741e-002	8.667883e-002
9575012750	2.340896e-001	-4.385177e-001	-1.052519e+000	-4.416279e-001	-5.723608e-002	-1.209186e-002	4.415316e-002	8.352957e-002
9581262563	2.319518e-001	-4.400000e-001	-1.052420e+000	-4.386845e-001	-5.767933e-002	-1.233283e-002	4.639072e-002	8.229475e-002
9587512375	2.336078e-001	-4.406949e-001	-1.049922e+000	-4.334858e-001	-5.751517e-002	-1.213963e-002	4.749852e-002	8.009040e-002
9593762188	2.327408e-001	-4.435719e-001	-1.051393e+000	-4.274555e-001	-5.742884e-002	-1.208133e-002	4.945209e-002	7.856918e-002
9600012000	2.320986e-001	-4.457466e-001	-1.048932e+000	-4.211370e-001	-5.750727e-002	-1.230452e-002	5.078701e-002	7.714746e-002
9606261813	2.314426e-001	-4.478938e-001	-1.049372e+000	-4.191835e-001	-5.803049e-002	-1.224769e-002	5.147828e-002	7.570058e-002
9612511625	2.298221e-001	-4.492391e-001	-1.049785e+000	-4.124737e-001	-5.847583e-002	-1.280549e-002	5.272656e-002	7.381449e-002
9618761438	2.298131e-001	-4.521150e-001	-1.048131e+000	-4.078775e-001	-5.887094e-002	-1.153180e-002	5.283976e-002	7.144489e-002
9625011250	2.278254e-001	-4.539086e-001	-1.049109e+000	-4.037645e-001	-5.896541e-002	-1.158171e-002	5.421641e-002	6.952319e-002
9631261063	2.280110e-001	-4.537290e-001	-1.046776e+000	-3.968030e-001	-5.979366e-002	-1.192513e-002	5.300936e-002	6.707959e-002
9637510875	2.271498e-001	-4.574256e-001	-1.046124e+000	-3.917592e-001	-5.975586e-002	-1.156703e-002	5.424950e-002	6.413806e-002
9643760688	2.284652e-001	-4.597074e-001	-1.045526e+000	-3.889793e-001	-5.991514e-002	-1.136413e-002	5.401520e-002	6.223982e-002
9650010500	2.277002e-001	-4.596443e-001	-1.044167e+000	-3.803144e-001	-6.002052e-002	-1.090701e-002	5.562997e-002	5.918799e-002
9656260313	2.279892e-001	-4.633046e-001	-1.044702e+000	-3.779757e-001	-5.962822e-002	-1.077791e-002	5.562998e-002	5.538814e-002
9662510125	2.279356e-001	-4.638092e-001	-1.040512e+000	-3.723817e-001	-6.056287e-002	-1.092357e-002	5.636688e-002	5.305060e-002
9668759938	2.269567e-001	-4.668786e-001	-1.043772e+000	-3.682593e-001	-6.057536e-002	-1.100041e-002	5.732047e-002	5.027148e-002
9675009750	2.273307e-001	-4.677740e-001	-1.040862e+000	-3.646907e-001	-6.096785e-002	-1.106280e-002	5.809849e-002	4.649840e-002
9681259563	2.261418e-001	-4.705242e-001	-1.039978e+000	-3.587389e-001	-6.076999e-002	-1.066139e-002	5.903920e-002	4.294815e-002
9687509375	2.263180e-001	-4.723484e-001	-1.041238e+000	-3.536493e-001	-6.177244e-002	-1.051008e-002	6.074306e-002	4.041405e-002
9693759188	2.256909e-001	-4.715556e-001	-1.039578e+000	-3.505891e-001	-6.116730e-002	-1.035188e-002	6.138032e-002	3.599834e-002
9700009000	2.246259e-001	-4.755405e-001	-1.039972e+000	-3.443226e-001	-6.154521e-002	-9.475946e-003	6.318839e-002	3.293985e-002
9706258813	2.233588e-001	-4.770043e-001	-1.041232e+000	-3.393263e-001	-6.204060e-002	-1.020071e-002	6.494434e-002	3.067190e-002
9712508625	2.249608e-001	-4.775124e-001	-1.037811e+000	-3.350456e-001	-6.174860e-002	-9.702755e-003	6.480877e-002	2.742095e-002
9718758438	2.234409e-001	-4.795821e-001	-1.035958e+000	-3.298524e-001	-6.193502e-002	-9.410693e-003	6.658760e-002	2.511549e-002
9725008250	2.230633e-001	-4.804960e-001	-1.036454e+000	-3.241560e-001	-6.232436e-002	-9.819206e-003	6.832843e-002	2.247347e-002
9731258063	2.210941e-001	-4.814848e-001	-1.036619e+000	-3.215426e-001	-6.342692e-002	-9.175790e-003	6.979831e-002	2.007976e-002
9737507875	2.216592e-001	-4.828965e-001	-1.036776e+000	-3.149908e-001	-6.392607e-002	-7.903551e-003	7.139096e-002	1.853154e-002
9743757688	2.205254e-001	-4.844907e-001	-1.036307e+000	-3.096722e-001	-6.468324e-002	-8.610612e-003	7.220879e-002	1.555579e-002
9750007500	2.200713e-001	-4.870101e-001	-1.034920e+000	-3.060329e-001	-6.413868e-002	-8.325439e-003	7.293737e-002	1.430792e-002
9756257313	2.196102e-001	-4.878413e-001	-1.033106e+000	-3.003692e-001	-6.494564e-002	-8.214183e-003	7.307199e-002	1.217785e-002
9762507125	2.207086e-001	-4.889335e-001	-1.032688e+000	-2.950682e-001	-6.451286e-002	-7.909676e-003	7.417445e-002	1.109553e-002
9768756938	2.183338e-001	-4.925667e-001	-1.030924e+000	-2.924054e-001	-6.522722e-002	-7.280310e-003	7.393074e-002	9.021209e-003
9775006750	2.188140e-001	-4.925959e-001	-1.031168e+000	-2.854198e-001	-6.468135e-002	-5.853288e-003	7.466351e-002	7.052723e-003
9781256563	2.176579e-001	-4.942683e-001	-1.030984e+000	-2.797014e-001	-6.556177e-002	-5.954808e-003	7.429743e-002	5.040080e-003
9787506375	2.170644e-001	-4.953745e-001	-1.026966e+000	-2.774732e-001	-6.636503e-002	-5.752235e-003	7.445267e-002	3.123290e-003
9793756188	2.162011e-001	-4.970262e-001	-1.029176e+000	-2.704609e-001	-6.612885e-002	-5.549746e-003	7.466044e-002	1.361564e-003
9800006000	2.163738e-001	-4.985080e-001	-1.028602e+000	-2.683310e-001	-6.669832e-002	-6.255539e-003	7.400039e-002	-2.335624e-003
9806255813	2.150790e-001	-5.007631e-001	-1.026329e+000	-2.614390e-001	-6.626088e-002	-4.010704e-003	7.338092e-002	-3.977841e-003
9812505625	2.144160e-001	-5.020076e-001	-1.024732e+000	-2.564424e-001	-6.649722e-002	-3.887008e-003	7.477845e-002	-6.861188e-003
9818755438	2.143305e-001	-5.027902e-001	-1.024788e+000	-2.493055e-001	-6.697495e-002	-4.028554e-003	7.416253e-002	-9.146580e-003
9825005250	2.137769e-001	-5.045560e-001	-1.022690e+000	-2.471176e-001	-6.763770e-002	-4.155505e-003	7.409018e-002	-1.189576e-002
9831255063	2.134890e-001	-5.055911e-001	-1.021250e+000	-2.402534e-001	-6.812491e-002	-3.505633e-003	7.444332e-002	-1.458720e-002
9837504875	2.137493e-001	-5.057804e-001	-1.020432e+000	-2.362150e-001	-6.812325e-002	-2.707109e-003	7.476177e-002	-1.640467e-002
9843754688	2.125752e-001	-5.090024e-001	-1.019718e+000	-2.318281e-001	-6.847584e-002	-2.594600e-003	7.460412e-002	-1.940199e-002
9850004500	2.105386e-001	-5.088815e-001	-1.019654e+000	-2.265843e-001	-6.832702e-002	-1.748215e-003	7.475485e-002	-2.219085e-002
9856254313	2.123080e-001	-5.115419e-001	-1.018623e+000	-2.202572e-001	-6.906501e-002	-1.352540e-003	7.585063e-002	-2.484623e-002
9862504125	2.101570e-001	-5.115105e-001	-1.014629e+000	-2.162317e-001	-6.930403e-002	-2.130769e-003	7.735016e-002	-2.695904e-002
9868753938	2.107221e-001	-5.133845e-001	-1.016196e+000	-2.136457e-001	-6.893362e-002	-6.604763e-004	7.720670e-002	-2.908488e-002
9875003750	2.108356e-001	-5.156341e-001	-1.012672e+000	-2.054910e-001	-6.832505e-002	-5.157664e-004	7.855094e-002	-3.186555e-002
9881253563	2.109689e-001	-5.162595e-001	-1.012110e+000	-2.005619e-001	-6.868526e-002	-3.109455e-004	7.866184e-002	-3.403271e-002
9887503375	2.101071e-001	-5.173852e-001	-1.010419e+000	-1.971011e-001	-6.914745e-002	8.404893e-004	7.948139e-002	-3.538175e-002
9893753188	2.085017e-001	-5.185351e-001	-1.011376e+000	-1.923611e-001	-6.871253e-002	8.997732e-004	8.189294e-002	-3.765004e-002
9900003000	2.077960e-001	-5.192331e-001	-1.008977e+000	-1.869859e-001	-6.902975e-002	1.401987e-003	8.218101e-002	-3.879302e-002
9906252813	2.073443e-001	-5.211501e-001	-1.005924e+000	-1.832866e-001	-6.908558e-002	1.850217e-003	8.277437e-002	-4.086290e-002
9912502625	2.074637e-001	-5.220238e-001	-1.004283e+000	-1.789509e-001	-6.977990e-002	1.924238e-003	8.318550e-002	-4.248198e-002
9918752438	2.065802e-001	-5.238388e-001	-1.004295e+000	-1.734679e-001	-6.872045e-002	2.407877e-003	8.349776e-002	-4.362204e-002
9925002250	2.063479e-001	-5.266386e-001	-1.000763e+000	-1.690523e-001	-6.949716e-002	3.015911e-003	8.404181e-002	-4.497386e-002
9931252063	2.057295e-001	-5.265992e-001	-9.995019e-001	-1.636875e-001	-6.984963e-002	2.518953e-003	8.592675e-002	-4.619885e-002
9937501875	2.049464e-001	-5.279381e-001	-9.985117e-001	-1.582519e-001	-6.946273e-002	3.545750e-003	8.563371e-002	-4.811315e-002
9943751688	2.036810e-001	-5.295910e-001	-9.976398e-001	-1.536355e-001	-6.944501e-002	4.651742e-003	8.634766e-002	-5.062446e-002
9950001500	2.035590e-001	-5.305265e-001	-9.936060e-001	-1.490662e-001	-6.985200e-002	4.696536e-003	8.599874e-002	-5.185408e-002
9956251313	2.027407e-001	-5.321612e-001	-9.931370e-001	-1.440089e-001	-7.002120e-002	5.210424e-003	8.603572e-002	-5.337784e-002
9962501125	2.034735e-001	-5.337973e-001	-9.927560e-001	-1.406172e-001	-7.030947e-002	5.382936e-003	8.641253e-002	-5.542277e-002
9968750938	2.023434e-001	-5.346709e-001	-9.890657e-001	-1.345196e-001	-7.018868e-002	5.745631e-003	8.671452e-002	-5.783680e-002
9975000750	2.005773e-001	-5.360091e-001	-9.873832e-001	-1.286854e-001	-6.959812e-002	6.482381e-003	8.803352e-002	-5.969978e-002
9981250563	2.015158e-001	-5.372760e-001	-9.865248e-001	-1.263201e-001	-6.957553e-002	6.478795e-003	8.847678e-002	-6.145195e-002
9987500375	2.019428e-001	-5.387852e-001	-9.830561e-001	-1.211857e-001	-6.946679e-002	6.811624e-003	8.928996e-002	-6.332456e-002
9993750188	2.001779e-001	-5.407380e-001	-9.821953e-001	-1.182370e-001	-7.016967e-002	7.741803e-003	9.010580e-002	-6.617155e-002
10000000000	1.993268e-001	-5.416794e-001	-9.813279e-001	-1.130205e-001	-6.937624e-002	8.785484e-003	8.989291e-002	-6.822321e-002


!Noise Parameters
!Freq  NFmin(dB)  Mag(GammaOpt)  Ang(GammaOpt)(deg)  rn(normalized)
5e+009     1.7553 	0.10456 	-127.4		 0.18666
5.05e+009  1.7154 	0.093843 	-140.64		 0.17963
5.1e+009   1.6749 	0.087212 	-155.99 	 0.17376
5.15e+009  1.6338 	0.085548 	-172.54 	 0.16901
5.2e+009   1.6022 	0.089027 	 171.3 		 0.16533
5.25e+009  1.6057 	0.069382	 169.14 	 0.18523
5.3e+009   1.5642	0.11109 	 170.36 	 0.15342
5.35e+009  1.5508 	0.10821 	174.58 	         0.15481
5.4e+009   1.5371 	0.10784 	179.23 		 0.15556
5.45e+009  1.5589 	0.11034 	-178.22		 0.15687
5.5e+009   1.5604 	0.11433 	-175.91 	 0.15767
5.55e+009  1.5653 	0.11514 	179.8 		 0.15967
5.6e+009   1.5429 	0.11918 	-173.01	  	 0.15746
5.65e+009  1.62093 	0.12193 	-174.74 	 0.15935
5.7e+009   1.684 	0.12486		 -176.5	  	 0.16113
5.75e+009  1.6428	0.1262 		-178.16 	 0.1578
5.8e+009   1.6613 	0.12774 	-179.8 	 	 0.15451
5.85e+009  1.7089 	0.12067 	-176.92	 	 0.17349
5.9e+009   1.6923 	0.13237 	179.43 	 	 0.16458
5.95e+009  1.7091 	0.13564 	-178.47	 	 0.16243
6e+009     1.7257 	0.14048 	-176.52  	 0.15967