!Agilent Technologies,E5071C,MY46316587,B.13.01
!Date: Tue Nov 28 12:35:20 2017
!Data & Calibration Information:
!Freq	S11:SOLT2(ON)	S21:SOLT2(ON)	S12:SOLT2(ON)	S22:SOLT2(ON)
!PortZ  Port1:50+j0    Port2:50+j0
!Above PortZ is port z conversion or system Z0 setting when saving the data.
!When reading, reference impedance value at option line is always used.
# Hz S RI R 50
300000	8.202587e-001	4.416000e-002	2.211314e-003	3.721893e-004	-1.089394e-003	-5.442426e-004	9.933471e-001	-1.204728e-003
6549813	9.160644e-001	1.299476e-002	-4.985726e-002	-5.027333e-002	9.607490e-004	-1.471753e-004	9.828992e-001	-2.871960e-002
12799625	9.298440e-001	-7.806438e-004	-6.222394e-002	-1.397250e-002	-3.150057e-005	1.935492e-004	9.698218e-001	-4.219515e-002
19049438	9.367350e-001	-1.070092e-002	-3.736301e-002	-8.597282e-003	-5.309758e-005	2.912373e-004	9.628651e-001	-5.111753e-002
25299250	9.418266e-001	-1.619543e-002	-2.399376e-002	-1.222581e-002	-2.840429e-005	1.163616e-004	9.586061e-001	-5.952194e-002
31549063	9.454549e-001	-2.237245e-002	-2.057579e-002	-2.105789e-002	-1.255004e-004	9.499617e-005	9.555592e-001	-6.883687e-002
37798875	9.476783e-001	-2.733869e-002	-2.525175e-002	-2.523902e-002	-6.111406e-005	9.231180e-005	9.526369e-001	-7.847332e-002
44048688	9.413095e-001	-3.197597e-002	-1.027283e-001	-2.919992e-002	-3.120635e-006	3.540304e-004	9.504276e-001	-8.835024e-002
50298500	9.370561e-001	-3.711741e-002	-1.036439e-001	-1.741377e-002	-2.241908e-004	2.657441e-004	9.481712e-001	-9.809372e-002
56548313	9.337972e-001	-4.220403e-002	-1.079691e-001	-6.906656e-003	-2.847073e-005	1.172600e-004	9.458392e-001	-1.081808e-001
62798125	9.300271e-001	-4.736378e-002	-1.041305e-001	-1.181669e-003	4.118183e-005	3.430159e-004	9.433258e-001	-1.176403e-001
69047938	9.263228e-001	-5.274472e-002	-9.554799e-002	-4.694964e-004	1.344872e-004	5.170382e-004	9.402254e-001	-1.270539e-001
75297750	9.236910e-001	-5.801572e-002	-8.552655e-002	-3.970799e-003	-2.129606e-004	5.757552e-004	9.380113e-001	-1.369646e-001
81547563	9.214769e-001	-6.346578e-002	-7.638822e-002	-1.088527e-002	-5.188615e-005	1.582537e-004	9.349287e-001	-1.467731e-001
87797375	9.191807e-001	-6.876790e-002	-6.764866e-002	-1.997430e-002	-1.432428e-004	5.017441e-004	9.322413e-001	-1.561622e-001
94047188	9.177944e-001	-7.405547e-002	-6.028800e-002	-3.070538e-002	-2.265383e-004	5.014014e-004	9.294382e-001	-1.653862e-001
100297000	9.156390e-001	-7.924525e-002	-5.341948e-002	-4.253328e-002	-1.310023e-004	6.780461e-004	9.265792e-001	-1.749972e-001
106546813	9.141884e-001	-8.455057e-002	-4.860615e-002	-5.472425e-002	-1.518242e-004	5.219894e-004	9.237280e-001	-1.842504e-001
112796625	9.129549e-001	-9.014882e-002	-4.463830e-002	-6.729196e-002	-1.365158e-004	6.306724e-004	9.208818e-001	-1.932886e-001
119046438	9.117303e-001	-9.551239e-002	-4.111020e-002	-8.020904e-002	9.264333e-005	8.933089e-004	9.171768e-001	-2.023593e-001
125296250	9.102362e-001	-1.008356e-001	-3.793389e-002	-9.355841e-002	-1.003750e-004	8.214566e-004	9.142054e-001	-2.112734e-001
131546063	9.083816e-001	-1.052501e-001	-3.527968e-002	-1.072215e-001	-8.645670e-005	7.180776e-004	9.113950e-001	-2.202694e-001
137795875	9.071741e-001	-1.103079e-001	-3.247655e-002	-1.219448e-001	-2.614061e-004	9.360596e-004	9.081024e-001	-2.291424e-001
144045688	9.071843e-001	-1.164158e-001	-2.982384e-002	-1.368752e-001	-1.942148e-004	9.369562e-004	9.044430e-001	-2.377739e-001
150295500	9.057146e-001	-1.222832e-001	-2.820847e-002	-1.525003e-001	-2.450845e-004	9.263669e-004	9.009430e-001	-2.467917e-001
156545313	9.036692e-001	-1.275399e-001	-2.765032e-002	-1.676334e-001	1.290128e-004	9.383711e-004	8.978361e-001	-2.548062e-001
162795125	9.027510e-001	-1.328704e-001	-2.822984e-002	-1.827054e-001	-2.023293e-004	1.152674e-003	8.944120e-001	-2.639037e-001
169044938	9.007418e-001	-1.383799e-001	-2.941045e-002	-1.978209e-001	-5.085274e-004	1.220649e-003	8.906449e-001	-2.726414e-001
175294750	8.993088e-001	-1.429770e-001	-3.152170e-002	-2.121867e-001	-2.203490e-004	1.186758e-003	8.871216e-001	-2.810619e-001
181544563	8.974794e-001	-1.479147e-001	-3.351107e-002	-2.261999e-001	-2.815860e-004	1.156211e-003	8.836779e-001	-2.895434e-001
187794375	8.959009e-001	-1.529288e-001	-3.609125e-002	-2.396879e-001	-3.058940e-004	1.413793e-003	8.800143e-001	-2.981031e-001
194044188	8.944234e-001	-1.576819e-001	-3.921226e-002	-2.530762e-001	-1.999472e-004	1.329125e-003	8.762993e-001	-3.064379e-001
200294000	8.932174e-001	-1.625194e-001	-4.207228e-002	-2.657711e-001	-1.602507e-004	1.233677e-003	8.725061e-001	-3.148346e-001
206543813	8.918035e-001	-1.677445e-001	-4.517083e-002	-2.786004e-001	-3.124624e-004	1.442284e-003	8.681606e-001	-3.232396e-001
212793625	8.899832e-001	-1.721443e-001	-4.951080e-002	-2.911973e-001	-2.904354e-004	1.505040e-003	8.643557e-001	-3.313470e-001
219043438	8.885652e-001	-1.769301e-001	-5.366079e-002	-3.027999e-001	-2.092435e-004	1.408267e-003	8.602246e-001	-3.394373e-001
225293250	8.871124e-001	-1.817133e-001	-5.828086e-002	-3.145216e-001	-2.760440e-004	1.584831e-003	8.563642e-001	-3.476579e-001
231543063	8.852437e-001	-1.868288e-001	-6.212551e-002	-3.262847e-001	-2.327277e-004	1.596839e-003	8.521808e-001	-3.558347e-001
237792875	8.842109e-001	-1.910688e-001	-6.628363e-002	-3.385114e-001	-2.288083e-005	1.636672e-003	8.481332e-001	-3.641147e-001
244042688	8.824556e-001	-1.964827e-001	-7.058035e-002	-3.501965e-001	-3.539877e-004	1.412843e-003	8.440680e-001	-3.720806e-001
250292500	8.802627e-001	-2.014329e-001	-7.486829e-002	-3.622206e-001	-4.066502e-004	1.532653e-003	8.391567e-001	-3.795557e-001
256542313	8.779946e-001	-2.058278e-001	-7.986438e-002	-3.753461e-001	-3.781884e-004	1.774421e-003	8.345653e-001	-3.878758e-001
262792125	8.758897e-001	-2.109689e-001	-8.562615e-002	-3.882274e-001	-1.541122e-004	1.698580e-003	8.300139e-001	-3.952310e-001
269041938	8.730517e-001	-2.151772e-001	-9.211835e-002	-4.006692e-001	-5.594273e-004	1.680334e-003	8.257227e-001	-4.034529e-001
275291750	8.711586e-001	-2.198755e-001	-9.913394e-002	-4.120931e-001	-3.186201e-004	1.854118e-003	8.208611e-001	-4.111566e-001
281541563	8.696006e-001	-2.238702e-001	-1.052714e-001	-4.222608e-001	-4.702099e-004	2.019073e-003	8.164865e-001	-4.185980e-001
287791375	8.678890e-001	-2.282652e-001	-1.125069e-001	-4.334030e-001	-3.522826e-004	2.142602e-003	8.116799e-001	-4.263845e-001
294041188	8.661658e-001	-2.332111e-001	-1.182057e-001	-4.435256e-001	-6.184647e-004	2.142130e-003	8.067308e-001	-4.332655e-001
300291000	8.640510e-001	-2.369408e-001	-1.246942e-001	-4.531240e-001	-2.453560e-004	2.106266e-003	8.017790e-001	-4.411070e-001
306540813	8.619523e-001	-2.418153e-001	-1.310857e-001	-4.638656e-001	-1.041673e-004	2.188870e-003	7.967482e-001	-4.482922e-001
312790625	8.602172e-001	-2.461013e-001	-1.389065e-001	-4.738796e-001	-2.201372e-004	2.109304e-003	7.918594e-001	-4.554912e-001
319040438	8.579597e-001	-2.498360e-001	-1.454181e-001	-4.834801e-001	-3.527757e-004	2.313979e-003	7.864406e-001	-4.631295e-001
325290250	8.560532e-001	-2.540696e-001	-1.529346e-001	-4.934922e-001	-5.563403e-004	2.264321e-003	7.813728e-001	-4.700332e-001
331540063	8.539759e-001	-2.581140e-001	-1.592754e-001	-5.027024e-001	-4.260643e-004	2.355019e-003	7.764425e-001	-4.775172e-001
337789875	8.520873e-001	-2.622491e-001	-1.668315e-001	-5.122447e-001	-5.482445e-004	2.156320e-003	7.710401e-001	-4.846054e-001
344039688	8.500967e-001	-2.669337e-001	-1.737719e-001	-5.220286e-001	-3.493272e-004	2.653481e-003	7.658147e-001	-4.917943e-001
350289500	8.474016e-001	-2.706506e-001	-1.813215e-001	-5.323332e-001	-4.234890e-004	2.455746e-003	7.607355e-001	-4.987554e-001
356539313	8.451471e-001	-2.748580e-001	-1.886038e-001	-5.422896e-001	-4.355962e-004	2.251856e-003	7.548603e-001	-5.050881e-001
362789125	8.427589e-001	-2.790094e-001	-1.971133e-001	-5.520498e-001	-2.352463e-004	2.549950e-003	7.493616e-001	-5.123448e-001
369038938	8.400197e-001	-2.830221e-001	-2.053357e-001	-5.623368e-001	-3.810284e-004	2.636850e-003	7.435512e-001	-5.188834e-001
375288750	8.380040e-001	-2.866159e-001	-2.149372e-001	-5.709589e-001	-2.865533e-004	2.544274e-003	7.378206e-001	-5.253561e-001
381538563	8.352266e-001	-2.907397e-001	-2.236668e-001	-5.799690e-001	-5.138951e-004	2.743261e-003	7.320337e-001	-5.319967e-001
387788375	8.327448e-001	-2.944788e-001	-2.330813e-001	-5.884270e-001	-5.300898e-004	2.744290e-003	7.261112e-001	-5.388056e-001
394038188	8.297781e-001	-2.983247e-001	-2.422450e-001	-5.958629e-001	-6.259484e-004	2.618659e-003	7.205086e-001	-5.449929e-001
400288000	8.283324e-001	-3.015471e-001	-2.498001e-001	-6.029391e-001	-5.009033e-004	2.930169e-003	7.141592e-001	-5.514820e-001
406537813	8.260730e-001	-3.047632e-001	-2.587095e-001	-6.116884e-001	-5.081869e-004	2.972340e-003	7.084540e-001	-5.573990e-001
412787625	8.236880e-001	-3.089508e-001	-2.672622e-001	-6.193190e-001	-6.594872e-004	2.936858e-003	7.023502e-001	-5.636189e-001
419037438	8.219868e-001	-3.128442e-001	-2.772879e-001	-6.272317e-001	-6.992821e-004	2.879317e-003	6.960981e-001	-5.697497e-001
425287250	8.196245e-001	-3.162333e-001	-2.866164e-001	-6.345652e-001	-5.641652e-004	2.916422e-003	6.900553e-001	-5.760356e-001
431537063	8.172543e-001	-3.200839e-001	-2.970006e-001	-6.428610e-001	-5.211905e-004	2.853404e-003	6.840016e-001	-5.815536e-001
437786875	8.149884e-001	-3.233185e-001	-3.055542e-001	-6.506146e-001	-7.738693e-004	2.957137e-003	6.775925e-001	-5.879120e-001
444036688	8.124842e-001	-3.270676e-001	-3.151485e-001	-6.582783e-001	-4.826686e-004	2.991023e-003	6.712612e-001	-5.935533e-001
450286500	8.097414e-001	-3.306055e-001	-3.257640e-001	-6.662093e-001	-4.986595e-004	2.997899e-003	6.648032e-001	-5.992787e-001
456536313	8.076546e-001	-3.342141e-001	-3.352557e-001	-6.735259e-001	-5.462109e-004	3.165476e-003	6.584408e-001	-6.046482e-001
462786125	8.047926e-001	-3.381387e-001	-3.448392e-001	-6.805665e-001	-4.590025e-004	2.950448e-003	6.522150e-001	-6.103219e-001
469035938	8.021207e-001	-3.414413e-001	-3.553590e-001	-6.879915e-001	-4.729180e-004	3.396996e-003	6.459296e-001	-6.153318e-001
475285750	7.997337e-001	-3.445550e-001	-3.660067e-001	-6.957993e-001	-7.019710e-004	3.267283e-003	6.395309e-001	-6.213458e-001
481535563	7.975221e-001	-3.475219e-001	-3.773360e-001	-7.023298e-001	-7.629440e-004	3.347338e-003	6.330229e-001	-6.265341e-001
487785375	7.949480e-001	-3.512810e-001	-3.884508e-001	-7.079456e-001	-7.555187e-004	3.499982e-003	6.264562e-001	-6.317769e-001
494035188	7.920686e-001	-3.542941e-001	-3.993610e-001	-7.138996e-001	-5.932415e-004	3.348469e-003	6.198961e-001	-6.362904e-001
500285000	7.897808e-001	-3.570581e-001	-4.099987e-001	-7.195864e-001	-8.244961e-004	3.279401e-003	6.134781e-001	-6.416198e-001
506534813	7.876087e-001	-3.607247e-001	-4.201946e-001	-7.249995e-001	-5.949252e-004	3.340976e-003	6.064628e-001	-6.462575e-001
512784625	7.851915e-001	-3.639984e-001	-4.318208e-001	-7.299995e-001	-7.302776e-004	3.470443e-003	5.996878e-001	-6.513933e-001
519034438	7.822276e-001	-3.670985e-001	-4.425188e-001	-7.360162e-001	-7.161327e-004	3.365714e-003	5.933047e-001	-6.559887e-001
525284250	7.797991e-001	-3.707303e-001	-4.532379e-001	-7.418285e-001	-7.706468e-004	3.457868e-003	5.861984e-001	-6.607338e-001
531534063	7.774414e-001	-3.736466e-001	-4.642007e-001	-7.461800e-001	-5.492623e-004	3.626989e-003	5.796714e-001	-6.658604e-001
537783875	7.745285e-001	-3.767374e-001	-4.755844e-001	-7.511590e-001	-9.098593e-004	3.618332e-003	5.728563e-001	-6.698787e-001
544033688	7.723101e-001	-3.792506e-001	-4.872691e-001	-7.562967e-001	-7.999398e-004	3.742049e-003	5.663266e-001	-6.742951e-001
550283500	7.695768e-001	-3.832263e-001	-4.994620e-001	-7.607557e-001	-9.031780e-004	3.697832e-003	5.593207e-001	-6.787074e-001
556533313	7.671801e-001	-3.856862e-001	-5.111561e-001	-7.661357e-001	-8.598845e-004	3.705251e-003	5.524691e-001	-6.832713e-001
562783125	7.646209e-001	-3.893028e-001	-5.236633e-001	-7.703529e-001	-1.039507e-003	3.775462e-003	5.455825e-001	-6.872675e-001
569032938	7.619080e-001	-3.922122e-001	-5.359593e-001	-7.735785e-001	-8.484197e-004	3.956599e-003	5.388270e-001	-6.912783e-001
575282750	7.590260e-001	-3.956971e-001	-5.475981e-001	-7.764773e-001	-1.045646e-003	3.805488e-003	5.319421e-001	-6.954531e-001
581532563	7.560324e-001	-3.983162e-001	-5.588776e-001	-7.793442e-001	-1.033980e-003	4.033082e-003	5.249848e-001	-6.992999e-001
587782375	7.531828e-001	-4.011531e-001	-5.697432e-001	-7.820938e-001	-1.157864e-003	3.994791e-003	5.182670e-001	-7.031329e-001
594032188	7.503642e-001	-4.035521e-001	-5.821668e-001	-7.847246e-001	-1.247737e-003	4.081097e-003	5.112212e-001	-7.069196e-001
600282000	7.475275e-001	-4.054176e-001	-5.930743e-001	-7.862627e-001	-9.936604e-004	4.068471e-003	5.041938e-001	-7.108318e-001
606531813	7.457192e-001	-4.076969e-001	-6.036412e-001	-7.894533e-001	-1.030833e-003	4.245890e-003	4.974724e-001	-7.144528e-001
612781625	7.437448e-001	-4.105657e-001	-6.165187e-001	-7.924407e-001	-1.066499e-003	4.095809e-003	4.904272e-001	-7.180428e-001
619031438	7.412184e-001	-4.140595e-001	-6.286136e-001	-7.944901e-001	-9.498428e-004	4.393247e-003	4.835740e-001	-7.214301e-001
625281250	7.381206e-001	-4.170831e-001	-6.407761e-001	-7.973652e-001	-1.069335e-003	4.017520e-003	4.763496e-001	-7.250981e-001
631531063	7.351415e-001	-4.198066e-001	-6.526701e-001	-7.985193e-001	-1.150350e-003	4.083909e-003	4.691893e-001	-7.285498e-001
637780875	7.322684e-001	-4.224279e-001	-6.650916e-001	-7.992290e-001	-1.277144e-003	4.539102e-003	4.625110e-001	-7.311841e-001
644030688	7.289948e-001	-4.252985e-001	-6.783131e-001	-8.008021e-001	-1.129023e-003	4.493163e-003	4.551399e-001	-7.344880e-001
650280500	7.250776e-001	-4.267312e-001	-6.892713e-001	-7.991087e-001	-1.428828e-003	4.588634e-003	4.483898e-001	-7.372256e-001
656530313	7.229373e-001	-4.274542e-001	-6.980802e-001	-7.998126e-001	-1.271019e-003	4.470618e-003	4.412257e-001	-7.405907e-001
662780125	7.217955e-001	-4.296670e-001	-7.076877e-001	-8.020881e-001	-1.338756e-003	4.608499e-003	4.342646e-001	-7.432607e-001
669029938	7.201941e-001	-4.325538e-001	-7.189227e-001	-8.046900e-001	-1.188924e-003	4.657495e-003	4.274949e-001	-7.464447e-001
675279750	7.173966e-001	-4.352035e-001	-7.302684e-001	-8.067507e-001	-1.328576e-003	4.561959e-003	4.199923e-001	-7.495302e-001
681529563	7.151300e-001	-4.380241e-001	-7.424638e-001	-8.083626e-001	-1.322918e-003	4.638394e-003	4.130865e-001	-7.520663e-001
687779375	7.129163e-001	-4.407209e-001	-7.548290e-001	-8.089796e-001	-1.232663e-003	4.719509e-003	4.060349e-001	-7.545054e-001
694029188	7.102079e-001	-4.434543e-001	-7.665239e-001	-8.101055e-001	-1.225412e-003	4.490530e-003	3.987335e-001	-7.570484e-001
700279000	7.080439e-001	-4.454953e-001	-7.775636e-001	-8.099854e-001	-1.467384e-003	4.562454e-003	3.918941e-001	-7.596694e-001
706528813	7.051166e-001	-4.480060e-001	-7.882051e-001	-8.092975e-001	-1.265647e-003	4.776189e-003	3.848120e-001	-7.618638e-001
712778625	7.029686e-001	-4.504377e-001	-8.010718e-001	-8.093224e-001	-1.358549e-003	4.640326e-003	3.778312e-001	-7.638723e-001
719028438	7.005924e-001	-4.527309e-001	-8.117938e-001	-8.076932e-001	-1.493716e-003	4.821436e-003	3.706304e-001	-7.662653e-001
725278250	6.979660e-001	-4.556610e-001	-8.225740e-001	-8.055434e-001	-1.521665e-003	4.832371e-003	3.637464e-001	-7.679985e-001
731528063	6.951921e-001	-4.582577e-001	-8.320324e-001	-8.044668e-001	-1.609001e-003	4.864552e-003	3.569808e-001	-7.704501e-001
737777875	6.922237e-001	-4.608695e-001	-8.430986e-001	-8.034367e-001	-1.536292e-003	4.793392e-003	3.501078e-001	-7.722875e-001
744027688	6.888049e-001	-4.627919e-001	-8.521896e-001	-8.028433e-001	-1.631838e-003	5.014076e-003	3.426772e-001	-7.745955e-001
750277500	6.861129e-001	-4.648116e-001	-8.635810e-001	-8.025116e-001	-1.782362e-003	4.894201e-003	3.358180e-001	-7.762711e-001
756527313	6.831157e-001	-4.671504e-001	-8.743020e-001	-7.998795e-001	-1.892620e-003	5.077175e-003	3.289017e-001	-7.779204e-001
762777125	6.795647e-001	-4.692194e-001	-8.850733e-001	-7.970258e-001	-2.137713e-003	5.242777e-003	3.219731e-001	-7.797697e-001
769026938	6.761773e-001	-4.694680e-001	-8.921368e-001	-7.931754e-001	-1.748565e-003	5.294181e-003	3.154955e-001	-7.812063e-001
775276750	6.747130e-001	-4.703225e-001	-8.971366e-001	-7.927193e-001	-1.667375e-003	5.419425e-003	3.087569e-001	-7.838262e-001
781526563	6.737373e-001	-4.718113e-001	-9.062529e-001	-7.971920e-001	-1.742251e-003	5.116778e-003	3.013615e-001	-7.849752e-001
787776375	6.721061e-001	-4.749904e-001	-9.172733e-001	-7.978017e-001	-1.669726e-003	5.296223e-003	2.939880e-001	-7.867636e-001
794026188	6.693667e-001	-4.775107e-001	-9.285162e-001	-7.959821e-001	-1.845848e-003	5.248414e-003	2.869407e-001	-7.883965e-001
800276000	6.670498e-001	-4.796593e-001	-9.398684e-001	-7.952816e-001	-1.911022e-003	5.422632e-003	2.802713e-001	-7.895765e-001
806525813	6.642169e-001	-4.821238e-001	-9.486539e-001	-7.927583e-001	-1.889647e-003	5.225617e-003	2.731399e-001	-7.910265e-001
812775625	6.621542e-001	-4.835354e-001	-9.594355e-001	-7.912831e-001	-1.954337e-003	5.313744e-003	2.661916e-001	-7.921509e-001
819025438	6.595912e-001	-4.861066e-001	-9.689302e-001	-7.882232e-001	-1.761877e-003	5.298607e-003	2.592036e-001	-7.933680e-001
825275250	6.576166e-001	-4.881110e-001	-9.791835e-001	-7.860068e-001	-1.976370e-003	5.652032e-003	2.525519e-001	-7.939453e-001
831525063	6.547568e-001	-4.904079e-001	-9.862113e-001	-7.842086e-001	-1.998665e-003	5.502815e-003	2.459428e-001	-7.948605e-001
837774875	6.521440e-001	-4.923807e-001	-9.974311e-001	-7.809393e-001	-2.256009e-003	5.692860e-003	2.390114e-001	-7.956156e-001
844024688	6.501775e-001	-4.943722e-001	-1.006246e+000	-7.788352e-001	-2.353573e-003	5.637597e-003	2.322845e-001	-7.971219e-001
850274500	6.477393e-001	-4.961516e-001	-1.015381e+000	-7.775931e-001	-2.237444e-003	5.645786e-003	2.255984e-001	-7.977515e-001
856524313	6.449189e-001	-4.975338e-001	-1.022669e+000	-7.754181e-001	-2.282363e-003	5.763991e-003	2.186349e-001	-7.984297e-001
862774125	6.422253e-001	-4.997670e-001	-1.032133e+000	-7.724517e-001	-2.534644e-003	5.679864e-003	2.117636e-001	-7.991469e-001
869023938	6.399943e-001	-5.012497e-001	-1.040644e+000	-7.730637e-001	-2.434999e-003	5.986254e-003	2.051822e-001	-8.000588e-001
875273750	6.373772e-001	-5.031278e-001	-1.048829e+000	-7.699894e-001	-2.459530e-003	5.844681e-003	1.985972e-001	-8.007220e-001
881523563	6.344529e-001	-5.049790e-001	-1.057773e+000	-7.673307e-001	-2.510201e-003	5.846920e-003	1.918550e-001	-8.012409e-001
887773375	6.315805e-001	-5.067896e-001	-1.064955e+000	-7.648621e-001	-2.525806e-003	5.844290e-003	1.850602e-001	-8.019466e-001
894023188	6.293655e-001	-5.080764e-001	-1.073612e+000	-7.638105e-001	-2.464057e-003	6.010902e-003	1.783537e-001	-8.023652e-001
900273000	6.270492e-001	-5.101717e-001	-1.081687e+000	-7.611853e-001	-2.448648e-003	5.830552e-003	1.715028e-001	-8.028161e-001
906522813	6.247538e-001	-5.117808e-001	-1.089999e+000	-7.592822e-001	-2.594430e-003	6.054776e-003	1.648383e-001	-8.031064e-001
912772625	6.222063e-001	-5.132658e-001	-1.097314e+000	-7.574605e-001	-2.421315e-003	5.939683e-003	1.581408e-001	-8.035074e-001
919022438	6.195657e-001	-5.147950e-001	-1.104329e+000	-7.532405e-001	-2.712059e-003	6.329176e-003	1.515698e-001	-8.036276e-001
925272250	6.170353e-001	-5.167646e-001	-1.112505e+000	-7.513310e-001	-2.751559e-003	6.214049e-003	1.450367e-001	-8.038571e-001
931522063	6.142297e-001	-5.176062e-001	-1.118768e+000	-7.470711e-001	-2.851605e-003	6.097997e-003	1.384390e-001	-8.045181e-001
937771875	6.127009e-001	-5.183129e-001	-1.122445e+000	-7.477998e-001	-2.693266e-003	6.363298e-003	1.315538e-001	-8.048568e-001
944021688	6.112159e-001	-5.198555e-001	-1.133428e+000	-7.501099e-001	-2.781810e-003	6.226875e-003	1.249280e-001	-8.047571e-001
950271500	6.089402e-001	-5.224978e-001	-1.142059e+000	-7.484436e-001	-2.975732e-003	6.380360e-003	1.185319e-001	-8.047641e-001
956521313	6.063877e-001	-5.243376e-001	-1.150636e+000	-7.455683e-001	-2.977161e-003	6.232361e-003	1.118881e-001	-8.049573e-001
962771125	6.041426e-001	-5.257225e-001	-1.159740e+000	-7.447124e-001	-3.116826e-003	6.363902e-003	1.051936e-001	-8.044455e-001
969020938	6.009486e-001	-5.273132e-001	-1.165997e+000	-7.419148e-001	-2.993818e-003	6.403848e-003	9.872700e-002	-8.044833e-001
975270750	5.988964e-001	-5.288678e-001	-1.173635e+000	-7.404044e-001	-2.947300e-003	6.532093e-003	9.241352e-002	-8.036563e-001
981520563	5.973918e-001	-5.301159e-001	-1.181883e+000	-7.386142e-001	-3.242984e-003	6.460007e-003	8.565454e-002	-8.034141e-001
987770375	5.939642e-001	-5.321436e-001	-1.188310e+000	-7.361873e-001	-3.363976e-003	6.420113e-003	7.954076e-002	-8.032238e-001
994020188	5.917561e-001	-5.332842e-001	-1.194067e+000	-7.349838e-001	-3.411950e-003	6.634781e-003	7.296082e-002	-8.030136e-001
1000270000	5.897845e-001	-5.348171e-001	-1.201731e+000	-7.345619e-001	-3.281362e-003	6.511725e-003	6.634157e-002	-8.020320e-001
1006519813	5.871837e-001	-5.357885e-001	-1.208248e+000	-7.330494e-001	-3.333321e-003	6.662726e-003	6.054601e-002	-8.018727e-001
1012769625	5.855471e-001	-5.379234e-001	-1.216292e+000	-7.308874e-001	-3.652261e-003	6.699499e-003	5.364902e-002	-8.013549e-001
1019019438	5.828964e-001	-5.391657e-001	-1.222227e+000	-7.299659e-001	-3.418987e-003	6.611872e-003	4.716804e-002	-8.010630e-001
1025269250	5.805543e-001	-5.404085e-001	-1.229505e+000	-7.307267e-001	-3.553709e-003	6.709445e-003	4.101614e-002	-8.002943e-001
1031519063	5.783072e-001	-5.420567e-001	-1.237835e+000	-7.280346e-001	-3.591366e-003	6.768987e-003	3.418759e-002	-7.998489e-001
1037768875	5.761372e-001	-5.431263e-001	-1.244445e+000	-7.276673e-001	-3.695211e-003	7.039171e-003	2.802334e-002	-7.994207e-001
1044018688	5.746384e-001	-5.447290e-001	-1.253601e+000	-7.270193e-001	-3.703933e-003	6.925206e-003	2.140065e-002	-7.983809e-001
1050268500	5.712015e-001	-5.456077e-001	-1.259619e+000	-7.262011e-001	-3.912784e-003	6.846295e-003	1.473368e-002	-7.974666e-001
1056518313	5.690380e-001	-5.464577e-001	-1.265765e+000	-7.262401e-001	-4.019966e-003	7.040761e-003	8.656523e-003	-7.965040e-001
1062768125	5.671171e-001	-5.479348e-001	-1.274677e+000	-7.254847e-001	-3.945219e-003	7.155303e-003	2.087648e-003	-7.958627e-001
1069017938	5.643258e-001	-5.491438e-001	-1.280600e+000	-7.247871e-001	-3.896045e-003	7.245954e-003	-3.975103e-003	-7.947940e-001
1075267750	5.628515e-001	-5.494803e-001	-1.287228e+000	-7.265148e-001	-4.053458e-003	7.248585e-003	-1.027663e-002	-7.938218e-001
1081517563	5.606580e-001	-5.505411e-001	-1.292720e+000	-7.278368e-001	-3.913989e-003	7.154739e-003	-1.686585e-002	-7.926506e-001
1087767375	5.593628e-001	-5.514488e-001	-1.300173e+000	-7.325301e-001	-3.917731e-003	7.306424e-003	-2.336382e-002	-7.916229e-001
1094017188	5.581601e-001	-5.532911e-001	-1.312200e+000	-7.350812e-001	-3.885933e-003	7.145612e-003	-2.971304e-002	-7.906423e-001
1100267000	5.560956e-001	-5.555676e-001	-1.323334e+000	-7.345171e-001	-4.249574e-003	7.099083e-003	-3.654127e-002	-7.891526e-001
1106516813	5.544926e-001	-5.569783e-001	-1.333860e+000	-7.330482e-001	-4.181522e-003	7.008494e-003	-4.273981e-002	-7.883558e-001
1112766625	5.524119e-001	-5.590057e-001	-1.343574e+000	-7.332969e-001	-4.286993e-003	7.210025e-003	-4.878369e-002	-7.864235e-001
1119016438	5.495850e-001	-5.602341e-001	-1.350719e+000	-7.316309e-001	-4.482911e-003	7.173512e-003	-5.489409e-002	-7.849419e-001
1125266250	5.476450e-001	-5.612979e-001	-1.358409e+000	-7.325722e-001	-4.577488e-003	7.113649e-003	-6.153723e-002	-7.837823e-001
1131516063	5.453161e-001	-5.628837e-001	-1.367967e+000	-7.312306e-001	-4.397751e-003	7.300298e-003	-6.723905e-002	-7.823633e-001
1137765875	5.430031e-001	-5.636339e-001	-1.376816e+000	-7.332522e-001	-4.912544e-003	7.272769e-003	-7.419131e-002	-7.805688e-001
1144015688	5.411816e-001	-5.654807e-001	-1.385064e+000	-7.325076e-001	-4.718301e-003	7.479653e-003	-7.954540e-002	-7.790292e-001
1150265500	5.385744e-001	-5.669334e-001	-1.393623e+000	-7.327166e-001	-4.730100e-003	7.559762e-003	-8.604784e-002	-7.769236e-001
1156515313	5.371767e-001	-5.674199e-001	-1.402611e+000	-7.337979e-001	-5.060551e-003	7.223777e-003	-9.176032e-002	-7.754700e-001
1162765125	5.353264e-001	-5.688318e-001	-1.413242e+000	-7.359918e-001	-4.946021e-003	7.578986e-003	-9.790622e-002	-7.743040e-001
1169014938	5.332243e-001	-5.702690e-001	-1.422173e+000	-7.358400e-001	-5.008541e-003	7.564071e-003	-1.043277e-001	-7.722911e-001
1175264750	5.313502e-001	-5.717315e-001	-1.432077e+000	-7.360695e-001	-5.270393e-003	7.553462e-003	-1.105955e-001	-7.703982e-001
1181514563	5.289162e-001	-5.733139e-001	-1.443268e+000	-7.357158e-001	-5.359963e-003	7.557745e-003	-1.168867e-001	-7.682382e-001
1187764375	5.269604e-001	-5.743798e-001	-1.453128e+000	-7.369656e-001	-5.408593e-003	7.503054e-003	-1.224726e-001	-7.662099e-001
1194014188	5.249780e-001	-5.760060e-001	-1.464717e+000	-7.366212e-001	-5.227383e-003	7.624267e-003	-1.288494e-001	-7.640831e-001
1200264000	5.230217e-001	-5.763841e-001	-1.475784e+000	-7.383474e-001	-5.361676e-003	7.772435e-003	-1.349629e-001	-7.619651e-001
1206513813	5.206080e-001	-5.782230e-001	-1.485125e+000	-7.386261e-001	-5.491700e-003	7.918790e-003	-1.410997e-001	-7.597166e-001
1212763625	5.186423e-001	-5.794279e-001	-1.495935e+000	-7.391402e-001	-5.821568e-003	7.926312e-003	-1.468161e-001	-7.576948e-001
1219013438	5.170323e-001	-5.805062e-001	-1.506751e+000	-7.401059e-001	-5.707312e-003	8.157646e-003	-1.526868e-001	-7.553849e-001
1225263250	5.146443e-001	-5.817454e-001	-1.517747e+000	-7.402311e-001	-5.759150e-003	7.919494e-003	-1.588567e-001	-7.530340e-001
1231513063	5.127803e-001	-5.831801e-001	-1.529611e+000	-7.411546e-001	-6.064845e-003	7.983668e-003	-1.648702e-001	-7.502759e-001
1237762875	5.107549e-001	-5.841936e-001	-1.540854e+000	-7.421613e-001	-6.048883e-003	8.094835e-003	-1.709471e-001	-7.479906e-001
1244012688	5.089383e-001	-5.852304e-001	-1.553689e+000	-7.429836e-001	-6.217470e-003	8.129393e-003	-1.767363e-001	-7.457134e-001
1250262500	5.074174e-001	-5.866409e-001	-1.565670e+000	-7.439095e-001	-6.292197e-003	8.115147e-003	-1.827588e-001	-7.429929e-001
1256512313	5.050097e-001	-5.881471e-001	-1.578736e+000	-7.436622e-001	-6.108876e-003	8.091892e-003	-1.883845e-001	-7.402427e-001
1262762125	5.025520e-001	-5.887255e-001	-1.589537e+000	-7.455684e-001	-6.847748e-003	8.131339e-003	-1.949910e-001	-7.377033e-001
1269011938	5.011990e-001	-5.898617e-001	-1.601999e+000	-7.467049e-001	-6.503362e-003	7.953241e-003	-2.006903e-001	-7.344098e-001
1275261750	4.987742e-001	-5.911251e-001	-1.615607e+000	-7.453809e-001	-6.644142e-003	8.466308e-003	-2.065343e-001	-7.316780e-001
1281511563	4.971894e-001	-5.929132e-001	-1.630322e+000	-7.454893e-001	-6.777356e-003	8.156998e-003	-2.122131e-001	-7.285625e-001
1287761375	4.959231e-001	-5.939724e-001	-1.644912e+000	-7.472598e-001	-6.848430e-003	8.526831e-003	-2.182984e-001	-7.255796e-001
1294011188	4.939137e-001	-5.949981e-001	-1.658056e+000	-7.483280e-001	-7.164649e-003	8.557028e-003	-2.243776e-001	-7.225895e-001
1300261000	4.912083e-001	-5.960849e-001	-1.670712e+000	-7.466689e-001	-7.328250e-003	8.532809e-003	-2.301742e-001	-7.197057e-001
1306510813	4.894156e-001	-5.975759e-001	-1.687363e+000	-7.472381e-001	-7.211363e-003	8.457701e-003	-2.357922e-001	-7.165020e-001
1312760625	4.883559e-001	-5.987237e-001	-1.703454e+000	-7.465584e-001	-7.522380e-003	8.719760e-003	-2.416764e-001	-7.133660e-001
1319010438	4.859793e-001	-5.993811e-001	-1.717310e+000	-7.472542e-001	-7.406478e-003	8.417598e-003	-2.470156e-001	-7.097030e-001
1325260250	4.840299e-001	-6.008128e-001	-1.732921e+000	-7.473347e-001	-7.524675e-003	8.855973e-003	-2.524596e-001	-7.061463e-001
1331510063	4.820568e-001	-6.019810e-001	-1.748601e+000	-7.456939e-001	-7.864072e-003	8.902997e-003	-2.580091e-001	-7.030887e-001
1337759875	4.805052e-001	-6.022027e-001	-1.762696e+000	-7.449526e-001	-7.838003e-003	8.830858e-003	-2.637142e-001	-6.994296e-001
1344009688	4.778921e-001	-6.038706e-001	-1.779198e+000	-7.433131e-001	-8.050318e-003	8.782427e-003	-2.692470e-001	-6.957928e-001
1350259500	4.757795e-001	-6.050771e-001	-1.795427e+000	-7.424764e-001	-8.146291e-003	9.090050e-003	-2.742982e-001	-6.922444e-001
1356509313	4.741098e-001	-6.060494e-001	-1.813550e+000	-7.417727e-001	-8.227134e-003	8.958112e-003	-2.797419e-001	-6.880623e-001
1362759125	4.728002e-001	-6.080286e-001	-1.831186e+000	-7.371500e-001	-8.378004e-003	9.204160e-003	-2.853085e-001	-6.840563e-001
1369008938	4.709530e-001	-6.089695e-001	-1.847959e+000	-7.368516e-001	-8.564287e-003	9.018487e-003	-2.907147e-001	-6.804253e-001
1375258750	4.691853e-001	-6.105461e-001	-1.864798e+000	-7.329133e-001	-8.549553e-003	9.094988e-003	-2.961050e-001	-6.762074e-001
1381508563	4.666841e-001	-6.111885e-001	-1.880472e+000	-7.314964e-001	-8.775665e-003	9.292677e-003	-3.013771e-001	-6.722716e-001
1387758375	4.647206e-001	-6.128937e-001	-1.897730e+000	-7.260331e-001	-8.903776e-003	9.337330e-003	-3.067194e-001	-6.680033e-001
1394008188	4.632493e-001	-6.135653e-001	-1.916529e+000	-7.247358e-001	-9.254843e-003	9.492537e-003	-3.116768e-001	-6.640270e-001
1400258000	4.607791e-001	-6.149381e-001	-1.933280e+000	-7.221116e-001	-9.216724e-003	9.286253e-003	-3.168365e-001	-6.593323e-001
1406507813	4.590656e-001	-6.160534e-001	-1.952011e+000	-7.187366e-001	-9.451912e-003	9.502056e-003	-3.219066e-001	-6.552970e-001
1412757625	4.567875e-001	-6.173571e-001	-1.969222e+000	-7.161782e-001	-9.479465e-003	9.594138e-003	-3.273126e-001	-6.509333e-001
1419007438	4.542443e-001	-6.188656e-001	-1.988492e+000	-7.088628e-001	-9.487394e-003	9.369876e-003	-3.321764e-001	-6.465552e-001
1425257250	4.530485e-001	-6.201982e-001	-2.008713e+000	-7.064993e-001	-1.007487e-002	9.687755e-003	-3.373614e-001	-6.417130e-001
1431507063	4.508142e-001	-6.212563e-001	-2.025368e+000	-7.015624e-001	-1.012286e-002	9.814252e-003	-3.422353e-001	-6.367265e-001
1437756875	4.485929e-001	-6.224468e-001	-2.045498e+000	-6.937565e-001	-1.001659e-002	1.001050e-002	-3.474028e-001	-6.325373e-001
1444006688	4.456189e-001	-6.238492e-001	-2.062794e+000	-6.884458e-001	-1.016926e-002	1.002699e-002	-3.518923e-001	-6.274205e-001
1450256500	4.438266e-001	-6.255883e-001	-2.084338e+000	-6.822849e-001	-1.051228e-002	1.006215e-002	-3.567828e-001	-6.228929e-001
1456506313	4.417704e-001	-6.260377e-001	-2.105239e+000	-6.771129e-001	-1.044384e-002	1.038056e-002	-3.616376e-001	-6.179604e-001
1462756125	4.399847e-001	-6.275559e-001	-2.123787e+000	-6.706575e-001	-1.071959e-002	1.027156e-002	-3.659620e-001	-6.131628e-001
1469005938	4.370096e-001	-6.277821e-001	-2.142319e+000	-6.639181e-001	-1.081212e-002	1.042963e-002	-3.707380e-001	-6.078927e-001
1475255750	4.358539e-001	-6.289307e-001	-2.162050e+000	-6.580302e-001	-1.124495e-002	1.063691e-002	-3.751179e-001	-6.031464e-001
1481505563	4.339714e-001	-6.300697e-001	-2.182512e+000	-6.520739e-001	-1.128228e-002	1.060185e-002	-3.797886e-001	-5.977895e-001
1487755375	4.320406e-001	-6.315627e-001	-2.203435e+000	-6.424633e-001	-1.128601e-002	1.054514e-002	-3.841119e-001	-5.927589e-001
1494005188	4.294092e-001	-6.319969e-001	-2.222981e+000	-6.349881e-001	-1.151223e-002	1.045043e-002	-3.884855e-001	-5.870858e-001
1500255000	4.275119e-001	-6.333445e-001	-2.243261e+000	-6.264137e-001	-1.166440e-002	1.060173e-002	-3.925261e-001	-5.822765e-001
1506504813	4.253439e-001	-6.344826e-001	-2.262714e+000	-6.184928e-001	-1.172439e-002	1.103477e-002	-3.966033e-001	-5.771639e-001
1512754625	4.236147e-001	-6.348654e-001	-2.284362e+000	-6.101533e-001	-1.218662e-002	1.099643e-002	-4.009201e-001	-5.714856e-001
1519004438	4.220478e-001	-6.360587e-001	-2.308025e+000	-6.017058e-001	-1.221181e-002	1.117290e-002	-4.049514e-001	-5.657066e-001
1525254250	4.192475e-001	-6.373434e-001	-2.326230e+000	-5.888862e-001	-1.243916e-002	1.119507e-002	-4.089497e-001	-5.604347e-001
1531504063	4.179454e-001	-6.383438e-001	-2.349598e+000	-5.788219e-001	-1.244492e-002	1.144016e-002	-4.129088e-001	-5.545878e-001
1537753875	4.160961e-001	-6.388530e-001	-2.369065e+000	-5.694022e-001	-1.269737e-002	1.134656e-002	-4.167810e-001	-5.488553e-001
1544003688	4.144834e-001	-6.395858e-001	-2.392579e+000	-5.602337e-001	-1.288518e-002	1.163097e-002	-4.206316e-001	-5.425319e-001
1550253500	4.126997e-001	-6.411842e-001	-2.411790e+000	-5.477998e-001	-1.313229e-002	1.155615e-002	-4.239950e-001	-5.370102e-001
1556503313	4.107285e-001	-6.417865e-001	-2.436009e+000	-5.357207e-001	-1.344389e-002	1.183976e-002	-4.280052e-001	-5.307158e-001
1562753125	4.086707e-001	-6.430929e-001	-2.457666e+000	-5.229106e-001	-1.348808e-002	1.188209e-002	-4.317757e-001	-5.247839e-001
1569002938	4.070067e-001	-6.433451e-001	-2.480380e+000	-5.112379e-001	-1.376453e-002	1.210954e-002	-4.350475e-001	-5.186921e-001
1575252750	4.056036e-001	-6.451690e-001	-2.504941e+000	-4.963658e-001	-1.402891e-002	1.203595e-002	-4.382569e-001	-5.121232e-001
1581502563	4.043739e-001	-6.451189e-001	-2.528389e+000	-4.848332e-001	-1.397691e-002	1.223929e-002	-4.418702e-001	-5.058462e-001
1587752375	4.040048e-001	-6.468591e-001	-2.557458e+000	-4.692952e-001	-1.397992e-002	1.189113e-002	-4.447802e-001	-4.992931e-001
1594002188	4.038736e-001	-6.490866e-001	-2.584770e+000	-4.510595e-001	-1.459242e-002	1.211597e-002	-4.479011e-001	-4.922240e-001
1600252000	4.019679e-001	-6.516826e-001	-2.607066e+000	-4.283987e-001	-1.472265e-002	1.212304e-002	-4.501355e-001	-4.858841e-001
1606501813	3.998039e-001	-6.559481e-001	-2.629353e+000	-4.013416e-001	-1.513380e-002	1.206020e-002	-4.521438e-001	-4.792946e-001
1612751625	3.971576e-001	-6.590009e-001	-2.647879e+000	-3.809714e-001	-1.578121e-002	1.245506e-002	-4.548690e-001	-4.728446e-001
1619001438	3.928593e-001	-6.616793e-001	-2.662330e+000	-3.586728e-001	-1.585922e-002	1.284717e-002	-4.570110e-001	-4.668229e-001
1625251250	3.885605e-001	-6.628221e-001	-2.676460e+000	-3.400995e-001	-1.610816e-002	1.315809e-002	-4.595468e-001	-4.608375e-001
1631501063	3.848489e-001	-6.640468e-001	-2.692607e+000	-3.205191e-001	-1.612741e-002	1.363737e-002	-4.621509e-001	-4.553066e-001
1637750875	3.817737e-001	-6.646081e-001	-2.709354e+000	-3.039208e-001	-1.636893e-002	1.365721e-002	-4.644991e-001	-4.484553e-001
1644000688	3.773605e-001	-6.658272e-001	-2.726980e+000	-2.844426e-001	-1.673476e-002	1.407417e-002	-4.667308e-001	-4.424048e-001
1650250500	3.751289e-001	-6.660851e-001	-2.747098e+000	-2.674669e-001	-1.682453e-002	1.410853e-002	-4.686555e-001	-4.357474e-001
1656500313	3.719951e-001	-6.668029e-001	-2.764562e+000	-2.484552e-001	-1.708995e-002	1.439498e-002	-4.706934e-001	-4.293016e-001
1662750125	3.690536e-001	-6.676407e-001	-2.783683e+000	-2.316042e-001	-1.737007e-002	1.458950e-002	-4.727267e-001	-4.232263e-001
1668999938	3.662667e-001	-6.673924e-001	-2.802885e+000	-2.107667e-001	-1.741744e-002	1.472097e-002	-4.744140e-001	-4.166766e-001
1675249750	3.637443e-001	-6.673602e-001	-2.821376e+000	-1.924836e-001	-1.761464e-002	1.514292e-002	-4.760078e-001	-4.094760e-001
1681499563	3.613804e-001	-6.692565e-001	-2.845141e+000	-1.703848e-001	-1.762109e-002	1.537782e-002	-4.775031e-001	-4.027125e-001
1687749375	3.580664e-001	-6.690930e-001	-2.860035e+000	-1.483103e-001	-1.796158e-002	1.556090e-002	-4.796243e-001	-3.958325e-001
1693999188	3.560759e-001	-6.698694e-001	-2.880075e+000	-1.276011e-001	-1.839061e-002	1.587429e-002	-4.810151e-001	-3.889344e-001
1700249000	3.527760e-001	-6.699914e-001	-2.896024e+000	-1.046878e-001	-1.820426e-002	1.556287e-002	-4.821788e-001	-3.820811e-001
1706498813	3.517089e-001	-6.708970e-001	-2.919641e+000	-8.324684e-002	-1.859970e-002	1.612469e-002	-4.834172e-001	-3.747469e-001
1712748625	3.488460e-001	-6.715685e-001	-2.937164e+000	-5.712940e-002	-1.884407e-002	1.630934e-002	-4.846387e-001	-3.679084e-001
1718998438	3.472077e-001	-6.730219e-001	-2.958496e+000	-3.186976e-002	-1.940598e-002	1.652864e-002	-4.857235e-001	-3.608730e-001
1725248250	3.447037e-001	-6.736174e-001	-2.974797e+000	-7.602065e-003	-1.907309e-002	1.679647e-002	-4.867424e-001	-3.535017e-001
1731498063	3.420183e-001	-6.740333e-001	-2.992536e+000	1.859744e-002	-1.930217e-002	1.703799e-002	-4.870120e-001	-3.467367e-001
1737747875	3.401782e-001	-6.748661e-001	-3.011921e+000	4.591948e-002	-1.969653e-002	1.711239e-002	-4.877027e-001	-3.395387e-001
1743997688	3.375832e-001	-6.754606e-001	-3.027045e+000	7.147231e-002	-1.988261e-002	1.744072e-002	-4.883444e-001	-3.324919e-001
1750247500	3.350376e-001	-6.772226e-001	-3.042782e+000	1.028646e-001	-2.011130e-002	1.764481e-002	-4.884735e-001	-3.254475e-001
1756497313	3.335551e-001	-6.791191e-001	-3.061618e+000	1.340143e-001	-2.023395e-002	1.817304e-002	-4.882623e-001	-3.186353e-001
1762747125	3.295747e-001	-6.805760e-001	-3.071300e+000	1.658049e-001	-2.061935e-002	1.846394e-002	-4.885649e-001	-3.122927e-001
1768996938	3.263959e-001	-6.819083e-001	-3.082241e+000	1.935967e-001	-2.094393e-002	1.859251e-002	-4.889302e-001	-3.049948e-001
1775246750	3.227219e-001	-6.826744e-001	-3.093902e+000	2.202962e-001	-2.131753e-002	1.915319e-002	-4.892779e-001	-2.987158e-001
1781496563	3.193591e-001	-6.836646e-001	-3.105979e+000	2.447017e-001	-2.133443e-002	1.918725e-002	-4.892961e-001	-2.915782e-001
1787746375	3.160513e-001	-6.838039e-001	-3.117390e+000	2.720523e-001	-2.145344e-002	2.001974e-002	-4.892897e-001	-2.846007e-001
1793996188	3.119610e-001	-6.838922e-001	-3.128025e+000	2.994413e-001	-2.161633e-002	2.005551e-002	-4.889588e-001	-2.780517e-001
1800246000	3.089957e-001	-6.836810e-001	-3.141937e+000	3.284853e-001	-2.190603e-002	2.049092e-002	-4.890102e-001	-2.711418e-001
1806495813	3.057705e-001	-6.841604e-001	-3.158398e+000	3.556897e-001	-2.192079e-002	2.080090e-002	-4.882163e-001	-2.639259e-001
1812745625	3.033778e-001	-6.842865e-001	-3.170360e+000	3.841543e-001	-2.193691e-002	2.124059e-002	-4.870868e-001	-2.572752e-001
1818995438	3.001991e-001	-6.840218e-001	-3.181594e+000	4.143133e-001	-2.220502e-002	2.133233e-002	-4.859358e-001	-2.505686e-001
1825245250	2.976912e-001	-6.845880e-001	-3.196627e+000	4.477966e-001	-2.254071e-002	2.183148e-002	-4.846431e-001	-2.443401e-001
1831495063	2.941133e-001	-6.843315e-001	-3.204526e+000	4.762649e-001	-2.264001e-002	2.217557e-002	-4.834363e-001	-2.370063e-001
1837744875	2.914797e-001	-6.851289e-001	-3.216270e+000	5.096169e-001	-2.271270e-002	2.246750e-002	-4.824507e-001	-2.305280e-001
1843994688	2.893141e-001	-6.853696e-001	-3.228790e+000	5.397596e-001	-2.290633e-002	2.286571e-002	-4.808409e-001	-2.232419e-001
1850244500	2.856212e-001	-6.854993e-001	-3.238933e+000	5.737282e-001	-2.307694e-002	2.312912e-002	-4.794805e-001	-2.164906e-001
1856494313	2.834274e-001	-6.850494e-001	-3.247809e+000	6.031450e-001	-2.343168e-002	2.340937e-002	-4.778335e-001	-2.094611e-001
1862744125	2.800264e-001	-6.855069e-001	-3.254899e+000	6.387342e-001	-2.352156e-002	2.396498e-002	-4.758758e-001	-2.025596e-001
1868993938	2.765434e-001	-6.850928e-001	-3.262038e+000	6.697127e-001	-2.339531e-002	2.395567e-002	-4.742466e-001	-1.954437e-001
1875243750	2.736578e-001	-6.847110e-001	-3.269394e+000	7.041594e-001	-2.371074e-002	2.451247e-002	-4.722184e-001	-1.884834e-001
1881493563	2.709035e-001	-6.845345e-001	-3.277918e+000	7.345341e-001	-2.386343e-002	2.473021e-002	-4.701130e-001	-1.812596e-001
1887743375	2.676347e-001	-6.844516e-001	-3.286043e+000	7.696484e-001	-2.388949e-002	2.533436e-002	-4.679782e-001	-1.747463e-001
1893993188	2.651725e-001	-6.843642e-001	-3.294126e+000	8.029183e-001	-2.434170e-002	2.548848e-002	-4.656862e-001	-1.682751e-001
1900243000	2.626897e-001	-6.848677e-001	-3.301777e+000	8.378506e-001	-2.421463e-002	2.595203e-002	-4.631175e-001	-1.614087e-001
1906492813	2.606043e-001	-6.838236e-001	-3.309762e+000	8.694635e-001	-2.425924e-002	2.620036e-002	-4.603806e-001	-1.550512e-001
1912742625	2.566503e-001	-6.840124e-001	-3.311896e+000	9.083244e-001	-2.467034e-002	2.654953e-002	-4.578138e-001	-1.484460e-001
1918992438	2.547392e-001	-6.845986e-001	-3.319464e+000	9.411130e-001	-2.461819e-002	2.730470e-002	-4.550437e-001	-1.422155e-001
1925242250	2.526625e-001	-6.844305e-001	-3.323455e+000	9.774607e-001	-2.452173e-002	2.736259e-002	-4.525361e-001	-1.359993e-001
1931492063	2.484831e-001	-6.831397e-001	-3.322850e+000	1.015324e+000	-2.481664e-002	2.789560e-002	-4.495809e-001	-1.296635e-001
1937741875	2.461966e-001	-6.842778e-001	-3.327051e+000	1.051263e+000	-2.474807e-002	2.844369e-002	-4.464571e-001	-1.237066e-001
1943991688	2.431943e-001	-6.837853e-001	-3.327306e+000	1.088685e+000	-2.515999e-002	2.859827e-002	-4.435662e-001	-1.174464e-001
1950241500	2.400587e-001	-6.844320e-001	-3.325859e+000	1.125491e+000	-2.516252e-002	2.919441e-002	-4.403521e-001	-1.119890e-001
1956491313	2.374826e-001	-6.832259e-001	-3.324624e+000	1.159909e+000	-2.526355e-002	2.974798e-002	-4.369625e-001	-1.062168e-001
1962741125	2.342506e-001	-6.836514e-001	-3.326561e+000	1.194775e+000	-2.555334e-002	3.025117e-002	-4.339663e-001	-9.990870e-002
1968990938	2.316346e-001	-6.829104e-001	-3.326161e+000	1.229017e+000	-2.527836e-002	3.077629e-002	-4.306789e-001	-9.411734e-002
1975240750	2.288817e-001	-6.829141e-001	-3.326392e+000	1.265632e+000	-2.525003e-002	3.117907e-002	-4.271600e-001	-8.858351e-002
1981490563	2.255993e-001	-6.822694e-001	-3.323297e+000	1.303692e+000	-2.563360e-002	3.152258e-002	-4.225988e-001	-8.328335e-002
1987740375	2.219728e-001	-6.815313e-001	-3.321621e+000	1.341169e+000	-2.593130e-002	3.200337e-002	-4.186041e-001	-7.840866e-002
1993990188	2.199412e-001	-6.810481e-001	-3.322264e+000	1.376599e+000	-2.576142e-002	3.233198e-002	-4.141749e-001	-7.272408e-002
2000240000	2.166018e-001	-6.801236e-001	-3.317679e+000	1.413343e+000	-2.604003e-002	3.291539e-002	-4.093495e-001	-6.677385e-002
2006489813	2.148672e-001	-6.794681e-001	-3.317086e+000	1.448349e+000	-2.573424e-002	3.317452e-002	-4.052645e-001	-6.174747e-002
2012739625	2.119108e-001	-6.789645e-001	-3.312395e+000	1.484155e+000	-2.604989e-002	3.378624e-002	-4.009349e-001	-5.547821e-002
2018989438	2.086728e-001	-6.774756e-001	-3.305522e+000	1.521886e+000	-2.593508e-002	3.408539e-002	-3.963797e-001	-5.025224e-002
2025239250	2.060961e-001	-6.767199e-001	-3.300356e+000	1.557152e+000	-2.608691e-002	3.456585e-002	-3.916497e-001	-4.531290e-002
2031489063	2.033226e-001	-6.758216e-001	-3.296850e+000	1.594142e+000	-2.587434e-002	3.495607e-002	-3.870057e-001	-3.976002e-002
2037738875	2.012025e-001	-6.755263e-001	-3.291142e+000	1.632576e+000	-2.582460e-002	3.523074e-002	-3.824507e-001	-3.486719e-002
2043988688	1.981636e-001	-6.742082e-001	-3.282716e+000	1.667716e+000	-2.618665e-002	3.568563e-002	-3.771826e-001	-2.967269e-002
2050238500	1.963356e-001	-6.736417e-001	-3.277584e+000	1.705199e+000	-2.607608e-002	3.643502e-002	-3.722942e-001	-2.473819e-002
2056488313	1.931349e-001	-6.731689e-001	-3.268725e+000	1.745233e+000	-2.610716e-002	3.646172e-002	-3.666819e-001	-2.051350e-002
2062738125	1.915104e-001	-6.723385e-001	-3.260285e+000	1.779473e+000	-2.588132e-002	3.697633e-002	-3.616464e-001	-1.586044e-002
2068987938	1.883630e-001	-6.713261e-001	-3.248848e+000	1.817666e+000	-2.628157e-002	3.773707e-002	-3.565935e-001	-1.141896e-002
2075237750	1.856001e-001	-6.703142e-001	-3.238048e+000	1.852491e+000	-2.596048e-002	3.819611e-002	-3.512414e-001	-7.102795e-003
2081487563	1.834266e-001	-6.693497e-001	-3.227329e+000	1.889495e+000	-2.582881e-002	3.844997e-002	-3.460409e-001	-3.174167e-003
2087737375	1.800577e-001	-6.691359e-001	-3.212390e+000	1.927659e+000	-2.585413e-002	3.921726e-002	-3.410854e-001	8.865442e-004
2093987188	1.780087e-001	-6.680941e-001	-3.201898e+000	1.963714e+000	-2.579946e-002	3.979366e-002	-3.357694e-001	5.144543e-003
2100237000	1.748924e-001	-6.666722e-001	-3.190555e+000	1.999231e+000	-2.600343e-002	3.977234e-002	-3.307745e-001	8.982191e-003
2106486813	1.732991e-001	-6.656707e-001	-3.176874e+000	2.032775e+000	-2.567908e-002	4.032777e-002	-3.254219e-001	1.301892e-002
2112736625	1.697577e-001	-6.636907e-001	-3.159434e+000	2.067700e+000	-2.564672e-002	4.107177e-002	-3.197937e-001	1.662749e-002
2118986438	1.672421e-001	-6.636014e-001	-3.146335e+000	2.106707e+000	-2.585716e-002	4.177544e-002	-3.143380e-001	2.000831e-002
2125236250	1.649566e-001	-6.628326e-001	-3.133240e+000	2.143681e+000	-2.546868e-002	4.190266e-002	-3.088325e-001	2.357182e-002
2131486063	1.622936e-001	-6.609579e-001	-3.114693e+000	2.177795e+000	-2.544367e-002	4.264952e-002	-3.033437e-001	2.651373e-002
2137735875	1.596663e-001	-6.604601e-001	-3.098579e+000	2.213816e+000	-2.543408e-002	4.320612e-002	-2.976527e-001	2.957877e-002
2143985688	1.578175e-001	-6.585190e-001	-3.082308e+000	2.246381e+000	-2.506248e-002	4.350741e-002	-2.920600e-001	3.255444e-002
2150235500	1.552676e-001	-6.576161e-001	-3.063946e+000	2.283409e+000	-2.526714e-002	4.400593e-002	-2.861904e-001	3.525998e-002
2156485313	1.536046e-001	-6.559221e-001	-3.047522e+000	2.313652e+000	-2.529263e-002	4.473289e-002	-2.797407e-001	3.777464e-002
2162735125	1.509772e-001	-6.544933e-001	-3.027037e+000	2.347231e+000	-2.517917e-002	4.493203e-002	-2.742877e-001	3.956690e-002
2168984938	1.489942e-001	-6.532468e-001	-3.010579e+000	2.381529e+000	-2.531030e-002	4.575015e-002	-2.672249e-001	4.181469e-002
2175234750	1.467205e-001	-6.515087e-001	-2.989902e+000	2.412382e+000	-2.521710e-002	4.596593e-002	-2.603808e-001	4.449812e-002
2181484563	1.451069e-001	-6.504761e-001	-2.971320e+000	2.445492e+000	-2.490009e-002	4.640537e-002	-2.547782e-001	4.739299e-002
2187734375	1.423660e-001	-6.492357e-001	-2.949505e+000	2.478914e+000	-2.469226e-002	4.701270e-002	-2.484789e-001	4.949168e-002
2193984188	1.401386e-001	-6.475649e-001	-2.922939e+000	2.507866e+000	-2.462288e-002	4.737311e-002	-2.421713e-001	5.162953e-002
2200234000	1.382255e-001	-6.465600e-001	-2.904974e+000	2.541753e+000	-2.438116e-002	4.805635e-002	-2.357636e-001	5.460318e-002
2206483813	1.362440e-001	-6.449951e-001	-2.880935e+000	2.572387e+000	-2.427962e-002	4.792243e-002	-2.297274e-001	5.571758e-002
2212733625	1.346336e-001	-6.439114e-001	-2.859612e+000	2.602953e+000	-2.422012e-002	4.862375e-002	-2.235759e-001	5.727151e-002
2218983438	1.322423e-001	-6.417445e-001	-2.833758e+000	2.631052e+000	-2.391863e-002	4.922249e-002	-2.173524e-001	5.959410e-002
2225233250	1.306112e-001	-6.408050e-001	-2.813151e+000	2.662355e+000	-2.364553e-002	4.969048e-002	-2.111647e-001	6.065292e-002
2231483063	1.288005e-001	-6.394132e-001	-2.787100e+000	2.693286e+000	-2.370732e-002	5.005997e-002	-2.048266e-001	6.178139e-002
2237732875	1.266109e-001	-6.381141e-001	-2.764453e+000	2.723086e+000	-2.320651e-002	5.055285e-002	-1.983143e-001	6.302433e-002
2243982688	1.242897e-001	-6.356963e-001	-2.735758e+000	2.746750e+000	-2.301424e-002	5.123389e-002	-1.926046e-001	6.352858e-002
2250232500	1.225548e-001	-6.350232e-001	-2.712758e+000	2.779587e+000	-2.312732e-002	5.142779e-002	-1.863520e-001	6.472265e-002
2256482313	1.210453e-001	-6.331477e-001	-2.688068e+000	2.807550e+000	-2.287075e-002	5.204381e-002	-1.803770e-001	6.529246e-002
2262732125	1.189721e-001	-6.319355e-001	-2.660334e+000	2.834138e+000	-2.246538e-002	5.215242e-002	-1.743936e-001	6.556699e-002
2268981938	1.177389e-001	-6.297887e-001	-2.635502e+000	2.861053e+000	-2.256826e-002	5.296166e-002	-1.682152e-001	6.666379e-002
2275231750	1.157934e-001	-6.282706e-001	-2.609371e+000	2.887011e+000	-2.220576e-002	5.325272e-002	-1.617229e-001	6.714008e-002
2281481563	1.136372e-001	-6.266884e-001	-2.578774e+000	2.913072e+000	-2.181111e-002	5.370654e-002	-1.559283e-001	6.779489e-002
2287731375	1.131365e-001	-6.248559e-001	-2.555236e+000	2.935613e+000	-2.150617e-002	5.413164e-002	-1.498988e-001	6.786797e-002
2293981188	1.109413e-001	-6.235611e-001	-2.523281e+000	2.959617e+000	-2.125780e-002	5.447719e-002	-1.437709e-001	6.781781e-002
2300231000	1.093267e-001	-6.211937e-001	-2.495634e+000	2.985101e+000	-2.119457e-002	5.493756e-002	-1.377532e-001	6.800998e-002
2306480813	1.078763e-001	-6.210011e-001	-2.470254e+000	3.011270e+000	-2.076390e-002	5.532431e-002	-1.318300e-001	6.739277e-002
2312730625	1.060284e-001	-6.197376e-001	-2.441305e+000	3.034955e+000	-2.076502e-002	5.571467e-002	-1.259176e-001	6.743204e-002
2318980438	1.050971e-001	-6.177572e-001	-2.414201e+000	3.056073e+000	-2.024398e-002	5.611817e-002	-1.202071e-001	6.727793e-002
2325230250	1.028195e-001	-6.162406e-001	-2.381796e+000	3.076570e+000	-2.042095e-002	5.657847e-002	-1.141712e-001	6.665277e-002
2331480063	1.014936e-001	-6.155510e-001	-2.353421e+000	3.102728e+000	-1.999643e-002	5.696477e-002	-1.081054e-001	6.577224e-002
2337729875	9.952662e-002	-6.135664e-001	-2.322925e+000	3.124869e+000	-1.971707e-002	5.757786e-002	-1.016546e-001	6.458455e-002
2343979688	9.761844e-002	-6.120716e-001	-2.292692e+000	3.146154e+000	-1.944269e-002	5.778139e-002	-9.601003e-002	6.373960e-002
2350229500	9.624168e-002	-6.107540e-001	-2.261959e+000	3.168308e+000	-1.921057e-002	5.821713e-002	-8.972257e-002	6.274241e-002
2356479313	9.429537e-002	-6.093382e-001	-2.230956e+000	3.186598e+000	-1.903789e-002	5.860413e-002	-8.415455e-002	6.175270e-002
2362729125	9.230027e-002	-6.077023e-001	-2.199537e+000	3.208356e+000	-1.884023e-002	5.914713e-002	-7.845039e-002	6.100816e-002
2368978938	9.145944e-002	-6.059245e-001	-2.169363e+000	3.227212e+000	-1.851991e-002	5.945815e-002	-7.268299e-002	5.990651e-002
2375228750	8.958881e-002	-6.038433e-001	-2.136390e+000	3.243413e+000	-1.835825e-002	5.990541e-002	-6.733661e-002	5.871347e-002
2381478563	8.846455e-002	-6.020234e-001	-2.105048e+000	3.263159e+000	-1.792684e-002	6.004305e-002	-6.169608e-002	5.789027e-002
2387728375	8.639966e-002	-6.004222e-001	-2.074830e+000	3.282839e+000	-1.782388e-002	6.043310e-002	-5.614878e-002	5.646398e-002
2393978188	8.504969e-002	-5.985584e-001	-2.040441e+000	3.299775e+000	-1.721850e-002	6.069053e-002	-5.089057e-002	5.516690e-002
2400228000	8.346662e-002	-5.962859e-001	-2.007353e+000	3.314361e+000	-1.684920e-002	6.128747e-002	-4.571681e-002	5.301286e-002
2406477813	8.254495e-002	-5.950540e-001	-1.978712e+000	3.333787e+000	-1.674646e-002	6.162104e-002	-4.105778e-002	5.108594e-002
2412727625	8.080317e-002	-5.931695e-001	-1.945241e+000	3.347216e+000	-1.632989e-002	6.187639e-002	-3.571071e-002	4.887462e-002
2418977438	7.975586e-002	-5.914135e-001	-1.913055e+000	3.364209e+000	-1.624949e-002	6.239039e-002	-3.127328e-002	4.641665e-002
2425227250	7.875228e-002	-5.892291e-001	-1.879374e+000	3.377355e+000	-1.559570e-002	6.272175e-002	-2.605384e-002	4.409683e-002
2431477063	7.684838e-002	-5.880189e-001	-1.845937e+000	3.391372e+000	-1.536252e-002	6.306071e-002	-2.094615e-002	4.185039e-002
2437726875	7.620410e-002	-5.861188e-001	-1.814449e+000	3.403472e+000	-1.536023e-002	6.342838e-002	-1.618666e-002	3.952388e-002
2443976688	7.503866e-002	-5.839070e-001	-1.780400e+000	3.414527e+000	-1.464985e-002	6.389890e-002	-1.119744e-002	3.741467e-002
2450226500	7.438243e-002	-5.830215e-001	-1.752250e+000	3.429885e+000	-1.461861e-002	6.436896e-002	-6.302416e-003	3.484172e-002
2456476313	7.281440e-002	-5.813289e-001	-1.720710e+000	3.443123e+000	-1.413173e-002	6.470716e-002	-1.481835e-003	3.240815e-002
2462726125	7.148829e-002	-5.789208e-001	-1.685899e+000	3.452592e+000	-1.369991e-002	6.538460e-002	2.959579e-003	3.036704e-002
2468975938	7.086726e-002	-5.769831e-001	-1.654769e+000	3.463346e+000	-1.322565e-002	6.556280e-002	7.416399e-003	2.798182e-002
2475225750	7.044202e-002	-5.748835e-001	-1.623742e+000	3.471995e+000	-1.294046e-002	6.584660e-002	1.208801e-002	2.564778e-002
2481475563	6.878764e-002	-5.729433e-001	-1.586956e+000	3.484700e+000	-1.272525e-002	6.614268e-002	1.723328e-002	2.306272e-002
2487725375	6.832074e-002	-5.718316e-001	-1.557358e+000	3.498529e+000	-1.224942e-002	6.642737e-002	2.215801e-002	2.082867e-002
2493975188	6.755168e-002	-5.703679e-001	-1.525805e+000	3.506476e+000	-1.198716e-002	6.671875e-002	2.640985e-002	1.807139e-002
2500225000	6.600128e-002	-5.676323e-001	-1.489222e+000	3.513009e+000	-1.190193e-002	6.717642e-002	3.082202e-002	1.542468e-002
2506474813	6.561856e-002	-5.660141e-001	-1.455969e+000	3.521803e+000	-1.145974e-002	6.706322e-002	3.549355e-002	1.292961e-002
2512724625	6.519218e-002	-5.641007e-001	-1.424932e+000	3.528584e+000	-1.100882e-002	6.781401e-002	3.945564e-002	9.829141e-003
2518974438	6.372179e-002	-5.622536e-001	-1.391782e+000	3.534550e+000	-1.058445e-002	6.774862e-002	4.424177e-002	6.864288e-003
2525224250	6.289568e-002	-5.606603e-001	-1.358060e+000	3.545343e+000	-1.028599e-002	6.803505e-002	4.776455e-002	4.782011e-003
2531474063	6.294590e-002	-5.583540e-001	-1.330570e+000	3.548306e+000	-1.004092e-002	6.844271e-002	5.148858e-002	1.072919e-003
2537723875	6.168668e-002	-5.565035e-001	-1.293239e+000	3.552369e+000	-9.494102e-003	6.905471e-002	5.532971e-002	-2.025220e-003
2543973688	6.117923e-002	-5.545805e-001	-1.261717e+000	3.561901e+000	-9.117493e-003	6.938901e-002	5.889870e-002	-5.156017e-003
2550223500	6.037586e-002	-5.532734e-001	-1.231375e+000	3.566659e+000	-8.376792e-003	6.951123e-002	6.281136e-002	-8.122313e-003
2556473313	5.889903e-002	-5.512145e-001	-1.193844e+000	3.573467e+000	-8.277383e-003	6.988395e-002	6.645216e-002	-1.152106e-002
2562723125	5.860867e-002	-5.492327e-001	-1.165812e+000	3.575912e+000	-8.163765e-003	6.986077e-002	7.014657e-002	-1.500472e-002
2568972938	5.816760e-002	-5.469091e-001	-1.130415e+000	3.576897e+000	-7.522506e-003	7.053637e-002	7.450245e-002	-1.810460e-002
2575222750	5.718155e-002	-5.459572e-001	-1.100025e+000	3.583585e+000	-7.136404e-003	7.071967e-002	7.736919e-002	-2.191071e-002
2581472563	5.615394e-002	-5.438294e-001	-1.064095e+000	3.586477e+000	-6.601978e-003	7.087590e-002	8.125388e-002	-2.520112e-002
2587722375	5.663552e-002	-5.422198e-001	-1.038535e+000	3.587631e+000	-6.469683e-003	7.085280e-002	8.469635e-002	-2.905748e-002
2593972188	5.562604e-002	-5.404146e-001	-1.003511e+000	3.591798e+000	-6.020671e-003	7.134976e-002	8.755852e-002	-3.208260e-002
2600222000	5.492384e-002	-5.389950e-001	-9.705015e-001	3.595293e+000	-5.570990e-003	7.120771e-002	9.132687e-002	-3.575712e-002
2606471813	5.385485e-002	-5.368725e-001	-9.358437e-001	3.596374e+000	-5.170137e-003	7.155153e-002	9.462858e-002	-3.987917e-002
2612721625	5.422952e-002	-5.352706e-001	-9.068205e-001	3.597192e+000	-4.615848e-003	7.212959e-002	9.764285e-002	-4.352209e-002
2618971438	5.403260e-002	-5.339376e-001	-8.771986e-001	3.596579e+000	-4.212068e-003	7.219236e-002	1.005086e-001	-4.778219e-002
2625221250	5.387462e-002	-5.323818e-001	-8.446175e-001	3.596963e+000	-3.597454e-003	7.227438e-002	1.035143e-001	-5.189007e-002
2631471063	5.369722e-002	-5.309441e-001	-8.151886e-001	3.597023e+000	-3.228569e-003	7.261479e-002	1.063886e-001	-5.562856e-002
2637720875	5.269213e-002	-5.294673e-001	-7.813662e-001	3.596737e+000	-3.089796e-003	7.286261e-002	1.089077e-001	-5.960351e-002
2643970688	5.253319e-002	-5.278246e-001	-7.520877e-001	3.596687e+000	-2.325438e-003	7.290601e-002	1.116520e-001	-6.334421e-002
2650220500	5.203514e-002	-5.268112e-001	-7.181524e-001	3.593428e+000	-2.054230e-003	7.343559e-002	1.144952e-001	-6.759759e-002
2656470313	5.243076e-002	-5.247397e-001	-6.942643e-001	3.591377e+000	-1.533241e-003	7.326781e-002	1.172251e-001	-7.130429e-002
2662720125	5.198725e-002	-5.232524e-001	-6.626353e-001	3.591270e+000	-1.198807e-003	7.365907e-002	1.198341e-001	-7.523108e-002
2668969938	5.155760e-002	-5.217931e-001	-6.319628e-001	3.587186e+000	-9.700475e-004	7.406329e-002	1.222365e-001	-7.897273e-002
2675219750	5.151849e-002	-5.198639e-001	-6.013670e-001	3.584422e+000	-2.690623e-004	7.410798e-002	1.243612e-001	-8.295225e-002
2681469563	5.147150e-002	-5.189929e-001	-5.720448e-001	3.582611e+000	-1.766627e-005	7.419746e-002	1.269953e-001	-8.675071e-002
2687719375	5.127083e-002	-5.169114e-001	-5.419792e-001	3.579326e+000	5.974627e-004	7.427801e-002	1.294909e-001	-9.035306e-002
2693969188	5.133834e-002	-5.159648e-001	-5.130035e-001	3.574843e+000	7.221343e-004	7.444790e-002	1.317464e-001	-9.435325e-002
2700219000	5.102746e-002	-5.141097e-001	-4.831738e-001	3.569704e+000	1.194829e-003	7.461178e-002	1.340925e-001	-9.851675e-002
2706468813	5.096663e-002	-5.126966e-001	-4.552067e-001	3.567931e+000	1.449352e-003	7.466835e-002	1.359359e-001	-1.024021e-001
2712718625	5.076583e-002	-5.115352e-001	-4.264570e-001	3.562287e+000	2.138569e-003	7.486666e-002	1.381323e-001	-1.069090e-001
2718968438	5.061732e-002	-5.096809e-001	-3.952302e-001	3.557467e+000	2.529957e-003	7.511194e-002	1.402025e-001	-1.109470e-001
2725218250	5.015606e-002	-5.088334e-001	-3.694857e-001	3.552734e+000	2.542442e-003	7.527830e-002	1.420101e-001	-1.150534e-001
2731468063	5.074362e-002	-5.071078e-001	-3.415811e-001	3.546528e+000	3.129109e-003	7.551395e-002	1.433113e-001	-1.194195e-001
2737717875	5.050043e-002	-5.060625e-001	-3.150887e-001	3.542893e+000	3.727225e-003	7.579082e-002	1.449718e-001	-1.237969e-001
2743967688	4.981892e-002	-5.043642e-001	-2.834012e-001	3.535393e+000	4.224878e-003	7.575922e-002	1.466752e-001	-1.284960e-001
2750217500	5.015199e-002	-5.029479e-001	-2.564627e-001	3.528729e+000	4.677533e-003	7.589102e-002	1.483398e-001	-1.325035e-001
2756467313	4.969696e-002	-5.013716e-001	-2.277015e-001	3.521443e+000	4.640765e-003	7.581100e-002	1.496679e-001	-1.369930e-001
2762717125	4.936959e-002	-4.999843e-001	-1.987359e-001	3.513319e+000	5.461576e-003	7.607977e-002	1.511673e-001	-1.414501e-001
2768966938	4.977000e-002	-4.987001e-001	-1.743821e-001	3.506918e+000	5.902632e-003	7.593906e-002	1.524488e-001	-1.455867e-001
2775216750	4.969643e-002	-4.978028e-001	-1.494453e-001	3.500243e+000	6.256003e-003	7.631219e-002	1.534885e-001	-1.496145e-001
2781466563	5.009025e-002	-4.960006e-001	-1.250216e-001	3.487762e+000	6.865249e-003	7.616683e-002	1.549118e-001	-1.533523e-001
2787716375	4.976852e-002	-4.944707e-001	-9.618128e-002	3.483927e+000	6.882836e-003	7.647738e-002	1.560950e-001	-1.576317e-001
2793966188	4.968084e-002	-4.927968e-001	-7.081355e-002	3.469263e+000	7.649850e-003	7.647930e-002	1.570095e-001	-1.615208e-001
2800216000	4.999617e-002	-4.920644e-001	-4.449729e-002	3.463611e+000	7.824791e-003	7.656770e-002	1.582789e-001	-1.656005e-001
2806465813	5.017113e-002	-4.905760e-001	-1.857346e-002	3.453926e+000	8.244124e-003	7.669383e-002	1.585732e-001	-1.698394e-001
2812715625	4.994547e-002	-4.895010e-001	6.721005e-003	3.447266e+000	8.729610e-003	7.655170e-002	1.597608e-001	-1.739533e-001
2818965438	4.965745e-002	-4.888432e-001	3.229414e-002	3.438968e+000	8.941688e-003	7.692973e-002	1.608074e-001	-1.784783e-001
2825215250	5.024993e-002	-4.876353e-001	5.351918e-002	3.429175e+000	9.333499e-003	7.687319e-002	1.611401e-001	-1.826553e-001
2831465063	5.005988e-002	-4.860449e-001	7.972836e-002	3.414939e+000	9.923012e-003	7.697274e-002	1.619810e-001	-1.869467e-001
2837714875	5.031166e-002	-4.855642e-001	1.030015e-001	3.406959e+000	1.008085e-002	7.729899e-002	1.623560e-001	-1.909020e-001
2843964688	5.002639e-002	-4.839661e-001	1.296648e-001	3.399682e+000	1.058438e-002	7.747744e-002	1.631741e-001	-1.951374e-001
2850214500	5.033318e-002	-4.830357e-001	1.537000e-001	3.388845e+000	1.096588e-002	7.733975e-002	1.638930e-001	-1.994111e-001
2856464313	5.028208e-002	-4.814602e-001	1.781639e-001	3.376124e+000	1.149998e-002	7.744873e-002	1.638589e-001	-2.033633e-001
2862714125	4.986331e-002	-4.810010e-001	2.017902e-001	3.368287e+000	1.187341e-002	7.749231e-002	1.643601e-001	-2.070320e-001
2868963938	5.049732e-002	-4.797828e-001	2.246576e-001	3.358361e+000	1.237850e-002	7.736637e-002	1.652003e-001	-2.112597e-001
2875213750	5.067629e-002	-4.787448e-001	2.482734e-001	3.344412e+000	1.254612e-002	7.751458e-002	1.653383e-001	-2.160571e-001
2881463563	5.096019e-002	-4.777601e-001	2.683491e-001	3.335560e+000	1.287080e-002	7.766699e-002	1.654363e-001	-2.197221e-001
2887713375	5.088542e-002	-4.766772e-001	2.908853e-001	3.324473e+000	1.340203e-002	7.754433e-002	1.658904e-001	-2.235078e-001
2893963188	5.108581e-002	-4.762398e-001	3.105698e-001	3.314440e+000	1.376844e-002	7.756663e-002	1.659530e-001	-2.275232e-001
2900213000	5.176238e-002	-4.756161e-001	3.299032e-001	3.303850e+000	1.409808e-002	7.761863e-002	1.657671e-001	-2.318254e-001
2906462813	5.179970e-002	-4.740522e-001	3.534654e-001	3.288407e+000	1.471502e-002	7.743096e-002	1.662393e-001	-2.360639e-001
2912712625	5.163015e-002	-4.735516e-001	3.764034e-001	3.275953e+000	1.495342e-002	7.773314e-002	1.659759e-001	-2.400242e-001
2918962438	5.180306e-002	-4.723140e-001	3.979977e-001	3.262250e+000	1.536757e-002	7.750390e-002	1.659004e-001	-2.440335e-001
2925212250	5.211444e-002	-4.716554e-001	4.173773e-001	3.251033e+000	1.585853e-002	7.766105e-002	1.654862e-001	-2.484100e-001
2931462063	5.199005e-002	-4.709852e-001	4.364646e-001	3.238042e+000	1.608302e-002	7.756130e-002	1.648698e-001	-2.522970e-001
2937711875	5.248475e-002	-4.698453e-001	4.556686e-001	3.225185e+000	1.649756e-002	7.787979e-002	1.649398e-001	-2.564078e-001
2943961688	5.218099e-002	-4.690059e-001	4.785374e-001	3.214186e+000	1.680007e-002	7.786369e-002	1.643554e-001	-2.602224e-001
2950211500	5.286132e-002	-4.681468e-001	4.944628e-001	3.202359e+000	1.737327e-002	7.800653e-002	1.644839e-001	-2.642557e-001
2956461313	5.308597e-002	-4.670459e-001	5.150141e-001	3.190251e+000	1.750647e-002	7.783241e-002	1.639680e-001	-2.682787e-001
2962711125	5.359111e-002	-4.665546e-001	5.327516e-001	3.177292e+000	1.793368e-002	7.811102e-002	1.638689e-001	-2.720028e-001
2968960938	5.349577e-002	-4.652015e-001	5.530848e-001	3.163319e+000	1.841468e-002	7.790524e-002	1.630677e-001	-2.755468e-001
2975210750	5.359813e-002	-4.640310e-001	5.726991e-001	3.152375e+000	1.900035e-002	7.799492e-002	1.630330e-001	-2.797427e-001
2981460563	5.390562e-002	-4.635699e-001	5.918534e-001	3.140175e+000	1.919296e-002	7.753410e-002	1.623445e-001	-2.833829e-001
2987710375	5.422708e-002	-4.622944e-001	6.108885e-001	3.126158e+000	1.971046e-002	7.778716e-002	1.616334e-001	-2.870297e-001
2993960188	5.449495e-002	-4.619833e-001	6.268865e-001	3.114661e+000	2.000544e-002	7.781535e-002	1.611030e-001	-2.908047e-001
3000210000	5.439459e-002	-4.614069e-001	6.468190e-001	3.102867e+000	2.019204e-002	7.793253e-002	1.601122e-001	-2.946223e-001
3006459813	5.528456e-002	-4.606552e-001	6.629605e-001	3.087425e+000	2.075293e-002	7.779275e-002	1.592207e-001	-2.983526e-001
3012709625	5.531049e-002	-4.596559e-001	6.818124e-001	3.072599e+000	2.122339e-002	7.777729e-002	1.585410e-001	-3.023266e-001
3018959438	5.563327e-002	-4.590279e-001	6.992013e-001	3.060626e+000	2.145944e-002	7.770307e-002	1.576868e-001	-3.059828e-001
3025209250	5.578703e-002	-4.580139e-001	7.181119e-001	3.045114e+000	2.164174e-002	7.774763e-002	1.566200e-001	-3.098038e-001
3031459063	5.542936e-002	-4.578150e-001	7.374405e-001	3.034340e+000	2.232913e-002	7.759008e-002	1.558958e-001	-3.136265e-001
3037708875	5.595224e-002	-4.570085e-001	7.533199e-001	3.020087e+000	2.258922e-002	7.792042e-002	1.546792e-001	-3.176084e-001
3043958688	5.608615e-002	-4.560977e-001	7.677537e-001	3.003719e+000	2.286136e-002	7.753800e-002	1.534412e-001	-3.213714e-001
3050208500	5.634610e-002	-4.560280e-001	7.831070e-001	2.991312e+000	2.311928e-002	7.768652e-002	1.527597e-001	-3.252472e-001
3056458313	5.682093e-002	-4.551917e-001	8.001260e-001	2.976378e+000	2.351357e-002	7.761596e-002	1.515541e-001	-3.288805e-001
3062708125	5.704849e-002	-4.545550e-001	8.188851e-001	2.961181e+000	2.383462e-002	7.755285e-002	1.505571e-001	-3.324347e-001
3068957938	5.738177e-002	-4.541365e-001	8.301156e-001	2.946628e+000	2.445559e-002	7.724731e-002	1.489832e-001	-3.356996e-001
3075207750	5.729237e-002	-4.534250e-001	8.464009e-001	2.930281e+000	2.486833e-002	7.726580e-002	1.479834e-001	-3.391827e-001
3081457563	5.775225e-002	-4.527298e-001	8.612046e-001	2.917371e+000	2.490168e-002	7.706685e-002	1.464903e-001	-3.424176e-001
3087707375	5.819911e-002	-4.521839e-001	8.768700e-001	2.901853e+000	2.549206e-002	7.710609e-002	1.446002e-001	-3.457646e-001
3093957188	5.786727e-002	-4.517937e-001	8.914118e-001	2.888091e+000	2.583841e-002	7.703488e-002	1.430913e-001	-3.491509e-001
3100207000	5.864471e-002	-4.510818e-001	9.043926e-001	2.872346e+000	2.595807e-002	7.712786e-002	1.419462e-001	-3.527451e-001
3106456813	5.847451e-002	-4.514947e-001	9.199057e-001	2.863615e+000	2.628338e-002	7.691899e-002	1.406049e-001	-3.558261e-001
3112706625	5.863000e-002	-4.506710e-001	9.330104e-001	2.847957e+000	2.640964e-002	7.677930e-002	1.394971e-001	-3.586171e-001
3118956438	5.919200e-002	-4.501234e-001	9.412331e-001	2.833199e+000	2.685888e-002	7.686728e-002	1.378135e-001	-3.617051e-001
3125206250	5.887897e-002	-4.491920e-001	9.588474e-001	2.817107e+000	2.713526e-002	7.692527e-002	1.362969e-001	-3.653302e-001
3131456063	5.912370e-002	-4.492426e-001	9.711207e-001	2.807063e+000	2.724438e-002	7.678445e-002	1.354496e-001	-3.680699e-001
3137705875	5.940229e-002	-4.486893e-001	9.847887e-001	2.790685e+000	2.770657e-002	7.678810e-002	1.337390e-001	-3.715327e-001
3143955688	5.978015e-002	-4.480493e-001	9.973947e-001	2.777330e+000	2.827552e-002	7.685380e-002	1.320469e-001	-3.749083e-001
3150205500	5.965040e-002	-4.475867e-001	1.013612e+000	2.761796e+000	2.840539e-002	7.642338e-002	1.306502e-001	-3.783233e-001
3156455313	6.039370e-002	-4.474399e-001	1.022428e+000	2.749885e+000	2.882644e-002	7.664161e-002	1.290484e-001	-3.811138e-001
3162705125	6.079603e-002	-4.467439e-001	1.035794e+000	2.731049e+000	2.918184e-002	7.674273e-002	1.272241e-001	-3.843921e-001
3168954938	6.085327e-002	-4.459926e-001	1.052046e+000	2.714450e+000	2.952975e-002	7.654617e-002	1.255937e-001	-3.874457e-001
3175204750	6.130240e-002	-4.456339e-001	1.064643e+000	2.701081e+000	3.028962e-002	7.640140e-002	1.239947e-001	-3.903778e-001
3181454563	6.199015e-002	-4.451408e-001	1.073630e+000	2.684613e+000	3.047342e-002	7.611530e-002	1.220523e-001	-3.934802e-001
3187704375	6.219001e-002	-4.451289e-001	1.089021e+000	2.672989e+000	3.098053e-002	7.606875e-002	1.204424e-001	-3.971944e-001
3193954188	6.229634e-002	-4.450851e-001	1.100649e+000	2.656167e+000	3.119332e-002	7.574816e-002	1.182733e-001	-3.997624e-001
3200204000	6.271668e-002	-4.450329e-001	1.107820e+000	2.642053e+000	3.147681e-002	7.581478e-002	1.159724e-001	-4.032836e-001
3206453813	6.349982e-002	-4.447622e-001	1.120293e+000	2.624932e+000	3.183628e-002	7.552713e-002	1.142070e-001	-4.059752e-001
3212703625	6.350337e-002	-4.449158e-001	1.127113e+000	2.612293e+000	3.210004e-002	7.539062e-002	1.120417e-001	-4.087938e-001
3218953438	6.384411e-002	-4.451265e-001	1.135246e+000	2.595337e+000	3.202693e-002	7.545249e-002	1.097511e-001	-4.124757e-001
3225203250	6.344893e-002	-4.451146e-001	1.148182e+000	2.579738e+000	3.230063e-002	7.551817e-002	1.073712e-001	-4.151903e-001
3231453063	6.325912e-002	-4.452914e-001	1.157535e+000	2.567967e+000	3.263590e-002	7.516840e-002	1.053913e-001	-4.179134e-001
3237702875	6.304722e-002	-4.449224e-001	1.165329e+000	2.556608e+000	3.273580e-002	7.472454e-002	1.032312e-001	-4.206171e-001
3243952688	6.260201e-002	-4.447788e-001	1.176076e+000	2.539937e+000	3.324255e-002	7.467469e-002	1.011868e-001	-4.234581e-001
3250202500	6.254093e-002	-4.445202e-001	1.182579e+000	2.526354e+000	3.339894e-002	7.468211e-002	9.902461e-002	-4.259711e-001
3256452313	6.219547e-002	-4.437799e-001	1.193228e+000	2.513779e+000	3.364599e-002	7.468793e-002	9.689449e-002	-4.280542e-001
3262702125	6.197972e-002	-4.436806e-001	1.203935e+000	2.501933e+000	3.378050e-002	7.459042e-002	9.487676e-002	-4.307520e-001
3268951938	6.217441e-002	-4.430969e-001	1.213405e+000	2.486616e+000	3.413239e-002	7.432956e-002	9.319923e-002	-4.335283e-001
3275201750	6.213161e-002	-4.430608e-001	1.225025e+000	2.471492e+000	3.433755e-002	7.412703e-002	9.043316e-002	-4.355995e-001
3281451563	6.226863e-002	-4.431598e-001	1.231498e+000	2.457512e+000	3.453078e-002	7.411761e-002	8.806473e-002	-4.382056e-001
3287701375	6.244431e-002	-4.427007e-001	1.240253e+000	2.444209e+000	3.509181e-002	7.405107e-002	8.594733e-002	-4.406908e-001
3293951188	6.226269e-002	-4.429173e-001	1.250089e+000	2.432233e+000	3.525540e-002	7.413196e-002	8.364926e-002	-4.430403e-001
3300201000	6.316089e-002	-4.425697e-001	1.253459e+000	2.416559e+000	3.566409e-002	7.376480e-002	8.110437e-002	-4.447754e-001
3306450813	6.266169e-002	-4.426153e-001	1.264940e+000	2.403464e+000	3.607239e-002	7.354316e-002	7.855520e-002	-4.468925e-001
3312700625	6.211869e-002	-4.423965e-001	1.271962e+000	2.391603e+000	3.601609e-002	7.394045e-002	7.623643e-002	-4.491227e-001
3318950438	6.263062e-002	-4.429915e-001	1.276819e+000	2.376509e+000	3.611857e-002	7.354740e-002	7.402709e-002	-4.514682e-001
3325200250	6.258242e-002	-4.428203e-001	1.285433e+000	2.362965e+000	3.674407e-002	7.371954e-002	7.205674e-002	-4.536501e-001
3331450063	6.233015e-002	-4.428568e-001	1.294968e+000	2.349906e+000	3.708512e-002	7.364512e-002	6.979482e-002	-4.559745e-001
3337699875	6.222400e-002	-4.430574e-001	1.302178e+000	2.338694e+000	3.728983e-002	7.329781e-002	6.767432e-002	-4.583659e-001
3343949688	6.149259e-002	-4.435271e-001	1.310516e+000	2.326138e+000	3.771699e-002	7.292907e-002	6.501167e-002	-4.606744e-001
3350199500	6.142167e-002	-4.434316e-001	1.317452e+000	2.313591e+000	3.795121e-002	7.315708e-002	6.277579e-002	-4.630563e-001
3356449313	6.092673e-002	-4.428748e-001	1.321829e+000	2.300791e+000	3.797090e-002	7.281982e-002	5.997852e-002	-4.651023e-001
3362699125	6.047588e-002	-4.429493e-001	1.331139e+000	2.286123e+000	3.794633e-002	7.263342e-002	5.759057e-002	-4.669254e-001
3368948938	5.997053e-002	-4.421406e-001	1.339894e+000	2.272958e+000	3.822655e-002	7.246090e-002	5.538789e-002	-4.684999e-001
3375198750	5.946944e-002	-4.420802e-001	1.347723e+000	2.260561e+000	3.834730e-002	7.216937e-002	5.290646e-002	-4.705313e-001
3381448563	5.950872e-002	-4.415034e-001	1.351825e+000	2.245941e+000	3.847002e-002	7.219983e-002	5.056210e-002	-4.724003e-001
3387698375	5.895385e-002	-4.410226e-001	1.361611e+000	2.234302e+000	3.848134e-002	7.219333e-002	4.850325e-002	-4.746870e-001
3393948188	5.977997e-002	-4.405814e-001	1.367237e+000	2.220503e+000	3.873036e-002	7.223586e-002	4.595112e-002	-4.761679e-001
3400198000	5.915461e-002	-4.407374e-001	1.375061e+000	2.209385e+000	3.916187e-002	7.216990e-002	4.366797e-002	-4.778829e-001
3406447813	5.897726e-002	-4.398564e-001	1.382986e+000	2.195083e+000	3.926163e-002	7.196011e-002	4.118697e-002	-4.800599e-001
3412697625	5.880656e-002	-4.400874e-001	1.390004e+000	2.183236e+000	3.952347e-002	7.187870e-002	3.863372e-002	-4.821540e-001
3418947438	5.888046e-002	-4.394533e-001	1.396626e+000	2.169765e+000	3.999714e-002	7.174347e-002	3.601549e-002	-4.841568e-001
3425197250	5.857020e-002	-4.389942e-001	1.402274e+000	2.155586e+000	4.008414e-002	7.173503e-002	3.372995e-002	-4.865506e-001
3431447063	5.845653e-002	-4.392609e-001	1.409706e+000	2.145405e+000	4.016360e-002	7.144154e-002	3.156387e-002	-4.881486e-001
3437696875	5.867062e-002	-4.388677e-001	1.415585e+000	2.133458e+000	4.063681e-002	7.137344e-002	2.877511e-002	-4.902175e-001
3443946688	5.802659e-002	-4.384174e-001	1.423873e+000	2.115118e+000	4.077271e-002	7.096937e-002	2.604990e-002	-4.919359e-001
3450196500	5.783402e-002	-4.382833e-001	1.427856e+000	2.105244e+000	4.117176e-002	7.112527e-002	2.316931e-002	-4.936184e-001
3456446313	5.800557e-002	-4.378299e-001	1.432404e+000	2.092748e+000	4.138413e-002	7.076308e-002	2.088822e-002	-4.952898e-001
3462696125	5.745248e-002	-4.376851e-001	1.440528e+000	2.078961e+000	4.142956e-002	7.089660e-002	1.806476e-002	-4.969897e-001
3468945938	5.761147e-002	-4.377009e-001	1.444611e+000	2.064158e+000	4.181676e-002	7.059573e-002	1.489646e-002	-4.982412e-001
3475195750	5.757920e-002	-4.379837e-001	1.451833e+000	2.054179e+000	4.170337e-002	7.029411e-002	1.223524e-002	-5.000103e-001
3481445563	5.711361e-002	-4.377023e-001	1.455940e+000	2.039912e+000	4.208597e-002	7.033353e-002	9.540458e-003	-5.011809e-001
3487695375	5.663524e-002	-4.375198e-001	1.461614e+000	2.027620e+000	4.235716e-002	7.002107e-002	6.591160e-003	-5.023645e-001
3493945188	5.631163e-002	-4.374849e-001	1.468633e+000	2.014731e+000	4.232340e-002	7.002356e-002	4.229086e-003	-5.038282e-001
3500195000	5.577429e-002	-4.374460e-001	1.471210e+000	2.005338e+000	4.263598e-002	6.994220e-002	1.422904e-003	-5.054353e-001
3506444813	5.526474e-002	-4.372044e-001	1.477544e+000	1.991250e+000	4.260242e-002	6.991080e-002	-1.274102e-003	-5.067206e-001
3512694625	5.515371e-002	-4.369748e-001	1.483971e+000	1.977563e+000	4.280628e-002	7.003614e-002	-4.293753e-003	-5.083103e-001
3518944438	5.476468e-002	-4.370453e-001	1.489111e+000	1.969095e+000	4.279905e-002	6.999884e-002	-6.461103e-003	-5.095932e-001
3525194250	5.391530e-002	-4.367477e-001	1.495821e+000	1.955735e+000	4.295346e-002	7.005654e-002	-9.256394e-003	-5.106772e-001
3531444063	5.360328e-002	-4.365907e-001	1.499721e+000	1.940675e+000	4.298482e-002	6.988532e-002	-1.117398e-002	-5.118613e-001
3537693875	5.330357e-002	-4.363311e-001	1.507129e+000	1.928445e+000	4.295938e-002	6.984495e-002	-1.414199e-002	-5.124641e-001
3543943688	5.302512e-002	-4.362393e-001	1.509216e+000	1.915848e+000	4.300945e-002	6.970562e-002	-1.693762e-002	-5.130912e-001
3550193500	5.268645e-002	-4.357623e-001	1.512246e+000	1.903814e+000	4.331598e-002	6.952414e-002	-1.856305e-002	-5.133438e-001
3556443313	5.243753e-002	-4.356166e-001	1.515916e+000	1.893261e+000	4.342093e-002	6.970314e-002	-2.083418e-002	-5.140640e-001
3562693125	5.224148e-002	-4.350240e-001	1.518500e+000	1.877515e+000	4.384432e-002	6.932176e-002	-2.271246e-002	-5.141401e-001
3568942938	5.244048e-002	-4.351460e-001	1.524729e+000	1.868979e+000	4.388693e-002	6.954006e-002	-2.482373e-002	-5.155512e-001
3575192750	5.169515e-002	-4.348709e-001	1.529090e+000	1.854518e+000	4.441026e-002	6.925787e-002	-2.701432e-002	-5.168017e-001
3581442563	5.159234e-002	-4.347841e-001	1.537274e+000	1.843861e+000	4.453167e-002	6.933552e-002	-2.896795e-002	-5.179267e-001
3587692375	5.163677e-002	-4.344401e-001	1.539311e+000	1.831884e+000	4.464097e-002	6.905396e-002	-3.091427e-002	-5.188493e-001
3593942188	5.192111e-002	-4.334482e-001	1.539488e+000	1.817645e+000	4.532211e-002	6.910730e-002	-3.365428e-002	-5.209549e-001
3600192000	5.173111e-002	-4.341881e-001	1.544831e+000	1.808501e+000	4.516469e-002	6.891135e-002	-3.549690e-002	-5.225270e-001
3606441813	5.154973e-002	-4.341145e-001	1.551312e+000	1.794817e+000	4.553890e-002	6.874812e-002	-3.806258e-002	-5.234661e-001
3612691625	5.184774e-002	-4.338647e-001	1.555206e+000	1.782605e+000	4.548780e-002	6.861041e-002	-4.065036e-002	-5.247414e-001
3618941438	5.136128e-002	-4.334224e-001	1.559557e+000	1.771833e+000	4.584541e-002	6.891587e-002	-4.302354e-002	-5.265612e-001
3625191250	5.114173e-002	-4.334018e-001	1.561839e+000	1.758901e+000	4.635155e-002	6.842697e-002	-4.567371e-002	-5.276275e-001
3631441063	5.058673e-002	-4.336320e-001	1.565269e+000	1.745958e+000	4.627218e-002	6.857863e-002	-4.812674e-002	-5.286520e-001
3637690875	5.049313e-002	-4.331863e-001	1.569464e+000	1.733953e+000	4.650830e-002	6.838744e-002	-5.060614e-002	-5.299739e-001
3643940688	4.998151e-002	-4.332706e-001	1.573526e+000	1.724196e+000	4.668947e-002	6.820790e-002	-5.244505e-002	-5.309540e-001
3650190500	4.946746e-002	-4.332706e-001	1.578493e+000	1.712199e+000	4.703348e-002	6.832553e-002	-5.455727e-002	-5.325097e-001
3656440313	4.932650e-002	-4.332701e-001	1.580976e+000	1.702698e+000	4.725719e-002	6.798038e-002	-5.762913e-002	-5.336952e-001
3662690125	4.914101e-002	-4.328193e-001	1.586456e+000	1.688957e+000	4.779519e-002	6.814224e-002	-5.974050e-002	-5.348404e-001
3668939938	4.875971e-002	-4.322195e-001	1.588251e+000	1.673819e+000	4.794941e-002	6.821341e-002	-6.209992e-002	-5.363258e-001
3675189750	4.870765e-002	-4.322788e-001	1.591193e+000	1.664371e+000	4.801003e-002	6.808873e-002	-6.416437e-002	-5.371841e-001
3681439563	4.902144e-002	-4.320959e-001	1.593619e+000	1.652887e+000	4.811482e-002	6.804979e-002	-6.692415e-002	-5.389301e-001
3687689375	4.847833e-002	-4.325810e-001	1.598097e+000	1.642506e+000	4.825950e-002	6.767742e-002	-6.934552e-002	-5.394699e-001
3693939188	4.862734e-002	-4.320515e-001	1.598692e+000	1.628675e+000	4.841976e-002	6.779880e-002	-7.134156e-002	-5.411167e-001
3700189000	4.817874e-002	-4.322204e-001	1.602060e+000	1.616536e+000	4.848321e-002	6.783836e-002	-7.353333e-002	-5.418893e-001
3706438813	4.791517e-002	-4.320977e-001	1.603392e+000	1.604441e+000	4.843905e-002	6.755098e-002	-7.605460e-002	-5.425967e-001
3712688625	4.764444e-002	-4.317722e-001	1.608380e+000	1.592528e+000	4.863074e-002	6.745570e-002	-7.923665e-002	-5.434550e-001
3718938438	4.743406e-002	-4.318861e-001	1.609213e+000	1.581279e+000	4.888817e-002	6.700098e-002	-8.193572e-002	-5.444635e-001
3725188250	4.749400e-002	-4.323116e-001	1.613140e+000	1.570195e+000	4.941326e-002	6.691598e-002	-8.483120e-002	-5.449898e-001
3731438063	4.714599e-002	-4.321384e-001	1.613355e+000	1.557324e+000	4.934152e-002	6.647421e-002	-8.756421e-002	-5.457466e-001
3737687875	4.630527e-002	-4.318140e-001	1.615867e+000	1.544040e+000	4.970200e-002	6.630512e-002	-9.023607e-002	-5.464408e-001
3743937688	4.586064e-002	-4.317652e-001	1.618878e+000	1.530991e+000	4.989155e-002	6.624088e-002	-9.305890e-002	-5.478611e-001
3750187500	4.591495e-002	-4.318129e-001	1.620607e+000	1.521738e+000	4.991520e-002	6.596830e-002	-9.592843e-002	-5.483533e-001
3756437313	4.520783e-002	-4.319432e-001	1.621927e+000	1.510322e+000	5.018232e-002	6.583339e-002	-9.839588e-002	-5.489152e-001
3762687125	4.499204e-002	-4.314159e-001	1.622704e+000	1.498290e+000	5.038991e-002	6.579030e-002	-1.010045e-001	-5.500300e-001
3768936938	4.458594e-002	-4.317778e-001	1.625541e+000	1.487939e+000	5.062714e-002	6.559296e-002	-1.043863e-001	-5.506199e-001
3775186750	4.429979e-002	-4.322716e-001	1.627871e+000	1.478493e+000	5.092204e-002	6.554976e-002	-1.067661e-001	-5.517837e-001
3781436563	4.376822e-002	-4.319722e-001	1.630740e+000	1.465187e+000	5.075137e-002	6.505945e-002	-1.098721e-001	-5.524955e-001
3787686375	4.352441e-002	-4.318070e-001	1.630637e+000	1.453589e+000	5.101564e-002	6.475679e-002	-1.124437e-001	-5.530754e-001
3793936188	4.348305e-002	-4.322238e-001	1.630830e+000	1.442549e+000	5.127837e-002	6.499488e-002	-1.148205e-001	-5.540832e-001
3800186000	4.290813e-002	-4.325570e-001	1.635139e+000	1.432381e+000	5.141139e-002	6.496679e-002	-1.182516e-001	-5.548279e-001
3806435813	4.237015e-002	-4.327116e-001	1.637598e+000	1.423914e+000	5.161048e-002	6.466212e-002	-1.207081e-001	-5.557054e-001
3812685625	4.212026e-002	-4.323765e-001	1.637822e+000	1.409829e+000	5.189762e-002	6.489191e-002	-1.230876e-001	-5.563768e-001
3818935438	4.207598e-002	-4.324645e-001	1.637052e+000	1.400373e+000	5.214768e-002	6.477552e-002	-1.259052e-001	-5.574303e-001
3825185250	4.194586e-002	-4.327042e-001	1.638584e+000	1.390668e+000	5.216192e-002	6.465583e-002	-1.281382e-001	-5.580151e-001
3831435063	4.133074e-002	-4.328602e-001	1.640047e+000	1.379872e+000	5.226698e-002	6.469385e-002	-1.311509e-001	-5.585707e-001
3837684875	4.085595e-002	-4.330473e-001	1.643270e+000	1.368124e+000	5.240849e-002	6.444748e-002	-1.337825e-001	-5.595579e-001
3843934688	4.026366e-002	-4.331353e-001	1.642844e+000	1.355970e+000	5.256642e-002	6.436262e-002	-1.359028e-001	-5.599660e-001
3850184500	4.004565e-002	-4.333017e-001	1.645313e+000	1.347085e+000	5.248448e-002	6.410805e-002	-1.390276e-001	-5.606229e-001
3856434313	3.994202e-002	-4.332821e-001	1.642831e+000	1.336961e+000	5.271985e-002	6.427245e-002	-1.410730e-001	-5.614887e-001
3862684125	3.935652e-002	-4.334379e-001	1.644628e+000	1.324101e+000	5.280155e-002	6.411072e-002	-1.433296e-001	-5.613113e-001
3868933938	3.896191e-002	-4.334693e-001	1.646105e+000	1.312242e+000	5.300205e-002	6.393299e-002	-1.460617e-001	-5.615382e-001
3875183750	3.856977e-002	-4.336358e-001	1.647236e+000	1.303749e+000	5.302746e-002	6.355013e-002	-1.488576e-001	-5.617278e-001
3881433563	3.769513e-002	-4.336407e-001	1.647892e+000	1.292192e+000	5.316780e-002	6.328804e-002	-1.516953e-001	-5.615170e-001
3887683375	3.760569e-002	-4.334068e-001	1.647148e+000	1.279882e+000	5.311879e-002	6.355774e-002	-1.542432e-001	-5.615973e-001
3893933188	3.684827e-002	-4.335060e-001	1.648407e+000	1.271007e+000	5.367036e-002	6.299389e-002	-1.571102e-001	-5.614908e-001
3900183000	3.663451e-002	-4.335382e-001	1.649067e+000	1.259614e+000	5.376727e-002	6.285516e-002	-1.600695e-001	-5.616918e-001
3906432813	3.634984e-002	-4.336195e-001	1.648150e+000	1.250309e+000	5.369496e-002	6.274160e-002	-1.632440e-001	-5.625355e-001
3912682625	3.545034e-002	-4.334750e-001	1.649708e+000	1.238903e+000	5.394264e-002	6.275357e-002	-1.653666e-001	-5.626622e-001
3918932438	3.551940e-002	-4.339957e-001	1.647859e+000	1.230357e+000	5.398580e-002	6.215604e-002	-1.682784e-001	-5.621611e-001
3925182250	3.451350e-002	-4.337904e-001	1.649223e+000	1.219619e+000	5.396208e-002	6.205662e-002	-1.714743e-001	-5.621932e-001
3931432063	3.462721e-002	-4.339576e-001	1.648217e+000	1.211311e+000	5.407013e-002	6.187992e-002	-1.738707e-001	-5.626571e-001
3937681875	3.392590e-002	-4.340789e-001	1.649787e+000	1.200040e+000	5.442903e-002	6.180769e-002	-1.765336e-001	-5.632561e-001
3943931688	3.323088e-002	-4.341027e-001	1.651599e+000	1.190142e+000	5.448480e-002	6.143739e-002	-1.788507e-001	-5.637281e-001
3950181500	3.295129e-002	-4.347406e-001	1.650685e+000	1.180686e+000	5.469325e-002	6.134892e-002	-1.817925e-001	-5.636771e-001
3956431313	3.228670e-002	-4.345630e-001	1.651025e+000	1.171775e+000	5.486382e-002	6.146465e-002	-1.844686e-001	-5.646281e-001
3962681125	3.188025e-002	-4.345434e-001	1.650569e+000	1.161580e+000	5.488303e-002	6.117200e-002	-1.869947e-001	-5.651650e-001
3968930938	3.140386e-002	-4.346307e-001	1.650640e+000	1.153780e+000	5.536385e-002	6.127365e-002	-1.901779e-001	-5.654930e-001
3975180750	3.067847e-002	-4.350088e-001	1.650374e+000	1.140734e+000	5.532595e-002	6.121151e-002	-1.927262e-001	-5.654679e-001
3981430563	3.008915e-002	-4.347649e-001	1.649082e+000	1.130512e+000	5.561440e-002	6.137790e-002	-1.957160e-001	-5.664258e-001
3987680375	2.964741e-002	-4.356544e-001	1.651797e+000	1.124395e+000	5.584968e-002	6.113785e-002	-1.982896e-001	-5.664064e-001
3993930188	2.892124e-002	-4.356799e-001	1.650569e+000	1.113135e+000	5.590869e-002	6.090956e-002	-2.007968e-001	-5.665268e-001
4000180000	2.884930e-002	-4.355816e-001	1.647743e+000	1.103982e+000	5.616695e-002	6.067042e-002	-2.032382e-001	-5.673993e-001
4006429813	2.777223e-002	-4.357906e-001	1.649462e+000	1.093523e+000	5.582234e-002	6.064158e-002	-2.055295e-001	-5.673080e-001
4012679625	2.708613e-002	-4.358017e-001	1.648035e+000	1.082272e+000	5.617720e-002	6.045442e-002	-2.079379e-001	-5.673588e-001
4018929438	2.637042e-002	-4.359464e-001	1.647992e+000	1.072807e+000	5.612762e-002	6.038062e-002	-2.104346e-001	-5.676280e-001
4025179250	2.622857e-002	-4.362771e-001	1.647646e+000	1.066312e+000	5.625098e-002	6.022625e-002	-2.122869e-001	-5.672603e-001
4031429063	2.571787e-002	-4.363548e-001	1.645903e+000	1.054411e+000	5.600794e-002	6.014058e-002	-2.143644e-001	-5.668651e-001
4037678875	2.436479e-002	-4.365324e-001	1.647513e+000	1.043623e+000	5.646684e-002	5.992889e-002	-2.168556e-001	-5.667555e-001
4043928688	2.452032e-002	-4.366631e-001	1.645314e+000	1.034809e+000	5.640995e-002	5.961867e-002	-2.194346e-001	-5.663342e-001
4050178500	2.347952e-002	-4.367857e-001	1.646647e+000	1.026115e+000	5.651544e-002	5.944531e-002	-2.223881e-001	-5.659674e-001
4056428313	2.283700e-002	-4.369706e-001	1.644938e+000	1.017329e+000	5.636814e-002	5.933381e-002	-2.249850e-001	-5.655462e-001
4062678125	2.206995e-002	-4.371717e-001	1.646894e+000	1.007873e+000	5.675723e-002	5.912665e-002	-2.279118e-001	-5.651266e-001
4068927938	2.155086e-002	-4.371472e-001	1.642284e+000	9.993071e-001	5.677900e-002	5.890610e-002	-2.305357e-001	-5.650254e-001
4075177750	2.135973e-002	-4.376337e-001	1.643185e+000	9.913449e-001	5.692655e-002	5.876540e-002	-2.334957e-001	-5.644810e-001
4081427563	2.084437e-002	-4.373880e-001	1.641199e+000	9.806383e-001	5.714550e-002	5.851844e-002	-2.362940e-001	-5.645649e-001
4087677375	2.009933e-002	-4.380663e-001	1.641692e+000	9.724572e-001	5.735401e-002	5.849704e-002	-2.393965e-001	-5.638818e-001
4093927188	1.979774e-002	-4.382779e-001	1.638546e+000	9.636816e-001	5.759525e-002	5.857766e-002	-2.424259e-001	-5.642205e-001
4100177000	1.867031e-002	-4.386003e-001	1.639357e+000	9.544440e-001	5.768389e-002	5.792208e-002	-2.444291e-001	-5.637401e-001
4106426813	1.788193e-002	-4.384535e-001	1.638487e+000	9.465170e-001	5.765563e-002	5.767149e-002	-2.474740e-001	-5.638653e-001
4112676625	1.762363e-002	-4.388777e-001	1.638077e+000	9.388530e-001	5.776022e-002	5.758554e-002	-2.507044e-001	-5.634258e-001
4118926438	1.693513e-002	-4.389643e-001	1.636218e+000	9.286808e-001	5.774461e-002	5.718099e-002	-2.528910e-001	-5.631539e-001
4125176250	1.623985e-002	-4.391709e-001	1.636513e+000	9.216876e-001	5.784814e-002	5.737386e-002	-2.559786e-001	-5.633595e-001
4131426063	1.536881e-002	-4.393540e-001	1.635279e+000	9.125520e-001	5.772530e-002	5.712497e-002	-2.581604e-001	-5.636468e-001
4137675875	1.527158e-002	-4.387967e-001	1.631511e+000	9.024915e-001	5.802946e-002	5.697764e-002	-2.610198e-001	-5.631573e-001
4143925688	1.407835e-002	-4.397322e-001	1.634281e+000	8.951827e-001	5.830720e-002	5.704667e-002	-2.633384e-001	-5.637883e-001
4150175500	1.359746e-002	-4.396103e-001	1.631317e+000	8.860220e-001	5.830341e-002	5.686785e-002	-2.662746e-001	-5.631399e-001
4156425313	1.267992e-002	-4.399706e-001	1.632801e+000	8.781620e-001	5.847176e-002	5.664217e-002	-2.687546e-001	-5.634839e-001
4162675125	1.211648e-002	-4.398261e-001	1.629564e+000	8.689417e-001	5.858476e-002	5.674453e-002	-2.707448e-001	-5.636615e-001
4168924938	1.133128e-002	-4.400075e-001	1.630287e+000	8.604875e-001	5.853853e-002	5.659984e-002	-2.737960e-001	-5.635309e-001
4175174750	1.050324e-002	-4.400214e-001	1.627628e+000	8.496830e-001	5.864561e-002	5.636311e-002	-2.756261e-001	-5.637643e-001
4181424563	9.983587e-003	-4.403432e-001	1.627181e+000	8.423077e-001	5.880164e-002	5.667875e-002	-2.776564e-001	-5.635830e-001
4187674375	9.075241e-003	-4.400912e-001	1.625683e+000	8.328588e-001	5.864916e-002	5.628416e-002	-2.797259e-001	-5.629411e-001
4193924188	8.685393e-003	-4.406348e-001	1.622269e+000	8.247468e-001	5.867689e-002	5.622698e-002	-2.819726e-001	-5.625794e-001
4200174000	8.257535e-003	-4.410087e-001	1.621116e+000	8.177873e-001	5.867473e-002	5.599049e-002	-2.845545e-001	-5.615385e-001
4206423813	7.086239e-003	-4.405245e-001	1.618853e+000	8.088111e-001	5.875868e-002	5.587474e-002	-2.865468e-001	-5.610303e-001
4212673625	6.292316e-003	-4.410479e-001	1.616975e+000	8.006776e-001	5.907082e-002	5.586813e-002	-2.887600e-001	-5.604160e-001
4218923438	5.447182e-003	-4.415974e-001	1.618248e+000	7.926151e-001	5.890202e-002	5.543999e-002	-2.911826e-001	-5.595738e-001
4225173250	4.539674e-003	-4.414622e-001	1.615398e+000	7.848003e-001	5.913790e-002	5.556479e-002	-2.939295e-001	-5.587580e-001
4231423063	3.773562e-003	-4.414706e-001	1.614941e+000	7.767075e-001	5.884983e-002	5.515490e-002	-2.960724e-001	-5.578260e-001
4237672875	3.273928e-003	-4.415455e-001	1.610632e+000	7.694208e-001	5.923164e-002	5.494660e-002	-2.990739e-001	-5.566888e-001
4243922688	2.035930e-003	-4.421205e-001	1.610116e+000	7.611043e-001	5.925438e-002	5.493447e-002	-3.018645e-001	-5.555644e-001
4250172500	1.519708e-003	-4.421863e-001	1.608649e+000	7.537428e-001	5.926922e-002	5.464084e-002	-3.049410e-001	-5.554764e-001
4256422313	7.967991e-004	-4.423587e-001	1.607409e+000	7.467694e-001	5.931144e-002	5.475376e-002	-3.071844e-001	-5.551618e-001
4262672125	1.554430e-004	-4.425280e-001	1.606832e+000	7.391721e-001	5.965785e-002	5.457057e-002	-3.099105e-001	-5.540391e-001
4268921938	-1.217990e-003	-4.424465e-001	1.604146e+000	7.296286e-001	5.955798e-002	5.423443e-002	-3.124402e-001	-5.536890e-001
4275171750	-1.893055e-003	-4.423922e-001	1.605762e+000	7.204587e-001	5.952138e-002	5.416966e-002	-3.150583e-001	-5.534901e-001
4281421563	-2.562790e-003	-4.429517e-001	1.601457e+000	7.141344e-001	5.978585e-002	5.364188e-002	-3.179812e-001	-5.522295e-001
4287671375	-3.213281e-003	-4.426383e-001	1.599962e+000	7.053893e-001	5.983886e-002	5.369787e-002	-3.202339e-001	-5.521140e-001
4293921188	-4.215011e-003	-4.431111e-001	1.597580e+000	6.985132e-001	5.986348e-002	5.344763e-002	-3.230078e-001	-5.513309e-001
4300171000	-5.223678e-003	-4.434897e-001	1.597546e+000	6.905311e-001	5.983825e-002	5.336743e-002	-3.251973e-001	-5.513300e-001
4306420813	-5.400843e-003	-4.431500e-001	1.593320e+000	6.817764e-001	6.002397e-002	5.351571e-002	-3.281889e-001	-5.510267e-001
4312670625	-5.997643e-003	-4.434268e-001	1.591409e+000	6.756015e-001	5.991663e-002	5.322618e-002	-3.305667e-001	-5.505061e-001
4318920438	-7.356899e-003	-4.443436e-001	1.591790e+000	6.694845e-001	5.994643e-002	5.324394e-002	-3.324839e-001	-5.510022e-001
4325170250	-7.947731e-003	-4.441796e-001	1.588387e+000	6.594775e-001	5.999477e-002	5.336885e-002	-3.344498e-001	-5.510818e-001
4331420063	-9.383525e-003	-4.443896e-001	1.587647e+000	6.519072e-001	6.006797e-002	5.316399e-002	-3.359655e-001	-5.508272e-001
4337669875	-9.830798e-003	-4.444403e-001	1.585480e+000	6.440148e-001	6.011526e-002	5.316111e-002	-3.383660e-001	-5.507118e-001
4343919688	-1.102612e-002	-4.445121e-001	1.583151e+000	6.381805e-001	6.012440e-002	5.296476e-002	-3.397654e-001	-5.497060e-001
4350169500	-1.148510e-002	-4.444859e-001	1.579810e+000	6.298114e-001	5.999594e-002	5.291651e-002	-3.413770e-001	-5.486714e-001
4356419313	-1.218814e-002	-4.449015e-001	1.577656e+000	6.242143e-001	5.974346e-002	5.272749e-002	-3.433766e-001	-5.477865e-001
4362669125	-1.322632e-002	-4.450642e-001	1.574408e+000	6.159179e-001	6.003876e-002	5.261720e-002	-3.457330e-001	-5.464834e-001
4368918938	-1.407543e-002	-4.448372e-001	1.573823e+000	6.076744e-001	6.007439e-002	5.234711e-002	-3.478805e-001	-5.456259e-001
4375168750	-1.492148e-002	-4.450355e-001	1.572748e+000	6.015717e-001	5.988872e-002	5.232142e-002	-3.504478e-001	-5.442300e-001
4381418563	-1.557995e-002	-4.453817e-001	1.569454e+000	5.944496e-001	6.013263e-002	5.208260e-002	-3.532514e-001	-5.433602e-001
4387668375	-1.605877e-002	-4.459075e-001	1.566986e+000	5.885656e-001	6.017636e-002	5.229510e-002	-3.556051e-001	-5.427042e-001
4393918188	-1.789624e-002	-4.458949e-001	1.566286e+000	5.791320e-001	6.025034e-002	5.208548e-002	-3.583285e-001	-5.419329e-001
4400168000	-1.855784e-002	-4.457777e-001	1.563917e+000	5.729180e-001	6.024681e-002	5.200835e-002	-3.603811e-001	-5.406024e-001
4406417813	-1.966576e-002	-4.456605e-001	1.561484e+000	5.649456e-001	6.047119e-002	5.169037e-002	-3.634724e-001	-5.401304e-001
4412667625	-2.009619e-002	-4.462748e-001	1.560352e+000	5.586678e-001	6.050330e-002	5.151523e-002	-3.658526e-001	-5.388067e-001
4418917438	-2.145570e-002	-4.461941e-001	1.557664e+000	5.513006e-001	6.049190e-002	5.146771e-002	-3.684684e-001	-5.379581e-001
4425167250	-2.219050e-002	-4.466253e-001	1.555472e+000	5.453731e-001	6.074955e-002	5.132262e-002	-3.706746e-001	-5.374290e-001
4431417063	-2.286619e-002	-4.466787e-001	1.553765e+000	5.378540e-001	6.050654e-002	5.087113e-002	-3.735273e-001	-5.363633e-001
4437666875	-2.387932e-002	-4.467157e-001	1.550913e+000	5.302013e-001	6.066743e-002	5.106716e-002	-3.756928e-001	-5.361627e-001
4443916688	-2.495206e-002	-4.464893e-001	1.548058e+000	5.241851e-001	6.090359e-002	5.077176e-002	-3.786523e-001	-5.352539e-001
4450166500	-2.582016e-002	-4.469775e-001	1.546775e+000	5.172715e-001	6.091561e-002	5.070662e-002	-3.797185e-001	-5.342265e-001
4456416313	-2.689006e-002	-4.471553e-001	1.544947e+000	5.101785e-001	6.109975e-002	5.063946e-002	-3.827333e-001	-5.338703e-001
4462666125	-2.742558e-002	-4.473952e-001	1.541391e+000	5.044328e-001	6.091297e-002	5.029368e-002	-3.855548e-001	-5.333084e-001
4468915938	-2.879161e-002	-4.480057e-001	1.540931e+000	4.978949e-001	6.117431e-002	5.031750e-002	-3.876384e-001	-5.326997e-001
4475165750	-2.970897e-002	-4.479046e-001	1.536668e+000	4.906993e-001	6.110505e-002	5.030148e-002	-3.899729e-001	-5.330282e-001
4481415563	-3.073843e-002	-4.477577e-001	1.534696e+000	4.838919e-001	6.131298e-002	5.032990e-002	-3.917270e-001	-5.327403e-001
4487665375	-3.176915e-002	-4.478626e-001	1.531743e+000	4.762309e-001	6.104046e-002	5.028187e-002	-3.934801e-001	-5.316690e-001
4493915188	-3.275098e-002	-4.486249e-001	1.530469e+000	4.705257e-001	6.127985e-002	5.013995e-002	-3.951788e-001	-5.316119e-001
4500165000	-3.359352e-002	-4.483667e-001	1.525736e+000	4.635661e-001	6.114787e-002	5.017872e-002	-3.970460e-001	-5.307155e-001
4506414813	-3.416983e-002	-4.482569e-001	1.521932e+000	4.570701e-001	6.100717e-002	4.997661e-002	-3.988161e-001	-5.294219e-001
4512664625	-3.542636e-002	-4.483551e-001	1.519825e+000	4.501180e-001	6.122387e-002	4.977621e-002	-4.005104e-001	-5.284852e-001
4518914438	-3.641745e-002	-4.488570e-001	1.517770e+000	4.426332e-001	6.114833e-002	4.951855e-002	-4.025657e-001	-5.269118e-001
4525164250	-3.754605e-002	-4.492709e-001	1.516881e+000	4.375277e-001	6.121077e-002	4.980799e-002	-4.043473e-001	-5.260415e-001
4531414063	-3.893437e-002	-4.493553e-001	1.515424e+000	4.313509e-001	6.129315e-002	4.967811e-002	-4.067585e-001	-5.244605e-001
4537663875	-3.936179e-002	-4.490469e-001	1.511131e+000	4.251887e-001	6.116089e-002	4.963805e-002	-4.090873e-001	-5.233681e-001
4543913688	-4.051918e-002	-4.494297e-001	1.508547e+000	4.182115e-001	6.109374e-002	4.922621e-002	-4.110616e-001	-5.220533e-001
4550163500	-4.161608e-002	-4.495451e-001	1.507841e+000	4.107058e-001	6.124450e-002	4.895403e-002	-4.133418e-001	-5.207897e-001
4556413313	-4.275890e-002	-4.495673e-001	1.505636e+000	4.042839e-001	6.121416e-002	4.895459e-002	-4.154521e-001	-5.194289e-001
4562663125	-4.359437e-002	-4.496406e-001	1.501421e+000	3.989149e-001	6.155800e-002	4.899066e-002	-4.187771e-001	-5.188142e-001
4568912938	-4.476469e-002	-4.497518e-001	1.498814e+000	3.923174e-001	6.138171e-002	4.858599e-002	-4.204774e-001	-5.175450e-001
4575162750	-4.548745e-002	-4.498414e-001	1.496447e+000	3.872883e-001	6.171339e-002	4.865978e-002	-4.229419e-001	-5.161711e-001
4581412563	-4.656249e-002	-4.496746e-001	1.491970e+000	3.803370e-001	6.174982e-002	4.849785e-002	-4.253043e-001	-5.149169e-001
4587662375	-4.764475e-002	-4.498858e-001	1.491110e+000	3.744885e-001	6.201517e-002	4.850191e-002	-4.278200e-001	-5.140018e-001
4593912188	-4.879316e-002	-4.505057e-001	1.488167e+000	3.682867e-001	6.165328e-002	4.812561e-002	-4.305395e-001	-5.126263e-001
4600162000	-4.980686e-002	-4.503807e-001	1.484522e+000	3.631605e-001	6.182650e-002	4.803921e-002	-4.325559e-001	-5.123244e-001
4606411813	-5.056621e-002	-4.504443e-001	1.482550e+000	3.567230e-001	6.183243e-002	4.813708e-002	-4.350254e-001	-5.108943e-001
4612661625	-5.190326e-002	-4.507923e-001	1.479412e+000	3.505606e-001	6.187883e-002	4.766807e-002	-4.374313e-001	-5.106736e-001
4618911438	-5.290948e-002	-4.505524e-001	1.475852e+000	3.447484e-001	6.198832e-002	4.777733e-002	-4.396233e-001	-5.098823e-001
4625161250	-5.417137e-002	-4.508802e-001	1.474402e+000	3.392989e-001	6.196966e-002	4.744705e-002	-4.413231e-001	-5.098818e-001
4631411063	-5.538108e-002	-4.507594e-001	1.470914e+000	3.316680e-001	6.189103e-002	4.747232e-002	-4.434087e-001	-5.097577e-001
4637660875	-5.641448e-002	-4.512596e-001	1.469340e+000	3.264859e-001	6.178497e-002	4.739366e-002	-4.447311e-001	-5.086357e-001
4643910688	-5.699138e-002	-4.512711e-001	1.464157e+000	3.211911e-001	6.192374e-002	4.721944e-002	-4.462601e-001	-5.081948e-001
4650160500	-5.825838e-002	-4.514958e-001	1.461889e+000	3.165416e-001	6.162417e-002	4.740362e-002	-4.472057e-001	-5.072412e-001
4656410313	-5.973209e-002	-4.512484e-001	1.459504e+000	3.079727e-001	6.169450e-002	4.731712e-002	-4.491470e-001	-5.061658e-001
4662660125	-6.097774e-002	-4.519001e-001	1.456827e+000	3.044907e-001	6.164670e-002	4.711328e-002	-4.507157e-001	-5.044100e-001
4668909938	-6.210464e-002	-4.520101e-001	1.453605e+000	2.995283e-001	6.174873e-002	4.711952e-002	-4.529077e-001	-5.033550e-001
4675159750	-6.327518e-002	-4.517331e-001	1.451034e+000	2.911881e-001	6.178311e-002	4.706966e-002	-4.552397e-001	-5.015379e-001
4681409563	-6.450978e-002	-4.518512e-001	1.448488e+000	2.866556e-001	6.204349e-002	4.682636e-002	-4.575048e-001	-5.004582e-001
4687659375	-6.552383e-002	-4.522139e-001	1.445709e+000	2.806420e-001	6.193209e-002	4.686646e-002	-4.592493e-001	-4.989665e-001
4693909188	-6.678220e-002	-4.518754e-001	1.442422e+000	2.747324e-001	6.204376e-002	4.669290e-002	-4.613108e-001	-4.975631e-001
4700159000	-6.757286e-002	-4.522334e-001	1.440557e+000	2.708192e-001	6.196225e-002	4.669907e-002	-4.634554e-001	-4.965264e-001
4706408813	-6.903029e-002	-4.525722e-001	1.437173e+000	2.644729e-001	6.196146e-002	4.672043e-002	-4.653202e-001	-4.948883e-001
4712658625	-7.041810e-002	-4.523138e-001	1.434453e+000	2.579504e-001	6.196716e-002	4.649830e-002	-4.680899e-001	-4.934035e-001
4718908438	-7.113579e-002	-4.525758e-001	1.430250e+000	2.538268e-001	6.204937e-002	4.613801e-002	-4.704920e-001	-4.922089e-001
4725158250	-7.226962e-002	-4.523275e-001	1.428324e+000	2.456990e-001	6.217014e-002	4.594665e-002	-4.719570e-001	-4.908420e-001
4731408063	-7.344155e-002	-4.528611e-001	1.425017e+000	2.415854e-001	6.226550e-002	4.594261e-002	-4.742864e-001	-4.897430e-001
4737657875	-7.486813e-002	-4.531947e-001	1.423184e+000	2.365765e-001	6.223899e-002	4.560955e-002	-4.763643e-001	-4.883162e-001
4743907688	-7.570996e-002	-4.534000e-001	1.418871e+000	2.327968e-001	6.225390e-002	4.560461e-002	-4.786638e-001	-4.873441e-001
4750157500	-7.669887e-002	-4.532788e-001	1.415497e+000	2.267453e-001	6.225811e-002	4.556641e-002	-4.805538e-001	-4.861463e-001
4756407313	-7.787505e-002	-4.530557e-001	1.413808e+000	2.208055e-001	6.228811e-002	4.516608e-002	-4.830335e-001	-4.853096e-001
4762657125	-7.911783e-002	-4.530610e-001	1.410051e+000	2.150479e-001	6.212178e-002	4.540036e-002	-4.854983e-001	-4.839502e-001
4768906938	-8.032095e-002	-4.531161e-001	1.406870e+000	2.093713e-001	6.232747e-002	4.529789e-002	-4.879827e-001	-4.837575e-001
4775156750	-8.119385e-002	-4.535548e-001	1.403374e+000	2.050177e-001	6.213682e-002	4.513637e-002	-4.902149e-001	-4.827350e-001
4781406563	-8.270222e-002	-4.539791e-001	1.400796e+000	2.000011e-001	6.225614e-002	4.520309e-002	-4.923754e-001	-4.827467e-001
4787656375	-8.371196e-002	-4.534197e-001	1.396791e+000	1.940845e-001	6.212755e-002	4.528833e-002	-4.935273e-001	-4.829303e-001
4793906188	-8.482260e-002	-4.537058e-001	1.393806e+000	1.895085e-001	6.209801e-002	4.527475e-002	-4.941651e-001	-4.814713e-001
4800156000	-8.601258e-002	-4.537648e-001	1.390323e+000	1.834911e-001	6.214713e-002	4.522026e-002	-4.957379e-001	-4.805114e-001
4806405813	-8.727737e-002	-4.539805e-001	1.386339e+000	1.796034e-001	6.197276e-002	4.504358e-002	-4.973805e-001	-4.793472e-001
4812655625	-8.824884e-002	-4.541544e-001	1.383972e+000	1.740855e-001	6.202828e-002	4.504513e-002	-4.985136e-001	-4.777689e-001
4818905438	-8.941579e-002	-4.541923e-001	1.381853e+000	1.687303e-001	6.229237e-002	4.512324e-002	-5.006350e-001	-4.768157e-001
4825155250	-9.069854e-002	-4.544345e-001	1.377920e+000	1.635865e-001	6.239001e-002	4.508477e-002	-5.019065e-001	-4.752078e-001
4831405063	-9.231999e-002	-4.543491e-001	1.376942e+000	1.591646e-001	6.229439e-002	4.480311e-002	-5.035821e-001	-4.733499e-001
4837654875	-9.338381e-002	-4.543407e-001	1.372230e+000	1.541097e-001	6.249080e-002	4.479184e-002	-5.058899e-001	-4.717295e-001
4843904688	-9.421519e-002	-4.544966e-001	1.369735e+000	1.499055e-001	6.251140e-002	4.476192e-002	-5.076286e-001	-4.702360e-001
4850154500	-9.530747e-002	-4.545075e-001	1.365173e+000	1.451240e-001	6.246315e-002	4.450802e-002	-5.086341e-001	-4.685615e-001
4856404313	-9.702357e-002	-4.546622e-001	1.362255e+000	1.402392e-001	6.265161e-002	4.443952e-002	-5.113393e-001	-4.667951e-001
4862654125	-9.836019e-002	-4.546479e-001	1.359327e+000	1.347873e-001	6.264959e-002	4.426882e-002	-5.129165e-001	-4.651357e-001
4868903938	-9.965488e-002	-4.545199e-001	1.355893e+000	1.296330e-001	6.287759e-002	4.409912e-002	-5.148626e-001	-4.630490e-001
4875153750	-1.008407e-001	-4.545976e-001	1.352490e+000	1.259630e-001	6.272141e-002	4.409569e-002	-5.175030e-001	-4.626244e-001
4881403563	-1.020242e-001	-4.550458e-001	1.349603e+000	1.211124e-001	6.243000e-002	4.393606e-002	-5.191812e-001	-4.607641e-001
4887653375	-1.032431e-001	-4.543519e-001	1.345138e+000	1.156012e-001	6.262103e-002	4.381056e-002	-5.208526e-001	-4.595195e-001
4893903188	-1.045875e-001	-4.552521e-001	1.342444e+000	1.120681e-001	6.292394e-002	4.361442e-002	-5.237954e-001	-4.580192e-001
4900153000	-1.058547e-001	-4.549089e-001	1.339073e+000	1.074624e-001	6.280338e-002	4.354684e-002	-5.258748e-001	-4.565603e-001
4906402813	-1.072066e-001	-4.548896e-001	1.335912e+000	1.019481e-001	6.276662e-002	4.328578e-002	-5.274469e-001	-4.555353e-001
4912652625	-1.083653e-001	-4.551881e-001	1.332368e+000	9.763438e-002	6.274906e-002	4.316016e-002	-5.298620e-001	-4.546553e-001
4918902438	-1.096779e-001	-4.552958e-001	1.329332e+000	9.301617e-002	6.282424e-002	4.351558e-002	-5.324334e-001	-4.535146e-001
4925152250	-1.109969e-001	-4.556440e-001	1.325905e+000	8.881191e-002	6.299059e-002	4.330953e-002	-5.341222e-001	-4.526785e-001
4931402063	-1.124967e-001	-4.551411e-001	1.322306e+000	8.333328e-002	6.294677e-002	4.332382e-002	-5.365473e-001	-4.520739e-001
4937651875	-1.134699e-001	-4.551524e-001	1.319748e+000	7.956106e-002	6.277196e-002	4.325889e-002	-5.381372e-001	-4.511653e-001
4943901688	-1.150262e-001	-4.557552e-001	1.316907e+000	7.437184e-002	6.287998e-002	4.331688e-002	-5.394718e-001	-4.504513e-001
4950151500	-1.163883e-001	-4.560293e-001	1.313809e+000	7.077242e-002	6.315030e-002	4.311131e-002	-5.405898e-001	-4.495900e-001
4956401313	-1.173402e-001	-4.560570e-001	1.309920e+000	6.601753e-002	6.314910e-002	4.274639e-002	-5.412727e-001	-4.488783e-001
4962651125	-1.189199e-001	-4.558342e-001	1.306626e+000	6.058288e-002	6.308291e-002	4.320989e-002	-5.424608e-001	-4.481810e-001
4968900938	-1.204172e-001	-4.559023e-001	1.303881e+000	5.618520e-002	6.300817e-002	4.298993e-002	-5.431388e-001	-4.466140e-001
4975150750	-1.212609e-001	-4.560395e-001	1.298807e+000	5.247174e-002	6.301278e-002	4.281740e-002	-5.440517e-001	-4.456623e-001
4981400563	-1.227889e-001	-4.567716e-001	1.296029e+000	4.980725e-002	6.319162e-002	4.284417e-002	-5.455962e-001	-4.442446e-001
4987650375	-1.241653e-001	-4.568610e-001	1.293890e+000	4.482768e-002	6.300230e-002	4.232342e-002	-5.472204e-001	-4.430353e-001
4993900188	-1.252575e-001	-4.569511e-001	1.289167e+000	4.187391e-002	6.320345e-002	4.220398e-002	-5.487958e-001	-4.415907e-001
5000150000	-1.267401e-001	-4.566680e-001	1.285449e+000	3.607146e-002	6.326798e-002	4.199826e-002	-5.505969e-001	-4.398996e-001
5006399813	-1.277203e-001	-4.568716e-001	1.282546e+000	3.257792e-002	6.323372e-002	4.195415e-002	-5.523830e-001	-4.384219e-001
5012649625	-1.293629e-001	-4.568195e-001	1.279684e+000	2.866675e-002	6.335179e-002	4.166153e-002	-5.544993e-001	-4.371311e-001
5018899438	-1.304891e-001	-4.571452e-001	1.275207e+000	2.373668e-002	6.300595e-002	4.128498e-002	-5.559402e-001	-4.354501e-001
5025149250	-1.317164e-001	-4.576025e-001	1.271444e+000	2.094806e-002	6.315019e-002	4.121994e-002	-5.578221e-001	-4.331271e-001
5031399063	-1.330530e-001	-4.569891e-001	1.268706e+000	1.650146e-002	6.314273e-002	4.124194e-002	-5.602165e-001	-4.316048e-001
5037648875	-1.343428e-001	-4.570910e-001	1.264893e+000	1.272582e-002	6.290055e-002	4.111895e-002	-5.622652e-001	-4.303776e-001
5043898688	-1.358333e-001	-4.571586e-001	1.261992e+000	8.423164e-003	6.289013e-002	4.111089e-002	-5.639678e-001	-4.287491e-001
5050148500	-1.374186e-001	-4.570596e-001	1.258821e+000	3.860428e-003	6.295835e-002	4.073880e-002	-5.664361e-001	-4.265577e-001
5056398313	-1.383119e-001	-4.574524e-001	1.254486e+000	3.034053e-004	6.279225e-002	4.058618e-002	-5.683859e-001	-4.249345e-001
5062648125	-1.398488e-001	-4.572974e-001	1.252144e+000	-3.052633e-003	6.288650e-002	4.039398e-002	-5.703345e-001	-4.230089e-001
5068897938	-1.410868e-001	-4.572229e-001	1.247728e+000	-7.742497e-003	6.262578e-002	4.072370e-002	-5.725820e-001	-4.220021e-001
5075147750	-1.423955e-001	-4.575446e-001	1.244593e+000	-1.114222e-002	6.303437e-002	4.090622e-002	-5.750703e-001	-4.216892e-001
5081397563	-1.435082e-001	-4.571525e-001	1.241159e+000	-1.613914e-002	6.302808e-002	4.042922e-002	-5.771276e-001	-4.192759e-001
5087647375	-1.451368e-001	-4.578575e-001	1.238193e+000	-1.932949e-002	6.298791e-002	4.052764e-002	-5.791105e-001	-4.194563e-001
5093897188	-1.461115e-001	-4.569844e-001	1.235149e+000	-2.283699e-002	6.280645e-002	4.038599e-002	-5.803180e-001	-4.189699e-001
5100147000	-1.480503e-001	-4.570287e-001	1.232648e+000	-2.776730e-002	6.301375e-002	4.028199e-002	-5.819582e-001	-4.180410e-001
5106396813	-1.485761e-001	-4.575380e-001	1.227522e+000	-2.956141e-002	6.298727e-002	4.036687e-002	-5.832543e-001	-4.170141e-001
5112646625	-1.504131e-001	-4.572490e-001	1.224583e+000	-3.381215e-002	6.292220e-002	4.027916e-002	-5.845754e-001	-4.159206e-001
5118896438	-1.521042e-001	-4.578304e-001	1.220508e+000	-3.800265e-002	6.290188e-002	4.011354e-002	-5.857638e-001	-4.151616e-001
5125146250	-1.531858e-001	-4.572590e-001	1.216079e+000	-4.229405e-002	6.294761e-002	3.987052e-002	-5.862610e-001	-4.139018e-001
5131396063	-1.546905e-001	-4.572592e-001	1.213497e+000	-4.526149e-002	6.291423e-002	3.978210e-002	-5.875836e-001	-4.133618e-001
5137645875	-1.558137e-001	-4.574411e-001	1.209761e+000	-4.980933e-002	6.293551e-002	3.969285e-002	-5.881047e-001	-4.114709e-001
5143895688	-1.575303e-001	-4.576284e-001	1.206096e+000	-5.178267e-002	6.267174e-002	3.956129e-002	-5.895376e-001	-4.103547e-001
5150145500	-1.585224e-001	-4.572219e-001	1.202413e+000	-5.597558e-002	6.270683e-002	3.964602e-002	-5.911134e-001	-4.091128e-001
5156395313	-1.602403e-001	-4.574743e-001	1.199344e+000	-5.931301e-002	6.238730e-002	3.948185e-002	-5.930843e-001	-4.070104e-001
5162645125	-1.617819e-001	-4.577944e-001	1.195456e+000	-6.367081e-002	6.248784e-002	3.936797e-002	-5.941784e-001	-4.053062e-001
5168894938	-1.629030e-001	-4.574163e-001	1.191806e+000	-6.672924e-002	6.231538e-002	3.910965e-002	-5.954483e-001	-4.034788e-001
5175144750	-1.641739e-001	-4.575345e-001	1.187239e+000	-7.041962e-002	6.243299e-002	3.932608e-002	-5.973355e-001	-4.010850e-001
5181394563	-1.664573e-001	-4.577460e-001	1.185248e+000	-7.311355e-002	6.220946e-002	3.916148e-002	-5.993798e-001	-3.995778e-001
5187644375	-1.671923e-001	-4.576258e-001	1.181977e+000	-7.743078e-002	6.228679e-002	3.919255e-002	-6.005502e-001	-3.980521e-001
5193894188	-1.688630e-001	-4.577545e-001	1.178165e+000	-8.060228e-002	6.227810e-002	3.914785e-002	-6.018556e-001	-3.958104e-001
5200144000	-1.700499e-001	-4.575918e-001	1.173867e+000	-8.392779e-002	6.208769e-002	3.895923e-002	-6.045619e-001	-3.939341e-001
5206393813	-1.715598e-001	-4.580820e-001	1.170318e+000	-8.657614e-002	6.201303e-002	3.901326e-002	-6.058100e-001	-3.923162e-001
5212643625	-1.726656e-001	-4.573637e-001	1.167261e+000	-9.014720e-002	6.187679e-002	3.895593e-002	-6.073497e-001	-3.910083e-001
5218893438	-1.741760e-001	-4.579419e-001	1.164698e+000	-9.267320e-002	6.211422e-002	3.877644e-002	-6.090043e-001	-3.887869e-001
5225143250	-1.759197e-001	-4.576864e-001	1.160789e+000	-9.622488e-002	6.199105e-002	3.870945e-002	-6.120049e-001	-3.874866e-001
5231393063	-1.772335e-001	-4.576314e-001	1.157845e+000	-9.966743e-002	6.227673e-002	3.870858e-002	-6.129804e-001	-3.852575e-001
5237642875	-1.782273e-001	-4.578972e-001	1.154354e+000	-1.025818e-001	6.206685e-002	3.882862e-002	-6.152287e-001	-3.839518e-001
5243892688	-1.799594e-001	-4.576535e-001	1.150767e+000	-1.054267e-001	6.204034e-002	3.864138e-002	-6.169456e-001	-3.828911e-001
5250142500	-1.812057e-001	-4.578206e-001	1.148076e+000	-1.089879e-001	6.215699e-002	3.860817e-002	-6.191730e-001	-3.819301e-001
5256392313	-1.826305e-001	-4.576708e-001	1.143507e+000	-1.132146e-001	6.215232e-002	3.882694e-002	-6.206189e-001	-3.805507e-001
5262642125	-1.838575e-001	-4.579909e-001	1.139972e+000	-1.138656e-001	6.208146e-002	3.845295e-002	-6.223122e-001	-3.799295e-001
5268891938	-1.851153e-001	-4.580763e-001	1.136577e+000	-1.175025e-001	6.193450e-002	3.858161e-002	-6.239832e-001	-3.787245e-001
5275141750	-1.864985e-001	-4.573421e-001	1.132123e+000	-1.211160e-001	6.185332e-002	3.860858e-002	-6.250473e-001	-3.778603e-001
5281391563	-1.881360e-001	-4.575950e-001	1.128552e+000	-1.231474e-001	6.179616e-002	3.845156e-002	-6.262038e-001	-3.773172e-001
5287641375	-1.894861e-001	-4.577131e-001	1.125650e+000	-1.269067e-001	6.180817e-002	3.849498e-002	-6.271507e-001	-3.764876e-001
5293891188	-1.907160e-001	-4.576230e-001	1.121510e+000	-1.289524e-001	6.174623e-002	3.835548e-002	-6.271008e-001	-3.760258e-001
5300141000	-1.923682e-001	-4.575612e-001	1.118239e+000	-1.332546e-001	6.178814e-002	3.847087e-002	-6.283653e-001	-3.750457e-001
5306390813	-1.935303e-001	-4.576923e-001	1.114791e+000	-1.354977e-001	6.167961e-002	3.855947e-002	-6.294139e-001	-3.736929e-001
5312640625	-1.950950e-001	-4.573783e-001	1.110676e+000	-1.380726e-001	6.165643e-002	3.839113e-002	-6.303366e-001	-3.716902e-001
5318890438	-1.961353e-001	-4.571619e-001	1.107287e+000	-1.423184e-001	6.146504e-002	3.836712e-002	-6.316064e-001	-3.692878e-001
5325140250	-1.979780e-001	-4.573440e-001	1.103882e+000	-1.447789e-001	6.177755e-002	3.816588e-002	-6.335423e-001	-3.676239e-001
5331390063	-1.993500e-001	-4.570300e-001	1.100444e+000	-1.471649e-001	6.161062e-002	3.810436e-002	-6.348399e-001	-3.652150e-001
5337639875	-2.010344e-001	-4.571600e-001	1.097662e+000	-1.498511e-001	6.146350e-002	3.835671e-002	-6.362400e-001	-3.635107e-001
5343889688	-2.024683e-001	-4.570263e-001	1.093658e+000	-1.533669e-001	6.164764e-002	3.820924e-002	-6.371197e-001	-3.614090e-001
5350139500	-2.033995e-001	-4.568250e-001	1.089574e+000	-1.555760e-001	6.176399e-002	3.842983e-002	-6.382973e-001	-3.594541e-001
5356389313	-2.053221e-001	-4.565200e-001	1.087366e+000	-1.593437e-001	6.159946e-002	3.824764e-002	-6.396922e-001	-3.575353e-001
5362639125	-2.067531e-001	-4.567171e-001	1.083971e+000	-1.609976e-001	6.181234e-002	3.819014e-002	-6.404156e-001	-3.553602e-001
5368888938	-2.076498e-001	-4.567754e-001	1.080081e+000	-1.631341e-001	6.181711e-002	3.843746e-002	-6.419234e-001	-3.542078e-001
5375138750	-2.097618e-001	-4.560787e-001	1.076641e+000	-1.665931e-001	6.190156e-002	3.799239e-002	-6.438140e-001	-3.525889e-001
5381388563	-2.108920e-001	-4.563057e-001	1.072835e+000	-1.693854e-001	6.168659e-002	3.806954e-002	-6.453043e-001	-3.508319e-001
5387638375	-2.125747e-001	-4.560029e-001	1.070471e+000	-1.719111e-001	6.184254e-002	3.784706e-002	-6.474084e-001	-3.489496e-001
5393888188	-2.136254e-001	-4.558461e-001	1.066137e+000	-1.746341e-001	6.196094e-002	3.760300e-002	-6.483629e-001	-3.470048e-001
5400138000	-2.153558e-001	-4.558686e-001	1.063375e+000	-1.765399e-001	6.226489e-002	3.792938e-002	-6.503948e-001	-3.453221e-001
5406387813	-2.163143e-001	-4.559971e-001	1.058795e+000	-1.800216e-001	6.227111e-002	3.757579e-002	-6.529015e-001	-3.438123e-001
5412637625	-2.177823e-001	-4.555293e-001	1.056480e+000	-1.825921e-001	6.203606e-002	3.754882e-002	-6.550427e-001	-3.430116e-001
5418887438	-2.193918e-001	-4.559941e-001	1.051582e+000	-1.847023e-001	6.223100e-002	3.751782e-002	-6.562070e-001	-3.422201e-001
5425137250	-2.205725e-001	-4.556159e-001	1.049040e+000	-1.880232e-001	6.217783e-002	3.725737e-002	-6.578941e-001	-3.408239e-001
5431387063	-2.221321e-001	-4.555075e-001	1.045252e+000	-1.896610e-001	6.218399e-002	3.714837e-002	-6.598708e-001	-3.394826e-001
5437636875	-2.234450e-001	-4.552639e-001	1.042054e+000	-1.940920e-001	6.264159e-002	3.699898e-002	-6.606102e-001	-3.386626e-001
5443886688	-2.245072e-001	-4.553691e-001	1.037539e+000	-1.958246e-001	6.243918e-002	3.691412e-002	-6.622980e-001	-3.377809e-001
5450136500	-2.265084e-001	-4.553537e-001	1.035423e+000	-1.978775e-001	6.191419e-002	3.672804e-002	-6.635016e-001	-3.364195e-001
5456386313	-2.276011e-001	-4.551812e-001	1.030490e+000	-2.001990e-001	6.191290e-002	3.641726e-002	-6.631920e-001	-3.355490e-001
5462636125	-2.291131e-001	-4.551607e-001	1.028814e+000	-2.023845e-001	6.185646e-002	3.653306e-002	-6.637488e-001	-3.347634e-001
5468885938	-2.306312e-001	-4.553651e-001	1.023609e+000	-2.054791e-001	6.186586e-002	3.659799e-002	-6.648775e-001	-3.337050e-001
5475135750	-2.317398e-001	-4.553203e-001	1.021238e+000	-2.072729e-001	6.152829e-002	3.651418e-002	-6.654289e-001	-3.319378e-001
5481385563	-2.337630e-001	-4.547681e-001	1.017088e+000	-2.097100e-001	6.171518e-002	3.635407e-002	-6.666957e-001	-3.298671e-001
5487635375	-2.348634e-001	-4.547695e-001	1.013550e+000	-2.113897e-001	6.168834e-002	3.634904e-002	-6.681417e-001	-3.280611e-001
5493885188	-2.361248e-001	-4.551234e-001	1.010414e+000	-2.139184e-001	6.151057e-002	3.604864e-002	-6.693848e-001	-3.260852e-001
5500135000	-2.374642e-001	-4.549425e-001	1.006518e+000	-2.164084e-001	6.149004e-002	3.613035e-002	-6.705192e-001	-3.240742e-001
5506384813	-2.391826e-001	-4.550435e-001	1.002738e+000	-2.174514e-001	6.148783e-002	3.618012e-002	-6.710462e-001	-3.220709e-001
5512634625	-2.403846e-001	-4.547189e-001	1.000193e+000	-2.202255e-001	6.133671e-002	3.594369e-002	-6.726070e-001	-3.197339e-001
5518884438	-2.416313e-001	-4.548897e-001	9.954671e-001	-2.218897e-001	6.119218e-002	3.576526e-002	-6.736625e-001	-3.181430e-001
5525134250	-2.436266e-001	-4.546645e-001	9.925694e-001	-2.244131e-001	6.122032e-002	3.596656e-002	-6.746292e-001	-3.163721e-001
5531384063	-2.449583e-001	-4.547645e-001	9.897775e-001	-2.280183e-001	6.100956e-002	3.576787e-002	-6.760804e-001	-3.143863e-001
5537633875	-2.467079e-001	-4.543018e-001	9.863263e-001	-2.289965e-001	6.082636e-002	3.558176e-002	-6.779183e-001	-3.126946e-001
5543883688	-2.481450e-001	-4.544146e-001	9.823688e-001	-2.309374e-001	6.086132e-002	3.560381e-002	-6.794627e-001	-3.105844e-001
5550133500	-2.494154e-001	-4.540254e-001	9.787407e-001	-2.330941e-001	6.078968e-002	3.539970e-002	-6.802717e-001	-3.082548e-001
5556383313	-2.513719e-001	-4.536026e-001	9.751829e-001	-2.350640e-001	6.074164e-002	3.554493e-002	-6.825459e-001	-3.067619e-001
5562633125	-2.529657e-001	-4.536475e-001	9.724598e-001	-2.375477e-001	6.064560e-002	3.564605e-002	-6.844027e-001	-3.049094e-001
5568882938	-2.544616e-001	-4.541669e-001	9.683626e-001	-2.397828e-001	6.060688e-002	3.543815e-002	-6.855276e-001	-3.030576e-001
5575132750	-2.562203e-001	-4.535502e-001	9.652967e-001	-2.426504e-001	6.053161e-002	3.535894e-002	-6.871331e-001	-3.013909e-001
5581382563	-2.571701e-001	-4.534124e-001	9.608182e-001	-2.442287e-001	6.004247e-002	3.555292e-002	-6.892202e-001	-2.999960e-001
5587632375	-2.594192e-001	-4.532786e-001	9.578346e-001	-2.464384e-001	6.009816e-002	3.558047e-002	-6.900892e-001	-2.990011e-001
5593882188	-2.607837e-001	-4.528565e-001	9.553526e-001	-2.489892e-001	5.998545e-002	3.557464e-002	-6.916916e-001	-2.979841e-001
5600132000	-2.623514e-001	-4.529538e-001	9.505666e-001	-2.494469e-001	5.974834e-002	3.535344e-002	-6.920209e-001	-2.971690e-001
5606381813	-2.639226e-001	-4.525838e-001	9.474885e-001	-2.524575e-001	6.008398e-002	3.579429e-002	-6.929781e-001	-2.964931e-001
5612631625	-2.654354e-001	-4.528301e-001	9.443824e-001	-2.542206e-001	5.991408e-002	3.555298e-002	-6.937626e-001	-2.951796e-001
5618881438	-2.667661e-001	-4.524520e-001	9.408055e-001	-2.565978e-001	5.972209e-002	3.574534e-002	-6.941806e-001	-2.937036e-001
5625131250	-2.686757e-001	-4.522605e-001	9.376879e-001	-2.572645e-001	5.969606e-002	3.570271e-002	-6.944307e-001	-2.930853e-001
5631381063	-2.700009e-001	-4.522167e-001	9.337590e-001	-2.585316e-001	5.960245e-002	3.565137e-002	-6.957616e-001	-2.915431e-001
5637630875	-2.714786e-001	-4.524431e-001	9.306915e-001	-2.605973e-001	5.954327e-002	3.599506e-002	-6.958966e-001	-2.897764e-001
5643880688	-2.729156e-001	-4.518985e-001	9.260632e-001	-2.629605e-001	5.956888e-002	3.586886e-002	-6.968920e-001	-2.886935e-001
5650130500	-2.747875e-001	-4.517707e-001	9.238839e-001	-2.642012e-001	5.940889e-002	3.616468e-002	-6.978690e-001	-2.858914e-001
5656380313	-2.759856e-001	-4.518080e-001	9.199896e-001	-2.661695e-001	5.935973e-002	3.581138e-002	-6.985092e-001	-2.844568e-001
5662630125	-2.779157e-001	-4.518022e-001	9.166504e-001	-2.667207e-001	5.934514e-002	3.586799e-002	-6.994179e-001	-2.825775e-001
5668879938	-2.792948e-001	-4.512399e-001	9.134758e-001	-2.682076e-001	5.933832e-002	3.601091e-002	-7.001666e-001	-2.804391e-001
5675129750	-2.803574e-001	-4.511444e-001	9.092972e-001	-2.709965e-001	5.934458e-002	3.577666e-002	-7.012703e-001	-2.788834e-001
5681379563	-2.818820e-001	-4.510112e-001	9.059548e-001	-2.720294e-001	5.933813e-002	3.612406e-002	-7.018385e-001	-2.765356e-001
5687629375	-2.838535e-001	-4.511384e-001	9.021375e-001	-2.729667e-001	5.921024e-002	3.609819e-002	-7.026755e-001	-2.750134e-001
5693879188	-2.851760e-001	-4.507188e-001	8.985661e-001	-2.747900e-001	5.944105e-002	3.595499e-002	-7.038827e-001	-2.728361e-001
5700129000	-2.867975e-001	-4.508196e-001	8.955355e-001	-2.775497e-001	5.950220e-002	3.610922e-002	-7.051162e-001	-2.708459e-001
5706378813	-2.880507e-001	-4.504484e-001	8.919736e-001	-2.779699e-001	5.933209e-002	3.590892e-002	-7.065388e-001	-2.693066e-001
5712628625	-2.897218e-001	-4.497652e-001	8.891096e-001	-2.804772e-001	5.918505e-002	3.596585e-002	-7.080140e-001	-2.672431e-001
5718878438	-2.910487e-001	-4.499894e-001	8.858028e-001	-2.814485e-001	5.953327e-002	3.600967e-002	-7.091352e-001	-2.652056e-001
5725128250	-2.929418e-001	-4.497462e-001	8.829111e-001	-2.833844e-001	5.920879e-002	3.607244e-002	-7.108876e-001	-2.636229e-001
5731378063	-2.942313e-001	-4.494282e-001	8.793067e-001	-2.853412e-001	5.915609e-002	3.598969e-002	-7.122239e-001	-2.616921e-001
5737627875	-2.955928e-001	-4.488144e-001	8.770221e-001	-2.868284e-001	5.931248e-002	3.601332e-002	-7.134217e-001	-2.605539e-001
5743877688	-2.971711e-001	-4.483432e-001	8.734680e-001	-2.883431e-001	5.927245e-002	3.602446e-002	-7.153980e-001	-2.586422e-001
5750127500	-2.988004e-001	-4.484603e-001	8.703820e-001	-2.905761e-001	5.916215e-002	3.604156e-002	-7.166555e-001	-2.575952e-001
5756377313	-3.002292e-001	-4.485593e-001	8.657481e-001	-2.918616e-001	5.896170e-002	3.630302e-002	-7.169750e-001	-2.565748e-001
5762627125	-3.016651e-001	-4.482185e-001	8.629076e-001	-2.926646e-001	5.884152e-002	3.634543e-002	-7.179292e-001	-2.563570e-001
5768876938	-3.034034e-001	-4.476272e-001	8.596411e-001	-2.938941e-001	5.870615e-002	3.640350e-002	-7.185717e-001	-2.547604e-001
5775126750	-3.043020e-001	-4.477367e-001	8.565213e-001	-2.954816e-001	5.892711e-002	3.635781e-002	-7.186672e-001	-2.534695e-001
5781376563	-3.062137e-001	-4.469747e-001	8.524806e-001	-2.955852e-001	5.872799e-002	3.654711e-002	-7.189508e-001	-2.522697e-001
5787626375	-3.079381e-001	-4.469376e-001	8.496577e-001	-2.978582e-001	5.868865e-002	3.647968e-002	-7.197873e-001	-2.511295e-001
5793876188	-3.090292e-001	-4.465410e-001	8.455258e-001	-2.983883e-001	5.869886e-002	3.671749e-002	-7.204080e-001	-2.493564e-001
5800126000	-3.103650e-001	-4.462452e-001	8.420717e-001	-3.001171e-001	5.856073e-002	3.682216e-002	-7.212803e-001	-2.482700e-001
5806375813	-3.121952e-001	-4.461496e-001	8.388676e-001	-3.009493e-001	5.872270e-002	3.687196e-002	-7.216543e-001	-2.467188e-001
5812625625	-3.135987e-001	-4.458531e-001	8.353791e-001	-3.020118e-001	5.873319e-002	3.687850e-002	-7.225058e-001	-2.446811e-001
5818875438	-3.151322e-001	-4.452734e-001	8.329500e-001	-3.038516e-001	5.885098e-002	3.672367e-002	-7.232618e-001	-2.429171e-001
5825125250	-3.170063e-001	-4.452454e-001	8.292487e-001	-3.042209e-001	5.901081e-002	3.669108e-002	-7.247423e-001	-2.408881e-001
5831375063	-3.185221e-001	-4.445382e-001	8.265623e-001	-3.063894e-001	5.889818e-002	3.678553e-002	-7.250095e-001	-2.393429e-001
5837624875	-3.199723e-001	-4.446818e-001	8.220482e-001	-3.085245e-001	5.885071e-002	3.689474e-002	-7.261201e-001	-2.375561e-001
5843874688	-3.215138e-001	-4.438991e-001	8.189071e-001	-3.088029e-001	5.869782e-002	3.671616e-002	-7.268904e-001	-2.361483e-001
5850124500	-3.231864e-001	-4.439868e-001	8.162955e-001	-3.098631e-001	5.874216e-002	3.678890e-002	-7.278075e-001	-2.336007e-001
5856374313	-3.251994e-001	-4.436227e-001	8.122582e-001	-3.109078e-001	5.875409e-002	3.679037e-002	-7.286408e-001	-2.321549e-001
5862624125	-3.261547e-001	-4.431121e-001	8.095340e-001	-3.121555e-001	5.860567e-002	3.716838e-002	-7.291029e-001	-2.300387e-001
5868873938	-3.273253e-001	-4.427079e-001	8.072084e-001	-3.139394e-001	5.841420e-002	3.715113e-002	-7.305465e-001	-2.284342e-001
5875123750	-3.294153e-001	-4.425398e-001	8.035844e-001	-3.138861e-001	5.861985e-002	3.711492e-002	-7.314452e-001	-2.264750e-001
5881373563	-3.306337e-001	-4.424955e-001	7.998813e-001	-3.153957e-001	5.883550e-002	3.716911e-002	-7.327670e-001	-2.242387e-001
5887623375	-3.322774e-001	-4.425027e-001	7.967126e-001	-3.156556e-001	5.859646e-002	3.759419e-002	-7.340211e-001	-2.223346e-001
5893873188	-3.336187e-001	-4.418702e-001	7.945806e-001	-3.171889e-001	5.866192e-002	3.753325e-002	-7.347764e-001	-2.209581e-001
5900123000	-3.350507e-001	-4.417061e-001	7.907707e-001	-3.182721e-001	5.909102e-002	3.772407e-002	-7.364153e-001	-2.196673e-001
5906372813	-3.366172e-001	-4.416533e-001	7.877644e-001	-3.194512e-001	5.876963e-002	3.766141e-002	-7.377185e-001	-2.182031e-001
5912622625	-3.379864e-001	-4.412083e-001	7.840460e-001	-3.203343e-001	5.873962e-002	3.770375e-002	-7.388787e-001	-2.169517e-001
5918872438	-3.396616e-001	-4.408208e-001	7.810137e-001	-3.211964e-001	5.875549e-002	3.778402e-002	-7.390913e-001	-2.161772e-001
5925122250	-3.409144e-001	-4.407846e-001	7.777121e-001	-3.221180e-001	5.857831e-002	3.797003e-002	-7.396869e-001	-2.151735e-001
5931372063	-3.422523e-001	-4.402008e-001	7.748798e-001	-3.235242e-001	5.871059e-002	3.812034e-002	-7.399626e-001	-2.139262e-001
5937621875	-3.436009e-001	-4.401170e-001	7.711698e-001	-3.240483e-001	5.874450e-002	3.841777e-002	-7.405927e-001	-2.130380e-001
5943871688	-3.450425e-001	-4.399935e-001	7.684376e-001	-3.247080e-001	5.881064e-002	3.827570e-002	-7.412442e-001	-2.116694e-001
5950121500	-3.465089e-001	-4.391956e-001	7.660748e-001	-3.254609e-001	5.886053e-002	3.848073e-002	-7.414991e-001	-2.104407e-001
5956371313	-3.480019e-001	-4.386876e-001	7.624378e-001	-3.265675e-001	5.900596e-002	3.861577e-002	-7.425059e-001	-2.086478e-001
5962621125	-3.497851e-001	-4.389861e-001	7.584445e-001	-3.275109e-001	5.882955e-002	3.871601e-002	-7.432124e-001	-2.070242e-001
5968870938	-3.510908e-001	-4.383244e-001	7.555313e-001	-3.279810e-001	5.872685e-002	3.874382e-002	-7.436271e-001	-2.051952e-001
5975120750	-3.525355e-001	-4.381066e-001	7.524526e-001	-3.293735e-001	5.895793e-002	3.878350e-002	-7.441672e-001	-2.031803e-001
5981370563	-3.538414e-001	-4.376420e-001	7.497158e-001	-3.291783e-001	5.915278e-002	3.902080e-002	-7.452511e-001	-2.012550e-001
5987620375	-3.554190e-001	-4.371445e-001	7.459301e-001	-3.298044e-001	5.923191e-002	3.911937e-002	-7.454873e-001	-1.994302e-001
5993870188	-3.567449e-001	-4.370996e-001	7.430103e-001	-3.309171e-001	5.933167e-002	3.915241e-002	-7.458974e-001	-1.973836e-001
6000120000	-3.583556e-001	-4.364794e-001	7.410516e-001	-3.312066e-001	5.929220e-002	3.922298e-002	-7.466915e-001	-1.954414e-001
6006369813	-3.595192e-001	-4.363352e-001	7.373674e-001	-3.314727e-001	5.941599e-002	3.919583e-002	-7.467787e-001	-1.939757e-001
6012619625	-3.609733e-001	-4.357707e-001	7.348798e-001	-3.327492e-001	5.940108e-002	3.944712e-002	-7.477245e-001	-1.917757e-001
6018869438	-3.623905e-001	-4.356100e-001	7.313901e-001	-3.326912e-001	5.948480e-002	3.973129e-002	-7.477508e-001	-1.902438e-001
6025119250	-3.640134e-001	-4.354226e-001	7.286449e-001	-3.343566e-001	5.959315e-002	3.999605e-002	-7.487571e-001	-1.884679e-001
6031369063	-3.652742e-001	-4.345504e-001	7.261500e-001	-3.346752e-001	6.008944e-002	4.024617e-002	-7.493231e-001	-1.865991e-001
6037618875	-3.667333e-001	-4.339263e-001	7.231451e-001	-3.358018e-001	6.001222e-002	4.043397e-002	-7.499893e-001	-1.845266e-001
6043868688	-3.682573e-001	-4.338729e-001	7.204239e-001	-3.358742e-001	6.024340e-002	4.045064e-002	-7.507554e-001	-1.830677e-001
6050118500	-3.696357e-001	-4.333605e-001	7.172376e-001	-3.364427e-001	6.066808e-002	4.057121e-002	-7.516653e-001	-1.809928e-001
6056368313	-3.712537e-001	-4.328938e-001	7.147454e-001	-3.367867e-001	6.071701e-002	4.045416e-002	-7.521535e-001	-1.797913e-001
6062618125	-3.724448e-001	-4.327899e-001	7.112378e-001	-3.372261e-001	6.103123e-002	4.064466e-002	-7.532648e-001	-1.781228e-001
6068867938	-3.740513e-001	-4.323628e-001	7.084836e-001	-3.383893e-001	6.100357e-002	4.059488e-002	-7.541258e-001	-1.775593e-001
6075117750	-3.752392e-001	-4.317276e-001	7.055594e-001	-3.389311e-001	6.127714e-002	4.070666e-002	-7.547475e-001	-1.764480e-001
6081367563	-3.769534e-001	-4.314554e-001	7.021836e-001	-3.403927e-001	6.176127e-002	4.043021e-002	-7.550774e-001	-1.752880e-001
6087617375	-3.783822e-001	-4.312185e-001	6.988882e-001	-3.403172e-001	6.182844e-002	4.060149e-002	-7.549969e-001	-1.744201e-001
6093867188	-3.796730e-001	-4.308400e-001	6.967056e-001	-3.413787e-001	6.183821e-002	4.075363e-002	-7.553851e-001	-1.731844e-001
6100117000	-3.807571e-001	-4.305137e-001	6.941543e-001	-3.410539e-001	6.196825e-002	4.073875e-002	-7.556539e-001	-1.722174e-001
6106366813	-3.822957e-001	-4.301690e-001	6.906506e-001	-3.419629e-001	6.226448e-002	4.074437e-002	-7.563054e-001	-1.708743e-001
6112616625	-3.835503e-001	-4.298369e-001	6.880739e-001	-3.427816e-001	6.237835e-002	4.085952e-002	-7.562869e-001	-1.694034e-001
6118866438	-3.851623e-001	-4.295814e-001	6.850183e-001	-3.427476e-001	6.244976e-002	4.106615e-002	-7.567324e-001	-1.678244e-001
6125116250	-3.864666e-001	-4.289980e-001	6.823179e-001	-3.434813e-001	6.262586e-002	4.144384e-002	-7.570475e-001	-1.659912e-001
6131366063	-3.878307e-001	-4.287740e-001	6.793139e-001	-3.438159e-001	6.265841e-002	4.134448e-002	-7.575671e-001	-1.644900e-001
6137615875	-3.892880e-001	-4.284222e-001	6.769557e-001	-3.437997e-001	6.306073e-002	4.147422e-002	-7.582987e-001	-1.623455e-001
6143865688	-3.903133e-001	-4.277800e-001	6.739724e-001	-3.439663e-001	6.323480e-002	4.152430e-002	-7.581099e-001	-1.604432e-001
6150115500	-3.918043e-001	-4.273041e-001	6.713999e-001	-3.447141e-001	6.370151e-002	4.170969e-002	-7.583696e-001	-1.586217e-001
6156365313	-3.931272e-001	-4.272076e-001	6.680733e-001	-3.442164e-001	6.405301e-002	4.184099e-002	-7.585188e-001	-1.571392e-001
6162615125	-3.940727e-001	-4.266945e-001	6.668733e-001	-3.451134e-001	6.445681e-002	4.205270e-002	-7.582767e-001	-1.552658e-001
6168864938	-3.952340e-001	-4.261077e-001	6.633172e-001	-3.451418e-001	6.482272e-002	4.192869e-002	-7.582619e-001	-1.536613e-001
6175114750	-3.966607e-001	-4.257009e-001	6.608719e-001	-3.461427e-001	6.554943e-002	4.178794e-002	-7.581531e-001	-1.520892e-001
6181364563	-3.978428e-001	-4.252386e-001	6.582609e-001	-3.456647e-001	6.574623e-002	4.157265e-002	-7.586633e-001	-1.508790e-001
6187614375	-3.989903e-001	-4.251704e-001	6.554638e-001	-3.464070e-001	6.635344e-002	4.151793e-002	-7.584177e-001	-1.495632e-001
6193864188	-4.000286e-001	-4.247589e-001	6.529767e-001	-3.466771e-001	6.686597e-002	4.132911e-002	-7.589375e-001	-1.479913e-001
6200114000	-4.011771e-001	-4.245659e-001	6.500682e-001	-3.467977e-001	6.718679e-002	4.114236e-002	-7.586155e-001	-1.470247e-001
6206363813	-4.022432e-001	-4.244290e-001	6.476086e-001	-3.469995e-001	6.753615e-002	4.052879e-002	-7.592043e-001	-1.454768e-001
6212613625	-4.032243e-001	-4.238710e-001	6.451116e-001	-3.474232e-001	6.772348e-002	4.012540e-002	-7.596926e-001	-1.446702e-001
6218863438	-4.047846e-001	-4.238831e-001	6.424043e-001	-3.487338e-001	6.814847e-002	4.007381e-002	-7.606202e-001	-1.437011e-001
6225113250	-4.060822e-001	-4.232866e-001	6.394283e-001	-3.490493e-001	6.804669e-002	3.954050e-002	-7.614279e-001	-1.431009e-001
6231363063	-4.075133e-001	-4.229552e-001	6.372466e-001	-3.495108e-001	6.807738e-002	3.912328e-002	-7.623888e-001	-1.429969e-001
6237612875	-4.090379e-001	-4.231928e-001	6.345191e-001	-3.493452e-001	6.782688e-002	3.910885e-002	-7.626944e-001	-1.417726e-001
6243862688	-4.099622e-001	-4.223458e-001	6.319989e-001	-3.499001e-001	6.747097e-002	3.868758e-002	-7.635663e-001	-1.413134e-001
6250112500	-4.115501e-001	-4.217060e-001	6.290453e-001	-3.500412e-001	6.743751e-002	3.931962e-002	-7.643904e-001	-1.397313e-001
6256362313	-4.128374e-001	-4.215997e-001	6.266184e-001	-3.507543e-001	6.772309e-002	3.936684e-002	-7.649161e-001	-1.386274e-001
6262612125	-4.140955e-001	-4.210678e-001	6.240864e-001	-3.508260e-001	6.767466e-002	3.958188e-002	-7.649967e-001	-1.372777e-001
6268861938	-4.154339e-001	-4.207668e-001	6.214717e-001	-3.507311e-001	6.763820e-002	3.961671e-002	-7.652999e-001	-1.357055e-001
6275111750	-4.164457e-001	-4.198185e-001	6.191255e-001	-3.508872e-001	6.798176e-002	3.994628e-002	-7.650651e-001	-1.335931e-001
6281361563	-4.180011e-001	-4.197082e-001	6.162136e-001	-3.514654e-001	6.851269e-002	3.984100e-002	-7.650606e-001	-1.326208e-001
6287611375	-4.192683e-001	-4.188497e-001	6.131215e-001	-3.510831e-001	6.897557e-002	4.010642e-002	-7.652145e-001	-1.306065e-001
6293861188	-4.202266e-001	-4.183206e-001	6.113475e-001	-3.506319e-001	6.958725e-002	4.038689e-002	-7.648277e-001	-1.289151e-001
6300111000	-4.213364e-001	-4.178785e-001	6.087136e-001	-3.511429e-001	7.018578e-002	4.027254e-002	-7.645229e-001	-1.272396e-001
6306360813	-4.222769e-001	-4.178781e-001	6.072958e-001	-3.510245e-001	7.077413e-002	4.023438e-002	-7.637947e-001	-1.260789e-001
6312610625	-4.231944e-001	-4.169732e-001	6.044184e-001	-3.507801e-001	7.147965e-002	3.988343e-002	-7.636778e-001	-1.251334e-001
6318860438	-4.244740e-001	-4.164851e-001	6.023722e-001	-3.509085e-001	7.196842e-002	3.951106e-002	-7.636395e-001	-1.240258e-001
6325110250	-4.254170e-001	-4.164969e-001	5.996424e-001	-3.520887e-001	7.223990e-002	3.893217e-002	-7.632530e-001	-1.234561e-001
6331360063	-4.265132e-001	-4.162884e-001	5.974952e-001	-3.516936e-001	7.299506e-002	3.851708e-002	-7.633584e-001	-1.223937e-001
6337609875	-4.275208e-001	-4.159851e-001	5.948963e-001	-3.516627e-001	7.287255e-002	3.831983e-002	-7.632330e-001	-1.218852e-001
6343859688	-4.284501e-001	-4.153275e-001	5.931848e-001	-3.524670e-001	7.314868e-002	3.764251e-002	-7.639391e-001	-1.215643e-001
6350109500	-4.295810e-001	-4.151613e-001	5.909605e-001	-3.520218e-001	7.316007e-002	3.751010e-002	-7.643131e-001	-1.200593e-001
6356359313	-4.308643e-001	-4.152370e-001	5.881390e-001	-3.521910e-001	7.342408e-002	3.731618e-002	-7.646641e-001	-1.190308e-001
6362609125	-4.320898e-001	-4.145110e-001	5.857207e-001	-3.527488e-001	7.354598e-002	3.695967e-002	-7.651313e-001	-1.178002e-001
6368858938	-4.333621e-001	-4.144648e-001	5.838151e-001	-3.531326e-001	7.398007e-002	3.667668e-002	-7.655580e-001	-1.168086e-001
6375108750	-4.343058e-001	-4.141174e-001	5.813765e-001	-3.536037e-001	7.402434e-002	3.657392e-002	-7.657760e-001	-1.159238e-001
6381358563	-4.354770e-001	-4.136594e-001	5.788869e-001	-3.526537e-001	7.441264e-002	3.643712e-002	-7.665631e-001	-1.147625e-001
6387608375	-4.362046e-001	-4.135218e-001	5.767039e-001	-3.529333e-001	7.435975e-002	3.623737e-002	-7.669337e-001	-1.139323e-001
6393858188	-4.375130e-001	-4.128424e-001	5.744287e-001	-3.532111e-001	7.471018e-002	3.630722e-002	-7.674316e-001	-1.134155e-001
6400108000	-4.386348e-001	-4.123573e-001	5.721092e-001	-3.526549e-001	7.530348e-002	3.631588e-002	-7.676497e-001	-1.121585e-001
6406357813	-4.394846e-001	-4.117240e-001	5.698471e-001	-3.526643e-001	7.582677e-002	3.608056e-002	-7.673167e-001	-1.108765e-001
6412607625	-4.402182e-001	-4.114811e-001	5.677611e-001	-3.528464e-001	7.654756e-002	3.614161e-002	-7.671268e-001	-1.099169e-001
6418857438	-4.413406e-001	-4.111498e-001	5.659596e-001	-3.528515e-001	7.721958e-002	3.586352e-002	-7.668252e-001	-1.091929e-001
6425107250	-4.423182e-001	-4.104943e-001	5.636390e-001	-3.529127e-001	7.786803e-002	3.553531e-002	-7.662917e-001	-1.082076e-001
6431357063	-4.432924e-001	-4.099745e-001	5.619996e-001	-3.533769e-001	7.851458e-002	3.508287e-002	-7.657425e-001	-1.075617e-001
6437606875	-4.433006e-001	-4.096885e-001	5.596363e-001	-3.526295e-001	7.962525e-002	3.443096e-002	-7.651545e-001	-1.069732e-001
6443856688	-4.442732e-001	-4.091829e-001	5.579852e-001	-3.530217e-001	8.022539e-002	3.358174e-002	-7.647292e-001	-1.067363e-001
6450106500	-4.450326e-001	-4.093705e-001	5.563825e-001	-3.533277e-001	8.119477e-002	3.278012e-002	-7.642301e-001	-1.064392e-001
6456356313	-4.457373e-001	-4.090734e-001	5.543135e-001	-3.539648e-001	8.182400e-002	3.164046e-002	-7.637457e-001	-1.064598e-001
6462606125	-4.462922e-001	-4.091975e-001	5.529600e-001	-3.545644e-001	8.250466e-002	3.056651e-002	-7.637255e-001	-1.064483e-001
6468855938	-4.470389e-001	-4.092594e-001	5.513889e-001	-3.550896e-001	8.286136e-002	2.942560e-002	-7.634809e-001	-1.069507e-001
6475105750	-4.477590e-001	-4.094200e-001	5.488704e-001	-3.551275e-001	8.323496e-002	2.779637e-002	-7.634687e-001	-1.072818e-001
6481355563	-4.487297e-001	-4.095602e-001	5.469892e-001	-3.560708e-001	8.371781e-002	2.635107e-002	-7.639255e-001	-1.076740e-001
6487605375	-4.492399e-001	-4.095940e-001	5.448235e-001	-3.566843e-001	8.320699e-002	2.476001e-002	-7.648485e-001	-1.082003e-001
6493855188	-4.508731e-001	-4.100782e-001	5.422979e-001	-3.576475e-001	8.312159e-002	2.330794e-002	-7.659599e-001	-1.085543e-001
6500105000	-4.516146e-001	-4.100043e-001	5.404421e-001	-3.583513e-001	8.273512e-002	2.199793e-002	-7.669827e-001	-1.088949e-001
6506354813	-4.528164e-001	-4.105688e-001	5.380295e-001	-3.589875e-001	8.176757e-002	2.086137e-002	-7.683441e-001	-1.088888e-001
6512604625	-4.541046e-001	-4.108372e-001	5.354603e-001	-3.590144e-001	8.085292e-002	2.000851e-002	-7.696675e-001	-1.085566e-001
6518854438	-4.558129e-001	-4.110685e-001	5.331657e-001	-3.595850e-001	7.996159e-002	1.907322e-002	-7.713601e-001	-1.081504e-001
6525104250	-4.568367e-001	-4.109376e-001	5.303568e-001	-3.600134e-001	7.918503e-002	1.876482e-002	-7.733355e-001	-1.071323e-001
6531354063	-4.586517e-001	-4.108547e-001	5.285841e-001	-3.608084e-001	7.859118e-002	1.807981e-002	-7.744609e-001	-1.065117e-001
6537603875	-4.597706e-001	-4.109043e-001	5.260507e-001	-3.609550e-001	7.814598e-002	1.797493e-002	-7.751727e-001	-1.056010e-001
6543853688	-4.612001e-001	-4.104389e-001	5.236732e-001	-3.608680e-001	7.774420e-002	1.779634e-002	-7.763725e-001	-1.044794e-001
6550103500	-4.621860e-001	-4.100018e-001	5.215293e-001	-3.607622e-001	7.750774e-002	1.742511e-002	-7.772313e-001	-1.038781e-001
6556353313	-4.631117e-001	-4.099088e-001	5.193558e-001	-3.612019e-001	7.731846e-002	1.684035e-002	-7.778795e-001	-1.033061e-001
6562603125	-4.641416e-001	-4.099860e-001	5.173485e-001	-3.611081e-001	7.755670e-002	1.652562e-002	-7.781606e-001	-1.028711e-001
6568852938	-4.651054e-001	-4.096764e-001	5.149907e-001	-3.614540e-001	7.735930e-002	1.556103e-002	-7.791661e-001	-1.022186e-001
6575102750	-4.661103e-001	-4.098152e-001	5.124170e-001	-3.620041e-001	7.696508e-002	1.464972e-002	-7.798618e-001	-1.021394e-001
6581352563	-4.674302e-001	-4.104413e-001	5.100972e-001	-3.626345e-001	7.669262e-002	1.353618e-002	-7.804099e-001	-1.020876e-001
6587602375	-4.686051e-001	-4.101611e-001	5.080657e-001	-3.629555e-001	7.608595e-002	1.262164e-002	-7.812631e-001	-1.016361e-001
6593852188	-4.694166e-001	-4.106478e-001	5.056953e-001	-3.625908e-001	7.574519e-002	1.197793e-002	-7.825069e-001	-1.016453e-001
6600102000	-4.708893e-001	-4.108930e-001	5.028533e-001	-3.633233e-001	7.461004e-002	1.076602e-002	-7.836430e-001	-1.012128e-001
6606351813	-4.722041e-001	-4.111760e-001	5.004259e-001	-3.638974e-001	7.372015e-002	1.012546e-002	-7.852549e-001	-1.007655e-001
6612601625	-4.738368e-001	-4.112566e-001	4.977587e-001	-3.640680e-001	7.269159e-002	9.575378e-003	-7.868520e-001	-1.005550e-001
6618851438	-4.754398e-001	-4.113079e-001	4.956344e-001	-3.646810e-001	7.130979e-002	8.884818e-003	-7.882837e-001	-9.985463e-002
6625101250	-4.767334e-001	-4.111562e-001	4.928904e-001	-3.652893e-001	7.063251e-002	8.662123e-003	-7.898072e-001	-9.912653e-002
6631351063	-4.785491e-001	-4.115596e-001	4.903149e-001	-3.654600e-001	6.951926e-002	8.481717e-003	-7.913889e-001	-9.805742e-002
6637600875	-4.797526e-001	-4.115323e-001	4.880013e-001	-3.651308e-001	6.868852e-002	8.268017e-003	-7.927571e-001	-9.717595e-002
6643850688	-4.815768e-001	-4.111755e-001	4.853735e-001	-3.653618e-001	6.738652e-002	8.059795e-003	-7.939543e-001	-9.609830e-002
6650100500	-4.828038e-001	-4.113182e-001	4.831329e-001	-3.651781e-001	6.669715e-002	8.473865e-003	-7.954777e-001	-9.514939e-002
6656350313	-4.844891e-001	-4.107314e-001	4.802087e-001	-3.650871e-001	6.563856e-002	8.485717e-003	-7.966293e-001	-9.390500e-002
6662600125	-4.862652e-001	-4.103186e-001	4.773748e-001	-3.653047e-001	6.503996e-002	8.779512e-003	-7.979212e-001	-9.261391e-002
6668849938	-4.872760e-001	-4.102327e-001	4.750248e-001	-3.646452e-001	6.444761e-002	8.805340e-003	-7.989552e-001	-9.143962e-002
6675099750	-4.886592e-001	-4.094090e-001	4.720136e-001	-3.645284e-001	6.403118e-002	8.968597e-003	-8.003645e-001	-9.006427e-002
6681349563	-4.903597e-001	-4.093449e-001	4.700195e-001	-3.644481e-001	6.336311e-002	9.265349e-003	-8.013028e-001	-8.844322e-002
6687599375	-4.911626e-001	-4.087726e-001	4.675395e-001	-3.638137e-001	6.307561e-002	9.329971e-003	-8.018616e-001	-8.736882e-002
6693849188	-4.925220e-001	-4.083083e-001	4.651533e-001	-3.638968e-001	6.256349e-002	9.344367e-003	-8.028975e-001	-8.628152e-002
6700099000	-4.938238e-001	-4.080666e-001	4.629752e-001	-3.635814e-001	6.231853e-002	9.523672e-003	-8.038206e-001	-8.519581e-002
6706348813	-4.949445e-001	-4.074051e-001	4.605801e-001	-3.634885e-001	6.201042e-002	9.122017e-003	-8.050658e-001	-8.411883e-002
6712598625	-4.961286e-001	-4.073225e-001	4.581224e-001	-3.632052e-001	6.169499e-002	9.222596e-003	-8.059833e-001	-8.299017e-002
6718848438	-4.972452e-001	-4.071521e-001	4.560833e-001	-3.626066e-001	6.138269e-002	9.141213e-003	-8.073972e-001	-8.227723e-002
6725098250	-4.986701e-001	-4.071724e-001	4.540012e-001	-3.634310e-001	6.080867e-002	8.592552e-003	-8.081236e-001	-8.125318e-002
6731348063	-4.994975e-001	-4.069117e-001	4.518801e-001	-3.629051e-001	6.032373e-002	8.698907e-003	-8.095856e-001	-8.021118e-002
6737597875	-5.005978e-001	-4.069327e-001	4.490029e-001	-3.628038e-001	5.967220e-002	8.590110e-003	-8.103974e-001	-7.927475e-002
6743847688	-5.025490e-001	-4.064663e-001	4.466673e-001	-3.629474e-001	5.898101e-002	8.500809e-003	-8.115952e-001	-7.823049e-002
6750097500	-5.035944e-001	-4.069281e-001	4.448902e-001	-3.634486e-001	5.801770e-002	8.388750e-003	-8.126584e-001	-7.710488e-002
6756347313	-5.051140e-001	-4.067629e-001	4.419511e-001	-3.627168e-001	5.749777e-002	8.142476e-003	-8.137022e-001	-7.575120e-002
6762597125	-5.062353e-001	-4.063062e-001	4.401050e-001	-3.624900e-001	5.678991e-002	8.510531e-003	-8.151948e-001	-7.449355e-002
6768846938	-5.079445e-001	-4.059941e-001	4.375805e-001	-3.618766e-001	5.598939e-002	8.785255e-003	-8.158715e-001	-7.297932e-002
6775096750	-5.093673e-001	-4.057701e-001	4.349968e-001	-3.613591e-001	5.564351e-002	8.956864e-003	-8.169502e-001	-7.209497e-002
6781346563	-5.108581e-001	-4.052362e-001	4.329502e-001	-3.615841e-001	5.508480e-002	8.993206e-003	-8.179087e-001	-7.052580e-002
6787596375	-5.121090e-001	-4.051182e-001	4.303826e-001	-3.607826e-001	5.451854e-002	9.288557e-003	-8.187914e-001	-6.915456e-002
6793846188	-5.136739e-001	-4.048534e-001	4.284737e-001	-3.601874e-001	5.386274e-002	9.817356e-003	-8.198399e-001	-6.765886e-002
6800096000	-5.147029e-001	-4.042338e-001	4.257778e-001	-3.596413e-001	5.352465e-002	9.845156e-003	-8.204679e-001	-6.628526e-002
6806345813	-5.161640e-001	-4.035720e-001	4.237402e-001	-3.597210e-001	5.306333e-002	1.026892e-002	-8.211372e-001	-6.477313e-002
6812595625	-5.169322e-001	-4.033556e-001	4.213068e-001	-3.586940e-001	5.256574e-002	1.072440e-002	-8.218976e-001	-6.355905e-002
6818845438	-5.185163e-001	-4.028928e-001	4.192737e-001	-3.583145e-001	5.229439e-002	1.089808e-002	-8.225201e-001	-6.210012e-002
6825095250	-5.195538e-001	-4.025897e-001	4.165706e-001	-3.575215e-001	5.203454e-002	1.114033e-002	-8.233852e-001	-6.079729e-002
6831345063	-5.212469e-001	-4.021378e-001	4.143175e-001	-3.574271e-001	5.140919e-002	1.176941e-002	-8.242398e-001	-5.920075e-002
6837594875	-5.220918e-001	-4.018068e-001	4.125637e-001	-3.566325e-001	5.120645e-002	1.182535e-002	-8.247938e-001	-5.812955e-002
6843844688	-5.232527e-001	-4.012483e-001	4.097722e-001	-3.560238e-001	5.099261e-002	1.222858e-002	-8.251067e-001	-5.664340e-002
6850094500	-5.240927e-001	-4.007942e-001	4.079188e-001	-3.552923e-001	5.084509e-002	1.236799e-002	-8.256836e-001	-5.525250e-002
6856344313	-5.253679e-001	-4.003466e-001	4.057875e-001	-3.546261e-001	5.064948e-002	1.249648e-002	-8.258518e-001	-5.407793e-002
6862594125	-5.261891e-001	-4.000848e-001	4.038637e-001	-3.547709e-001	5.045515e-002	1.272037e-002	-8.266079e-001	-5.214893e-002
6868843938	-5.271943e-001	-3.999727e-001	4.022204e-001	-3.541669e-001	5.048430e-002	1.325249e-002	-8.272692e-001	-5.082309e-002
6875093750	-5.283446e-001	-3.995631e-001	4.002685e-001	-3.541344e-001	4.973069e-002	1.305420e-002	-8.283292e-001	-4.923030e-002
6881343563	-5.292725e-001	-3.996027e-001	3.981879e-001	-3.535866e-001	5.015689e-002	1.314567e-002	-8.293896e-001	-4.749396e-002
6887593375	-5.303797e-001	-3.993681e-001	3.964327e-001	-3.530153e-001	4.966810e-002	1.333832e-002	-8.296026e-001	-4.630560e-002
6893843188	-5.311462e-001	-3.990651e-001	3.944055e-001	-3.524126e-001	4.939795e-002	1.355401e-002	-8.304429e-001	-4.498232e-002
6900093000	-5.325434e-001	-3.993415e-001	3.921010e-001	-3.517050e-001	4.885728e-002	1.362044e-002	-8.310757e-001	-4.364088e-002
6906342813	-5.332982e-001	-3.987403e-001	3.903926e-001	-3.510602e-001	4.881257e-002	1.388764e-002	-8.313653e-001	-4.262758e-002
6912592625	-5.349899e-001	-3.991719e-001	3.886509e-001	-3.509262e-001	4.845227e-002	1.398100e-002	-8.322004e-001	-4.119663e-002
6918842438	-5.360800e-001	-3.984225e-001	3.867246e-001	-3.504669e-001	4.815927e-002	1.411467e-002	-8.327150e-001	-4.024706e-002
6925092250	-5.374795e-001	-3.983158e-001	3.846066e-001	-3.498193e-001	4.776490e-002	1.429491e-002	-8.332107e-001	-3.908111e-002
6931342063	-5.387930e-001	-3.979569e-001	3.827523e-001	-3.492023e-001	4.737596e-002	1.470424e-002	-8.333557e-001	-3.768610e-002
6937591875	-5.396845e-001	-3.972322e-001	3.804962e-001	-3.485151e-001	4.706842e-002	1.483731e-002	-8.339230e-001	-3.657824e-002
6943841688	-5.407383e-001	-3.968283e-001	3.790138e-001	-3.478500e-001	4.689699e-002	1.504855e-002	-8.344761e-001	-3.528833e-002
6950091500	-5.418852e-001	-3.962799e-001	3.767123e-001	-3.469553e-001	4.654112e-002	1.552509e-002	-8.345794e-001	-3.439384e-002
6956341313	-5.429908e-001	-3.957145e-001	3.742652e-001	-3.461742e-001	4.636251e-002	1.582285e-002	-8.353633e-001	-3.328762e-002
6962591125	-5.445783e-001	-3.956670e-001	3.727016e-001	-3.462236e-001	4.616335e-002	1.586035e-002	-8.358844e-001	-3.185312e-002
6968840938	-5.453293e-001	-3.947255e-001	3.709426e-001	-3.451458e-001	4.631034e-002	1.656738e-002	-8.357185e-001	-3.065875e-002
6975090750	-5.458658e-001	-3.945253e-001	3.689586e-001	-3.440324e-001	4.595840e-002	1.652941e-002	-8.361408e-001	-2.961319e-002
6981340563	-5.473690e-001	-3.938324e-001	3.672555e-001	-3.440956e-001	4.583131e-002	1.672701e-002	-8.364503e-001	-2.853833e-002
6987590375	-5.478910e-001	-3.934799e-001	3.648809e-001	-3.432915e-001	4.548479e-002	1.700183e-002	-8.368203e-001	-2.744115e-002
6993840188	-5.491516e-001	-3.931420e-001	3.633744e-001	-3.426338e-001	4.534667e-002	1.734080e-002	-8.372661e-001	-2.626471e-002
7000090000	-5.501634e-001	-3.927270e-001	3.612083e-001	-3.417720e-001	4.554791e-002	1.767862e-002	-8.377415e-001	-2.512484e-002
7006339813	-5.509943e-001	-3.922988e-001	3.595624e-001	-3.414910e-001	4.503692e-002	1.768995e-002	-8.375851e-001	-2.420242e-002
7012589625	-5.517095e-001	-3.918188e-001	3.576466e-001	-3.406568e-001	4.516183e-002	1.811436e-002	-8.376953e-001	-2.277026e-002
7018839438	-5.528774e-001	-3.916067e-001	3.558436e-001	-3.396577e-001	4.517282e-002	1.837912e-002	-8.378277e-001	-2.178219e-002
7025089250	-5.538395e-001	-3.913045e-001	3.543351e-001	-3.395057e-001	4.488029e-002	1.858157e-002	-8.378488e-001	-2.033400e-002
7031339063	-5.553565e-001	-3.909010e-001	3.532197e-001	-3.388462e-001	4.515272e-002	1.880257e-002	-8.383691e-001	-1.877871e-002
7037588875	-5.555492e-001	-3.907100e-001	3.513160e-001	-3.381400e-001	4.481165e-002	1.892658e-002	-8.390055e-001	-1.747939e-002
7043838688	-5.563984e-001	-3.904593e-001	3.496065e-001	-3.377557e-001	4.487990e-002	1.911423e-002	-8.398705e-001	-1.581530e-002
7050088500	-5.576850e-001	-3.901400e-001	3.481782e-001	-3.365211e-001	4.466199e-002	1.931415e-002	-8.405750e-001	-1.418443e-002
7056338313	-5.587055e-001	-3.900854e-001	3.465456e-001	-3.361637e-001	4.457761e-002	1.950395e-002	-8.407471e-001	-1.326556e-002
7062588125	-5.601112e-001	-3.897443e-001	3.445525e-001	-3.351250e-001	4.438116e-002	1.964234e-002	-8.412321e-001	-1.267811e-002
7068837938	-5.608234e-001	-3.890225e-001	3.429433e-001	-3.344384e-001	4.438092e-002	1.995962e-002	-8.416274e-001	-1.158329e-002
7075087750	-5.617385e-001	-3.892626e-001	3.416381e-001	-3.341654e-001	4.417889e-002	2.005918e-002	-8.416730e-001	-1.031032e-002
7081337563	-5.627629e-001	-3.888139e-001	3.395878e-001	-3.329434e-001	4.392493e-002	2.021693e-002	-8.419631e-001	-9.549292e-003
7087587375	-5.639230e-001	-3.875716e-001	3.379377e-001	-3.324156e-001	4.402902e-002	2.053506e-002	-8.423923e-001	-8.685241e-003
7093837188	-5.648884e-001	-3.877468e-001	3.363938e-001	-3.319786e-001	4.380459e-002	2.065984e-002	-8.425272e-001	-7.823437e-003
7100087000	-5.657397e-001	-3.876180e-001	3.348279e-001	-3.309704e-001	4.398959e-002	2.081480e-002	-8.430327e-001	-6.792889e-003
7106336813	-5.664372e-001	-3.866367e-001	3.332697e-001	-3.306375e-001	4.378839e-002	2.114186e-002	-8.430396e-001	-6.064264e-003
7112586625	-5.675378e-001	-3.864888e-001	3.313805e-001	-3.301179e-001	4.388746e-002	2.138925e-002	-8.432107e-001	-5.075997e-003
7118836438	-5.679259e-001	-3.860089e-001	3.296565e-001	-3.294072e-001	4.371903e-002	2.138678e-002	-8.435332e-001	-4.517632e-003
7125086250	-5.687992e-001	-3.858807e-001	3.282842e-001	-3.286085e-001	4.366114e-002	2.147039e-002	-8.440739e-001	-3.312116e-003
7131336063	-5.696749e-001	-3.851617e-001	3.264976e-001	-3.281396e-001	4.364046e-002	2.167539e-002	-8.441358e-001	-2.230872e-003
7137585875	-5.703008e-001	-3.845918e-001	3.246900e-001	-3.279277e-001	4.380629e-002	2.161844e-002	-8.441455e-001	-1.507253e-003
7143835688	-5.707964e-001	-3.844651e-001	3.232006e-001	-3.270107e-001	4.365447e-002	2.197258e-002	-8.442506e-001	-7.003191e-004
7150085500	-5.717957e-001	-3.839955e-001	3.218265e-001	-3.261797e-001	4.366649e-002	2.196148e-002	-8.443151e-001	-6.802037e-005
7156335313	-5.722607e-001	-3.840008e-001	3.204584e-001	-3.249907e-001	4.362308e-002	2.247438e-002	-8.448369e-001	9.766646e-004
7162585125	-5.725999e-001	-3.838337e-001	3.188150e-001	-3.243787e-001	4.353143e-002	2.250444e-002	-8.448740e-001	1.817531e-003
7168834938	-5.731328e-001	-3.829078e-001	3.167653e-001	-3.237397e-001	4.311740e-002	2.271202e-002	-8.446867e-001	2.472519e-003
7175084750	-5.740497e-001	-3.832599e-001	3.155536e-001	-3.232287e-001	4.363872e-002	2.277886e-002	-8.443278e-001	3.750693e-003
7181334563	-5.744556e-001	-3.828973e-001	3.142430e-001	-3.218576e-001	4.362104e-002	2.264318e-002	-8.445793e-001	4.675802e-003
7187584375	-5.753107e-001	-3.831915e-001	3.127743e-001	-3.214282e-001	4.336888e-002	2.289914e-002	-8.447057e-001	6.141810e-003
7193834188	-5.760832e-001	-3.830552e-001	3.113981e-001	-3.206363e-001	4.310794e-002	2.313853e-002	-8.450046e-001	7.177050e-003
7200084000	-5.771207e-001	-3.825610e-001	3.098374e-001	-3.201658e-001	4.329478e-002	2.321803e-002	-8.459647e-001	8.940883e-003
7206333813	-5.774904e-001	-3.830893e-001	3.084051e-001	-3.195611e-001	4.328655e-002	2.333535e-002	-8.469393e-001	1.033118e-002
7212583625	-5.783396e-001	-3.826718e-001	3.071870e-001	-3.185615e-001	4.314320e-002	2.318885e-002	-8.467815e-001	1.141697e-002
7218833438	-5.791141e-001	-3.828648e-001	3.057147e-001	-3.180517e-001	4.317390e-002	2.353219e-002	-8.467545e-001	1.331040e-002
7225083250	-5.798599e-001	-3.827946e-001	3.045943e-001	-3.171267e-001	4.333013e-002	2.338631e-002	-8.470628e-001	1.328125e-002
7231333063	-5.804909e-001	-3.823882e-001	3.028704e-001	-3.169566e-001	4.302717e-002	2.331345e-002	-8.473475e-001	1.471690e-002
7237582875	-5.811074e-001	-3.822918e-001	3.014418e-001	-3.164738e-001	4.298127e-002	2.332188e-002	-8.479661e-001	1.505702e-002
7243832688	-5.820771e-001	-3.823132e-001	3.001094e-001	-3.160005e-001	4.291603e-002	2.332703e-002	-8.477828e-001	1.608675e-002
7250082500	-5.828603e-001	-3.823513e-001	2.989456e-001	-3.153994e-001	4.266706e-002	2.322635e-002	-8.484203e-001	1.660490e-002
7256332313	-5.832001e-001	-3.822845e-001	2.971471e-001	-3.146146e-001	4.255982e-002	2.337031e-002	-8.486115e-001	1.727764e-002
7262582125	-5.840392e-001	-3.823368e-001	2.955292e-001	-3.140386e-001	4.260147e-002	2.350432e-002	-8.487880e-001	1.788319e-002
7268831938	-5.851405e-001	-3.825935e-001	2.944953e-001	-3.136331e-001	4.231904e-002	2.358746e-002	-8.491484e-001	1.785834e-002
7275081750	-5.856410e-001	-3.827940e-001	2.926664e-001	-3.126011e-001	4.219545e-002	2.367551e-002	-8.492736e-001	1.893118e-002
7281331563	-5.866221e-001	-3.828932e-001	2.912331e-001	-3.112926e-001	4.176621e-002	2.397101e-002	-8.496559e-001	1.931543e-002
7287581375	-5.876011e-001	-3.832417e-001	2.897444e-001	-3.106582e-001	4.168188e-002	2.411591e-002	-8.496569e-001	2.031402e-002
7293831188	-5.885924e-001	-3.832037e-001	2.884526e-001	-3.099012e-001	4.161388e-002	2.416247e-002	-8.501282e-001	2.098487e-002
7300081000	-5.893059e-001	-3.827596e-001	2.870533e-001	-3.092717e-001	4.165062e-002	2.427074e-002	-8.504096e-001	2.122244e-002
7306330813	-5.901621e-001	-3.831649e-001	2.850743e-001	-3.084478e-001	4.129437e-002	2.461126e-002	-8.502125e-001	2.202588e-002
7312580625	-5.908659e-001	-3.833706e-001	2.842032e-001	-3.072375e-001	4.131713e-002	2.457078e-002	-8.504945e-001	2.211557e-002
7318830438	-5.921046e-001	-3.830947e-001	2.828351e-001	-3.065099e-001	4.087151e-002	2.507612e-002	-8.509431e-001	2.303004e-002
7325080250	-5.929583e-001	-3.833999e-001	2.814781e-001	-3.059419e-001	4.108219e-002	2.495075e-002	-8.500696e-001	2.388673e-002
7331330063	-5.936942e-001	-3.833603e-001	2.807382e-001	-3.046175e-001	4.079808e-002	2.518962e-002	-8.506779e-001	2.425719e-002
7337579875	-5.951537e-001	-3.833820e-001	2.790726e-001	-3.044288e-001	4.097289e-002	2.527089e-002	-8.499050e-001	2.524957e-002
7343829688	-5.956732e-001	-3.834826e-001	2.778216e-001	-3.035701e-001	4.082266e-002	2.519814e-002	-8.499877e-001	2.604411e-002
7350079500	-5.963673e-001	-3.835024e-001	2.766837e-001	-3.027353e-001	4.059248e-002	2.537118e-002	-8.494358e-001	2.730581e-002
7356329313	-5.977509e-001	-3.835921e-001	2.751465e-001	-3.017605e-001	4.066621e-002	2.567292e-002	-8.499885e-001	2.841253e-002
7362579125	-5.984455e-001	-3.831819e-001	2.745336e-001	-3.013912e-001	4.051387e-002	2.594787e-002	-8.510692e-001	2.960264e-002
7368828938	-5.997295e-001	-3.831350e-001	2.730809e-001	-3.009292e-001	4.028037e-002	2.601191e-002	-8.515051e-001	3.181603e-002
7375078750	-6.007602e-001	-3.828907e-001	2.716678e-001	-3.000869e-001	4.018903e-002	2.604038e-002	-8.515495e-001	3.311914e-002
7381328563	-6.014197e-001	-3.828710e-001	2.706012e-001	-2.991102e-001	4.005748e-002	2.618442e-002	-8.525404e-001	3.431066e-002
7387578375	-6.023973e-001	-3.826971e-001	2.691143e-001	-2.988071e-001	4.019450e-002	2.649783e-002	-8.526170e-001	3.500012e-002
7393828188	-6.035777e-001	-3.824593e-001	2.677956e-001	-2.986882e-001	4.001787e-002	2.647926e-002	-8.526716e-001	3.550271e-002
7400078000	-6.041508e-001	-3.824540e-001	2.668215e-001	-2.977392e-001	3.966972e-002	2.666475e-002	-8.525358e-001	3.597835e-002
7406327813	-6.050858e-001	-3.817366e-001	2.653588e-001	-2.967460e-001	3.935379e-002	2.693475e-002	-8.523674e-001	3.628739e-002
7412577625	-6.063013e-001	-3.810341e-001	2.646395e-001	-2.958302e-001	3.946706e-002	2.721361e-002	-8.531024e-001	3.761883e-002
7418827438	-6.066917e-001	-3.815449e-001	2.630282e-001	-2.954753e-001	3.951965e-002	2.715047e-002	-8.539459e-001	3.743554e-002
7425077250	-6.081973e-001	-3.804025e-001	2.619635e-001	-2.948518e-001	3.948914e-002	2.745091e-002	-8.536599e-001	3.804192e-002
7431327063	-6.082660e-001	-3.804318e-001	2.607270e-001	-2.939782e-001	3.933293e-002	2.771369e-002	-8.540608e-001	3.814020e-002
7437576875	-6.091831e-001	-3.801533e-001	2.595264e-001	-2.934048e-001	3.929429e-002	2.805869e-002	-8.543069e-001	3.860281e-002
7443826688	-6.098199e-001	-3.797625e-001	2.583053e-001	-2.921648e-001	3.919800e-002	2.801557e-002	-8.542664e-001	3.931495e-002
7450076500	-6.104574e-001	-3.793693e-001	2.567556e-001	-2.915498e-001	3.914794e-002	2.801962e-002	-8.548299e-001	3.942453e-002
7456326313	-6.113379e-001	-3.797309e-001	2.563191e-001	-2.901661e-001	3.921947e-002	2.843528e-002	-8.550134e-001	3.995385e-002
7462576125	-6.121921e-001	-3.791119e-001	2.547761e-001	-2.897214e-001	3.906922e-002	2.872711e-002	-8.551989e-001	4.065153e-002
7468825938	-6.129395e-001	-3.786330e-001	2.537626e-001	-2.885699e-001	3.929105e-002	2.849301e-002	-8.551451e-001	4.109040e-002
7475075750	-6.138647e-001	-3.787400e-001	2.525867e-001	-2.873563e-001	3.905404e-002	2.896561e-002	-8.552408e-001	4.130993e-002
7481325563	-6.150211e-001	-3.790794e-001	2.513380e-001	-2.866226e-001	3.885838e-002	2.906969e-002	-8.553165e-001	4.130176e-002
7487575375	-6.156006e-001	-3.787816e-001	2.500180e-001	-2.859899e-001	3.892139e-002	2.927477e-002	-8.551432e-001	4.242019e-002
7493825188	-6.167926e-001	-3.787064e-001	2.491968e-001	-2.854983e-001	3.898439e-002	2.960141e-002	-8.548797e-001	4.255146e-002
7500075000	-6.172710e-001	-3.785522e-001	2.480033e-001	-2.845556e-001	3.899806e-002	2.982021e-002	-8.543419e-001	4.265235e-002
7506324813	-6.185810e-001	-3.778153e-001	2.465367e-001	-2.840552e-001	3.879605e-002	2.978747e-002	-8.538829e-001	4.398354e-002
7512574625	-6.192075e-001	-3.774056e-001	2.458337e-001	-2.831320e-001	3.888114e-002	2.957955e-002	-8.541546e-001	4.553704e-002
7518824438	-6.198607e-001	-3.775133e-001	2.449354e-001	-2.829855e-001	3.891537e-002	2.982105e-002	-8.548270e-001	4.714261e-002
7525074250	-6.209929e-001	-3.775320e-001	2.436067e-001	-2.821734e-001	3.897315e-002	2.990344e-002	-8.552687e-001	4.907011e-002
7531324063	-6.213540e-001	-3.772587e-001	2.424701e-001	-2.815119e-001	3.881389e-002	3.018445e-002	-8.560396e-001	5.023206e-002
7537573875	-6.226088e-001	-3.768465e-001	2.415829e-001	-2.811010e-001	3.891838e-002	3.017194e-002	-8.562739e-001	5.169941e-002
7543823688	-6.227911e-001	-3.768361e-001	2.407203e-001	-2.805472e-001	3.859985e-002	3.007715e-002	-8.568346e-001	5.197169e-002
7550073500	-6.235239e-001	-3.768820e-001	2.395071e-001	-2.795360e-001	3.860978e-002	3.024420e-002	-8.566924e-001	5.316030e-002
7556323313	-6.243031e-001	-3.768825e-001	2.382532e-001	-2.785907e-001	3.860107e-002	3.019753e-002	-8.567747e-001	5.342756e-002
7562573125	-6.247286e-001	-3.764670e-001	2.370665e-001	-2.781986e-001	3.854098e-002	3.053938e-002	-8.567829e-001	5.330788e-002
7568822938	-6.253821e-001	-3.760860e-001	2.360664e-001	-2.775855e-001	3.835416e-002	3.057644e-002	-8.569575e-001	5.369088e-002
7575072750	-6.257953e-001	-3.760192e-001	2.351565e-001	-2.769530e-001	3.823851e-002	3.079798e-002	-8.575392e-001	5.431238e-002
7581322563	-6.267718e-001	-3.764421e-001	2.335315e-001	-2.758711e-001	3.813751e-002	3.086709e-002	-8.578263e-001	5.432635e-002
7587572375	-6.275692e-001	-3.762126e-001	2.330774e-001	-2.752756e-001	3.835063e-002	3.111781e-002	-8.579673e-001	5.457702e-002
7593822188	-6.283587e-001	-3.763240e-001	2.319752e-001	-2.746422e-001	3.800588e-002	3.149924e-002	-8.579151e-001	5.476819e-002
7600072000	-6.283747e-001	-3.761945e-001	2.307408e-001	-2.732319e-001	3.815016e-002	3.149257e-002	-8.584107e-001	5.463580e-002
7606321813	-6.290584e-001	-3.764128e-001	2.297900e-001	-2.729317e-001	3.787791e-002	3.178389e-002	-8.578420e-001	5.538816e-002
7612571625	-6.299490e-001	-3.763355e-001	2.293543e-001	-2.718743e-001	3.802994e-002	3.182325e-002	-8.583909e-001	5.491446e-002
7618821438	-6.302313e-001	-3.761581e-001	2.278457e-001	-2.715672e-001	3.803610e-002	3.178126e-002	-8.587497e-001	5.500090e-002
7625071250	-6.312112e-001	-3.762230e-001	2.272246e-001	-2.707807e-001	3.792636e-002	3.204381e-002	-8.587412e-001	5.572863e-002
7631321063	-6.315013e-001	-3.757658e-001	2.260938e-001	-2.698347e-001	3.782987e-002	3.183866e-002	-8.585709e-001	5.545252e-002
7637570875	-6.325222e-001	-3.759718e-001	2.246290e-001	-2.696128e-001	3.783485e-002	3.188002e-002	-8.586046e-001	5.571830e-002
7643820688	-6.330877e-001	-3.757642e-001	2.238871e-001	-2.690345e-001	3.754360e-002	3.224641e-002	-8.583696e-001	5.600088e-002
7650070500	-6.338014e-001	-3.761244e-001	2.223166e-001	-2.680406e-001	3.743198e-002	3.218316e-002	-8.582595e-001	5.631743e-002
7656320313	-6.347426e-001	-3.755027e-001	2.214887e-001	-2.671082e-001	3.721932e-002	3.223847e-002	-8.575821e-001	5.642979e-002
7662570125	-6.358626e-001	-3.750755e-001	2.206101e-001	-2.667437e-001	3.734675e-002	3.234154e-002	-8.576655e-001	5.695285e-002
7668819938	-6.355837e-001	-3.752307e-001	2.195045e-001	-2.659922e-001	3.687204e-002	3.259020e-002	-8.572460e-001	5.941538e-002
7675069750	-6.372034e-001	-3.746536e-001	2.183880e-001	-2.649878e-001	3.686304e-002	3.288135e-002	-8.576576e-001	6.028178e-002
7681319563	-6.372896e-001	-3.743600e-001	2.169039e-001	-2.642474e-001	3.666898e-002	3.298495e-002	-8.586732e-001	6.179132e-002
7687569375	-6.381906e-001	-3.739070e-001	2.161942e-001	-2.636434e-001	3.662320e-002	3.317134e-002	-8.584088e-001	6.293541e-002
7693819188	-6.388256e-001	-3.736509e-001	2.150490e-001	-2.628698e-001	3.645390e-002	3.343784e-002	-8.589830e-001	6.410410e-002
7700069000	-6.399008e-001	-3.734555e-001	2.138447e-001	-2.619107e-001	3.605859e-002	3.352497e-002	-8.595322e-001	6.422273e-002
7706318813	-6.404031e-001	-3.730171e-001	2.124976e-001	-2.612268e-001	3.602805e-002	3.374978e-002	-8.598928e-001	6.520257e-002
7712568625	-6.406189e-001	-3.728088e-001	2.119622e-001	-2.601781e-001	3.626104e-002	3.402801e-002	-8.599627e-001	6.554727e-002
7718818438	-6.414837e-001	-3.726339e-001	2.105727e-001	-2.597814e-001	3.601480e-002	3.415407e-002	-8.595665e-001	6.558293e-002
7725068250	-6.423393e-001	-3.730125e-001	2.101698e-001	-2.588477e-001	3.603805e-002	3.458735e-002	-8.599618e-001	6.585598e-002
7731318063	-6.431747e-001	-3.725936e-001	2.088926e-001	-2.580501e-001	3.601554e-002	3.453559e-002	-8.599977e-001	6.641303e-002
7737567875	-6.437203e-001	-3.721952e-001	2.079797e-001	-2.574206e-001	3.581368e-002	3.496253e-002	-8.603736e-001	6.621310e-002
7743817688	-6.436804e-001	-3.716172e-001	2.071054e-001	-2.567131e-001	3.583996e-002	3.502025e-002	-8.606298e-001	6.630373e-002
7750067500	-6.447946e-001	-3.719126e-001	2.059302e-001	-2.559981e-001	3.573251e-002	3.540624e-002	-8.606323e-001	6.615948e-002
7756317313	-6.450952e-001	-3.719422e-001	2.050923e-001	-2.552800e-001	3.574471e-002	3.553213e-002	-8.610044e-001	6.592806e-002
7762567125	-6.460045e-001	-3.720498e-001	2.041834e-001	-2.538774e-001	3.549716e-002	3.594103e-002	-8.613922e-001	6.598703e-002
7768816938	-6.468178e-001	-3.718156e-001	2.033015e-001	-2.533889e-001	3.545948e-002	3.621803e-002	-8.615748e-001	6.657010e-002
7775066750	-6.474205e-001	-3.720465e-001	2.023963e-001	-2.519069e-001	3.525889e-002	3.634547e-002	-8.620154e-001	6.587027e-002
7781316563	-6.474282e-001	-3.719795e-001	2.007371e-001	-2.513012e-001	3.527605e-002	3.693069e-002	-8.619708e-001	6.633232e-002
7787566375	-6.478997e-001	-3.718972e-001	2.001252e-001	-2.503408e-001	3.501731e-002	3.704835e-002	-8.623072e-001	6.641716e-002
7793816188	-6.483886e-001	-3.716949e-001	1.993281e-001	-2.493360e-001	3.504042e-002	3.709221e-002	-8.625202e-001	6.603967e-002
7800066000	-6.492881e-001	-3.717893e-001	1.981300e-001	-2.483194e-001	3.492113e-002	3.711914e-002	-8.624074e-001	6.636172e-002
7806315813	-6.497445e-001	-3.719940e-001	1.974908e-001	-2.475870e-001	3.476681e-002	3.736545e-002	-8.623044e-001	6.597055e-002
7812565625	-6.501996e-001	-3.722513e-001	1.965639e-001	-2.463236e-001	3.491388e-002	3.787769e-002	-8.621478e-001	6.627240e-002
7818815438	-6.509076e-001	-3.716553e-001	1.959236e-001	-2.453813e-001	3.489192e-002	3.808814e-002	-8.613756e-001	6.665424e-002
7825065250	-6.515712e-001	-3.724023e-001	1.955686e-001	-2.448219e-001	3.492858e-002	3.862512e-002	-8.608336e-001	6.844279e-002
7831315063	-6.517696e-001	-3.724643e-001	1.947862e-001	-2.438407e-001	3.486965e-002	3.857017e-002	-8.614033e-001	6.914026e-002
7837564875	-6.526841e-001	-3.720617e-001	1.934775e-001	-2.428563e-001	3.498969e-002	3.904276e-002	-8.619499e-001	7.068812e-002
7843814688	-6.528303e-001	-3.720738e-001	1.929510e-001	-2.424848e-001	3.495377e-002	3.922156e-002	-8.630440e-001	7.294651e-002
7850064500	-6.534726e-001	-3.719944e-001	1.923764e-001	-2.413343e-001	3.487560e-002	3.979726e-002	-8.621042e-001	7.375630e-002
7856314313	-6.542300e-001	-3.722943e-001	1.914703e-001	-2.402309e-001	3.510587e-002	4.004547e-002	-8.636005e-001	7.366779e-002
7862564125	-6.546768e-001	-3.719302e-001	1.911469e-001	-2.397567e-001	3.500725e-002	4.023377e-002	-8.641011e-001	7.431538e-002
7868813938	-6.552817e-001	-3.721801e-001	1.900524e-001	-2.387971e-001	3.507558e-002	4.033723e-002	-8.641827e-001	7.482808e-002
7875063750	-6.562218e-001	-3.722268e-001	1.894227e-001	-2.379430e-001	3.505908e-002	4.068407e-002	-8.640938e-001	7.507341e-002
7881313563	-6.561509e-001	-3.718197e-001	1.881996e-001	-2.370275e-001	3.490689e-002	4.072418e-002	-8.641661e-001	7.546969e-002
7887563375	-6.571410e-001	-3.721142e-001	1.878561e-001	-2.360758e-001	3.504529e-002	4.124114e-002	-8.638438e-001	7.578724e-002
7893813188	-6.574715e-001	-3.718063e-001	1.874634e-001	-2.353869e-001	3.509113e-002	4.129371e-002	-8.653908e-001	7.499717e-002
7900063000	-6.579088e-001	-3.715501e-001	1.860771e-001	-2.345190e-001	3.527709e-002	4.182781e-002	-8.651034e-001	7.531934e-002
7906312813	-6.584005e-001	-3.716631e-001	1.854779e-001	-2.336355e-001	3.529175e-002	4.189627e-002	-8.653927e-001	7.551796e-002
7912562625	-6.586742e-001	-3.719854e-001	1.851712e-001	-2.325678e-001	3.524710e-002	4.225546e-002	-8.658498e-001	7.524450e-002
7918812438	-6.601001e-001	-3.716979e-001	1.843443e-001	-2.316802e-001	3.546188e-002	4.254879e-002	-8.667501e-001	7.528658e-002
7925062250	-6.599570e-001	-3.720367e-001	1.837671e-001	-2.309528e-001	3.548798e-002	4.280728e-002	-8.665152e-001	7.521095e-002
7931312063	-6.606194e-001	-3.721373e-001	1.831618e-001	-2.302709e-001	3.579962e-002	4.306221e-002	-8.669154e-001	7.552855e-002
7937561875	-6.614032e-001	-3.721110e-001	1.826163e-001	-2.292674e-001	3.588411e-002	4.351768e-002	-8.669875e-001	7.569746e-002
7943811688	-6.617823e-001	-3.724505e-001	1.818578e-001	-2.289067e-001	3.590947e-002	4.371619e-002	-8.671875e-001	7.568360e-002
7950061500	-6.624051e-001	-3.722168e-001	1.816759e-001	-2.281307e-001	3.608169e-002	4.397747e-002	-8.677054e-001	7.562459e-002
7956311313	-6.633056e-001	-3.721629e-001	1.815608e-001	-2.273626e-001	3.624494e-002	4.396426e-002	-8.677501e-001	7.578920e-002
7962561125	-6.638887e-001	-3.726925e-001	1.805496e-001	-2.267588e-001	3.628427e-002	4.412609e-002	-8.668507e-001	7.600233e-002
7968810938	-6.644854e-001	-3.725776e-001	1.799657e-001	-2.260153e-001	3.599158e-002	4.398698e-002	-8.667586e-001	7.633863e-002
7975060750	-6.648024e-001	-3.723782e-001	1.792945e-001	-2.252039e-001	3.636675e-002	4.401160e-002	-8.667760e-001	7.594702e-002
7981310563	-6.656006e-001	-3.727301e-001	1.784974e-001	-2.241556e-001	3.669825e-002	4.430331e-002	-8.660939e-001	7.686081e-002
7987560375	-6.667790e-001	-3.725654e-001	1.779133e-001	-2.234335e-001	3.655768e-002	4.443241e-002	-8.656865e-001	7.762997e-002
7993810188	-6.670042e-001	-3.722431e-001	1.775629e-001	-2.230011e-001	3.649219e-002	4.479853e-002	-8.659244e-001	7.870841e-002
8000060000	-6.677071e-001	-3.727144e-001	1.765513e-001	-2.221204e-001	3.659691e-002	4.481702e-002	-8.656184e-001	8.038281e-002
8006309813	-6.678609e-001	-3.730028e-001	1.761336e-001	-2.211545e-001	3.656281e-002	4.520920e-002	-8.663236e-001	8.263220e-002
8012559625	-6.684764e-001	-3.726675e-001	1.756689e-001	-2.204283e-001	3.658854e-002	4.532997e-002	-8.666670e-001	8.372927e-002
8018809438	-6.692761e-001	-3.727007e-001	1.750061e-001	-2.198420e-001	3.664319e-002	4.550483e-002	-8.668425e-001	8.373171e-002
8025059250	-6.691972e-001	-3.722305e-001	1.740732e-001	-2.187895e-001	3.709544e-002	4.559095e-002	-8.678874e-001	8.387785e-002
8031309063	-6.703353e-001	-3.726339e-001	1.736155e-001	-2.182633e-001	3.711865e-002	4.579673e-002	-8.682304e-001	8.435297e-002
8037558875	-6.705923e-001	-3.723604e-001	1.729737e-001	-2.176048e-001	3.714185e-002	4.618084e-002	-8.680687e-001	8.505609e-002
8043808688	-6.713266e-001	-3.722346e-001	1.722737e-001	-2.165617e-001	3.723285e-002	4.649454e-002	-8.671952e-001	8.466050e-002
8050058500	-6.717248e-001	-3.725988e-001	1.720747e-001	-2.161594e-001	3.715018e-002	4.687918e-002	-8.675248e-001	8.456130e-002
8056308313	-6.720348e-001	-3.725066e-001	1.717005e-001	-2.155203e-001	3.741063e-002	4.660145e-002	-8.676110e-001	8.482942e-002
8062558125	-6.725353e-001	-3.726400e-001	1.710137e-001	-2.148239e-001	3.724475e-002	4.686856e-002	-8.680056e-001	8.430581e-002
8068807938	-6.734133e-001	-3.724820e-001	1.706679e-001	-2.144295e-001	3.751327e-002	4.719619e-002	-8.683693e-001	8.469106e-002
8075057750	-6.737792e-001	-3.730415e-001	1.702157e-001	-2.133059e-001	3.738827e-002	4.735926e-002	-8.685303e-001	8.501579e-002
8081307563	-6.737053e-001	-3.726167e-001	1.697507e-001	-2.128242e-001	3.763958e-002	4.750853e-002	-8.691112e-001	8.507518e-002
8087557375	-6.742435e-001	-3.725117e-001	1.692029e-001	-2.120756e-001	3.767810e-002	4.756899e-002	-8.693150e-001	8.468386e-002
8093807188	-6.751222e-001	-3.728254e-001	1.684300e-001	-2.117505e-001	3.773167e-002	4.780237e-002	-8.696385e-001	8.455272e-002
8100057000	-6.754188e-001	-3.727048e-001	1.680901e-001	-2.107147e-001	3.774379e-002	4.792379e-002	-8.694020e-001	8.458184e-002
8106306813	-6.758893e-001	-3.729409e-001	1.679690e-001	-2.096158e-001	3.782243e-002	4.832346e-002	-8.699784e-001	8.401752e-002
8112556625	-6.765390e-001	-3.727019e-001	1.671929e-001	-2.091607e-001	3.800775e-002	4.818375e-002	-8.692184e-001	8.382186e-002
8118806438	-6.771356e-001	-3.726938e-001	1.664617e-001	-2.083336e-001	3.826681e-002	4.856438e-002	-8.693769e-001	8.422739e-002
8125056250	-6.773063e-001	-3.727182e-001	1.654645e-001	-2.080503e-001	3.787512e-002	4.827466e-002	-8.692863e-001	8.357761e-002
8131306063	-6.781271e-001	-3.722030e-001	1.651463e-001	-2.070989e-001	3.838564e-002	4.828054e-002	-8.689460e-001	8.344098e-002
8137555875	-6.783689e-001	-3.727973e-001	1.647472e-001	-2.066188e-001	3.844151e-002	4.859630e-002	-8.688529e-001	8.362737e-002
8143805688	-6.790099e-001	-3.720794e-001	1.638925e-001	-2.053502e-001	3.829463e-002	4.865915e-002	-8.681230e-001	8.404457e-002
8150055500	-6.793785e-001	-3.724611e-001	1.632477e-001	-2.047633e-001	3.835705e-002	4.869151e-002	-8.672421e-001	8.419154e-002
8156305313	-6.797651e-001	-3.721741e-001	1.627084e-001	-2.043204e-001	3.829498e-002	4.910549e-002	-8.671984e-001	8.487390e-002
8162555125	-6.808940e-001	-3.724294e-001	1.622011e-001	-2.037704e-001	3.830645e-002	4.945712e-002	-8.667090e-001	8.632873e-002
8168804938	-6.810102e-001	-3.725893e-001	1.614789e-001	-2.028532e-001	3.858262e-002	4.948836e-002	-8.679797e-001	8.765361e-002
8175054750	-6.816216e-001	-3.725031e-001	1.612444e-001	-2.023211e-001	3.847500e-002	4.966269e-002	-8.677198e-001	8.984242e-002
8181304563	-6.815153e-001	-3.723306e-001	1.607725e-001	-2.011603e-001	3.838663e-002	4.989018e-002	-8.683945e-001	9.008239e-002
8187554375	-6.819217e-001	-3.718524e-001	1.604250e-001	-2.013258e-001	3.859121e-002	4.988219e-002	-8.685461e-001	9.014303e-002
8193804188	-6.825026e-001	-3.724505e-001	1.596069e-001	-2.002783e-001	3.866127e-002	5.009096e-002	-8.687639e-001	9.034614e-002
8200054000	-6.827192e-001	-3.725908e-001	1.592488e-001	-1.997296e-001	3.877923e-002	5.029703e-002	-8.693894e-001	8.993178e-002
8206303813	-6.828332e-001	-3.720040e-001	1.582675e-001	-1.985937e-001	3.889858e-002	5.024273e-002	-8.684177e-001	9.118450e-002
8212553625	-6.833965e-001	-3.725861e-001	1.581353e-001	-1.980296e-001	3.883520e-002	5.064267e-002	-8.682479e-001	9.098534e-002
8218803438	-6.840618e-001	-3.723943e-001	1.574589e-001	-1.972629e-001	3.879623e-002	5.078846e-002	-8.687298e-001	9.005224e-002
8225053250	-6.841600e-001	-3.724899e-001	1.569612e-001	-1.969228e-001	3.908406e-002	5.105078e-002	-8.680832e-001	9.092784e-002
8231303063	-6.848894e-001	-3.728523e-001	1.566229e-001	-1.960200e-001	3.909311e-002	5.137855e-002	-8.688508e-001	9.097529e-002
8237552875	-6.853378e-001	-3.728089e-001	1.565456e-001	-1.953241e-001	3.900924e-002	5.154452e-002	-8.683222e-001	9.070162e-002
8243802688	-6.857828e-001	-3.733445e-001	1.559562e-001	-1.943558e-001	3.916338e-002	5.184604e-002	-8.691717e-001	9.033494e-002
8250052500	-6.865749e-001	-3.724152e-001	1.555200e-001	-1.938773e-001	3.946036e-002	5.205663e-002	-8.688651e-001	9.001723e-002
8256302313	-6.863334e-001	-3.730560e-001	1.548997e-001	-1.929749e-001	3.930683e-002	5.209594e-002	-8.694511e-001	8.991974e-002
8262552125	-6.867753e-001	-3.734529e-001	1.543963e-001	-1.924236e-001	3.935429e-002	5.220235e-002	-8.698503e-001	9.004189e-002
8268801938	-6.874380e-001	-3.735908e-001	1.540276e-001	-1.918537e-001	3.942633e-002	5.249896e-002	-8.696302e-001	8.962352e-002
8275051750	-6.873085e-001	-3.735584e-001	1.535404e-001	-1.916747e-001	3.916491e-002	5.280764e-002	-8.695185e-001	8.924433e-002
8281301563	-6.878743e-001	-3.734998e-001	1.531988e-001	-1.907858e-001	3.953857e-002	5.279587e-002	-8.700335e-001	8.932210e-002
8287551375	-6.883356e-001	-3.740009e-001	1.527220e-001	-1.901242e-001	3.933341e-002	5.314134e-002	-8.693379e-001	8.907397e-002
8293801188	-6.884926e-001	-3.739566e-001	1.520265e-001	-1.892257e-001	3.944319e-002	5.263665e-002	-8.695715e-001	8.838176e-002
8300051000	-6.888110e-001	-3.737453e-001	1.513984e-001	-1.886710e-001	3.960951e-002	5.248951e-002	-8.687784e-001	8.834501e-002
8306300813	-6.891826e-001	-3.740703e-001	1.507403e-001	-1.878405e-001	3.966665e-002	5.313224e-002	-8.691246e-001	8.807733e-002
8312550625	-6.900455e-001	-3.744627e-001	1.509183e-001	-1.869747e-001	3.984123e-002	5.328703e-002	-8.679490e-001	8.827709e-002
8318800438	-6.899026e-001	-3.740710e-001	1.500171e-001	-1.860891e-001	3.989046e-002	5.347057e-002	-8.673127e-001	8.829596e-002
8325050250	-6.898007e-001	-3.748778e-001	1.497379e-001	-1.853948e-001	3.987556e-002	5.406266e-002	-8.670249e-001	8.913708e-002
8331300063	-6.906307e-001	-3.743871e-001	1.494561e-001	-1.851762e-001	3.989509e-002	5.407019e-002	-8.679534e-001	9.129253e-002
8337549875	-6.908634e-001	-3.745222e-001	1.488951e-001	-1.844056e-001	4.032350e-002	5.431042e-002	-8.682740e-001	9.250649e-002
8343799688	-6.907780e-001	-3.745753e-001	1.484844e-001	-1.832663e-001	4.008664e-002	5.439183e-002	-8.682605e-001	9.335024e-002
8350049500	-6.911991e-001	-3.749682e-001	1.482497e-001	-1.827437e-001	4.021611e-002	5.462153e-002	-8.681900e-001	9.325466e-002
8356299313	-6.915887e-001	-3.745231e-001	1.479300e-001	-1.822226e-001	4.040745e-002	5.480952e-002	-8.692913e-001	9.305013e-002
8362549125	-6.917895e-001	-3.745857e-001	1.475645e-001	-1.816049e-001	4.023462e-002	5.511284e-002	-8.692038e-001	9.337451e-002
8368798938	-6.921315e-001	-3.748177e-001	1.475666e-001	-1.808038e-001	4.052414e-002	5.539798e-002	-8.690137e-001	9.385957e-002
8375048750	-6.922295e-001	-3.746585e-001	1.468169e-001	-1.803692e-001	4.060711e-002	5.559381e-002	-8.682913e-001	9.385602e-002
8381298563	-6.931336e-001	-3.750973e-001	1.463597e-001	-1.795693e-001	4.082118e-002	5.584398e-002	-8.681161e-001	9.375358e-002
8387548375	-6.937711e-001	-3.749340e-001	1.460991e-001	-1.789630e-001	4.090014e-002	5.587154e-002	-8.676003e-001	9.383180e-002
8393798188	-6.931422e-001	-3.743309e-001	1.455757e-001	-1.781373e-001	4.099246e-002	5.598920e-002	-8.674057e-001	9.392772e-002
8400048000	-6.934579e-001	-3.747079e-001	1.450354e-001	-1.775537e-001	4.078020e-002	5.613857e-002	-8.680099e-001	9.366361e-002
8406297813	-6.942570e-001	-3.748526e-001	1.446429e-001	-1.770184e-001	4.098980e-002	5.631224e-002	-8.680212e-001	9.291512e-002
8412547625	-6.945053e-001	-3.750581e-001	1.444088e-001	-1.763919e-001	4.118281e-002	5.699610e-002	-8.679492e-001	9.246061e-002
8418797438	-6.946127e-001	-3.750667e-001	1.436841e-001	-1.758908e-001	4.120637e-002	5.705668e-002	-8.685633e-001	9.230183e-002
8425047250	-6.949269e-001	-3.746975e-001	1.434237e-001	-1.752979e-001	4.156733e-002	5.737670e-002	-8.680796e-001	9.226114e-002
8431297063	-6.951862e-001	-3.753622e-001	1.429588e-001	-1.742387e-001	4.144034e-002	5.759524e-002	-8.683386e-001	9.168461e-002
8437546875	-6.961481e-001	-3.756590e-001	1.426348e-001	-1.733899e-001	4.129343e-002	5.781212e-002	-8.681678e-001	9.198066e-002
8443796688	-6.960677e-001	-3.752604e-001	1.423435e-001	-1.725351e-001	4.144076e-002	5.770957e-002	-8.677503e-001	9.124881e-002
8450046500	-6.965336e-001	-3.751979e-001	1.420010e-001	-1.721888e-001	4.159197e-002	5.832719e-002	-8.677206e-001	9.134061e-002
8456296313	-6.966481e-001	-3.756353e-001	1.412661e-001	-1.712883e-001	4.159277e-002	5.787522e-002	-8.675569e-001	9.044008e-002
8462546125	-6.968243e-001	-3.755501e-001	1.413483e-001	-1.705830e-001	4.162319e-002	5.812309e-002	-8.676221e-001	9.051337e-002
8468795938	-6.969099e-001	-3.761034e-001	1.409812e-001	-1.697764e-001	4.204812e-002	5.837251e-002	-8.667525e-001	9.038389e-002
8475045750	-6.971822e-001	-3.759488e-001	1.405149e-001	-1.692736e-001	4.214440e-002	5.848802e-002	-8.668310e-001	9.017998e-002
8481295563	-6.978168e-001	-3.761536e-001	1.403046e-001	-1.684655e-001	4.232287e-002	5.873158e-002	-8.672015e-001	8.995573e-002
8487545375	-6.982057e-001	-3.759767e-001	1.396447e-001	-1.681592e-001	4.258621e-002	5.879330e-002	-8.668189e-001	9.096940e-002
8493795188	-6.977664e-001	-3.764454e-001	1.392209e-001	-1.671945e-001	4.260198e-002	5.940568e-002	-8.668367e-001	9.217917e-002
8500045000	-6.977233e-001	-3.770957e-001	1.386653e-001	-1.649389e-001	4.349821e-002	5.832818e-002	-8.699796e-001	9.559378e-002
8506294813	-6.991870e-001	-3.774652e-001	1.374652e-001	-1.657209e-001	4.292800e-002	5.909355e-002	-8.717609e-001	9.635755e-002
8512544625	-7.002495e-001	-3.752122e-001	1.372428e-001	-1.636351e-001	4.298890e-002	5.966658e-002	-8.726329e-001	9.772721e-002
8518794438	-6.992238e-001	-3.759917e-001	1.369547e-001	-1.645873e-001	4.261943e-002	6.023409e-002	-8.696173e-001	9.697011e-002
8525044250	-7.001796e-001	-3.759646e-001	1.365987e-001	-1.639063e-001	4.311927e-002	6.043246e-002	-8.706200e-001	9.763040e-002
8531294063	-6.998189e-001	-3.776275e-001	1.368140e-001	-1.622131e-001	4.322744e-002	6.132211e-002	-8.718473e-001	9.649057e-002
8537543875	-7.001437e-001	-3.766966e-001	1.358502e-001	-1.621671e-001	4.389505e-002	6.072628e-002	-8.697737e-001	9.775565e-002
8543793688	-7.003664e-001	-3.786738e-001	1.361859e-001	-1.606427e-001	4.362050e-002	6.075142e-002	-8.686989e-001	9.650656e-002
8550043500	-7.003928e-001	-3.791529e-001	1.350086e-001	-1.600137e-001	4.248184e-002	6.265805e-002	-8.696513e-001	9.735393e-002
8556293313	-7.010975e-001	-3.787672e-001	1.349202e-001	-1.595353e-001	4.305755e-002	6.271032e-002	-8.686958e-001	9.450146e-002
8562543125	-7.006817e-001	-3.743096e-001	1.344341e-001	-1.583998e-001	4.435435e-002	6.291766e-002	-8.685175e-001	9.603411e-002
8568792938	-7.001239e-001	-3.774586e-001	1.353533e-001	-1.584516e-001	4.496300e-002	6.232935e-002	-8.674283e-001	9.643737e-002
8575042750	-7.000792e-001	-3.788950e-001	1.343382e-001	-1.581153e-001	4.441834e-002	6.251280e-002	-8.685712e-001	9.307327e-002
8581292563	-7.020432e-001	-3.779584e-001	1.352264e-001	-1.565699e-001	4.422539e-002	6.329708e-002	-8.678734e-001	9.429859e-002
8587542375	-7.010958e-001	-3.775897e-001	1.344527e-001	-1.579755e-001	4.504022e-002	6.331032e-002	-8.684156e-001	9.331876e-002
8593792188	-7.012627e-001	-3.775185e-001	1.347700e-001	-1.557943e-001	4.445725e-002	6.339057e-002	-8.687769e-001	9.158216e-002
8600042000	-7.007522e-001	-3.763639e-001	1.338589e-001	-1.560220e-001	4.453338e-002	6.427188e-002	-8.677980e-001	8.982286e-002
8606291813	-7.018351e-001	-3.790090e-001	1.339228e-001	-1.546514e-001	4.441673e-002	6.417726e-002	-8.670530e-001	8.944681e-002
8612541625	-7.013443e-001	-3.784171e-001	1.340625e-001	-1.531263e-001	4.542238e-002	6.390045e-002	-8.679856e-001	8.857400e-002
8618791438	-7.026416e-001	-3.781330e-001	1.324608e-001	-1.537264e-001	4.566849e-002	6.361340e-002	-8.659050e-001	8.724562e-002
8625041250	-7.042244e-001	-3.787739e-001	1.322163e-001	-1.515049e-001	4.529107e-002	6.388446e-002	-8.676300e-001	8.859165e-002
8631291063	-7.029432e-001	-3.793735e-001	1.315653e-001	-1.500268e-001	4.522622e-002	6.404412e-002	-8.671647e-001	8.665044e-002
8637540875	-7.023202e-001	-3.799394e-001	1.320459e-001	-1.501625e-001	4.615844e-002	6.423079e-002	-8.659076e-001	8.671431e-002
8643790688	-7.013505e-001	-3.796615e-001	1.311067e-001	-1.496705e-001	4.506290e-002	6.557053e-002	-8.678660e-001	8.641032e-002
8650040500	-7.023253e-001	-3.805641e-001	1.306540e-001	-1.491695e-001	4.596627e-002	6.398984e-002	-8.662728e-001	8.971793e-002
8656290313	-7.029694e-001	-3.788976e-001	1.314109e-001	-1.484533e-001	4.617465e-002	6.484619e-002	-8.669710e-001	9.032081e-002
8662540125	-7.025205e-001	-3.789096e-001	1.297787e-001	-1.472314e-001	4.646416e-002	6.552633e-002	-8.672379e-001	9.228013e-002
8668789938	-7.024945e-001	-3.794470e-001	1.298493e-001	-1.467119e-001	4.612724e-002	6.577511e-002	-8.661984e-001	9.407622e-002
8675039750	-7.032183e-001	-3.804181e-001	1.301182e-001	-1.460709e-001	4.641572e-002	6.680260e-002	-8.688273e-001	9.303206e-002
8681289563	-7.038879e-001	-3.797279e-001	1.302885e-001	-1.461370e-001	4.680901e-002	6.624731e-002	-8.660180e-001	9.347191e-002
8687539375	-7.045664e-001	-3.798526e-001	1.293301e-001	-1.455772e-001	4.708971e-002	6.595099e-002	-8.671073e-001	9.475756e-002
8693789188	-7.050651e-001	-3.807458e-001	1.298094e-001	-1.452499e-001	4.738427e-002	6.706024e-002	-8.673406e-001	9.408295e-002
8700039000	-7.043123e-001	-3.813844e-001	1.289657e-001	-1.437132e-001	4.714010e-002	6.745596e-002	-8.654778e-001	9.412692e-002
8706288813	-7.038643e-001	-3.797809e-001	1.299000e-001	-1.440603e-001	4.826089e-002	6.768841e-002	-8.655515e-001	9.494918e-002
8712538625	-7.038757e-001	-3.808339e-001	1.293387e-001	-1.445069e-001	4.773074e-002	6.790765e-002	-8.642906e-001	9.519367e-002
8718788438	-7.038823e-001	-3.813136e-001	1.298899e-001	-1.425622e-001	4.768734e-002	6.781489e-002	-8.637680e-001	9.368553e-002
8725038250	-7.036646e-001	-3.814653e-001	1.285873e-001	-1.423179e-001	4.774399e-002	6.862348e-002	-8.641833e-001	9.386723e-002
8731288063	-7.050695e-001	-3.801870e-001	1.294159e-001	-1.414386e-001	4.832229e-002	6.850182e-002	-8.630743e-001	9.381147e-002
8737537875	-7.040042e-001	-3.808924e-001	1.286585e-001	-1.404163e-001	4.842583e-002	6.943245e-002	-8.623606e-001	9.302449e-002
8743787688	-7.060868e-001	-3.813153e-001	1.278371e-001	-1.401344e-001	4.845377e-002	6.976224e-002	-8.624807e-001	9.137493e-002
8750037500	-7.039849e-001	-3.818188e-001	1.277644e-001	-1.395092e-001	4.823239e-002	7.033103e-002	-8.615967e-001	8.977283e-002
8756287313	-7.040296e-001	-3.834767e-001	1.278513e-001	-1.387105e-001	4.848512e-002	7.008580e-002	-8.615880e-001	9.050564e-002
8762537125	-7.046059e-001	-3.816742e-001	1.275779e-001	-1.380915e-001	4.908675e-002	7.048495e-002	-8.613230e-001	8.813846e-002
8768786938	-7.062131e-001	-3.836670e-001	1.278180e-001	-1.370803e-001	4.875820e-002	7.088739e-002	-8.607262e-001	8.747735e-002
8775036750	-7.054251e-001	-3.827234e-001	1.275754e-001	-1.357016e-001	4.910628e-002	7.160422e-002	-8.598124e-001	8.925808e-002
8781286563	-7.051341e-001	-3.815619e-001	1.273692e-001	-1.342355e-001	5.052165e-002	7.055065e-002	-8.604399e-001	8.686425e-002
8787536375	-7.057595e-001	-3.841812e-001	1.274510e-001	-1.338444e-001	5.040038e-002	7.121643e-002	-8.599549e-001	8.637970e-002
8793786188	-7.073153e-001	-3.800701e-001	1.271049e-001	-1.343496e-001	5.102466e-002	7.185143e-002	-8.600466e-001	8.628702e-002
8800036000	-7.073445e-001	-3.820261e-001	1.264396e-001	-1.331832e-001	5.178784e-002	7.188032e-002	-8.602888e-001	8.666253e-002
8806285813	-7.046186e-001	-3.841928e-001	1.265425e-001	-1.325873e-001	5.054255e-002	7.157116e-002	-8.597771e-001	8.830958e-002
8812535625	-7.045849e-001	-3.834673e-001	1.263871e-001	-1.322472e-001	5.159479e-002	7.202501e-002	-8.623083e-001	8.558007e-002
8818785438	-7.045753e-001	-3.839723e-001	1.271955e-001	-1.308553e-001	5.193350e-002	7.201397e-002	-8.611310e-001	8.825541e-002
8825035250	-7.038479e-001	-3.825985e-001	1.253882e-001	-1.306824e-001	5.205725e-002	7.274807e-002	-8.614117e-001	8.720319e-002
8831285063	-7.049228e-001	-3.829656e-001	1.260266e-001	-1.300155e-001	5.110227e-002	7.384800e-002	-8.610965e-001	8.904261e-002
8837534875	-7.058284e-001	-3.842122e-001	1.266168e-001	-1.279873e-001	5.226915e-002	7.310296e-002	-8.596686e-001	8.853665e-002
8843784688	-7.063698e-001	-3.816605e-001	1.252366e-001	-1.295625e-001	5.154623e-002	7.397759e-002	-8.586609e-001	8.999977e-002
8850034500	-7.057678e-001	-3.836342e-001	1.267349e-001	-1.269762e-001	5.267765e-002	7.387223e-002	-8.573598e-001	8.803080e-002
8856284313	-7.061990e-001	-3.841615e-001	1.256977e-001	-1.273661e-001	5.300501e-002	7.516962e-002	-8.572616e-001	8.981422e-002
8862534125	-7.042801e-001	-3.847469e-001	1.265580e-001	-1.263963e-001	5.273988e-002	7.603465e-002	-8.568078e-001	8.896626e-002
8868783938	-7.050261e-001	-3.855917e-001	1.259177e-001	-1.254310e-001	5.384470e-002	7.469141e-002	-8.540385e-001	8.765910e-002
8875033750	-7.050157e-001	-3.852855e-001	1.268632e-001	-1.250875e-001	5.366261e-002	7.557711e-002	-8.551186e-001	8.966069e-002
8881283563	-7.047695e-001	-3.853884e-001	1.262562e-001	-1.249364e-001	5.384972e-002	7.628624e-002	-8.537958e-001	8.718510e-002
8887533375	-7.045341e-001	-3.818520e-001	1.256781e-001	-1.246293e-001	5.487605e-002	7.706257e-002	-8.527907e-001	8.813915e-002
8893783188	-7.045245e-001	-3.839209e-001	1.256308e-001	-1.239000e-001	5.434036e-002	7.674047e-002	-8.534877e-001	8.686566e-002
8900033000	-7.062524e-001	-3.838401e-001	1.263649e-001	-1.237825e-001	5.430314e-002	7.648428e-002	-8.509327e-001	8.709302e-002
8906282813	-7.039716e-001	-3.833209e-001	1.270111e-001	-1.224513e-001	5.468290e-002	7.737638e-002	-8.503724e-001	8.628077e-002
8912532625	-7.055554e-001	-3.838476e-001	1.261436e-001	-1.222207e-001	5.519563e-002	7.813046e-002	-8.492111e-001	8.420093e-002
8918782438	-7.056526e-001	-3.842722e-001	1.261552e-001	-1.213299e-001	5.554307e-002	7.823801e-002	-8.490804e-001	8.536087e-002
8925032250	-7.045023e-001	-3.836754e-001	1.259140e-001	-1.204764e-001	5.693597e-002	7.854457e-002	-8.485782e-001	8.411582e-002
8931282063	-7.028678e-001	-3.861191e-001	1.264098e-001	-1.191084e-001	5.754541e-002	7.904231e-002	-8.489963e-001	8.265608e-002
8937531875	-7.032101e-001	-3.848218e-001	1.258009e-001	-1.191519e-001	5.690363e-002	7.956475e-002	-8.472584e-001	8.233303e-002
8943781688	-7.032525e-001	-3.846118e-001	1.255474e-001	-1.185262e-001	5.820834e-002	7.898853e-002	-8.463819e-001	8.245216e-002
8950031500	-7.060621e-001	-3.844055e-001	1.266864e-001	-1.170054e-001	5.869871e-002	7.921630e-002	-8.485994e-001	8.281965e-002
8956281313	-7.045176e-001	-3.862429e-001	1.262211e-001	-1.168776e-001	5.907354e-002	7.925742e-002	-8.471642e-001	8.096084e-002
8962531125	-7.040347e-001	-3.876367e-001	1.264077e-001	-1.148804e-001	5.968957e-002	7.974019e-002	-8.476075e-001	8.281298e-002
8968780938	-7.053549e-001	-3.864082e-001	1.261941e-001	-1.144117e-001	6.019632e-002	8.101223e-002	-8.472088e-001	7.958640e-002
8975030750	-7.046107e-001	-3.876620e-001	1.267601e-001	-1.140562e-001	6.026613e-002	8.132102e-002	-8.478152e-001	8.394476e-002
8981280563	-7.050383e-001	-3.856326e-001	1.269116e-001	-1.130038e-001	6.035724e-002	8.069441e-002	-8.491741e-001	8.090578e-002
8987530375	-7.048133e-001	-3.864878e-001	1.271144e-001	-1.122035e-001	6.114946e-002	8.135008e-002	-8.465640e-001	8.049042e-002
8993780188	-7.028162e-001	-3.860664e-001	1.258504e-001	-1.120372e-001	6.040035e-002	8.179503e-002	-8.447257e-001	8.221018e-002
9000030000	-7.038374e-001	-3.866161e-001	1.269751e-001	-1.114788e-001	6.187101e-002	8.086644e-002	-8.431161e-001	8.103850e-002
9006279813	-7.008001e-001	-3.862622e-001	1.264486e-001	-1.105085e-001	6.189208e-002	8.249386e-002	-8.420608e-001	8.390975e-002
9012529625	-7.022411e-001	-3.879978e-001	1.265929e-001	-1.099056e-001	6.213888e-002	8.254180e-002	-8.404962e-001	8.249307e-002
9018779438	-7.020892e-001	-3.885139e-001	1.271284e-001	-1.095345e-001	6.247099e-002	8.275875e-002	-8.399445e-001	8.162007e-002
9025029250	-7.029795e-001	-3.899325e-001	1.274487e-001	-1.096188e-001	6.360145e-002	8.235733e-002	-8.385902e-001	8.147934e-002
9031279063	-7.001182e-001	-3.898849e-001	1.276828e-001	-1.087011e-001	6.407642e-002	8.347888e-002	-8.380045e-001	8.104786e-002
9037528875	-7.011028e-001	-3.897617e-001	1.285111e-001	-1.081497e-001	6.411290e-002	8.360363e-002	-8.358259e-001	8.136395e-002
9043778688	-7.042357e-001	-3.890566e-001	1.288206e-001	-1.078175e-001	6.471008e-002	8.380786e-002	-8.349939e-001	7.998758e-002
9050028500	-7.021817e-001	-3.914048e-001	1.290718e-001	-1.061339e-001	6.528557e-002	8.407176e-002	-8.347178e-001	8.209777e-002
9056278313	-7.014040e-001	-3.903102e-001	1.295063e-001	-1.054681e-001	6.490201e-002	8.497837e-002	-8.322749e-001	8.015042e-002
9062528125	-7.003546e-001	-3.895057e-001	1.296979e-001	-1.056856e-001	6.603370e-002	8.530404e-002	-8.323174e-001	7.999815e-002
9068777938	-7.011259e-001	-3.894952e-001	1.302538e-001	-1.050063e-001	6.647195e-002	8.487553e-002	-8.310391e-001	7.833844e-002
9075027750	-7.000037e-001	-3.913522e-001	1.292585e-001	-1.038054e-001	6.750863e-002	8.588507e-002	-8.299948e-001	7.666002e-002
9081277563	-7.004943e-001	-3.897079e-001	1.300952e-001	-1.041532e-001	6.866603e-002	8.616329e-002	-8.275618e-001	7.677706e-002
9087527375	-6.981837e-001	-3.899526e-001	1.311323e-001	-1.029707e-001	6.920933e-002	8.620269e-002	-8.263784e-001	7.605225e-002
9093777188	-7.003616e-001	-3.896508e-001	1.301255e-001	-1.019023e-001	6.971113e-002	8.562715e-002	-8.268643e-001	7.532178e-002
9100027000	-6.986250e-001	-3.897474e-001	1.307597e-001	-1.027099e-001	7.139086e-002	8.631249e-002	-8.236743e-001	7.462501e-002
9106276813	-6.975020e-001	-3.895446e-001	1.319504e-001	-1.007628e-001	7.191905e-002	8.643832e-002	-8.241718e-001	7.312528e-002
9112526625	-6.981119e-001	-3.902744e-001	1.312570e-001	-1.003137e-001	7.268788e-002	8.679380e-002	-8.237614e-001	7.241781e-002
9118776438	-6.981918e-001	-3.921411e-001	1.320467e-001	-1.006046e-001	7.348834e-002	8.713005e-002	-8.245180e-001	7.249017e-002
9125026250	-6.975099e-001	-3.910205e-001	1.331531e-001	-9.964215e-002	7.365200e-002	8.706571e-002	-8.244928e-001	7.029166e-002
9131276063	-6.982143e-001	-3.914232e-001	1.328556e-001	-9.909866e-002	7.470919e-002	8.676050e-002	-8.236697e-001	7.086802e-002
9137525875	-6.967801e-001	-3.907912e-001	1.332431e-001	-9.853859e-002	7.545239e-002	8.741821e-002	-8.241913e-001	7.003615e-002
9143775688	-6.950800e-001	-3.924409e-001	1.340758e-001	-9.780471e-002	7.578130e-002	8.789804e-002	-8.239253e-001	7.094796e-002
9150025500	-6.965820e-001	-3.898073e-001	1.341781e-001	-9.766961e-002	7.678944e-002	8.756994e-002	-8.208887e-001	6.742935e-002
9156275313	-6.960526e-001	-3.921365e-001	1.351326e-001	-9.710529e-002	7.664092e-002	8.714282e-002	-8.186613e-001	6.923408e-002
9162525125	-6.962728e-001	-3.894277e-001	1.353042e-001	-9.602507e-002	7.804654e-002	8.834681e-002	-8.194982e-001	6.749182e-002
9168774938	-6.958252e-001	-3.923538e-001	1.353351e-001	-9.615455e-002	7.923232e-002	8.714493e-002	-8.152670e-001	6.936531e-002
9175024750	-6.923290e-001	-3.939110e-001	1.364288e-001	-9.465061e-002	7.983869e-002	8.766833e-002	-8.147092e-001	6.800983e-002
9181274563	-6.949384e-001	-3.934198e-001	1.360585e-001	-9.483913e-002	8.068994e-002	8.906866e-002	-8.133082e-001	6.687835e-002
9187524375	-6.925171e-001	-3.943825e-001	1.382248e-001	-9.351550e-002	8.001247e-002	8.823826e-002	-8.096744e-001	6.500104e-002
9193774188	-6.916999e-001	-3.956234e-001	1.366272e-001	-9.492323e-002	8.261100e-002	8.878015e-002	-8.081216e-001	6.528267e-002
9200024000	-6.909947e-001	-3.941546e-001	1.380663e-001	-9.294601e-002	8.258817e-002	8.877541e-002	-8.066663e-001	6.572378e-002
9206273813	-6.933222e-001	-3.935787e-001	1.384125e-001	-9.260545e-002	8.307630e-002	8.784949e-002	-8.054775e-001	6.458661e-002
9212523625	-6.892134e-001	-3.943396e-001	1.390595e-001	-9.247787e-002	8.401366e-002	8.894199e-002	-8.035315e-001	6.135259e-002
9218773438	-6.904866e-001	-3.943229e-001	1.402067e-001	-9.242945e-002	8.483551e-002	8.828502e-002	-8.024610e-001	6.262456e-002
9225023250	-6.917683e-001	-3.946331e-001	1.410724e-001	-9.232162e-002	8.587721e-002	8.896812e-002	-8.008503e-001	6.162757e-002
9231273063	-6.890981e-001	-3.958536e-001	1.417301e-001	-9.259814e-002	8.605491e-002	8.895446e-002	-7.976042e-001	5.993759e-002
9237522875	-6.872491e-001	-3.964944e-001	1.424596e-001	-9.230042e-002	8.773395e-002	8.845791e-002	-7.968999e-001	5.882385e-002
9243772688	-6.869062e-001	-3.942599e-001	1.437322e-001	-9.137924e-002	8.894745e-002	8.825975e-002	-7.982616e-001	5.592939e-002
9250022500	-6.848853e-001	-3.970259e-001	1.436948e-001	-9.177225e-002	9.025317e-002	8.755633e-002	-7.946050e-001	5.703033e-002
9256272313	-6.852762e-001	-3.957321e-001	1.446516e-001	-9.103877e-002	9.148953e-002	8.820819e-002	-7.951058e-001	5.545375e-002
9262522125	-6.862994e-001	-4.004150e-001	1.456567e-001	-9.023925e-002	9.296087e-002	8.813072e-002	-7.914873e-001	5.351105e-002
9268771938	-6.824705e-001	-3.974366e-001	1.453323e-001	-9.075732e-002	9.440923e-002	8.756267e-002	-7.913073e-001	5.086262e-002
9275021750	-6.829108e-001	-3.977873e-001	1.461701e-001	-8.974877e-002	9.464396e-002	8.713104e-002	-7.897848e-001	5.029295e-002
9281271563	-6.837833e-001	-3.988507e-001	1.472730e-001	-9.013467e-002	9.594960e-002	8.634076e-002	-7.888243e-001	4.794709e-002
9287521375	-6.825947e-001	-3.991955e-001	1.473710e-001	-8.962651e-002	9.691545e-002	8.668479e-002	-7.891737e-001	4.552139e-002
9293771188	-6.813352e-001	-4.021579e-001	1.477726e-001	-8.865228e-002	9.738386e-002	8.605356e-002	-7.889479e-001	4.418908e-002
9300021000	-6.793472e-001	-3.994859e-001	1.490958e-001	-8.991571e-002	9.975996e-002	8.597074e-002	-7.892198e-001	4.198980e-002
9306270813	-6.788433e-001	-4.000885e-001	1.502097e-001	-8.888975e-002	1.012137e-001	8.582361e-002	-7.879535e-001	3.986033e-002
9312520625	-6.824679e-001	-3.996479e-001	1.513695e-001	-8.887599e-002	1.010861e-001	8.570088e-002	-7.857762e-001	3.891765e-002
9318770438	-6.778768e-001	-4.024379e-001	1.514368e-001	-8.855040e-002	1.014873e-001	8.468789e-002	-7.822720e-001	3.837374e-002
9325020250	-6.768009e-001	-4.020392e-001	1.528378e-001	-8.881924e-002	1.037179e-001	8.481152e-002	-7.823627e-001	3.879043e-002
9331270063	-6.758860e-001	-4.013082e-001	1.536800e-001	-8.889666e-002	1.041341e-001	8.400803e-002	-7.789200e-001	3.512797e-002
9337519875	-6.733652e-001	-4.021153e-001	1.553322e-001	-8.964890e-002	1.049632e-001	8.326518e-002	-7.777179e-001	3.454703e-002
9343769688	-6.727795e-001	-4.035382e-001	1.561712e-001	-8.918405e-002	1.059794e-001	8.285667e-002	-7.764737e-001	3.181906e-002
9350019500	-6.722769e-001	-4.033119e-001	1.562075e-001	-8.943210e-002	1.067570e-001	8.238142e-002	-7.750718e-001	3.250100e-002
9356269313	-6.701083e-001	-4.055913e-001	1.574399e-001	-8.989120e-002	1.083087e-001	8.131221e-002	-7.716178e-001	3.013205e-002
9362519125	-6.703427e-001	-4.060630e-001	1.587414e-001	-9.088198e-002	1.087201e-001	8.146512e-002	-7.722945e-001	2.755614e-002
9368768938	-6.694168e-001	-4.076059e-001	1.592719e-001	-9.066919e-002	1.094892e-001	8.073621e-002	-7.690440e-001	2.485675e-002
9375018750	-6.711871e-001	-4.069498e-001	1.600990e-001	-9.141029e-002	1.108690e-001	7.908161e-002	-7.665970e-001	2.315944e-002
9381268563	-6.680965e-001	-4.066701e-001	1.609857e-001	-9.177449e-002	1.121447e-001	7.893767e-002	-7.650491e-001	2.039243e-002
9387518375	-6.672032e-001	-4.097086e-001	1.622498e-001	-9.173269e-002	1.140541e-001	7.792121e-002	-7.634242e-001	1.728973e-002
9393768188	-6.651656e-001	-4.103018e-001	1.625406e-001	-9.300203e-002	1.146730e-001	7.801119e-002	-7.627420e-001	1.464993e-002
9400018000	-6.651019e-001	-4.105769e-001	1.628863e-001	-9.222666e-002	1.149475e-001	7.607587e-002	-7.591618e-001	1.292311e-002
9406267813	-6.632281e-001	-4.116349e-001	1.644101e-001	-9.386287e-002	1.168120e-001	7.477689e-002	-7.580328e-001	1.040703e-002
9412517625	-6.619586e-001	-4.112757e-001	1.651858e-001	-9.449210e-002	1.176093e-001	7.427261e-002	-7.578272e-001	8.265020e-003
9418767438	-6.620809e-001	-4.131440e-001	1.661551e-001	-9.536191e-002	1.194141e-001	7.304692e-002	-7.558122e-001	6.378120e-003
9425017250	-6.587903e-001	-4.137319e-001	1.661980e-001	-9.619235e-002	1.199613e-001	7.109631e-002	-7.562187e-001	4.037452e-003
9431267063	-6.600907e-001	-4.131321e-001	1.670739e-001	-9.646174e-002	1.218078e-001	6.984370e-002	-7.561125e-001	1.628205e-003
9437516875	-6.596162e-001	-4.166587e-001	1.682552e-001	-9.821019e-002	1.232224e-001	6.841319e-002	-7.550711e-001	-2.113488e-003
9443766688	-6.589118e-001	-4.160901e-001	1.697886e-001	-9.850177e-002	1.235305e-001	6.711168e-002	-7.537403e-001	-8.100834e-003
9450016500	-6.560737e-001	-4.174855e-001	1.698725e-001	-9.906316e-002	1.237763e-001	6.605032e-002	-7.539417e-001	-1.120829e-002
9456266313	-6.548213e-001	-4.202151e-001	1.710356e-001	-1.008156e-001	1.249205e-001	6.410129e-002	-7.553608e-001	-1.591128e-002
9462516125	-6.555910e-001	-4.207740e-001	1.705065e-001	-1.010194e-001	1.254515e-001	6.204741e-002	-7.562990e-001	-1.975525e-002
9468765938	-6.540290e-001	-4.232171e-001	1.723204e-001	-1.023813e-001	1.265656e-001	6.121113e-002	-7.539172e-001	-2.115431e-002
9475015750	-6.553834e-001	-4.233235e-001	1.724469e-001	-1.038548e-001	1.264199e-001	5.841493e-002	-7.541379e-001	-2.467533e-002
9481265563	-6.542769e-001	-4.269821e-001	1.729540e-001	-1.042208e-001	1.264222e-001	5.789382e-002	-7.543443e-001	-2.757049e-002
9487515375	-6.519964e-001	-4.276405e-001	1.735506e-001	-1.050105e-001	1.264726e-001	5.665667e-002	-7.529304e-001	-3.043936e-002
9493765188	-6.507597e-001	-4.293390e-001	1.732801e-001	-1.074871e-001	1.269879e-001	5.491530e-002	-7.547240e-001	-3.348694e-002
9500015000	-6.518924e-001	-4.297563e-001	1.738969e-001	-1.090648e-001	1.273760e-001	5.291969e-002	-7.513991e-001	-3.611742e-002
9506264813	-6.468472e-001	-4.340161e-001	1.735779e-001	-1.091015e-001	1.270378e-001	5.177049e-002	-7.519320e-001	-3.688825e-002
9512514625	-6.502493e-001	-4.344173e-001	1.736315e-001	-1.107577e-001	1.269222e-001	4.947148e-002	-7.514659e-001	-4.111352e-002
9518764438	-6.483259e-001	-4.359460e-001	1.745152e-001	-1.114809e-001	1.270497e-001	4.817623e-002	-7.541808e-001	-4.404056e-002
9525014250	-6.498836e-001	-4.359179e-001	1.737502e-001	-1.128927e-001	1.258184e-001	4.561252e-002	-7.524739e-001	-4.614556e-002
9531264063	-6.487265e-001	-4.383684e-001	1.744036e-001	-1.150710e-001	1.270638e-001	4.272806e-002	-7.519115e-001	-4.869890e-002
9537513875	-6.473135e-001	-4.416895e-001	1.746410e-001	-1.158162e-001	1.252552e-001	4.213332e-002	-7.535290e-001	-5.258914e-002
9543763688	-6.489465e-001	-4.405902e-001	1.732063e-001	-1.174190e-001	1.255092e-001	4.072293e-002	-7.524296e-001	-5.586650e-002
9550013500	-6.463089e-001	-4.418241e-001	1.733499e-001	-1.192293e-001	1.252688e-001	3.980319e-002	-7.512186e-001	-5.735706e-002
9556263313	-6.493892e-001	-4.421793e-001	1.725084e-001	-1.195483e-001	1.244126e-001	3.840892e-002	-7.554414e-001	-6.127594e-002
9562513125	-6.483197e-001	-4.432473e-001	1.731557e-001	-1.213261e-001	1.245146e-001	3.561960e-002	-7.567384e-001	-6.519850e-002
9568762938	-6.437394e-001	-4.456557e-001	1.707988e-001	-1.225158e-001	1.237560e-001	3.485282e-002	-7.585031e-001	-6.461630e-002
9575012750	-6.453308e-001	-4.491130e-001	1.711313e-001	-1.238400e-001	1.244306e-001	3.298699e-002	-7.612717e-001	-6.874985e-002
9581262563	-6.465570e-001	-4.474782e-001	1.705091e-001	-1.258036e-001	1.234386e-001	3.190585e-002	-7.571409e-001	-7.207623e-002
9587512375	-6.430095e-001	-4.522076e-001	1.703816e-001	-1.254527e-001	1.227324e-001	2.983747e-002	-7.598984e-001	-7.396129e-002
9593762188	-6.446575e-001	-4.524217e-001	1.692031e-001	-1.265219e-001	1.218578e-001	2.893548e-002	-7.624363e-001	-7.653071e-002
9600012000	-6.444917e-001	-4.564750e-001	1.679693e-001	-1.281242e-001	1.207251e-001	2.688731e-002	-7.647305e-001	-8.235093e-002
9606261813	-6.476500e-001	-4.567792e-001	1.676055e-001	-1.291360e-001	1.188877e-001	2.661521e-002	-7.650796e-001	-8.300325e-002
9612511625	-6.458848e-001	-4.560826e-001	1.665350e-001	-1.299077e-001	1.194553e-001	2.552876e-002	-7.670706e-001	-8.825957e-002
9618761438	-6.467451e-001	-4.594582e-001	1.652270e-001	-1.306381e-001	1.180284e-001	2.408784e-002	-7.687347e-001	-9.066972e-002
9625011250	-6.470282e-001	-4.596881e-001	1.644551e-001	-1.309014e-001	1.167320e-001	2.288463e-002	-7.750057e-001	-9.300478e-002
9631261063	-6.431718e-001	-4.598255e-001	1.626610e-001	-1.313711e-001	1.149556e-001	2.222103e-002	-7.789562e-001	-9.501368e-002
9637510875	-6.450557e-001	-4.605024e-001	1.629317e-001	-1.315194e-001	1.137859e-001	2.052456e-002	-7.761367e-001	-9.763724e-002
9643760688	-6.462117e-001	-4.663170e-001	1.608738e-001	-1.329755e-001	1.120489e-001	2.097944e-002	-7.796838e-001	-9.651464e-002
9650010500	-6.444967e-001	-4.642365e-001	1.602779e-001	-1.345735e-001	1.114509e-001	1.976712e-002	-7.811778e-001	-9.499128e-002
9656260313	-6.471344e-001	-4.657484e-001	1.584428e-001	-1.339021e-001	1.109361e-001	1.880166e-002	-7.831589e-001	-9.916325e-002
9662510125	-6.454178e-001	-4.693286e-001	1.581057e-001	-1.353364e-001	1.091966e-001	1.863343e-002	-7.823553e-001	-9.739063e-002
9668759938	-6.484301e-001	-4.695862e-001	1.571426e-001	-1.342461e-001	1.081105e-001	1.831302e-002	-7.839318e-001	-9.867746e-002
9675009750	-6.462669e-001	-4.700416e-001	1.553661e-001	-1.349183e-001	1.073275e-001	1.730479e-002	-7.860708e-001	-1.013476e-001
9681259563	-6.485106e-001	-4.714010e-001	1.540809e-001	-1.356657e-001	1.056263e-001	1.692975e-002	-7.854293e-001	-1.006823e-001
9687509375	-6.501565e-001	-4.716617e-001	1.541942e-001	-1.367718e-001	1.051496e-001	1.600316e-002	-7.856334e-001	-1.020737e-001
9693759188	-6.477067e-001	-4.743749e-001	1.545623e-001	-1.357249e-001	1.035793e-001	1.615832e-002	-7.877243e-001	-1.049415e-001
9700009000	-6.501340e-001	-4.732817e-001	1.528745e-001	-1.364330e-001	1.028615e-001	1.598388e-002	-7.890041e-001	-1.062010e-001
9706258813	-6.509703e-001	-4.729280e-001	1.527391e-001	-1.365550e-001	1.016694e-001	1.607595e-002	-7.870973e-001	-1.056745e-001
9712508625	-6.487724e-001	-4.771945e-001	1.505747e-001	-1.366564e-001	1.011090e-001	1.552069e-002	-7.924236e-001	-1.070629e-001
9718758438	-6.500487e-001	-4.784973e-001	1.494119e-001	-1.370459e-001	9.993933e-002	1.475658e-002	-7.920858e-001	-1.073976e-001
9725008250	-6.469417e-001	-4.783195e-001	1.485480e-001	-1.379160e-001	9.921376e-002	1.399014e-002	-7.941909e-001	-1.078099e-001
9731258063	-6.516552e-001	-4.747617e-001	1.484606e-001	-1.374248e-001	9.748604e-002	1.365829e-002	-7.940380e-001	-1.092224e-001
9737507875	-6.473175e-001	-4.769400e-001	1.475031e-001	-1.375906e-001	9.658710e-002	1.384978e-002	-7.954281e-001	-1.087601e-001
9743757688	-6.472245e-001	-4.797017e-001	1.456478e-001	-1.375429e-001	9.568876e-002	1.411149e-002	-7.987352e-001	-1.129343e-001
9750007500	-6.505804e-001	-4.817177e-001	1.449714e-001	-1.368358e-001	9.504481e-002	1.323300e-002	-7.989599e-001	-1.121162e-001
9756257313	-6.497864e-001	-4.813924e-001	1.438597e-001	-1.376236e-001	9.419415e-002	1.318050e-002	-8.021707e-001	-1.152518e-001
9762507125	-6.470064e-001	-4.867902e-001	1.436045e-001	-1.373379e-001	9.417803e-002	1.395611e-002	-8.010014e-001	-1.133343e-001
9768756938	-6.524050e-001	-4.837548e-001	1.433206e-001	-1.359111e-001	9.382265e-002	1.336743e-002	-8.047575e-001	-1.173991e-001
9775006750	-6.497117e-001	-4.860024e-001	1.413678e-001	-1.379025e-001	9.256854e-002	1.353623e-002	-8.048995e-001	-1.195803e-001
9781256563	-6.505797e-001	-4.851130e-001	1.412597e-001	-1.375080e-001	9.108850e-002	1.387724e-002	-8.057556e-001	-1.198792e-001
9787506375	-6.478124e-001	-4.853516e-001	1.389988e-001	-1.361363e-001	9.032570e-002	1.291163e-002	-8.066184e-001	-1.189863e-001
9793756188	-6.511452e-001	-4.851774e-001	1.389538e-001	-1.360399e-001	8.959559e-002	1.299161e-002	-8.073220e-001	-1.194416e-001
9800006000	-6.496445e-001	-4.862580e-001	1.380533e-001	-1.356954e-001	8.810805e-002	1.328271e-002	-8.079553e-001	-1.206565e-001
9806255813	-6.498404e-001	-4.861314e-001	1.381345e-001	-1.348322e-001	8.762756e-002	1.437512e-002	-8.121923e-001	-1.203493e-001
9812505625	-6.509978e-001	-4.876768e-001	1.373894e-001	-1.362522e-001	8.688750e-002	1.411509e-002	-8.108661e-001	-1.196768e-001
9818755438	-6.471446e-001	-4.866629e-001	1.373184e-001	-1.351695e-001	8.641049e-002	1.368545e-002	-8.137069e-001	-1.190649e-001
9825005250	-6.505546e-001	-4.864548e-001	1.346512e-001	-1.351591e-001	8.616418e-002	1.329572e-002	-8.132178e-001	-1.178962e-001
9831255063	-6.488615e-001	-4.884177e-001	1.354240e-001	-1.347636e-001	8.401723e-002	1.357651e-002	-8.137371e-001	-1.219056e-001
9837504875	-6.459931e-001	-4.900153e-001	1.344122e-001	-1.349635e-001	8.552818e-002	1.416145e-002	-8.121079e-001	-1.194972e-001
9843754688	-6.521928e-001	-4.910403e-001	1.341486e-001	-1.343154e-001	8.369086e-002	1.418035e-002	-8.141026e-001	-1.205977e-001
9850004500	-6.473471e-001	-4.862919e-001	1.331113e-001	-1.336873e-001	8.252671e-002	1.420520e-002	-8.144261e-001	-1.180941e-001
9856254313	-6.481193e-001	-4.920173e-001	1.316935e-001	-1.345112e-001	8.139640e-002	1.450320e-002	-8.157263e-001	-1.192916e-001
9862504125	-6.484145e-001	-4.912046e-001	1.313318e-001	-1.343649e-001	8.149522e-002	1.438506e-002	-8.173758e-001	-1.211884e-001
9868753938	-6.499299e-001	-4.908675e-001	1.316165e-001	-1.343763e-001	8.086957e-002	1.469841e-002	-8.168165e-001	-1.191074e-001
9875003750	-6.480421e-001	-4.920799e-001	1.297189e-001	-1.343605e-001	8.021247e-002	1.472565e-002	-8.175197e-001	-1.223484e-001
9881253563	-6.483819e-001	-4.955821e-001	1.291453e-001	-1.347042e-001	7.975777e-002	1.549162e-002	-8.178020e-001	-1.194278e-001
9887503375	-6.484867e-001	-4.947299e-001	1.293405e-001	-1.334268e-001	7.883683e-002	1.549577e-002	-8.181137e-001	-1.195757e-001
9893753188	-6.473967e-001	-4.913363e-001	1.283957e-001	-1.328123e-001	7.848299e-002	1.607201e-002	-8.195804e-001	-1.233112e-001
9900003000	-6.459415e-001	-4.925112e-001	1.280543e-001	-1.326513e-001	7.846325e-002	1.728233e-002	-8.200715e-001	-1.204839e-001
9906252813	-6.464215e-001	-4.932626e-001	1.273882e-001	-1.320288e-001	7.793548e-002	1.745447e-002	-8.233982e-001	-1.238741e-001
9912502625	-6.471521e-001	-4.942056e-001	1.263017e-001	-1.310664e-001	7.724085e-002	1.734972e-002	-8.230295e-001	-1.246457e-001
9918752438	-6.451411e-001	-4.933955e-001	1.260638e-001	-1.300973e-001	7.696387e-002	1.810739e-002	-8.243257e-001	-1.246965e-001
9925002250	-6.451154e-001	-4.992001e-001	1.265240e-001	-1.291890e-001	7.665912e-002	1.893529e-002	-8.248536e-001	-1.248927e-001
9931252063	-6.435657e-001	-4.952957e-001	1.247535e-001	-1.291433e-001	7.619607e-002	1.902432e-002	-8.252023e-001	-1.284803e-001
9937501875	-6.439346e-001	-4.969602e-001	1.247070e-001	-1.282507e-001	7.689827e-002	1.967327e-002	-8.281143e-001	-1.256400e-001
9943751688	-6.441790e-001	-4.948744e-001	1.246882e-001	-1.278339e-001	7.614211e-002	1.888400e-002	-8.256967e-001	-1.276772e-001
9950001500	-6.446658e-001	-4.968410e-001	1.242050e-001	-1.269008e-001	7.591365e-002	1.962675e-002	-8.263097e-001	-1.285783e-001
9956251313	-6.420582e-001	-4.949792e-001	1.238485e-001	-1.257919e-001	7.630458e-002	2.003335e-002	-8.291619e-001	-1.257013e-001
9962501125	-6.422555e-001	-4.998114e-001	1.232606e-001	-1.269432e-001	7.589702e-002	1.944666e-002	-8.261597e-001	-1.249595e-001
9968750938	-6.405610e-001	-5.017135e-001	1.247104e-001	-1.266648e-001	7.594154e-002	2.064854e-002	-8.295649e-001	-1.248399e-001
9975000750	-6.392196e-001	-5.015146e-001	1.236285e-001	-1.257535e-001	7.575022e-002	2.084282e-002	-8.253717e-001	-1.227736e-001
9981250563	-6.408773e-001	-4.990294e-001	1.237459e-001	-1.262669e-001	7.624453e-002	2.074613e-002	-8.260847e-001	-1.232568e-001
9987500375	-6.373280e-001	-5.043247e-001	1.229042e-001	-1.256226e-001	7.528947e-002	2.083878e-002	-8.250930e-001	-1.195015e-001
9993750188	-6.381337e-001	-5.068186e-001	1.228931e-001	-1.258883e-001	7.558804e-002	2.065980e-002	-8.246076e-001	-1.235060e-001
10000000000	-6.378828e-001	-5.033397e-001	1.235961e-001	-1.256307e-001	7.424714e-002	2.012622e-002	-8.266334e-001	-1.204644e-001


!Noise Parameters
!Freq  NFmin(dB)  Mag(GammaOpt)  Ang(GammaOpt)(deg)  rn(normalized by ref. impedance)
1800000000         0.84218      0.42422      56.462       0.21031     
1850000000         0.8449       0.33562      63.968       0.48473     
1900000000         0.83201      0.37381      55.582       0.19826     
1950000000         0.83764      0.36074      58.717       0.19916     
2000000000         0.83504      0.35845      62.684       0.19957     
2050000000         0.85443      0.36552      65.304       0.1931      
2100000000         0.86568      0.38125      67.792       0.18859     
2150000000         0.86861      0.38737      66.519       0.19191     
2200000000         0.87125      0.39492      65.2         0.19558     
2250000000         0.88209      0.39901      66.822       0.19347     
2300000000         0.89129      0.4096       68.619       0.19085     
2350000000         0.89074      0.3979       70.018       0.1919      
2400000000         0.895141     0.39033      72.07        0.18974     
2450000000         0.89417      0.4222       73.595       0.18653     
2500000000         0.88035      0.40669      75.146       0.19095     
2550000000         0.90467      0.40998      76.216       0.19019     
2600000000         0.92792      0.41712      77.484       0.18824     
2650000000         0.93935      0.41707      78.204       0.18942     
2700000000         0.94269      0.41536      79.732       0.18751    
