! Infineon Technologies AG
!
! BGA915N7
! Silicon Germanium GPS Low Noise Amplifier in TSNP-7-6
!
! Vcc=1.8 V, PON=1.8 V, Icc=4.4 mA (On-Mode)
! measured on Application Board BGA915N7 V1.0

! C1=1uF, C2=0Ohm (Jumper), L1=82nH, L2=0Ohm (Jumper), C3: not used
!
! Measured S- and Noise Parameters
!
! Frequency    		S11                         S21                         S12                         S22
# Hz S  dB   R 50
10000000 -4.009171e+000 -2.599608e+000 -3.543140e+001 -8.872886e+001 -6.672064e+001 4.716401e+001 -4.515305e-003 -1.338392e+000
20000000 -4.224161e+000 -6.451385e+000 -3.055069e+001 -8.969733e+001 -7.494511e+001 -7.554514e+001 -1.693169e-003 -2.617731e+000
30000000 -4.519566e+000 -8.992611e+000 -2.721679e+001 -9.095399e+001 -8.406239e+001 1.617892e+002 -2.620336e-003 -3.970278e+000
40000000 -4.921885e+000 -1.098784e+001 -2.495967e+001 -9.040054e+001 -8.273412e+001 1.489082e+002 -4.102256e-003 -5.253873e+000
50000000 -5.355525e+000 -1.241620e+001 -2.282253e+001 -9.004903e+001 -8.403568e+001 1.565445e+002 -2.372530e-003 -6.497678e+000
60000000 -5.880791e+000 -1.272376e+001 -2.156250e+001 -8.991911e+001 -7.383463e+001 1.189853e+002 -2.166371e-003 -7.815673e+000
70000000 -6.391442e+000 -1.234200e+001 -2.023718e+001 -8.876769e+001 -8.653417e+001 9.288265e+001 -7.646177e-003 -9.171989e+000
80000000 -6.886911e+000 -1.140428e+001 -1.909617e+001 -8.716526e+001 -7.290802e+001 1.191149e+002 -1.206464e-002 -1.048392e+001
90000000 -7.285899e+000 -9.522092e+000 -1.807655e+001 -8.553674e+001 -7.322605e+001 8.701913e+001 -1.620490e-002 -1.180358e+001
100000000 -7.564838e+000 -6.891627e+000 -1.704698e+001 -8.479886e+001 -6.792848e+001 1.368235e+002 -2.403150e-002 -1.310397e+001
110000000 -7.809141e+000 -4.068133e+000 -1.617382e+001 -8.377620e+001 -6.996205e+001 1.243188e+002 -3.244865e-002 -1.438229e+001
120000000 -7.915105e+000 -8.417326e-001 -1.522644e+001 -8.253351e+001 -6.755612e+001 1.377444e+002 -4.291121e-002 -1.566304e+001
130000000 -7.916561e+000 2.226767e+000 -1.435279e+001 -8.121219e+001 -6.898851e+001 1.248950e+002 -5.117227e-002 -1.695100e+001
140000000 -7.843317e+000 4.902713e+000 -1.352655e+001 -8.045361e+001 -6.701862e+001 1.253270e+002 -5.972552e-002 -1.826264e+001
150000000 -7.665218e+000 7.403350e+000 -1.271524e+001 -7.985857e+001 -6.700121e+001 1.317069e+002 -7.134669e-002 -1.954774e+001
160000000 -7.473260e+000 9.638015e+000 -1.189329e+001 -7.900092e+001 -6.640207e+001 1.046796e+002 -7.866991e-002 -2.084068e+001
170000000 -7.194867e+000 1.153875e+001 -1.112549e+001 -7.876801e+001 -6.698661e+001 1.317906e+002 -9.284592e-002 -2.211624e+001
180000000 -6.936110e+000 1.293839e+001 -1.033271e+001 -7.855872e+001 -6.810892e+001 1.334312e+002 -1.024994e-001 -2.342358e+001
190000000 -6.637295e+000 1.400075e+001 -9.584928e+000 -7.835614e+001 -6.629148e+001 1.282955e+002 -1.160194e-001 -2.470217e+001
200000000 -6.340741e+000 1.466085e+001 -8.865100e+000 -7.851659e+001 -6.630271e+001 1.345493e+002 -1.347868e-001 -2.600217e+001
210000000 -6.068005e+000 1.528868e+001 -8.164298e+000 -7.889812e+001 -6.624177e+001 1.279006e+002 -1.507171e-001 -2.727166e+001
220000000 -5.768638e+000 1.542255e+001 -7.477316e+000 -7.932272e+001 -6.826244e+001 1.527058e+002 -1.671210e-001 -2.856349e+001
230000000 -5.522192e+000 1.556757e+001 -6.815651e+000 -7.993271e+001 -6.647723e+001 1.457986e+002 -1.840564e-001 -2.981017e+001
240000000 -5.257482e+000 1.546962e+001 -6.156223e+000 -8.070004e+001 -6.895347e+001 1.621753e+002 -2.050029e-001 -3.107644e+001
250000000 -5.014978e+000 1.528223e+001 -5.545295e+000 -8.163622e+001 -6.490233e+001 1.672077e+002 -2.219521e-001 -3.233506e+001
260000000 -4.790843e+000 1.496951e+001 -4.924219e+000 -8.268383e+001 -6.325882e+001 1.739133e+002 -2.472397e-001 -3.359154e+001
270000000 -4.572281e+000 1.445535e+001 -4.329398e+000 -8.388386e+001 -6.184256e+001 1.783510e+002 -2.715373e-001 -3.484864e+001
280000000 -4.370685e+000 1.392002e+001 -3.757531e+000 -8.503916e+001 -5.973467e+001 1.766674e+002 -2.985819e-001 -3.609117e+001
290000000 -4.190818e+000 1.335755e+001 -3.207099e+000 -8.649467e+001 -5.878335e+001 -1.769366e+002 -3.263148e-001 -3.733582e+001
300000000 -4.013037e+000 1.266399e+001 -2.694116e+000 -8.792713e+001 -5.735708e+001 -1.731395e+002 -3.589301e-001 -3.858479e+001
310000000 -3.842443e+000 1.201344e+001 -2.190104e+000 -8.957008e+001 -5.633496e+001 -1.755571e+002 -3.916195e-001 -3.981578e+001
320000000 -3.685616e+000 1.124422e+001 -1.683242e+000 -9.130747e+001 -5.547497e+001 -1.728350e+002 -4.247506e-001 -4.104493e+001
330000000 -3.546688e+000 1.047958e+001 -1.212144e+000 -9.324416e+001 -5.417112e+001 -1.743722e+002 -4.652178e-001 -4.225761e+001
340000000 -3.428741e+000 9.594695e+000 -7.532811e-001 -9.531603e+001 -5.307610e+001 -1.742792e+002 -5.026996e-001 -4.344989e+001
350000000 -3.299126e+000 8.766744e+000 -3.338487e-001 -9.741804e+001 -5.229655e+001 -1.771758e+002 -5.478373e-001 -4.460123e+001
360000000 -3.194836e+000 7.945412e+000 2.736819e-002 -9.957462e+001 -5.117298e+001 -1.782269e+002 -5.892181e-001 -4.572571e+001
370000000 -3.103079e+000 7.096151e+000 4.237331e-001 -1.017822e+002 -5.042117e+001 -1.795586e+002 -6.291581e-001 -4.686108e+001
380000000 -3.012765e+000 6.171312e+000 7.827373e-001 -1.043088e+002 -4.929227e+001 1.782961e+002 -6.742274e-001 -4.795189e+001
390000000 -2.933736e+000 5.267284e+000 1.096182e+000 -1.068335e+002 -4.884104e+001 1.774835e+002 -7.230738e-001 -4.898381e+001
400000000 -2.865244e+000 4.349045e+000 1.402660e+000 -1.094852e+002 -4.795459e+001 1.748865e+002 -7.699180e-001 -4.999712e+001
410000000 -2.812381e+000 3.442118e+000 1.640020e+000 -1.121884e+002 -4.712178e+001 1.721329e+002 -8.179136e-001 -5.096567e+001
420000000 -2.760708e+000 2.601687e+000 1.861255e+000 -1.148636e+002 -4.667911e+001 1.698473e+002 -8.667105e-001 -5.189233e+001
430000000 -2.713134e+000 1.762335e+000 2.043213e+000 -1.178370e+002 -4.607492e+001 1.668998e+002 -9.090648e-001 -5.276481e+001
440000000 -2.676960e+000 9.397242e-001 2.164041e+000 -1.202615e+002 -4.576473e+001 1.654208e+002 -9.435090e-001 -5.366821e+001
450000000 -2.646896e+000 9.541584e-002 2.305189e+000 -1.231290e+002 -4.507457e+001 1.619143e+002 -9.854510e-001 -5.450444e+001
460000000 -2.625735e+000 -6.908780e-001 2.382472e+000 -1.260550e+002 -4.461542e+001 1.598040e+002 -1.021232e+000 -5.530684e+001
470000000 -2.607688e+000 -1.358937e+000 2.422148e+000 -1.289220e+002 -4.417813e+001 1.567155e+002 -1.050795e+000 -5.606780e+001
480000000 -2.598035e+000 -2.086985e+000 2.419642e+000 -1.317120e+002 -4.388068e+001 1.536597e+002 -1.074350e+000 -5.680146e+001
490000000 -2.582055e+000 -2.761132e+000 2.351337e+000 -1.344155e+002 -4.362672e+001 1.512014e+002 -1.093987e+000 -5.753824e+001
500000000 -2.569357e+000 -3.282409e+000 2.262621e+000 -1.368662e+002 -4.339466e+001 1.477345e+002 -1.102476e+000 -5.825046e+001
510000000 -2.563280e+000 -3.898164e+000 2.116761e+000 -1.392358e+002 -4.305168e+001 1.452472e+002 -1.105264e+000 -5.895875e+001
520000000 -2.557307e+000 -4.434970e+000 1.945478e+000 -1.415223e+002 -4.289191e+001 1.423055e+002 -1.093396e+000 -5.968885e+001
530000000 -2.539960e+000 -5.018079e+000 1.714150e+000 -1.434499e+002 -4.285395e+001 1.398031e+002 -1.087964e+000 -6.043916e+001
540000000 -2.531755e+000 -5.394617e+000 1.444953e+000 -1.451890e+002 -4.272640e+001 1.374234e+002 -1.066095e+000 -6.121564e+001
550000000 -2.501938e+000 -5.928407e+000 1.229775e+000 -1.461520e+002 -4.281189e+001 1.351510e+002 -1.051957e+000 -6.205875e+001
560000000 -2.489197e+000 -6.364257e+000 9.355541e-001 -1.474134e+002 -4.267698e+001 1.328559e+002 -1.035088e+000 -6.285032e+001
570000000 -2.469134e+000 -6.768298e+000 6.011832e-001 -1.482401e+002 -4.272989e+001 1.314902e+002 -1.005866e+000 -6.368457e+001
580000000 -2.450548e+000 -7.174143e+000 2.719979e-001 -1.487129e+002 -4.275289e+001 1.293287e+002 -9.796460e-001 -6.457735e+001
590000000 -2.417045e+000 -7.595567e+000 -8.156939e-002 -1.487327e+002 -4.287601e+001 1.276058e+002 -9.540700e-001 -6.549676e+001
600000000 -2.387253e+000 -8.023593e+000 -4.489023e-001 -1.483297e+002 -4.299242e+001 1.263998e+002 -9.202875e-001 -6.644009e+001
610000000 -2.360642e+000 -8.468543e+000 -8.085924e-001 -1.472689e+002 -4.310139e+001 1.251681e+002 -8.905640e-001 -6.741533e+001
620000000 -2.315772e+000 -8.865012e+000 -1.159495e+000 -1.451675e+002 -4.340626e+001 1.248574e+002 -8.548603e-001 -6.848421e+001
630000000 -2.275849e+000 -9.431787e+000 -1.156523e+000 -1.431994e+002 -4.360100e+001 1.257340e+002 -8.544237e-001 -6.954273e+001
640000000 -2.254573e+000 -9.954054e+000 -1.396224e+000 -1.422080e+002 -4.362415e+001 1.247778e+002 -8.336458e-001 -7.046372e+001
650000000 -2.211216e+000 -1.042728e+001 -1.595882e+000 -1.400305e+002 -4.383756e+001 1.247397e+002 -8.103260e-001 -7.146026e+001
660000000 -2.176515e+000 -1.088900e+001 -1.699833e+000 -1.375550e+002 -4.395306e+001 1.239937e+002 -7.860420e-001 -7.249681e+001
670000000 -2.139915e+000 -1.135350e+001 -1.740057e+000 -1.347364e+002 -4.423353e+001 1.248666e+002 -7.641928e-001 -7.356271e+001
680000000 -2.103787e+000 -1.187378e+001 -1.700450e+000 -1.319518e+002 -4.450527e+001 1.255125e+002 -7.496414e-001 -7.461002e+001
690000000 -2.063854e+000 -1.241453e+001 -1.591533e+000 -1.292810e+002 -4.462307e+001 1.265693e+002 -7.383552e-001 -7.570170e+001
700000000 -2.025736e+000 -1.299889e+001 -1.415251e+000 -1.265972e+002 -4.496912e+001 1.281823e+002 -7.253945e-001 -7.676255e+001
710000000 -1.990683e+000 -1.348158e+001 -1.173706e+000 -1.242683e+002 -4.510501e+001 1.309844e+002 -7.138758e-001 -7.785368e+001
720000000 -1.953995e+000 -1.407022e+001 -9.078164e-001 -1.221959e+002 -4.514950e+001 1.332204e+002 -7.093783e-001 -7.894794e+001
730000000 -1.916219e+000 -1.462327e+001 -5.959532e-001 -1.202548e+002 -4.523191e+001 1.354813e+002 -7.029828e-001 -8.007130e+001
740000000 -1.881864e+000 -1.521020e+001 -2.485493e-001 -1.186253e+002 -4.534009e+001 1.390622e+002 -6.995423e-001 -8.117265e+001
750000000 -1.848287e+000 -1.586764e+001 1.100631e-001 -1.173559e+002 -4.528931e+001 1.417159e+002 -6.948570e-001 -8.229601e+001
760000000 -1.813082e+000 -1.643384e+001 4.711454e-001 -1.163395e+002 -4.512208e+001 1.449742e+002 -6.952589e-001 -8.339828e+001
770000000 -1.782113e+000 -1.704169e+001 8.339946e-001 -1.154372e+002 -4.505088e+001 1.482576e+002 -6.960966e-001 -8.451329e+001
780000000 -1.754152e+000 -1.764003e+001 1.202461e+000 -1.147472e+002 -4.476252e+001 1.518029e+002 -6.983495e-001 -8.562386e+001
790000000 -1.726838e+000 -1.828924e+001 1.582018e+000 -1.142644e+002 -4.449671e+001 1.550248e+002 -7.000306e-001 -8.672103e+001
800000000 -1.690885e+000 -1.892546e+001 1.958130e+000 -1.140204e+002 -4.421026e+001 1.580412e+002 -7.077667e-001 -8.784341e+001
810000000 -1.663214e+000 -1.952854e+001 2.310883e+000 -1.138085e+002 -4.387534e+001 1.606584e+002 -7.128547e-001 -8.893974e+001
820000000 -1.629561e+000 -2.023536e+001 2.671965e+000 -1.138520e+002 -4.349612e+001 1.634238e+002 -7.209871e-001 -9.005205e+001
830000000 -1.612579e+000 -2.085973e+001 3.019700e+000 -1.140650e+002 -4.299689e+001 1.660205e+002 -7.350439e-001 -9.114365e+001
840000000 -1.581253e+000 -2.147908e+001 3.341503e+000 -1.143619e+002 -4.250712e+001 1.678988e+002 -7.462202e-001 -9.221927e+001
850000000 -1.553250e+000 -2.218890e+001 3.661029e+000 -1.146611e+002 -4.204451e+001 1.696088e+002 -7.563516e-001 -9.334126e+001
860000000 -1.530579e+000 -2.285266e+001 3.999348e+000 -1.151436e+002 -4.157369e+001 1.710644e+002 -7.729498e-001 -9.444556e+001
870000000 -1.508983e+000 -2.355676e+001 4.314312e+000 -1.157063e+002 -4.105221e+001 1.720849e+002 -7.861418e-001 -9.556232e+001
880000000 -1.490446e+000 -2.417213e+001 4.599805e+000 -1.162133e+002 -4.058824e+001 1.733287e+002 -8.034321e-001 -9.668333e+001
890000000 -1.461757e+000 -2.491103e+001 4.908435e+000 -1.168575e+002 -4.010266e+001 1.741203e+002 -8.211200e-001 -9.780223e+001
900000000 -1.441318e+000 -2.558852e+001 5.200223e+000 -1.177866e+002 -3.954727e+001 1.753262e+002 -8.480929e-001 -9.891688e+001
910000000 -1.426213e+000 -2.628103e+001 5.452371e+000 -1.185253e+002 -3.906670e+001 1.754986e+002 -8.672674e-001 -9.998614e+001
920000000 -1.412234e+000 -2.698153e+001 5.701327e+000 -1.191906e+002 -3.864825e+001 1.757756e+002 -8.864729e-001 -1.011045e+002
930000000 -1.393185e+000 -2.771899e+001 5.981004e+000 -1.200156e+002 -3.815281e+001 1.761813e+002 -9.101650e-001 -1.022089e+002
940000000 -1.380274e+000 -2.842336e+001 6.223323e+000 -1.208555e+002 -3.771944e+001 1.762206e+002 -9.353489e-001 -1.033420e+002
950000000 -1.363202e+000 -2.909587e+001 6.488245e+000 -1.216772e+002 -3.729079e+001 1.765483e+002 -9.642160e-001 -1.044560e+002
960000000 -1.350867e+000 -2.987911e+001 6.722744e+000 -1.226260e+002 -3.686378e+001 1.765212e+002 -9.914509e-001 -1.055577e+002
970000000 -1.339643e+000 -3.053707e+001 6.954399e+000 -1.235480e+002 -3.643983e+001 1.763372e+002 -1.020590e+000 -1.066798e+002
980000000 -1.324151e+000 -3.125978e+001 7.181983e+000 -1.246152e+002 -3.600858e+001 1.760468e+002 -1.054919e+000 -1.077995e+002
990000000 -1.312519e+000 -3.201299e+001 7.394546e+000 -1.256213e+002 -3.560668e+001 1.758614e+002 -1.088296e+000 -1.089243e+002
1000000000 -1.311208e+000 -3.275804e+001 7.613557e+000 -1.266005e+002 -3.522737e+001 1.756311e+002 -1.124226e+000 -1.100479e+002
1010000000 -1.300913e+000 -3.351981e+001 7.821376e+000 -1.276270e+002 -3.481800e+001 1.752832e+002 -1.162048e+000 -1.111837e+002
1020000000 -1.293693e+000 -3.423405e+001 8.041804e+000 -1.285757e+002 -3.442713e+001 1.747854e+002 -1.199283e+000 -1.123108e+002
1030000000 -1.288876e+000 -3.504895e+001 8.234419e+000 -1.297687e+002 -3.406013e+001 1.743792e+002 -1.236829e+000 -1.134442e+002
1040000000 -1.280669e+000 -3.576124e+001 8.433366e+000 -1.308159e+002 -3.368227e+001 1.739313e+002 -1.279911e+000 -1.145752e+002
1050000000 -1.278522e+000 -3.650880e+001 8.619194e+000 -1.319131e+002 -3.332843e+001 1.732774e+002 -1.327097e+000 -1.157140e+002
1060000000 -1.279172e+000 -3.728384e+001 8.802587e+000 -1.330300e+002 -3.297196e+001 1.726758e+002 -1.370904e+000 -1.168577e+002
1070000000 -1.270099e+000 -3.810719e+001 8.995040e+000 -1.342520e+002 -3.262741e+001 1.719806e+002 -1.423255e+000 -1.179882e+002
1080000000 -1.285075e+000 -3.883161e+001 9.161091e+000 -1.352902e+002 -3.229918e+001 1.713062e+002 -1.468676e+000 -1.191119e+002
1090000000 -1.278499e+000 -3.964563e+001 9.336831e+000 -1.364698e+002 -3.197078e+001 1.706797e+002 -1.518315e+000 -1.202459e+002
1100000000 -1.286435e+000 -4.041320e+001 9.512112e+000 -1.375284e+002 -3.164427e+001 1.701546e+002 -1.572585e+000 -1.213853e+002
1110000000 -1.285337e+000 -4.119300e+001 9.667006e+000 -1.387994e+002 -3.132603e+001 1.693456e+002 -1.629952e+000 -1.225440e+002
1120000000 -1.290737e+000 -4.197904e+001 9.825232e+000 -1.399750e+002 -3.102469e+001 1.685252e+002 -1.690786e+000 -1.237037e+002
1130000000 -1.296634e+000 -4.275323e+001 9.984969e+000 -1.411376e+002 -3.070994e+001 1.677400e+002 -1.752439e+000 -1.248316e+002
1140000000 -1.309015e+000 -4.354259e+001 1.013134e+001 -1.423884e+002 -3.041096e+001 1.670156e+002 -1.813267e+000 -1.259798e+002
1150000000 -1.315110e+000 -4.437985e+001 1.029078e+001 -1.434774e+002 -3.012695e+001 1.661933e+002 -1.880283e+000 -1.271276e+002
1160000000 -1.328158e+000 -4.516283e+001 1.043209e+001 -1.447119e+002 -2.982496e+001 1.652864e+002 -1.949873e+000 -1.283170e+002
1170000000 -1.343001e+000 -4.600878e+001 1.057272e+001 -1.459874e+002 -2.954676e+001 1.643984e+002 -2.022372e+000 -1.294647e+002
1180000000 -1.359102e+000 -4.684017e+001 1.072106e+001 -1.471891e+002 -2.926681e+001 1.636189e+002 -2.096843e+000 -1.306264e+002
1190000000 -1.375489e+000 -4.767559e+001 1.084031e+001 -1.483923e+002 -2.899712e+001 1.626795e+002 -2.175906e+000 -1.318215e+002
1200000000 -1.391474e+000 -4.841796e+001 1.097056e+001 -1.497144e+002 -2.874098e+001 1.617782e+002 -2.256282e+000 -1.330224e+002
1210000000 -1.418694e+000 -4.924035e+001 1.109747e+001 -1.508738e+002 -2.847388e+001 1.609652e+002 -2.341678e+000 -1.342024e+002
1220000000 -1.437013e+000 -5.010063e+001 1.122937e+001 -1.521379e+002 -2.822750e+001 1.599738e+002 -2.425209e+000 -1.353848e+002
1230000000 -1.462748e+000 -5.089891e+001 1.134365e+001 -1.534093e+002 -2.796988e+001 1.590145e+002 -2.516592e+000 -1.365840e+002
1240000000 -1.484819e+000 -5.172982e+001 1.147371e+001 -1.546895e+002 -2.771902e+001 1.581129e+002 -2.609731e+000 -1.377882e+002
1250000000 -1.515260e+000 -5.250329e+001 1.157797e+001 -1.559436e+002 -2.748104e+001 1.571774e+002 -2.702367e+000 -1.389840e+002
1260000000 -1.538064e+000 -5.335490e+001 1.169758e+001 -1.573039e+002 -2.723820e+001 1.561489e+002 -2.805647e+000 -1.401847e+002
1270000000 -1.578885e+000 -5.415535e+001 1.179920e+001 -1.584256e+002 -2.701736e+001 1.552288e+002 -2.913020e+000 -1.414099e+002
1280000000 -1.608610e+000 -5.503449e+001 1.190069e+001 -1.597938e+002 -2.678584e+001 1.542076e+002 -3.016942e+000 -1.425878e+002
1290000000 -1.642261e+000 -5.581984e+001 1.199691e+001 -1.610675e+002 -2.656643e+001 1.532605e+002 -3.128917e+000 -1.437951e+002
1300000000 -1.683435e+000 -5.668993e+001 1.209904e+001 -1.624056e+002 -2.634487e+001 1.522606e+002 -3.244486e+000 -1.449944e+002
1310000000 -1.719394e+000 -5.749577e+001 1.219630e+001 -1.637108e+002 -2.612341e+001 1.512095e+002 -3.365825e+000 -1.462234e+002
1320000000 -1.756881e+000 -5.834348e+001 1.230362e+001 -1.649899e+002 -2.590233e+001 1.501688e+002 -3.492236e+000 -1.474346e+002
1330000000 -1.808046e+000 -5.924490e+001 1.238132e+001 -1.663132e+002 -2.570948e+001 1.491009e+002 -3.618740e+000 -1.486524e+002
1340000000 -1.855170e+000 -6.004203e+001 1.247159e+001 -1.676348e+002 -2.550699e+001 1.480248e+002 -3.750135e+000 -1.498777e+002
1350000000 -1.902665e+000 -6.084252e+001 1.255202e+001 -1.689170e+002 -2.530294e+001 1.470760e+002 -3.888249e+000 -1.511105e+002
1360000000 -1.950458e+000 -6.166035e+001 1.263420e+001 -1.702240e+002 -2.510887e+001 1.460153e+002 -4.033768e+000 -1.523524e+002
1370000000 -2.003138e+000 -6.247240e+001 1.270334e+001 -1.715329e+002 -2.491477e+001 1.449947e+002 -4.178684e+000 -1.535870e+002
1380000000 -2.056060e+000 -6.329803e+001 1.278451e+001 -1.727847e+002 -2.473412e+001 1.439002e+002 -4.333397e+000 -1.548616e+002
1390000000 -2.110816e+000 -6.409258e+001 1.285222e+001 -1.741458e+002 -2.455275e+001 1.428381e+002 -4.495570e+000 -1.560839e+002
1400000000 -2.167627e+000 -6.491596e+001 1.291990e+001 -1.755251e+002 -2.437449e+001 1.417420e+002 -4.666477e+000 -1.573055e+002
1401000000 -2.174367e+000 -6.499274e+001 1.292881e+001 -1.755975e+002 -2.434948e+001 1.416347e+002 -4.682420e+000 -1.574543e+002
1402000000 -2.183962e+000 -6.504897e+001 1.293659e+001 -1.757920e+002 -2.433022e+001 1.414897e+002 -4.696423e+000 -1.575786e+002
1403000000 -2.192739e+000 -6.513853e+001 1.294248e+001 -1.758893e+002 -2.431185e+001 1.414411e+002 -4.717687e+000 -1.577104e+002
1404000000 -2.187974e+000 -6.520315e+001 1.295111e+001 -1.760193e+002 -2.429429e+001 1.412971e+002 -4.732228e+000 -1.578333e+002
1405000000 -2.200161e+000 -6.532555e+001 1.294926e+001 -1.761439e+002 -2.428769e+001 1.411958e+002 -4.746591e+000 -1.579429e+002
1406000000 -2.204154e+000 -6.543399e+001 1.295539e+001 -1.762570e+002 -2.426268e+001 1.410713e+002 -4.764726e+000 -1.580710e+002
1407000000 -2.216004e+000 -6.553931e+001 1.296992e+001 -1.763928e+002 -2.424748e+001 1.409759e+002 -4.783713e+000 -1.581712e+002
1408000000 -2.218009e+000 -6.550993e+001 1.296945e+001 -1.765663e+002 -2.422666e+001 1.409330e+002 -4.799043e+000 -1.583064e+002
1409000000 -2.226487e+000 -6.563196e+001 1.298583e+001 -1.766684e+002 -2.420613e+001 1.407658e+002 -4.816779e+000 -1.584582e+002
1410000000 -2.226489e+000 -6.573107e+001 1.298957e+001 -1.768176e+002 -2.419307e+001 1.406610e+002 -4.837267e+000 -1.585624e+002
1411000000 -2.238320e+000 -6.581534e+001 1.299308e+001 -1.769570e+002 -2.417815e+001 1.406096e+002 -4.850980e+000 -1.586834e+002
1412000000 -2.240464e+000 -6.588931e+001 1.299950e+001 -1.770526e+002 -2.415478e+001 1.404313e+002 -4.868938e+000 -1.588284e+002
1413000000 -2.254817e+000 -6.591381e+001 1.300516e+001 -1.771768e+002 -2.414000e+001 1.403682e+002 -4.888274e+000 -1.589462e+002
1414000000 -2.260855e+000 -6.606343e+001 1.301406e+001 -1.772898e+002 -2.412827e+001 1.402442e+002 -4.904741e+000 -1.590606e+002
1415000000 -2.262876e+000 -6.609362e+001 1.301962e+001 -1.774854e+002 -2.410786e+001 1.401411e+002 -4.924012e+000 -1.591777e+002
1416000000 -2.269623e+000 -6.620065e+001 1.302687e+001 -1.775785e+002 -2.408754e+001 1.400134e+002 -4.945314e+000 -1.593111e+002
1417000000 -2.278862e+000 -6.628295e+001 1.303215e+001 -1.777463e+002 -2.407513e+001 1.399112e+002 -4.960577e+000 -1.594163e+002
1418000000 -2.286553e+000 -6.634173e+001 1.303913e+001 -1.778916e+002 -2.405537e+001 1.398085e+002 -4.977012e+000 -1.595550e+002
1419000000 -2.293600e+000 -6.642646e+001 1.304278e+001 -1.780321e+002 -2.403894e+001 1.396795e+002 -4.998158e+000 -1.596605e+002
1420000000 -2.301214e+000 -6.648792e+001 1.305107e+001 -1.781061e+002 -2.401550e+001 1.395864e+002 -5.013901e+000 -1.598126e+002
1421000000 -2.302604e+000 -6.658807e+001 1.305574e+001 -1.782663e+002 -2.401022e+001 1.394761e+002 -5.033926e+000 -1.599246e+002
1422000000 -2.315349e+000 -6.666061e+001 1.305896e+001 -1.783988e+002 -2.398731e+001 1.394027e+002 -5.052814e+000 -1.600659e+002
1423000000 -2.323928e+000 -6.676410e+001 1.307500e+001 -1.784945e+002 -2.397662e+001 1.392833e+002 -5.067577e+000 -1.601633e+002
1424000000 -2.324116e+000 -6.683604e+001 1.307399e+001 -1.786534e+002 -2.394974e+001 1.391511e+002 -5.084226e+000 -1.602864e+002
1425000000 -2.326403e+000 -6.690147e+001 1.307871e+001 -1.788023e+002 -2.394139e+001 1.390675e+002 -5.105055e+000 -1.604195e+002
1426000000 -2.340121e+000 -6.700343e+001 1.308629e+001 -1.789752e+002 -2.392099e+001 1.389461e+002 -5.123728e+000 -1.605281e+002
1427000000 -2.345204e+000 -6.708050e+001 1.308858e+001 -1.790557e+002 -2.389866e+001 1.389229e+002 -5.140493e+000 -1.606779e+002
1428000000 -2.355106e+000 -6.716029e+001 1.309551e+001 -1.791617e+002 -2.388615e+001 1.387507e+002 -5.161427e+000 -1.607895e+002
1429000000 -2.356473e+000 -6.726714e+001 1.310067e+001 -1.793466e+002 -2.387427e+001 1.385881e+002 -5.179935e+000 -1.609301e+002
1430000000 -2.355974e+000 -6.733235e+001 1.310958e+001 -1.794642e+002 -2.384862e+001 1.385302e+002 -5.198956e+000 -1.610511e+002
1431000000 -2.378525e+000 -6.736488e+001 1.311246e+001 -1.795661e+002 -2.383342e+001 1.384311e+002 -5.219863e+000 -1.611788e+002
1432000000 -2.377891e+000 -6.749926e+001 1.311169e+001 -1.796730e+002 -2.382475e+001 1.383203e+002 -5.236897e+000 -1.613020e+002
1433000000 -2.386820e+000 -6.752084e+001 1.312322e+001 -1.798323e+002 -2.380421e+001 1.382364e+002 -5.258736e+000 -1.614365e+002
1434000000 -2.391410e+000 -6.766501e+001 1.312641e+001 1.799845e+002 -2.378868e+001 1.381114e+002 -5.275495e+000 -1.615459e+002
1435000000 -2.407527e+000 -6.771489e+001 1.313819e+001 1.798434e+002 -2.376774e+001 1.379536e+002 -5.295902e+000 -1.616732e+002
1436000000 -2.405487e+000 -6.776796e+001 1.314353e+001 1.798124e+002 -2.374568e+001 1.378858e+002 -5.314136e+000 -1.617928e+002
1437000000 -2.409547e+000 -6.794179e+001 1.314618e+001 1.796069e+002 -2.373686e+001 1.377710e+002 -5.333261e+000 -1.619095e+002
1438000000 -2.421487e+000 -6.792412e+001 1.314243e+001 1.794915e+002 -2.372357e+001 1.376712e+002 -5.351905e+000 -1.620464e+002
1439000000 -2.429561e+000 -6.798683e+001 1.314387e+001 1.793956e+002 -2.370481e+001 1.375495e+002 -5.369065e+000 -1.621799e+002
1440000000 -2.436659e+000 -6.807577e+001 1.316221e+001 1.792893e+002 -2.368548e+001 1.374561e+002 -5.388979e+000 -1.623176e+002
1441000000 -2.442260e+000 -6.824557e+001 1.317484e+001 1.790666e+002 -2.367127e+001 1.373216e+002 -5.409826e+000 -1.624330e+002
1442000000 -2.448658e+000 -6.825581e+001 1.317723e+001 1.789800e+002 -2.365158e+001 1.372559e+002 -5.431701e+000 -1.625506e+002
1443000000 -2.462543e+000 -6.837129e+001 1.318901e+001 1.788302e+002 -2.363765e+001 1.371445e+002 -5.448051e+000 -1.627183e+002
1444000000 -2.464309e+000 -6.837565e+001 1.317859e+001 1.787083e+002 -2.361872e+001 1.369886e+002 -5.470434e+000 -1.628070e+002
1445000000 -2.467490e+000 -6.846533e+001 1.319853e+001 1.785477e+002 -2.360600e+001 1.369300e+002 -5.489720e+000 -1.629303e+002
1446000000 -2.484443e+000 -6.855415e+001 1.320166e+001 1.784559e+002 -2.358994e+001 1.367969e+002 -5.511603e+000 -1.630777e+002
1447000000 -2.483017e+000 -6.866437e+001 1.320842e+001 1.782935e+002 -2.356979e+001 1.366429e+002 -5.530041e+000 -1.631824e+002
1448000000 -2.492225e+000 -6.871535e+001 1.321413e+001 1.782410e+002 -2.354979e+001 1.365966e+002 -5.552132e+000 -1.633363e+002
1449000000 -2.496353e+000 -6.880405e+001 1.321752e+001 1.780563e+002 -2.353376e+001 1.364879e+002 -5.571675e+000 -1.634303e+002
1450000000 -2.508617e+000 -6.888892e+001 1.321463e+001 1.779422e+002 -2.352431e+001 1.363725e+002 -5.588319e+000 -1.635884e+002
1451000000 -2.516493e+000 -6.895660e+001 1.322344e+001 1.777810e+002 -2.350422e+001 1.362084e+002 -5.609562e+000 -1.636917e+002
1452000000 -2.524921e+000 -6.901840e+001 1.322354e+001 1.776501e+002 -2.348699e+001 1.360982e+002 -5.630548e+000 -1.638177e+002
1453000000 -2.533152e+000 -6.910304e+001 1.323290e+001 1.775020e+002 -2.347364e+001 1.359986e+002 -5.649779e+000 -1.639349e+002
1454000000 -2.538020e+000 -6.920871e+001 1.324111e+001 1.773755e+002 -2.345205e+001 1.358538e+002 -5.674190e+000 -1.640747e+002
1455000000 -2.547455e+000 -6.934020e+001 1.324838e+001 1.772273e+002 -2.344099e+001 1.357454e+002 -5.693029e+000 -1.641905e+002
1456000000 -2.560790e+000 -6.942789e+001 1.325210e+001 1.771402e+002 -2.342971e+001 1.356419e+002 -5.713789e+000 -1.643454e+002
1457000000 -2.557965e+000 -6.945341e+001 1.325735e+001 1.770332e+002 -2.341174e+001 1.355659e+002 -5.731872e+000 -1.644608e+002
1458000000 -2.571315e+000 -6.955099e+001 1.326126e+001 1.768363e+002 -2.339277e+001 1.354449e+002 -5.750175e+000 -1.645925e+002
1459000000 -2.584737e+000 -6.956012e+001 1.327118e+001 1.767691e+002 -2.337857e+001 1.353658e+002 -5.776825e+000 -1.647158e+002
1460000000 -2.582079e+000 -6.969836e+001 1.327152e+001 1.765955e+002 -2.336224e+001 1.352570e+002 -5.795527e+000 -1.648021e+002
1461000000 -2.595808e+000 -6.973579e+001 1.326568e+001 1.764124e+002 -2.334827e+001 1.351091e+002 -5.820086e+000 -1.649757e+002
1462000000 -2.593008e+000 -6.985650e+001 1.327662e+001 1.763473e+002 -2.333071e+001 1.349591e+002 -5.837426e+000 -1.650616e+002
1463000000 -2.597288e+000 -6.988202e+001 1.328824e+001 1.762585e+002 -2.330902e+001 1.348682e+002 -5.858448e+000 -1.652049e+002
1464000000 -2.614425e+000 -6.998576e+001 1.328844e+001 1.760674e+002 -2.330214e+001 1.347679e+002 -5.882187e+000 -1.653537e+002
1465000000 -2.623073e+000 -7.006721e+001 1.329628e+001 1.759159e+002 -2.328775e+001 1.346685e+002 -5.898340e+000 -1.654605e+002
1466000000 -2.630328e+000 -7.010264e+001 1.330113e+001 1.757862e+002 -2.326897e+001 1.345288e+002 -5.924497e+000 -1.655761e+002
1467000000 -2.634273e+000 -7.022144e+001 1.331164e+001 1.756773e+002 -2.326483e+001 1.344062e+002 -5.943354e+000 -1.657159e+002
1468000000 -2.655256e+000 -7.031514e+001 1.330435e+001 1.755675e+002 -2.324054e+001 1.343460e+002 -5.961980e+000 -1.658221e+002
1469000000 -2.658988e+000 -7.033913e+001 1.331854e+001 1.753994e+002 -2.321870e+001 1.341971e+002 -5.988797e+000 -1.659707e+002
1470000000 -2.659640e+000 -7.046746e+001 1.331817e+001 1.752385e+002 -2.321057e+001 1.340529e+002 -6.007810e+000 -1.660653e+002
1471000000 -2.669565e+000 -7.052357e+001 1.332754e+001 1.751306e+002 -2.320019e+001 1.339571e+002 -6.029735e+000 -1.662290e+002
1472000000 -2.682089e+000 -7.058419e+001 1.333261e+001 1.749914e+002 -2.317618e+001 1.338757e+002 -6.054388e+000 -1.663555e+002
1473000000 -2.686067e+000 -7.067300e+001 1.332825e+001 1.748590e+002 -2.316714e+001 1.337523e+002 -6.071069e+000 -1.664363e+002
1474000000 -2.703273e+000 -7.078681e+001 1.333429e+001 1.747231e+002 -2.315070e+001 1.336720e+002 -6.090297e+000 -1.665849e+002
1475000000 -2.704897e+000 -7.081520e+001 1.334409e+001 1.746192e+002 -2.313991e+001 1.335584e+002 -6.117254e+000 -1.667182e+002
1476000000 -2.711086e+000 -7.091710e+001 1.334908e+001 1.745086e+002 -2.312220e+001 1.334359e+002 -6.138613e+000 -1.668433e+002
1477000000 -2.721310e+000 -7.096437e+001 1.335179e+001 1.743578e+002 -2.310895e+001 1.333660e+002 -6.158778e+000 -1.669711e+002
1478000000 -2.725209e+000 -7.107616e+001 1.336125e+001 1.742334e+002 -2.309822e+001 1.332500e+002 -6.176736e+000 -1.670916e+002
1479000000 -2.732536e+000 -7.112618e+001 1.336596e+001 1.740896e+002 -2.307676e+001 1.330843e+002 -6.201437e+000 -1.672348e+002
1480000000 -2.748278e+000 -7.120396e+001 1.336092e+001 1.739906e+002 -2.306582e+001 1.330004e+002 -6.225078e+000 -1.673394e+002
1481000000 -2.749865e+000 -7.117454e+001 1.337225e+001 1.738410e+002 -2.305043e+001 1.328979e+002 -6.247277e+000 -1.674864e+002
1482000000 -2.760459e+000 -7.136064e+001 1.338223e+001 1.736621e+002 -2.303558e+001 1.328148e+002 -6.270693e+000 -1.676198e+002
1483000000 -2.768397e+000 -7.143245e+001 1.337698e+001 1.735532e+002 -2.302910e+001 1.326934e+002 -6.292276e+000 -1.677580e+002
1484000000 -2.775451e+000 -7.153895e+001 1.338334e+001 1.734308e+002 -2.301194e+001 1.325470e+002 -6.310278e+000 -1.678563e+002
1485000000 -2.786310e+000 -7.158068e+001 1.338454e+001 1.733171e+002 -2.299417e+001 1.324690e+002 -6.333984e+000 -1.680099e+002
1486000000 -2.792327e+000 -7.161168e+001 1.338678e+001 1.731697e+002 -2.298577e+001 1.323772e+002 -6.356418e+000 -1.681333e+002
1487000000 -2.797174e+000 -7.172160e+001 1.339241e+001 1.730493e+002 -2.296800e+001 1.322238e+002 -6.380530e+000 -1.682337e+002
1488000000 -2.814553e+000 -7.178923e+001 1.339848e+001 1.728938e+002 -2.295122e+001 1.321165e+002 -6.402145e+000 -1.683976e+002
1489000000 -2.820159e+000 -7.182854e+001 1.340457e+001 1.727695e+002 -2.294324e+001 1.320562e+002 -6.428095e+000 -1.685296e+002
1490000000 -2.824380e+000 -7.193662e+001 1.341145e+001 1.726785e+002 -2.292292e+001 1.319253e+002 -6.456092e+000 -1.686674e+002
1491000000 -2.824540e+000 -7.202686e+001 1.341278e+001 1.725442e+002 -2.291690e+001 1.317968e+002 -6.473416e+000 -1.687668e+002
1492000000 -2.843789e+000 -7.206715e+001 1.341623e+001 1.723982e+002 -2.290239e+001 1.317052e+002 -6.495439e+000 -1.689145e+002
1493000000 -2.851783e+000 -7.216943e+001 1.341686e+001 1.722441e+002 -2.288332e+001 1.315676e+002 -6.520605e+000 -1.690410e+002
1494000000 -2.857047e+000 -7.225323e+001 1.342125e+001 1.721207e+002 -2.286935e+001 1.315119e+002 -6.540321e+000 -1.691644e+002
1495000000 -2.870000e+000 -7.234701e+001 1.342464e+001 1.719937e+002 -2.285600e+001 1.313727e+002 -6.563024e+000 -1.692916e+002
1496000000 -2.872717e+000 -7.240627e+001 1.342722e+001 1.718780e+002 -2.284747e+001 1.312765e+002 -6.586489e+000 -1.694160e+002
1497000000 -2.885608e+000 -7.248967e+001 1.343130e+001 1.717153e+002 -2.282538e+001 1.311548e+002 -6.612381e+000 -1.695424e+002
1498000000 -2.888841e+000 -7.258520e+001 1.344005e+001 1.715719e+002 -2.280718e+001 1.309903e+002 -6.637067e+000 -1.696666e+002
1499000000 -2.903911e+000 -7.262930e+001 1.344162e+001 1.714346e+002 -2.279911e+001 1.309223e+002 -6.661825e+000 -1.697981e+002
1500000000 -2.913665e+000 -7.270102e+001 1.344859e+001 1.713382e+002 -2.278453e+001 1.308406e+002 -6.685017e+000 -1.699249e+002
1501000000 -2.915437e+000 -7.276817e+001 1.345463e+001 1.712368e+002 -2.276770e+001 1.306896e+002 -6.707948e+000 -1.700842e+002
1502000000 -2.928523e+000 -7.285223e+001 1.344843e+001 1.710983e+002 -2.275857e+001 1.306065e+002 -6.733879e+000 -1.701883e+002
1503000000 -2.938555e+000 -7.292783e+001 1.345798e+001 1.709409e+002 -2.274544e+001 1.304995e+002 -6.757749e+000 -1.703251e+002
1504000000 -2.939484e+000 -7.296373e+001 1.345935e+001 1.708016e+002 -2.272997e+001 1.303680e+002 -6.780774e+000 -1.704353e+002
1505000000 -2.953504e+000 -7.303437e+001 1.346645e+001 1.706803e+002 -2.271234e+001 1.302674e+002 -6.807166e+000 -1.705928e+002
1506000000 -2.958642e+000 -7.313219e+001 1.346701e+001 1.705294e+002 -2.270681e+001 1.301691e+002 -6.824700e+000 -1.706954e+002
1507000000 -2.968189e+000 -7.316911e+001 1.347715e+001 1.704407e+002 -2.268288e+001 1.300622e+002 -6.855430e+000 -1.708602e+002
1508000000 -2.979169e+000 -7.327763e+001 1.347144e+001 1.703053e+002 -2.267823e+001 1.299243e+002 -6.875651e+000 -1.709573e+002
1509000000 -2.986593e+000 -7.332474e+001 1.347983e+001 1.701482e+002 -2.265972e+001 1.298136e+002 -6.901886e+000 -1.710615e+002
1510000000 -2.999920e+000 -7.342533e+001 1.348470e+001 1.700411e+002 -2.264163e+001 1.297488e+002 -6.930283e+000 -1.712415e+002
1511000000 -3.012752e+000 -7.348443e+001 1.348289e+001 1.699236e+002 -2.262947e+001 1.296216e+002 -6.948419e+000 -1.713780e+002
1512000000 -3.017798e+000 -7.357248e+001 1.349378e+001 1.697134e+002 -2.261722e+001 1.295060e+002 -6.981061e+000 -1.714863e+002
1513000000 -3.022986e+000 -7.367403e+001 1.350103e+001 1.696532e+002 -2.260285e+001 1.293981e+002 -7.003833e+000 -1.716314e+002
1514000000 -3.027230e+000 -7.370871e+001 1.350102e+001 1.694624e+002 -2.258670e+001 1.293157e+002 -7.026616e+000 -1.717518e+002
1515000000 -3.042036e+000 -7.381179e+001 1.349764e+001 1.693854e+002 -2.258097e+001 1.292020e+002 -7.050422e+000 -1.718722e+002
1516000000 -3.048331e+000 -7.383757e+001 1.350317e+001 1.692207e+002 -2.256114e+001 1.290963e+002 -7.074965e+000 -1.720166e+002
1517000000 -3.054644e+000 -7.394565e+001 1.351184e+001 1.691202e+002 -2.255025e+001 1.289529e+002 -7.103533e+000 -1.721689e+002
1518000000 -3.072299e+000 -7.397009e+001 1.351254e+001 1.689963e+002 -2.253747e+001 1.288972e+002 -7.128530e+000 -1.722965e+002
1519000000 -3.076928e+000 -7.409476e+001 1.351292e+001 1.688386e+002 -2.252216e+001 1.287554e+002 -7.154309e+000 -1.724028e+002
1520000000 -3.084610e+000 -7.413314e+001 1.352437e+001 1.687319e+002 -2.251237e+001 1.287054e+002 -7.182575e+000 -1.725506e+002
1521000000 -3.095635e+000 -7.420504e+001 1.352525e+001 1.685717e+002 -2.249565e+001 1.285563e+002 -7.204656e+000 -1.726704e+002
1522000000 -3.091904e+000 -7.430740e+001 1.353139e+001 1.684265e+002 -2.248141e+001 1.284767e+002 -7.229505e+000 -1.727738e+002
1523000000 -3.110489e+000 -7.433217e+001 1.352782e+001 1.683512e+002 -2.247003e+001 1.283338e+002 -7.256879e+000 -1.729419e+002
1524000000 -3.125732e+000 -7.445166e+001 1.353602e+001 1.682254e+002 -2.245383e+001 1.282371e+002 -7.284320e+000 -1.730894e+002
1525000000 -3.128011e+000 -7.442106e+001 1.354086e+001 1.681255e+002 -2.244721e+001 1.281589e+002 -7.313351e+000 -1.732551e+002
1526000000 -3.142629e+000 -7.449325e+001 1.353684e+001 1.679212e+002 -2.243268e+001 1.280162e+002 -7.337154e+000 -1.733172e+002
1527000000 -3.142614e+000 -7.464233e+001 1.354132e+001 1.678246e+002 -2.241697e+001 1.279272e+002 -7.364688e+000 -1.734690e+002
1528000000 -3.151579e+000 -7.469331e+001 1.354794e+001 1.676624e+002 -2.240086e+001 1.278066e+002 -7.393382e+000 -1.735768e+002
1529000000 -3.170756e+000 -7.473600e+001 1.354547e+001 1.675804e+002 -2.239443e+001 1.277216e+002 -7.417441e+000 -1.736852e+002
1530000000 -3.180648e+000 -7.478602e+001 1.355287e+001 1.674382e+002 -2.237703e+001 1.275663e+002 -7.443699e+000 -1.738108e+002
1531000000 -3.183088e+000 -7.495687e+001 1.355490e+001 1.672892e+002 -2.235913e+001 1.274527e+002 -7.474244e+000 -1.739285e+002
1532000000 -3.193520e+000 -7.496958e+001 1.356052e+001 1.671602e+002 -2.235276e+001 1.274004e+002 -7.502290e+000 -1.741204e+002
1533000000 -3.204280e+000 -7.506310e+001 1.355951e+001 1.670007e+002 -2.233713e+001 1.272325e+002 -7.527668e+000 -1.741760e+002
1534000000 -3.211599e+000 -7.512823e+001 1.355830e+001 1.669195e+002 -2.232881e+001 1.271649e+002 -7.554626e+000 -1.743679e+002
1535000000 -3.231586e+000 -7.513873e+001 1.356476e+001 1.667829e+002 -2.231574e+001 1.270373e+002 -7.575940e+000 -1.744973e+002
1536000000 -3.236780e+000 -7.522142e+001 1.356399e+001 1.666304e+002 -2.229440e+001 1.269151e+002 -7.608527e+000 -1.745985e+002
1537000000 -3.245785e+000 -7.532142e+001 1.356958e+001 1.665082e+002 -2.228403e+001 1.268085e+002 -7.635541e+000 -1.747007e+002
1538000000 -3.248061e+000 -7.542831e+001 1.357070e+001 1.663528e+002 -2.227266e+001 1.266713e+002 -7.661645e+000 -1.748148e+002
1539000000 -3.265206e+000 -7.548952e+001 1.357252e+001 1.661793e+002 -2.225914e+001 1.265244e+002 -7.692629e+000 -1.749017e+002
1540000000 -3.278788e+000 -7.553330e+001 1.357723e+001 1.661133e+002 -2.224929e+001 1.264620e+002 -7.714887e+000 -1.751003e+002
1541000000 -3.282402e+000 -7.561011e+001 1.358305e+001 1.660269e+002 -2.223410e+001 1.263929e+002 -7.744479e+000 -1.752297e+002
1542000000 -3.297914e+000 -7.570607e+001 1.358930e+001 1.658220e+002 -2.223290e+001 1.262215e+002 -7.769325e+000 -1.753381e+002
1543000000 -3.305090e+000 -7.573898e+001 1.358733e+001 1.657239e+002 -2.220893e+001 1.261512e+002 -7.797375e+000 -1.755288e+002
1544000000 -3.312888e+000 -7.581332e+001 1.358657e+001 1.655768e+002 -2.219840e+001 1.260128e+002 -7.830263e+000 -1.755953e+002
1545000000 -3.318247e+000 -7.591538e+001 1.359151e+001 1.654760e+002 -2.218678e+001 1.258769e+002 -7.852673e+000 -1.757459e+002
1546000000 -3.329914e+000 -7.594183e+001 1.359054e+001 1.652827e+002 -2.217779e+001 1.257824e+002 -7.879044e+000 -1.758690e+002
1547000000 -3.340398e+000 -7.602211e+001 1.359309e+001 1.652293e+002 -2.216828e+001 1.256711e+002 -7.912629e+000 -1.760168e+002
1548000000 -3.344181e+000 -7.607688e+001 1.360337e+001 1.651000e+002 -2.214578e+001 1.256081e+002 -7.938664e+000 -1.761098e+002
1549000000 -3.351912e+000 -7.610919e+001 1.360010e+001 1.649638e+002 -2.214129e+001 1.254725e+002 -7.967334e+000 -1.762345e+002
1550000000 -3.371343e+000 -7.620800e+001 1.360797e+001 1.648695e+002 -2.212894e+001 1.254165e+002 -7.994972e+000 -1.764154e+002
1551000000 -3.373046e+000 -7.632087e+001 1.360898e+001 1.646621e+002 -2.212128e+001 1.252125e+002 -8.025871e+000 -1.765044e+002
1552000000 -3.377979e+000 -7.636965e+001 1.360542e+001 1.645291e+002 -2.210502e+001 1.251196e+002 -8.050979e+000 -1.766075e+002
1553000000 -3.399417e+000 -7.644134e+001 1.361435e+001 1.644866e+002 -2.209010e+001 1.250553e+002 -8.091165e+000 -1.768067e+002
1554000000 -3.406568e+000 -7.642522e+001 1.361752e+001 1.642891e+002 -2.207652e+001 1.249475e+002 -8.121783e+000 -1.769046e+002
1555000000 -3.414799e+000 -7.659720e+001 1.361391e+001 1.641614e+002 -2.206921e+001 1.247857e+002 -8.140394e+000 -1.770113e+002
1556000000 -3.428620e+000 -7.663680e+001 1.362504e+001 1.640553e+002 -2.205508e+001 1.247320e+002 -8.179263e+000 -1.771810e+002
1557000000 -3.433546e+000 -7.671557e+001 1.362311e+001 1.639508e+002 -2.204614e+001 1.246179e+002 -8.202021e+000 -1.772953e+002
1558000000 -3.447711e+000 -7.671864e+001 1.362393e+001 1.637845e+002 -2.202690e+001 1.245542e+002 -8.230171e+000 -1.774466e+002
1559000000 -3.451252e+000 -7.682180e+001 1.362705e+001 1.636070e+002 -2.201636e+001 1.244201e+002 -8.263347e+000 -1.775811e+002
1560000000 -3.470042e+000 -7.695009e+001 1.363328e+001 1.635301e+002 -2.200192e+001 1.242651e+002 -8.296039e+000 -1.776833e+002
1561000000 -3.481350e+000 -7.691929e+001 1.363653e+001 1.633837e+002 -2.198968e+001 1.241874e+002 -8.327368e+000 -1.778306e+002
1562000000 -3.492163e+000 -7.700780e+001 1.363257e+001 1.632725e+002 -2.198901e+001 1.240562e+002 -8.351211e+000 -1.779686e+002
1563000000 -3.499809e+000 -7.709203e+001 1.363872e+001 1.631390e+002 -2.197198e+001 1.239566e+002 -8.386614e+000 -1.780555e+002
1564000000 -3.516631e+000 -7.717286e+001 1.363820e+001 1.630306e+002 -2.195955e+001 1.238538e+002 -8.412394e+000 -1.782266e+002
1565000000 -3.525255e+000 -7.723225e+001 1.363793e+001 1.628328e+002 -2.194428e+001 1.237295e+002 -8.445894e+000 -1.783421e+002
1566000000 -3.530046e+000 -7.725236e+001 1.363715e+001 1.627211e+002 -2.193343e+001 1.236559e+002 -8.478095e+000 -1.784922e+002
1567000000 -3.536680e+000 -7.732978e+001 1.364100e+001 1.626216e+002 -2.192332e+001 1.235203e+002 -8.501823e+000 -1.785880e+002
1568000000 -3.555270e+000 -7.746719e+001 1.364254e+001 1.624235e+002 -2.191064e+001 1.233900e+002 -8.536746e+000 -1.786867e+002
1569000000 -3.557750e+000 -7.747681e+001 1.365266e+001 1.623253e+002 -2.189495e+001 1.233238e+002 -8.573107e+000 -1.788847e+002
1570000000 -3.573713e+000 -7.758125e+001 1.364711e+001 1.621864e+002 -2.188644e+001 1.231547e+002 -8.601979e+000 -1.789604e+002
1571000000 -3.578793e+000 -7.767012e+001 1.365900e+001 1.621008e+002 -2.187447e+001 1.230861e+002 -8.630102e+000 -1.791130e+002
1572000000 -3.588668e+000 -7.766206e+001 1.365860e+001 1.619966e+002 -2.186231e+001 1.229935e+002 -8.660459e+000 -1.792793e+002
1573000000 -3.599341e+000 -7.779575e+001 1.365647e+001 1.618346e+002 -2.184946e+001 1.229186e+002 -8.702194e+000 -1.794331e+002
1574000000 -3.616270e+000 -7.779957e+001 1.366405e+001 1.616920e+002 -2.184086e+001 1.228058e+002 -8.738183e+000 -1.795377e+002
1575000000 -3.619637e+000 -7.782063e+001 1.365502e+001 1.616004e+002 -2.182703e+001 1.226902e+002 -8.756054e+000 -1.796941e+002
1576000000 -3.638260e+000 -7.791354e+001 1.366299e+001 1.614494e+002 -2.181358e+001 1.225817e+002 -8.792530e+000 -1.797998e+002
1577000000 -3.647135e+000 -7.799628e+001 1.366314e+001 1.612930e+002 -2.180831e+001 1.224341e+002 -8.825265e+000 -1.799041e+002
1578000000 -3.652399e+000 -7.807777e+001 1.366580e+001 1.611482e+002 -2.179099e+001 1.223612e+002 -8.865324e+000 1.799299e+002
1579000000 -3.668502e+000 -7.812045e+001 1.366905e+001 1.610497e+002 -2.177933e+001 1.222429e+002 -8.887767e+000 1.797827e+002
1580000000 -3.677315e+000 -7.819737e+001 1.367335e+001 1.609344e+002 -2.177757e+001 1.220765e+002 -8.920227e+000 1.797016e+002
1581000000 -3.688853e+000 -7.830457e+001 1.367122e+001 1.608229e+002 -2.175629e+001 1.220301e+002 -8.957516e+000 1.795218e+002
1582000000 -3.700493e+000 -7.827896e+001 1.367697e+001 1.606760e+002 -2.174551e+001 1.219051e+002 -8.989407e+000 1.793997e+002
1583000000 -3.708891e+000 -7.838241e+001 1.367745e+001 1.605052e+002 -2.174091e+001 1.217917e+002 -9.025115e+000 1.792773e+002
1584000000 -3.717854e+000 -7.839587e+001 1.367725e+001 1.604624e+002 -2.172382e+001 1.217293e+002 -9.054102e+000 1.790803e+002
1585000000 -3.729769e+000 -7.852480e+001 1.368245e+001 1.602988e+002 -2.171429e+001 1.215963e+002 -9.094966e+000 1.789696e+002
1586000000 -3.741591e+000 -7.855533e+001 1.367692e+001 1.601593e+002 -2.170743e+001 1.214860e+002 -9.115510e+000 1.788322e+002
1587000000 -3.740979e+000 -7.863703e+001 1.368234e+001 1.600560e+002 -2.168596e+001 1.213597e+002 -9.161510e+000 1.787222e+002
1588000000 -3.755251e+000 -7.868610e+001 1.369314e+001 1.599080e+002 -2.167554e+001 1.212736e+002 -9.196887e+000 1.786047e+002
1589000000 -3.763643e+000 -7.872672e+001 1.368492e+001 1.597969e+002 -2.166521e+001 1.211426e+002 -9.223445e+000 1.784366e+002
1590000000 -3.782190e+000 -7.878404e+001 1.368933e+001 1.596545e+002 -2.165278e+001 1.210267e+002 -9.265355e+000 1.783644e+002
1591000000 -3.798255e+000 -7.883798e+001 1.369115e+001 1.595564e+002 -2.164850e+001 1.209494e+002 -9.298602e+000 1.781519e+002
1592000000 -3.800966e+000 -7.890047e+001 1.369590e+001 1.593622e+002 -2.163642e+001 1.208151e+002 -9.333420e+000 1.780589e+002
1593000000 -3.809942e+000 -7.896156e+001 1.369039e+001 1.592766e+002 -2.162744e+001 1.207343e+002 -9.360790e+000 1.778795e+002
1594000000 -3.820304e+000 -7.899213e+001 1.369354e+001 1.591297e+002 -2.161907e+001 1.206060e+002 -9.397186e+000 1.777575e+002
1595000000 -3.848510e+000 -7.904749e+001 1.369248e+001 1.589743e+002 -2.160182e+001 1.205270e+002 -9.434275e+000 1.776073e+002
1596000000 -3.837354e+000 -7.920207e+001 1.369346e+001 1.588630e+002 -2.158930e+001 1.203630e+002 -9.471324e+000 1.775719e+002
1597000000 -3.851465e+000 -7.924382e+001 1.370231e+001 1.587296e+002 -2.157098e+001 1.202489e+002 -9.514286e+000 1.773862e+002
1598000000 -3.874723e+000 -7.925999e+001 1.370478e+001 1.585909e+002 -2.156727e+001 1.201933e+002 -9.541639e+000 1.772135e+002
1599000000 -3.875409e+000 -7.939045e+001 1.370030e+001 1.584751e+002 -2.155777e+001 1.200819e+002 -9.584244e+000 1.770899e+002
1600000000 -3.888911e+000 -7.939487e+001 1.370572e+001 1.583828e+002 -2.154331e+001 1.199796e+002 -9.614832e+000 1.769516e+002
1601000000 -3.898564e+000 -7.950750e+001 1.371101e+001 1.582632e+002 -2.154063e+001 1.198595e+002 -9.652059e+000 1.767911e+002
1602000000 -3.917580e+000 -7.957627e+001 1.370802e+001 1.581052e+002 -2.153057e+001 1.197503e+002 -9.684978e+000 1.766434e+002
1603000000 -3.928027e+000 -7.952789e+001 1.370859e+001 1.579983e+002 -2.151395e+001 1.196597e+002 -9.727968e+000 1.765228e+002
1604000000 -3.929526e+000 -7.966504e+001 1.370363e+001 1.578653e+002 -2.151032e+001 1.195852e+002 -9.748252e+000 1.763862e+002
1605000000 -3.933527e+000 -7.971996e+001 1.371148e+001 1.577620e+002 -2.149196e+001 1.194418e+002 -9.798215e+000 1.762553e+002
1606000000 -3.954664e+000 -7.981927e+001 1.371034e+001 1.576011e+002 -2.147947e+001 1.193485e+002 -9.832428e+000 1.761497e+002
1607000000 -3.972918e+000 -7.973448e+001 1.371683e+001 1.574833e+002 -2.146894e+001 1.191991e+002 -9.877732e+000 1.759938e+002
1608000000 -3.972537e+000 -7.982259e+001 1.371257e+001 1.573568e+002 -2.145317e+001 1.191334e+002 -9.909861e+000 1.758297e+002
1609000000 -3.991045e+000 -7.999760e+001 1.371393e+001 1.572329e+002 -2.144942e+001 1.190206e+002 -9.945031e+000 1.757390e+002
1610000000 -4.014972e+000 -7.995538e+001 1.371441e+001 1.570687e+002 -2.144391e+001 1.189541e+002 -9.975327e+000 1.755417e+002
1611000000 -4.014257e+000 -8.001207e+001 1.371085e+001 1.569616e+002 -2.143535e+001 1.187986e+002 -1.001388e+001 1.754148e+002
1612000000 -4.026655e+000 -8.010329e+001 1.372009e+001 1.568438e+002 -2.142275e+001 1.187336e+002 -1.006137e+001 1.752538e+002
1613000000 -4.036544e+000 -8.018470e+001 1.371968e+001 1.567165e+002 -2.140868e+001 1.185940e+002 -1.008803e+001 1.751319e+002
1614000000 -4.045754e+000 -8.020975e+001 1.371491e+001 1.565900e+002 -2.139508e+001 1.185302e+002 -1.013291e+001 1.749645e+002
1615000000 -4.060688e+000 -8.031761e+001 1.371210e+001 1.564241e+002 -2.139031e+001 1.183558e+002 -1.016669e+001 1.749044e+002
1616000000 -4.070292e+000 -8.034873e+001 1.371783e+001 1.563436e+002 -2.137993e+001 1.182334e+002 -1.021321e+001 1.747076e+002
1617000000 -4.078459e+000 -8.039481e+001 1.371804e+001 1.562041e+002 -2.136384e+001 1.181842e+002 -1.024699e+001 1.745376e+002
1618000000 -4.089827e+000 -8.052060e+001 1.371800e+001 1.560613e+002 -2.135635e+001 1.180819e+002 -1.028732e+001 1.744312e+002
1619000000 -4.104666e+000 -8.054742e+001 1.371876e+001 1.559797e+002 -2.134865e+001 1.179607e+002 -1.032828e+001 1.742970e+002
1620000000 -4.115489e+000 -8.056598e+001 1.372334e+001 1.558428e+002 -2.133426e+001 1.178434e+002 -1.036688e+001 1.741308e+002
1621000000 -4.133992e+000 -8.065186e+001 1.372274e+001 1.556987e+002 -2.132906e+001 1.177524e+002 -1.040704e+001 1.740139e+002
1622000000 -4.139323e+000 -8.065426e+001 1.372181e+001 1.555587e+002 -2.131844e+001 1.176263e+002 -1.043485e+001 1.738907e+002
1623000000 -4.153188e+000 -8.073205e+001 1.372157e+001 1.554657e+002 -2.130792e+001 1.175168e+002 -1.048276e+001 1.737114e+002
1624000000 -4.159534e+000 -8.080951e+001 1.372677e+001 1.553216e+002 -2.129328e+001 1.173823e+002 -1.052827e+001 1.736281e+002
1625000000 -4.164960e+000 -8.081617e+001 1.372476e+001 1.551809e+002 -2.128399e+001 1.172759e+002 -1.056345e+001 1.735056e+002
1626000000 -4.178138e+000 -8.094293e+001 1.372527e+001 1.550248e+002 -2.127284e+001 1.171930e+002 -1.060420e+001 1.733459e+002
1627000000 -4.198221e+000 -8.097660e+001 1.373165e+001 1.549265e+002 -2.127166e+001 1.171190e+002 -1.065436e+001 1.731100e+002
1628000000 -4.213128e+000 -8.104037e+001 1.373017e+001 1.547977e+002 -2.125797e+001 1.169821e+002 -1.068664e+001 1.730519e+002
1629000000 -4.211460e+000 -8.101466e+001 1.372907e+001 1.546777e+002 -2.124249e+001 1.168877e+002 -1.072407e+001 1.728934e+002
1630000000 -4.221007e+000 -8.111897e+001 1.372725e+001 1.545837e+002 -2.124184e+001 1.167453e+002 -1.076018e+001 1.726990e+002
1631000000 -4.241914e+000 -8.121487e+001 1.372745e+001 1.544008e+002 -2.122576e+001 1.166510e+002 -1.080918e+001 1.726233e+002
1632000000 -4.248508e+000 -8.124331e+001 1.372711e+001 1.543190e+002 -2.121943e+001 1.165627e+002 -1.084088e+001 1.724018e+002
1633000000 -4.270177e+000 -8.128983e+001 1.372883e+001 1.541857e+002 -2.120706e+001 1.164283e+002 -1.089555e+001 1.723155e+002
1634000000 -4.282489e+000 -8.136492e+001 1.372566e+001 1.540552e+002 -2.119469e+001 1.163486e+002 -1.093485e+001 1.721566e+002
1635000000 -4.289762e+000 -8.139390e+001 1.372577e+001 1.539235e+002 -2.118710e+001 1.162486e+002 -1.096692e+001 1.720001e+002
1636000000 -4.297823e+000 -8.146003e+001 1.372938e+001 1.537860e+002 -2.117768e+001 1.160959e+002 -1.101803e+001 1.718834e+002
1637000000 -4.306601e+000 -8.151463e+001 1.372973e+001 1.536936e+002 -2.117074e+001 1.160113e+002 -1.105386e+001 1.717040e+002
1638000000 -4.322107e+000 -8.156612e+001 1.373055e+001 1.535659e+002 -2.116068e+001 1.159002e+002 -1.110584e+001 1.715469e+002
1639000000 -4.343804e+000 -8.161893e+001 1.373278e+001 1.534317e+002 -2.114856e+001 1.158133e+002 -1.114247e+001 1.714393e+002
1640000000 -4.348771e+000 -8.165570e+001 1.373599e+001 1.532885e+002 -2.113661e+001 1.157131e+002 -1.118829e+001 1.712777e+002
1641000000 -4.365647e+000 -8.174139e+001 1.373078e+001 1.532043e+002 -2.113143e+001 1.156056e+002 -1.123188e+001 1.711302e+002
1642000000 -4.369012e+000 -8.179311e+001 1.373265e+001 1.530391e+002 -2.112502e+001 1.154661e+002 -1.126769e+001 1.710518e+002
1643000000 -4.386398e+000 -8.192891e+001 1.372888e+001 1.529318e+002 -2.111944e+001 1.153970e+002 -1.131077e+001 1.708156e+002
1644000000 -4.383354e+000 -8.182753e+001 1.373464e+001 1.528151e+002 -2.109972e+001 1.152663e+002 -1.137002e+001 1.707374e+002
1645000000 -4.407415e+000 -8.193275e+001 1.373811e+001 1.527055e+002 -2.109093e+001 1.151776e+002 -1.140952e+001 1.705393e+002
1646000000 -4.420787e+000 -8.197127e+001 1.373236e+001 1.525171e+002 -2.108521e+001 1.150337e+002 -1.144234e+001 1.704407e+002
1647000000 -4.425761e+000 -8.204766e+001 1.373313e+001 1.523936e+002 -2.107163e+001 1.149280e+002 -1.148422e+001 1.702686e+002
1648000000 -4.439764e+000 -8.211230e+001 1.373342e+001 1.522973e+002 -2.106956e+001 1.148380e+002 -1.152924e+001 1.701145e+002
1649000000 -4.459497e+000 -8.214578e+001 1.373449e+001 1.521292e+002 -2.105486e+001 1.147491e+002 -1.157936e+001 1.699672e+002
1650000000 -4.459204e+000 -8.218993e+001 1.373666e+001 1.520215e+002 -2.104543e+001 1.146224e+002 -1.163152e+001 1.698719e+002
1651000000 -4.476608e+000 -8.228189e+001 1.373875e+001 1.518956e+002 -2.103266e+001 1.145331e+002 -1.167741e+001 1.697130e+002
1652000000 -4.491664e+000 -8.223275e+001 1.373448e+001 1.517783e+002 -2.102134e+001 1.144302e+002 -1.172325e+001 1.695097e+002
1653000000 -4.491429e+000 -8.236137e+001 1.373784e+001 1.516665e+002 -2.102032e+001 1.142903e+002 -1.176744e+001 1.693646e+002
1654000000 -4.517477e+000 -8.243867e+001 1.373441e+001 1.515292e+002 -2.101360e+001 1.141929e+002 -1.180390e+001 1.692093e+002
1655000000 -4.525122e+000 -8.249995e+001 1.373012e+001 1.514132e+002 -2.100093e+001 1.140829e+002 -1.185188e+001 1.690369e+002
1656000000 -4.536624e+000 -8.249558e+001 1.373336e+001 1.512986e+002 -2.099024e+001 1.140106e+002 -1.190303e+001 1.689286e+002
1657000000 -4.544478e+000 -8.253943e+001 1.373383e+001 1.511464e+002 -2.098019e+001 1.138720e+002 -1.194193e+001 1.688300e+002
1658000000 -4.561675e+000 -8.265260e+001 1.373494e+001 1.509812e+002 -2.097791e+001 1.137762e+002 -1.198823e+001 1.686858e+002
1659000000 -4.576345e+000 -8.266790e+001 1.373459e+001 1.509080e+002 -2.096817e+001 1.136588e+002 -1.203366e+001 1.684853e+002
1660000000 -4.587572e+000 -8.268106e+001 1.373350e+001 1.507715e+002 -2.095568e+001 1.135591e+002 -1.208558e+001 1.683724e+002
1661000000 -4.598584e+000 -8.273702e+001 1.373287e+001 1.506469e+002 -2.094463e+001 1.134721e+002 -1.214179e+001 1.681732e+002
1662000000 -4.614305e+000 -8.277237e+001 1.373213e+001 1.505517e+002 -2.093770e+001 1.133492e+002 -1.218595e+001 1.680060e+002
1663000000 -4.632547e+000 -8.281393e+001 1.372748e+001 1.504047e+002 -2.092910e+001 1.132982e+002 -1.221848e+001 1.678636e+002
1664000000 -4.643970e+000 -8.287207e+001 1.373096e+001 1.502817e+002 -2.092119e+001 1.131791e+002 -1.227633e+001 1.677346e+002
1665000000 -4.654745e+000 -8.298689e+001 1.372759e+001 1.501745e+002 -2.090892e+001 1.130369e+002 -1.232098e+001 1.675679e+002
1666000000 -4.664171e+000 -8.298043e+001 1.373412e+001 1.500124e+002 -2.089999e+001 1.129176e+002 -1.237809e+001 1.674389e+002
1667000000 -4.672918e+000 -8.312652e+001 1.373097e+001 1.498931e+002 -2.089331e+001 1.127674e+002 -1.242881e+001 1.673525e+002
1668000000 -4.698987e+000 -8.304871e+001 1.372942e+001 1.497839e+002 -2.088803e+001 1.127539e+002 -1.248257e+001 1.670550e+002
1669000000 -4.705069e+000 -8.314711e+001 1.372968e+001 1.496485e+002 -2.087324e+001 1.126162e+002 -1.252479e+001 1.669664e+002
1670000000 -4.718217e+000 -8.315356e+001 1.373569e+001 1.495137e+002 -2.086745e+001 1.124978e+002 -1.258630e+001 1.667968e+002
1671000000 -4.718490e+000 -8.323268e+001 1.372315e+001 1.494083e+002 -2.085706e+001 1.124043e+002 -1.262013e+001 1.666418e+002
1672000000 -4.732816e+000 -8.326176e+001 1.372956e+001 1.492787e+002 -2.084548e+001 1.122895e+002 -1.267507e+001 1.665072e+002
1673000000 -4.747811e+000 -8.339529e+001 1.373398e+001 1.491737e+002 -2.084133e+001 1.121973e+002 -1.273126e+001 1.663086e+002
1674000000 -4.755161e+000 -8.337864e+001 1.373032e+001 1.490226e+002 -2.082295e+001 1.120940e+002 -1.278423e+001 1.662240e+002
1675000000 -4.775047e+000 -8.344466e+001 1.372596e+001 1.489491e+002 -2.082010e+001 1.120025e+002 -1.282936e+001 1.659952e+002
1676000000 -4.787903e+000 -8.355187e+001 1.372969e+001 1.487753e+002 -2.080862e+001 1.118780e+002 -1.288512e+001 1.658536e+002
1677000000 -4.798371e+000 -8.353917e+001 1.373087e+001 1.486943e+002 -2.080585e+001 1.117947e+002 -1.294465e+001 1.656711e+002
1678000000 -4.819125e+000 -8.357548e+001 1.373127e+001 1.485366e+002 -2.079399e+001 1.116896e+002 -1.299886e+001 1.655107e+002
1679000000 -4.821441e+000 -8.355370e+001 1.372448e+001 1.484366e+002 -2.079078e+001 1.115592e+002 -1.304361e+001 1.654098e+002
1680000000 -4.824465e+000 -8.367620e+001 1.372707e+001 1.483000e+002 -2.077629e+001 1.114181e+002 -1.308987e+001 1.652504e+002
1681000000 -4.840270e+000 -8.370580e+001 1.372061e+001 1.481686e+002 -2.077403e+001 1.113735e+002 -1.314531e+001 1.650783e+002
1682000000 -4.852053e+000 -8.370287e+001 1.372431e+001 1.480590e+002 -2.075886e+001 1.112566e+002 -1.320385e+001 1.648790e+002
1683000000 -4.885895e+000 -8.373037e+001 1.372050e+001 1.479089e+002 -2.075409e+001 1.111961e+002 -1.324784e+001 1.647522e+002
1684000000 -4.893286e+000 -8.380152e+001 1.371798e+001 1.478069e+002 -2.074249e+001 1.110553e+002 -1.331029e+001 1.646342e+002
1685000000 -4.896336e+000 -8.387547e+001 1.372519e+001 1.476982e+002 -2.073237e+001 1.109930e+002 -1.337324e+001 1.644488e+002
1686000000 -4.907330e+000 -8.384534e+001 1.371487e+001 1.475575e+002 -2.073109e+001 1.108386e+002 -1.340529e+001 1.642070e+002
1687000000 -4.924480e+000 -8.396304e+001 1.371728e+001 1.474778e+002 -2.071788e+001 1.107160e+002 -1.347634e+001 1.641177e+002
1688000000 -4.937768e+000 -8.398933e+001 1.371772e+001 1.473173e+002 -2.071214e+001 1.106759e+002 -1.351880e+001 1.638990e+002
1689000000 -4.955188e+000 -8.406576e+001 1.371466e+001 1.472099e+002 -2.070660e+001 1.105423e+002 -1.357536e+001 1.637317e+002
1690000000 -4.967309e+000 -8.414655e+001 1.371371e+001 1.470398e+002 -2.069204e+001 1.104391e+002 -1.363368e+001 1.635841e+002
1691000000 -4.972858e+000 -8.424187e+001 1.371705e+001 1.469303e+002 -2.068240e+001 1.103416e+002 -1.369470e+001 1.634402e+002
1692000000 -4.994576e+000 -8.418671e+001 1.371178e+001 1.468403e+002 -2.068125e+001 1.102419e+002 -1.375821e+001 1.632116e+002
1693000000 -5.004883e+000 -8.415649e+001 1.371157e+001 1.467030e+002 -2.066934e+001 1.101041e+002 -1.380908e+001 1.631561e+002
1694000000 -5.017717e+000 -8.427280e+001 1.371242e+001 1.465705e+002 -2.065575e+001 1.100051e+002 -1.386985e+001 1.628899e+002
1695000000 -5.031005e+000 -8.423969e+001 1.371191e+001 1.464270e+002 -2.065245e+001 1.099060e+002 -1.392086e+001 1.627971e+002
1696000000 -5.031975e+000 -8.436826e+001 1.371768e+001 1.463421e+002 -2.064513e+001 1.098158e+002 -1.398957e+001 1.626435e+002
1697000000 -5.053702e+000 -8.437859e+001 1.371058e+001 1.462364e+002 -2.063875e+001 1.097413e+002 -1.404672e+001 1.623682e+002
1698000000 -5.063941e+000 -8.437241e+001 1.370906e+001 1.460852e+002 -2.062519e+001 1.095903e+002 -1.411848e+001 1.622633e+002
1699000000 -5.085392e+000 -8.438306e+001 1.370992e+001 1.459672e+002 -2.061660e+001 1.094985e+002 -1.415752e+001 1.620834e+002
1700000000 -5.088942e+000 -8.452268e+001 1.371144e+001 1.458732e+002 -2.061606e+001 1.094119e+002 -1.422308e+001 1.618931e+002
1701000000 -5.110609e+000 -8.447463e+001 1.370623e+001 1.457337e+002 -2.060398e+001 1.093397e+002 -1.428460e+001 1.617339e+002
1702000000 -5.119339e+000 -8.455623e+001 1.370266e+001 1.456171e+002 -2.060006e+001 1.091890e+002 -1.433745e+001 1.615921e+002
1703000000 -5.116091e+000 -8.458224e+001 1.371121e+001 1.454842e+002 -2.059202e+001 1.090992e+002 -1.440344e+001 1.613779e+002
1704000000 -5.151615e+000 -8.462513e+001 1.370415e+001 1.453751e+002 -2.058033e+001 1.089956e+002 -1.445919e+001 1.611810e+002
1705000000 -5.172124e+000 -8.475040e+001 1.370508e+001 1.452081e+002 -2.057554e+001 1.088904e+002 -1.453176e+001 1.609798e+002
1706000000 -5.169100e+000 -8.476775e+001 1.369713e+001 1.451142e+002 -2.057120e+001 1.087638e+002 -1.458433e+001 1.608449e+002
1707000000 -5.187176e+000 -8.474324e+001 1.370212e+001 1.450307e+002 -2.055553e+001 1.087266e+002 -1.466406e+001 1.606509e+002
1708000000 -5.197195e+000 -8.483863e+001 1.370264e+001 1.448631e+002 -2.054671e+001 1.085704e+002 -1.473293e+001 1.605121e+002
1709000000 -5.222518e+000 -8.489828e+001 1.370126e+001 1.447332e+002 -2.054417e+001 1.084587e+002 -1.478696e+001 1.603189e+002
1710000000 -5.217959e+000 -8.492056e+001 1.369765e+001 1.446030e+002 -2.053544e+001 1.083502e+002 -1.483337e+001 1.601830e+002
1711000000 -5.247028e+000 -8.485416e+001 1.369843e+001 1.445431e+002 -2.053434e+001 1.083244e+002 -1.489568e+001 1.598724e+002
1712000000 -5.255501e+000 -8.497829e+001 1.369037e+001 1.444060e+002 -2.052684e+001 1.081563e+002 -1.496857e+001 1.597286e+002
1713000000 -5.270348e+000 -8.495726e+001 1.368801e+001 1.443081e+002 -2.051766e+001 1.080890e+002 -1.502210e+001 1.594525e+002
1714000000 -5.271663e+000 -8.509884e+001 1.369214e+001 1.441179e+002 -2.050159e+001 1.079696e+002 -1.510301e+001 1.593897e+002
1715000000 -5.290910e+000 -8.507127e+001 1.369139e+001 1.440712e+002 -2.050092e+001 1.079190e+002 -1.516477e+001 1.590027e+002
1716000000 -5.316480e+000 -8.510793e+001 1.369340e+001 1.439217e+002 -2.048993e+001 1.077634e+002 -1.524455e+001 1.589954e+002
1717000000 -5.321042e+000 -8.509563e+001 1.368670e+001 1.437828e+002 -2.048548e+001 1.076550e+002 -1.531020e+001 1.588728e+002
1718000000 -5.337485e+000 -8.520181e+001 1.368419e+001 1.436914e+002 -2.047684e+001 1.075596e+002 -1.536721e+001 1.585329e+002
1719000000 -5.354620e+000 -8.517094e+001 1.368270e+001 1.435819e+002 -2.046892e+001 1.074665e+002 -1.543931e+001 1.583609e+002
1720000000 -5.357678e+000 -8.529292e+001 1.368620e+001 1.434553e+002 -2.047082e+001 1.074103e+002 -1.551541e+001 1.580906e+002
1721000000 -5.371525e+000 -8.521300e+001 1.368272e+001 1.433172e+002 -2.045739e+001 1.072537e+002 -1.557944e+001 1.579003e+002
1722000000 -5.396423e+000 -8.527892e+001 1.367552e+001 1.431993e+002 -2.044631e+001 1.071831e+002 -1.563051e+001 1.576423e+002
1723000000 -5.387507e+000 -8.529602e+001 1.368429e+001 1.431030e+002 -2.043729e+001 1.070490e+002 -1.572505e+001 1.576075e+002
1724000000 -5.419203e+000 -8.539198e+001 1.367742e+001 1.429965e+002 -2.042853e+001 1.069654e+002 -1.578908e+001 1.572777e+002
1725000000 -5.431150e+000 -8.539056e+001 1.367349e+001 1.428282e+002 -2.041582e+001 1.068523e+002 -1.586600e+001 1.572040e+002
1726000000 -5.448172e+000 -8.543324e+001 1.367098e+001 1.427081e+002 -2.041194e+001 1.067378e+002 -1.593508e+001 1.569930e+002
1727000000 -5.458381e+000 -8.543108e+001 1.366832e+001 1.426074e+002 -2.040696e+001 1.066241e+002 -1.600572e+001 1.567957e+002
1728000000 -5.481744e+000 -8.553242e+001 1.366816e+001 1.424986e+002 -2.040082e+001 1.065852e+002 -1.606412e+001 1.564707e+002
1729000000 -5.480542e+000 -8.556173e+001 1.366970e+001 1.423530e+002 -2.039485e+001 1.064559e+002 -1.615314e+001 1.563656e+002
1730000000 -5.499190e+000 -8.546321e+001 1.366905e+001 1.422410e+002 -2.038550e+001 1.064085e+002 -1.621817e+001 1.561223e+002
1731000000 -5.504823e+000 -8.554440e+001 1.366519e+001 1.421471e+002 -2.038566e+001 1.062431e+002 -1.629874e+001 1.558253e+002
1732000000 -5.521451e+000 -8.558279e+001 1.366109e+001 1.419628e+002 -2.037204e+001 1.061189e+002 -1.637544e+001 1.557364e+002
1733000000 -5.529336e+000 -8.559717e+001 1.366078e+001 1.418980e+002 -2.036670e+001 1.060070e+002 -1.644317e+001 1.554714e+002
1734000000 -5.542038e+000 -8.570277e+001 1.365515e+001 1.417775e+002 -2.035515e+001 1.059607e+002 -1.651804e+001 1.551172e+002
1735000000 -5.553061e+000 -8.566702e+001 1.365686e+001 1.416517e+002 -2.035231e+001 1.058388e+002 -1.659746e+001 1.550808e+002
1736000000 -5.584274e+000 -8.574429e+001 1.365586e+001 1.415395e+002 -2.034363e+001 1.057277e+002 -1.668147e+001 1.548286e+002
1737000000 -5.578516e+000 -8.580342e+001 1.366029e+001 1.414192e+002 -2.034157e+001 1.056297e+002 -1.675243e+001 1.545444e+002
1738000000 -5.602097e+000 -8.579169e+001 1.365362e+001 1.412709e+002 -2.032734e+001 1.055562e+002 -1.684052e+001 1.543916e+002
1739000000 -5.623312e+000 -8.579144e+001 1.364906e+001 1.411913e+002 -2.031837e+001 1.054137e+002 -1.692662e+001 1.540906e+002
1740000000 -5.621324e+000 -8.583559e+001 1.365246e+001 1.410795e+002 -2.031177e+001 1.053206e+002 -1.700592e+001 1.537926e+002
1741000000 -5.640788e+000 -8.585498e+001 1.364727e+001 1.409426e+002 -2.030843e+001 1.052358e+002 -1.706893e+001 1.536741e+002
1742000000 -5.659072e+000 -8.593017e+001 1.364744e+001 1.408218e+002 -2.030957e+001 1.051219e+002 -1.715211e+001 1.533593e+002
1743000000 -5.677552e+000 -8.590452e+001 1.363993e+001 1.406872e+002 -2.029430e+001 1.050637e+002 -1.723929e+001 1.531242e+002
1744000000 -5.686586e+000 -8.598736e+001 1.364270e+001 1.405973e+002 -2.028758e+001 1.049031e+002 -1.734217e+001 1.529299e+002
1745000000 -5.705666e+000 -8.606438e+001 1.364078e+001 1.404454e+002 -2.028564e+001 1.048201e+002 -1.740830e+001 1.526552e+002
1746000000 -5.706052e+000 -8.604657e+001 1.364070e+001 1.403410e+002 -2.026956e+001 1.047399e+002 -1.748868e+001 1.524081e+002
1747000000 -5.718776e+000 -8.608591e+001 1.363923e+001 1.402449e+002 -2.026668e+001 1.046212e+002 -1.757180e+001 1.520712e+002
1748000000 -5.738864e+000 -8.607455e+001 1.363713e+001 1.401272e+002 -2.025980e+001 1.045276e+002 -1.767294e+001 1.518515e+002
1749000000 -5.747432e+000 -8.613359e+001 1.363365e+001 1.400133e+002 -2.025417e+001 1.044381e+002 -1.775503e+001 1.516019e+002
1750000000 -5.761445e+000 -8.613903e+001 1.362896e+001 1.398714e+002 -2.024404e+001 1.043403e+002 -1.782029e+001 1.513504e+002
1751000000 -5.773983e+000 -8.618522e+001 1.362775e+001 1.397660e+002 -2.024136e+001 1.042270e+002 -1.790712e+001 1.509944e+002
1752000000 -5.793911e+000 -8.618143e+001 1.362499e+001 1.396179e+002 -2.023604e+001 1.041435e+002 -1.799942e+001 1.508060e+002
1753000000 -5.809383e+000 -8.617905e+001 1.362412e+001 1.395095e+002 -2.022273e+001 1.040483e+002 -1.810432e+001 1.505182e+002
1754000000 -5.825594e+000 -8.624025e+001 1.362160e+001 1.394055e+002 -2.022036e+001 1.039292e+002 -1.818170e+001 1.502250e+002
1755000000 -5.832512e+000 -8.628410e+001 1.361665e+001 1.392943e+002 -2.021463e+001 1.038059e+002 -1.826019e+001 1.499344e+002
1756000000 -5.839219e+000 -8.636124e+001 1.362123e+001 1.391578e+002 -2.020591e+001 1.037179e+002 -1.836371e+001 1.497043e+002
1757000000 -5.853851e+000 -8.627229e+001 1.361515e+001 1.390350e+002 -2.020018e+001 1.036389e+002 -1.846791e+001 1.495222e+002
1758000000 -5.885182e+000 -8.632721e+001 1.360830e+001 1.389782e+002 -2.018967e+001 1.035330e+002 -1.856203e+001 1.489753e+002
1759000000 -5.889794e+000 -8.637579e+001 1.361174e+001 1.388259e+002 -2.018353e+001 1.034636e+002 -1.866136e+001 1.487802e+002
1760000000 -5.902621e+000 -8.642049e+001 1.361410e+001 1.387095e+002 -2.017892e+001 1.033299e+002 -1.874175e+001 1.484803e+002
1761000000 -5.924976e+000 -8.643591e+001 1.360738e+001 1.385746e+002 -2.017554e+001 1.032368e+002 -1.886051e+001 1.483352e+002
1762000000 -5.925098e+000 -8.647839e+001 1.360611e+001 1.384393e+002 -2.016928e+001 1.031242e+002 -1.892845e+001 1.480272e+002
1763000000 -5.942819e+000 -8.644594e+001 1.360801e+001 1.383435e+002 -2.015947e+001 1.030298e+002 -1.906008e+001 1.476986e+002
1764000000 -5.961256e+000 -8.655869e+001 1.360363e+001 1.382308e+002 -2.015682e+001 1.029283e+002 -1.914588e+001 1.472186e+002
1765000000 -5.971140e+000 -8.657246e+001 1.360052e+001 1.381120e+002 -2.014737e+001 1.028428e+002 -1.925186e+001 1.470205e+002
1766000000 -5.994307e+000 -8.653429e+001 1.359901e+001 1.379848e+002 -2.014085e+001 1.027264e+002 -1.934520e+001 1.468037e+002
1767000000 -5.996871e+000 -8.663675e+001 1.359545e+001 1.378510e+002 -2.013721e+001 1.026053e+002 -1.944071e+001 1.464724e+002
1768000000 -6.025546e+000 -8.659493e+001 1.359808e+001 1.377460e+002 -2.013068e+001 1.025259e+002 -1.955094e+001 1.461841e+002
1769000000 -6.021389e+000 -8.664852e+001 1.359231e+001 1.376283e+002 -2.012697e+001 1.024329e+002 -1.965241e+001 1.457785e+002
1770000000 -6.048917e+000 -8.663446e+001 1.358475e+001 1.375389e+002 -2.011748e+001 1.023674e+002 -1.974372e+001 1.452165e+002
1771000000 -6.058101e+000 -8.665669e+001 1.358560e+001 1.374225e+002 -2.011088e+001 1.022653e+002 -1.984310e+001 1.450119e+002
1772000000 -6.065820e+000 -8.670912e+001 1.358267e+001 1.372672e+002 -2.010942e+001 1.021770e+002 -1.993999e+001 1.446576e+002
1773000000 -6.089856e+000 -8.675676e+001 1.357741e+001 1.371896e+002 -2.009821e+001 1.020051e+002 -2.005328e+001 1.443904e+002
1774000000 -6.104757e+000 -8.684808e+001 1.358168e+001 1.370468e+002 -2.009114e+001 1.019417e+002 -2.020304e+001 1.439075e+002
1775000000 -6.115688e+000 -8.670506e+001 1.357163e+001 1.369066e+002 -2.008552e+001 1.018285e+002 -2.031392e+001 1.437909e+002
1776000000 -6.135801e+000 -8.671622e+001 1.356509e+001 1.368076e+002 -2.007251e+001 1.017561e+002 -2.039829e+001 1.432542e+002
1777000000 -6.143221e+000 -8.675339e+001 1.356889e+001 1.367316e+002 -2.007174e+001 1.016578e+002 -2.050063e+001 1.426545e+002
1778000000 -6.157358e+000 -8.676850e+001 1.356177e+001 1.365883e+002 -2.006177e+001 1.015335e+002 -2.063334e+001 1.424874e+002
1779000000 -6.181588e+000 -8.672391e+001 1.356280e+001 1.364709e+002 -2.006513e+001 1.014522e+002 -2.072170e+001 1.422160e+002
1780000000 -6.183249e+000 -8.692874e+001 1.356637e+001 1.363600e+002 -2.005558e+001 1.013350e+002 -2.086825e+001 1.416801e+002
1781000000 -6.195405e+000 -8.678686e+001 1.355794e+001 1.362645e+002 -2.005085e+001 1.012651e+002 -2.095242e+001 1.409135e+002
1782000000 -6.222001e+000 -8.684359e+001 1.355435e+001 1.360992e+002 -2.004639e+001 1.011593e+002 -2.109468e+001 1.408280e+002
1783000000 -6.216700e+000 -8.682289e+001 1.355228e+001 1.360113e+002 -2.003395e+001 1.010282e+002 -2.119654e+001 1.405190e+002
1784000000 -6.235881e+000 -8.688244e+001 1.355289e+001 1.358810e+002 -2.002446e+001 1.009388e+002 -2.129841e+001 1.400578e+002
1785000000 -6.253976e+000 -8.687786e+001 1.355484e+001 1.357981e+002 -2.002861e+001 1.008519e+002 -2.142837e+001 1.393702e+002
1786000000 -6.257753e+000 -8.695977e+001 1.354783e+001 1.356631e+002 -2.002052e+001 1.007899e+002 -2.154212e+001 1.389915e+002
1787000000 -6.281298e+000 -8.690436e+001 1.354696e+001 1.355996e+002 -2.000982e+001 1.006682e+002 -2.167863e+001 1.383698e+002
1788000000 -6.297454e+000 -8.694715e+001 1.353887e+001 1.354713e+002 -2.000980e+001 1.005751e+002 -2.182107e+001 1.378544e+002
1789000000 -6.320930e+000 -8.699033e+001 1.353597e+001 1.353259e+002 -2.000367e+001 1.004822e+002 -2.194096e+001 1.374581e+002
1790000000 -6.325031e+000 -8.704872e+001 1.353906e+001 1.352353e+002 -1.999653e+001 1.004072e+002 -2.209839e+001 1.369900e+002
1791000000 -6.336368e+000 -8.711094e+001 1.353722e+001 1.350960e+002 -1.999134e+001 1.003067e+002 -2.222864e+001 1.365123e+002
1792000000 -6.349994e+000 -8.710364e+001 1.353501e+001 1.349689e+002 -1.998094e+001 1.001822e+002 -2.233125e+001 1.359567e+002
1793000000 -6.360579e+000 -8.707554e+001 1.353015e+001 1.348810e+002 -1.997766e+001 1.000823e+002 -2.248843e+001 1.354388e+002
1794000000 -6.382283e+000 -8.707495e+001 1.352721e+001 1.347907e+002 -1.997226e+001 1.000322e+002 -2.262984e+001 1.345623e+002
1795000000 -6.392619e+000 -8.711500e+001 1.352480e+001 1.346726e+002 -1.996486e+001 9.989842e+001 -2.271240e+001 1.343192e+002
1796000000 -6.410718e+000 -8.700541e+001 1.352261e+001 1.345420e+002 -1.996267e+001 9.979779e+001 -2.286748e+001 1.336940e+002
1797000000 -6.412171e+000 -8.702820e+001 1.351606e+001 1.344501e+002 -1.995296e+001 9.972275e+001 -2.299048e+001 1.331926e+002
1798000000 -6.446084e+000 -8.704369e+001 1.351366e+001 1.343011e+002 -1.994917e+001 9.962334e+001 -2.314206e+001 1.326284e+002
1799000000 -6.444431e+000 -8.716738e+001 1.350976e+001 1.342275e+002 -1.994556e+001 9.951087e+001 -2.328213e+001 1.317285e+002
1800000000 -6.455397e+000 -8.713209e+001 1.350406e+001 1.340599e+002 -1.993670e+001 9.941264e+001 -2.340306e+001 1.315021e+002
1810000000 -6.610159e+000 -8.716822e+001 1.347842e+001 1.329948e+002 -1.988234e+001 9.843194e+001 -2.493029e+001 1.238631e+002
1820000000 -6.739970e+000 -8.731287e+001 1.344943e+001 1.318233e+002 -1.982402e+001 9.752708e+001 -2.656361e+001 1.132895e+002
1830000000 -6.888973e+000 -8.738897e+001 1.341536e+001 1.307083e+002 -1.978156e+001 9.657237e+001 -2.805447e+001 9.918578e+001
1840000000 -7.030055e+000 -8.737711e+001 1.338450e+001 1.296186e+002 -1.973226e+001 9.559835e+001 -2.929975e+001 8.006847e+001
1850000000 -7.174265e+000 -8.731640e+001 1.334200e+001 1.284878e+002 -1.967698e+001 9.467889e+001 -2.941795e+001 5.825612e+001
1860000000 -7.307530e+000 -8.738692e+001 1.330722e+001 1.274317e+002 -1.963717e+001 9.374763e+001 -2.840964e+001 3.771299e+001
1870000000 -7.452128e+000 -8.725135e+001 1.326523e+001 1.263294e+002 -1.958910e+001 9.284747e+001 -2.692699e+001 2.341187e+001
1880000000 -7.580014e+000 -8.717467e+001 1.322890e+001 1.252388e+002 -1.955495e+001 9.194490e+001 -2.538607e+001 1.271577e+001
1890000000 -7.735405e+000 -8.701842e+001 1.319198e+001 1.242132e+002 -1.950603e+001 9.105637e+001 -2.387980e+001 4.755636e+000
1900000000 -7.877969e+000 -8.674880e+001 1.314469e+001 1.231559e+002 -1.946776e+001 9.012523e+001 -2.261532e+001 -9.265375e-001
1910000000 -7.990857e+000 -8.651858e+001 1.310024e+001 1.220958e+002 -1.943171e+001 8.928044e+001 -2.145490e+001 -5.269148e+000
1920000000 -8.122651e+000 -8.637135e+001 1.306009e+001 1.210696e+002 -1.940022e+001 8.836124e+001 -2.039788e+001 -8.763325e+000
1930000000 -8.247903e+000 -8.606837e+001 1.301620e+001 1.200772e+002 -1.936560e+001 8.751161e+001 -1.945321e+001 -1.184764e+001
1940000000 -8.381484e+000 -8.573920e+001 1.296220e+001 1.190516e+002 -1.932900e+001 8.667709e+001 -1.860868e+001 -1.428522e+001
1950000000 -8.521441e+000 -8.536691e+001 1.292037e+001 1.180027e+002 -1.929354e+001 8.582652e+001 -1.787698e+001 -1.655542e+001
1960000000 -8.626470e+000 -8.505847e+001 1.287414e+001 1.170856e+002 -1.926983e+001 8.495882e+001 -1.715414e+001 -1.874953e+001
1970000000 -8.756566e+000 -8.454079e+001 1.281200e+001 1.160744e+002 -1.924157e+001 8.411882e+001 -1.651350e+001 -2.056271e+001
1980000000 -8.875676e+000 -8.409037e+001 1.276905e+001 1.150788e+002 -1.921193e+001 8.332380e+001 -1.591397e+001 -2.245872e+001
1990000000 -8.996069e+000 -8.353914e+001 1.270947e+001 1.140819e+002 -1.918248e+001 8.252560e+001 -1.536138e+001 -2.405094e+001
2000000000 -9.112148e+000 -8.328492e+001 1.266206e+001 1.131547e+002 -1.916289e+001 8.163745e+001 -1.485226e+001 -2.542061e+001
2010000000 -9.206636e+000 -8.257832e+001 1.261071e+001 1.121763e+002 -1.914187e+001 8.087381e+001 -1.437563e+001 -2.682795e+001
2020000000 -9.296661e+000 -8.204463e+001 1.255238e+001 1.112225e+002 -1.911306e+001 8.005654e+001 -1.392922e+001 -2.816078e+001
2030000000 -9.389561e+000 -8.144899e+001 1.249990e+001 1.103359e+002 -1.909466e+001 7.929999e+001 -1.350626e+001 -2.929286e+001
2040000000 -9.464768e+000 -8.083961e+001 1.244468e+001 1.093949e+002 -1.907269e+001 7.852025e+001 -1.310231e+001 -3.049026e+001
2050000000 -9.582662e+000 -8.025275e+001 1.238832e+001 1.084335e+002 -1.905796e+001 7.774638e+001 -1.272625e+001 -3.158600e+001
2060000000 -9.644614e+000 -7.960918e+001 1.232921e+001 1.075660e+002 -1.903325e+001 7.697085e+001 -1.237718e+001 -3.269663e+001
2070000000 -9.706440e+000 -7.881603e+001 1.226864e+001 1.066744e+002 -1.900640e+001 7.621384e+001 -1.203597e+001 -3.381978e+001
2080000000 -9.786922e+000 -7.821801e+001 1.220978e+001 1.057569e+002 -1.900100e+001 7.549509e+001 -1.172500e+001 -3.471141e+001
2090000000 -9.845717e+000 -7.751637e+001 1.215463e+001 1.048670e+002 -1.898331e+001 7.472548e+001 -1.141934e+001 -3.577933e+001
2100000000 -9.902924e+000 -7.682339e+001 1.209550e+001 1.040134e+002 -1.896727e+001 7.400974e+001 -1.112656e+001 -3.679752e+001
2110000000 -9.978886e+000 -7.606993e+001 1.202808e+001 1.031090e+002 -1.895818e+001 7.328087e+001 -1.084649e+001 -3.768109e+001
2120000000 -1.002033e+001 -7.546432e+001 1.197345e+001 1.022488e+002 -1.894798e+001 7.259821e+001 -1.058907e+001 -3.856691e+001
2130000000 -1.005663e+001 -7.465115e+001 1.190590e+001 1.014297e+002 -1.892388e+001 7.182571e+001 -1.033939e+001 -3.951115e+001
2140000000 -1.008289e+001 -7.388884e+001 1.184463e+001 1.005941e+002 -1.891968e+001 7.113299e+001 -1.008879e+001 -4.037432e+001
2150000000 -1.010868e+001 -7.311803e+001 1.178684e+001 9.973322e+001 -1.890943e+001 7.046127e+001 -9.866826e+000 -4.121182e+001
2160000000 -1.013574e+001 -7.241757e+001 1.172165e+001 9.897767e+001 -1.890105e+001 6.976674e+001 -9.635813e+000 -4.207198e+001
2170000000 -1.014916e+001 -7.159949e+001 1.165290e+001 9.811876e+001 -1.889131e+001 6.904326e+001 -9.419097e+000 -4.282846e+001
2180000000 -1.018123e+001 -7.094586e+001 1.158872e+001 9.730627e+001 -1.887985e+001 6.841155e+001 -9.215727e+000 -4.359343e+001
2190000000 -1.016506e+001 -7.010751e+001 1.153099e+001 9.650490e+001 -1.887585e+001 6.771680e+001 -9.028088e+000 -4.437169e+001
2200000000 -1.018264e+001 -6.941376e+001 1.146032e+001 9.568977e+001 -1.886469e+001 6.706789e+001 -8.829401e+000 -4.516937e+001
2210000000 -1.016340e+001 -6.886878e+001 1.139534e+001 9.494489e+001 -1.886619e+001 6.638325e+001 -8.650902e+000 -4.587762e+001
2220000000 -1.014175e+001 -6.807691e+001 1.133627e+001 9.418835e+001 -1.885534e+001 6.577270e+001 -8.476174e+000 -4.667665e+001
2230000000 -1.016138e+001 -6.728715e+001 1.126762e+001 9.337172e+001 -1.885287e+001 6.512766e+001 -8.297128e+000 -4.740485e+001
2240000000 -1.015815e+001 -6.652536e+001 1.119737e+001 9.261708e+001 -1.884231e+001 6.452721e+001 -8.128902e+000 -4.811428e+001
2250000000 -1.012247e+001 -6.615791e+001 1.113861e+001 9.185170e+001 -1.884538e+001 6.389120e+001 -7.974700e+000 -4.881772e+001
2260000000 -1.009200e+001 -6.526128e+001 1.106192e+001 9.109892e+001 -1.883658e+001 6.326458e+001 -7.816085e+000 -4.952358e+001
2270000000 -1.005804e+001 -6.472755e+001 1.100138e+001 9.039857e+001 -1.883220e+001 6.261196e+001 -7.668888e+000 -5.025098e+001
2280000000 -1.002795e+001 -6.406731e+001 1.093122e+001 8.963946e+001 -1.883367e+001 6.198270e+001 -7.527351e+000 -5.090031e+001
2290000000 -1.000223e+001 -6.352445e+001 1.086644e+001 8.893307e+001 -1.883514e+001 6.142137e+001 -7.381938e+000 -5.158704e+001
2300000000 -9.956793e+000 -6.305608e+001 1.080612e+001 8.823556e+001 -1.882976e+001 6.080542e+001 -7.250268e+000 -5.223824e+001
2310000000 -9.917711e+000 -6.244619e+001 1.073538e+001 8.743635e+001 -1.883021e+001 6.023713e+001 -7.118346e+000 -5.286678e+001
2320000000 -9.864369e+000 -6.182006e+001 1.065980e+001 8.678836e+001 -1.882442e+001 5.966324e+001 -6.994291e+000 -5.346181e+001
2330000000 -9.816460e+000 -6.138109e+001 1.059033e+001 8.608038e+001 -1.881898e+001 5.904244e+001 -6.868231e+000 -5.410595e+001
2340000000 -9.785585e+000 -6.090672e+001 1.052845e+001 8.532941e+001 -1.882431e+001 5.850106e+001 -6.746999e+000 -5.471080e+001
2350000000 -9.718077e+000 -6.045042e+001 1.045981e+001 8.467615e+001 -1.882383e+001 5.793637e+001 -6.638486e+000 -5.533514e+001
2360000000 -9.671060e+000 -6.007317e+001 1.039454e+001 8.400293e+001 -1.883155e+001 5.737276e+001 -6.524887e+000 -5.593534e+001
2370000000 -9.600461e+000 -5.972608e+001 1.031761e+001 8.330530e+001 -1.882639e+001 5.676521e+001 -6.417797e+000 -5.653838e+001
2380000000 -9.542834e+000 -5.930379e+001 1.026019e+001 8.268734e+001 -1.883086e+001 5.622379e+001 -6.316422e+000 -5.711612e+001
2390000000 -9.479239e+000 -5.884812e+001 1.019623e+001 8.201352e+001 -1.883409e+001 5.570747e+001 -6.207518e+000 -5.770683e+001
2400000000 -9.441176e+000 -5.843979e+001 1.011618e+001 8.127843e+001 -1.884095e+001 5.516919e+001 -6.105913e+000 -5.826457e+001
2410000000 -9.374433e+000 -5.807153e+001 1.004468e+001 8.068121e+001 -1.884292e+001 5.463227e+001 -6.003555e+000 -5.882351e+001
2420000000 -9.320902e+000 -5.764987e+001 9.970544e+000 8.004045e+001 -1.884416e+001 5.411587e+001 -5.909944e+000 -5.945741e+001
2430000000 -9.241399e+000 -5.730247e+001 9.904577e+000 7.941456e+001 -1.884370e+001 5.358658e+001 -5.817482e+000 -5.993562e+001
2440000000 -9.183269e+000 -5.701207e+001 9.838704e+000 7.876063e+001 -1.884881e+001 5.307261e+001 -5.724677e+000 -6.051122e+001
2450000000 -9.122090e+000 -5.671891e+001 9.771502e+000 7.809467e+001 -1.885602e+001 5.258254e+001 -5.637260e+000 -6.103670e+001
2460000000 -9.079989e+000 -5.642981e+001 9.691577e+000 7.747544e+001 -1.885683e+001 5.210136e+001 -5.541424e+000 -6.157310e+001
2470000000 -9.002795e+000 -5.627453e+001 9.629422e+000 7.686987e+001 -1.886564e+001 5.156263e+001 -5.460941e+000 -6.204507e+001
2480000000 -8.916814e+000 -5.603260e+001 9.555474e+000 7.633521e+001 -1.886354e+001 5.103986e+001 -5.384047e+000 -6.257689e+001
2490000000 -8.869505e+000 -5.580211e+001 9.490791e+000 7.564972e+001 -1.887224e+001 5.055461e+001 -5.311139e+000 -6.307368e+001
2500000000 -8.803226e+000 -5.564484e+001 9.415959e+000 7.504258e+001 -1.887871e+001 5.006810e+001 -5.234540e+000 -6.356279e+001
2510000000 -8.735303e+000 -5.548623e+001 9.350281e+000 7.451608e+001 -1.888334e+001 4.953214e+001 -5.157995e+000 -6.406729e+001
2520000000 -8.691736e+000 -5.509329e+001 9.284114e+000 7.387568e+001 -1.888676e+001 4.910327e+001 -5.078988e+000 -6.461327e+001
2530000000 -8.613831e+000 -5.509189e+001 9.214895e+000 7.327451e+001 -1.889383e+001 4.864099e+001 -5.009520e+000 -6.507160e+001
2540000000 -8.551204e+000 -5.495728e+001 9.147126e+000 7.268074e+001 -1.889863e+001 4.813633e+001 -4.934547e+000 -6.553649e+001
2550000000 -8.480996e+000 -5.474364e+001 9.078151e+000 7.205006e+001 -1.890306e+001 4.770425e+001 -4.871126e+000 -6.601395e+001
2560000000 -8.419930e+000 -5.461425e+001 8.998419e+000 7.154267e+001 -1.891202e+001 4.726041e+001 -4.801337e+000 -6.648122e+001
2570000000 -8.355556e+000 -5.454298e+001 8.940264e+000 7.087617e+001 -1.891248e+001 4.680416e+001 -4.737455e+000 -6.695261e+001
2580000000 -8.288199e+000 -5.427810e+001 8.864881e+000 7.041747e+001 -1.891703e+001 4.634745e+001 -4.669175e+000 -6.740687e+001
2590000000 -8.218429e+000 -5.433402e+001 8.796900e+000 6.990894e+001 -1.892405e+001 4.586100e+001 -4.609474e+000 -6.786475e+001
2600000000 -8.155130e+000 -5.428941e+001 8.729433e+000 6.930654e+001 -1.892760e+001 4.538652e+001 -4.554429e+000 -6.830085e+001
2610000000 -8.089049e+000 -5.415285e+001 8.660414e+000 6.882325e+001 -1.893973e+001 4.496841e+001 -4.495149e+000 -6.872774e+001
2620000000 -8.039842e+000 -5.411620e+001 8.591900e+000 6.819233e+001 -1.895205e+001 4.453777e+001 -4.438012e+000 -6.920778e+001
2630000000 -7.979790e+000 -5.400733e+001 8.515751e+000 6.757935e+001 -1.895847e+001 4.409725e+001 -4.382395e+000 -6.963946e+001
2640000000 -7.912564e+000 -5.402514e+001 8.440933e+000 6.716855e+001 -1.896814e+001 4.367588e+001 -4.330033e+000 -7.005728e+001
2650000000 -7.858080e+000 -5.388670e+001 8.374418e+000 6.658279e+001 -1.897189e+001 4.326175e+001 -4.274765e+000 -7.052566e+001
2660000000 -7.789018e+000 -5.390046e+001 8.307611e+000 6.609812e+001 -1.898025e+001 4.281797e+001 -4.218795e+000 -7.097255e+001
2670000000 -7.733925e+000 -5.393462e+001 8.245163e+000 6.557775e+001 -1.898687e+001 4.239217e+001 -4.168799e+000 -7.140034e+001
2680000000 -7.676157e+000 -5.372955e+001 8.164319e+000 6.496553e+001 -1.899836e+001 4.201673e+001 -4.115333e+000 -7.179543e+001
2690000000 -7.622409e+000 -5.383386e+001 8.100813e+000 6.446764e+001 -1.900415e+001 4.157248e+001 -4.063809e+000 -7.224562e+001
2700000000 -7.554512e+000 -5.376772e+001 8.032103e+000 6.405568e+001 -1.901391e+001 4.120134e+001 -4.011703e+000 -7.263565e+001
2710000000 -7.501260e+000 -5.383384e+001 7.968674e+000 6.349594e+001 -1.901964e+001 4.078151e+001 -3.967493e+000 -7.303428e+001
2720000000 -7.447032e+000 -5.384960e+001 7.899024e+000 6.293330e+001 -1.902963e+001 4.040873e+001 -3.917046e+000 -7.344132e+001
2730000000 -7.397767e+000 -5.381189e+001 7.819166e+000 6.248644e+001 -1.903638e+001 3.999297e+001 -3.870817e+000 -7.383854e+001
2740000000 -7.336302e+000 -5.385519e+001 7.760275e+000 6.201692e+001 -1.904589e+001 3.966904e+001 -3.823790e+000 -7.422443e+001
2750000000 -7.285339e+000 -5.388766e+001 7.689272e+000 6.148788e+001 -1.905306e+001 3.928071e+001 -3.783810e+000 -7.459097e+001
2760000000 -7.224199e+000 -5.394093e+001 7.624388e+000 6.105825e+001 -1.905863e+001 3.886915e+001 -3.741912e+000 -7.500506e+001
2770000000 -7.169117e+000 -5.390939e+001 7.550538e+000 6.055283e+001 -1.907050e+001 3.846915e+001 -3.699114e+000 -7.541773e+001
2780000000 -7.107052e+000 -5.399977e+001 7.479172e+000 6.009670e+001 -1.907942e+001 3.808131e+001 -3.662503e+000 -7.580440e+001
2790000000 -7.070560e+000 -5.412112e+001 7.423032e+000 5.953688e+001 -1.908768e+001 3.766595e+001 -3.619089e+000 -7.616041e+001
2800000000 -7.019811e+000 -5.414790e+001 7.350317e+000 5.908087e+001 -1.909730e+001 3.730298e+001 -3.579192e+000 -7.654475e+001
2810000000 -6.968152e+000 -5.419020e+001 7.293028e+000 5.866108e+001 -1.910149e+001 3.695456e+001 -3.544059e+000 -7.691373e+001
2820000000 -6.921426e+000 -5.423860e+001 7.216131e+000 5.814563e+001 -1.910931e+001 3.657485e+001 -3.504437e+000 -7.728133e+001
2830000000 -6.861637e+000 -5.424269e+001 7.146209e+000 5.772145e+001 -1.912242e+001 3.620636e+001 -3.468049e+000 -7.766962e+001
2840000000 -6.829535e+000 -5.434478e+001 7.071284e+000 5.722735e+001 -1.913334e+001 3.588384e+001 -3.430190e+000 -7.799116e+001
2850000000 -6.780339e+000 -5.443663e+001 7.008444e+000 5.677844e+001 -1.914075e+001 3.552285e+001 -3.392298e+000 -7.835216e+001
2860000000 -6.728522e+000 -5.460272e+001 6.943178e+000 5.632787e+001 -1.914408e+001 3.511604e+001 -3.358754e+000 -7.868991e+001
2870000000 -6.686672e+000 -5.455126e+001 6.878247e+000 5.591693e+001 -1.915052e+001 3.479683e+001 -3.322526e+000 -7.907520e+001
2880000000 -6.644382e+000 -5.464402e+001 6.804374e+000 5.540132e+001 -1.917225e+001 3.441081e+001 -3.287087e+000 -7.941923e+001
2890000000 -6.601040e+000 -5.471483e+001 6.734615e+000 5.494759e+001 -1.917620e+001 3.405413e+001 -3.254758e+000 -7.976795e+001
2900000000 -6.549108e+000 -5.479480e+001 6.680520e+000 5.454513e+001 -1.918603e+001 3.368376e+001 -3.226122e+000 -8.015428e+001
2910000000 -6.505309e+000 -5.484018e+001 6.601501e+000 5.409449e+001 -1.919719e+001 3.339583e+001 -3.193185e+000 -8.050561e+001
2920000000 -6.461882e+000 -5.498049e+001 6.530388e+000 5.373514e+001 -1.920668e+001 3.309155e+001 -3.160252e+000 -8.083253e+001
2930000000 -6.410122e+000 -5.510410e+001 6.471398e+000 5.323608e+001 -1.920717e+001 3.268914e+001 -3.134038e+000 -8.117988e+001
2940000000 -6.367599e+000 -5.520446e+001 6.402197e+000 5.281203e+001 -1.922114e+001 3.239161e+001 -3.104170e+000 -8.151365e+001
2950000000 -6.332641e+000 -5.528247e+001 6.343176e+000 5.239865e+001 -1.923145e+001 3.206473e+001 -3.075060e+000 -8.186026e+001
2960000000 -6.292083e+000 -5.541623e+001 6.262216e+000 5.197050e+001 -1.924061e+001 3.169341e+001 -3.044365e+000 -8.215291e+001
2970000000 -6.248807e+000 -5.548941e+001 6.215930e+000 5.155027e+001 -1.924694e+001 3.144239e+001 -3.011838e+000 -8.248988e+001
2980000000 -6.196431e+000 -5.550873e+001 6.139811e+000 5.116876e+001 -1.925870e+001 3.108799e+001 -2.983741e+000 -8.284224e+001
2990000000 -6.168686e+000 -5.568447e+001 6.079736e+000 5.072622e+001 -1.927114e+001 3.075371e+001 -2.955046e+000 -8.312270e+001
3000000000 -6.123980e+000 -5.578575e+001 6.010482e+000 5.035270e+001 -1.927515e+001 3.041659e+001 -2.929285e+000 -8.345650e+001
3010000000 -6.090291e+000 -5.590564e+001 5.942548e+000 4.992636e+001 -1.929156e+001 3.010715e+001 -2.902830e+000 -8.378922e+001
3020000000 -6.049160e+000 -5.603615e+001 5.878742e+000 4.954416e+001 -1.929609e+001 2.978708e+001 -2.874105e+000 -8.410853e+001
3030000000 -6.010284e+000 -5.607822e+001 5.807075e+000 4.910517e+001 -1.930542e+001 2.949567e+001 -2.849819e+000 -8.443537e+001
3040000000 -5.973754e+000 -5.622792e+001 5.738296e+000 4.872394e+001 -1.931312e+001 2.916591e+001 -2.827681e+000 -8.476708e+001
3050000000 -5.935795e+000 -5.635521e+001 5.681705e+000 4.827939e+001 -1.932389e+001 2.884810e+001 -2.802412e+000 -8.508234e+001
3060000000 -5.895778e+000 -5.650640e+001 5.616053e+000 4.788223e+001 -1.933485e+001 2.853273e+001 -2.782317e+000 -8.538507e+001
3070000000 -5.871995e+000 -5.650420e+001 5.547054e+000 4.752044e+001 -1.934197e+001 2.827217e+001 -2.753978e+000 -8.572307e+001
3080000000 -5.821698e+000 -5.661255e+001 5.473163e+000 4.711285e+001 -1.934870e+001 2.796498e+001 -2.734373e+000 -8.603899e+001
3090000000 -5.785127e+000 -5.687128e+001 5.415554e+000 4.676097e+001 -1.936015e+001 2.759648e+001 -2.711097e+000 -8.632893e+001
3100000000 -5.765932e+000 -5.692584e+001 5.354564e+000 4.628943e+001 -1.936622e+001 2.732158e+001 -2.683479e+000 -8.662929e+001
3110000000 -5.719577e+000 -5.707124e+001 5.290034e+000 4.597397e+001 -1.937438e+001 2.702422e+001 -2.661414e+000 -8.693043e+001
3120000000 -5.691634e+000 -5.711970e+001 5.231137e+000 4.556255e+001 -1.938809e+001 2.676614e+001 -2.640055e+000 -8.723443e+001
3130000000 -5.659132e+000 -5.725115e+001 5.159021e+000 4.510801e+001 -1.939971e+001 2.645510e+001 -2.613576e+000 -8.753000e+001
3140000000 -5.623830e+000 -5.742696e+001 5.100636e+000 4.486908e+001 -1.941353e+001 2.611658e+001 -2.595978e+000 -8.781959e+001
3150000000 -5.589985e+000 -5.757187e+001 5.028354e+000 4.442421e+001 -1.942019e+001 2.581929e+001 -2.575035e+000 -8.810977e+001
3160000000 -5.556594e+000 -5.764256e+001 4.969205e+000 4.407540e+001 -1.943154e+001 2.557266e+001 -2.553599e+000 -8.842000e+001
3170000000 -5.526311e+000 -5.775751e+001 4.909552e+000 4.366198e+001 -1.944078e+001 2.527374e+001 -2.535412e+000 -8.872607e+001
3180000000 -5.477368e+000 -5.783365e+001 4.832031e+000 4.336757e+001 -1.944349e+001 2.502024e+001 -2.516703e+000 -8.902731e+001
3190000000 -5.466198e+000 -5.795536e+001 4.773699e+000 4.295059e+001 -1.945865e+001 2.473541e+001 -2.495800e+000 -8.933474e+001
3200000000 -5.432413e+000 -5.812886e+001 4.721580e+000 4.255893e+001 -1.946782e+001 2.440072e+001 -2.473564e+000 -8.961314e+001
3210000000 -5.400254e+000 -5.820711e+001 4.654281e+000 4.227828e+001 -1.947599e+001 2.418083e+001 -2.457668e+000 -8.994342e+001
3220000000 -5.361773e+000 -5.831667e+001 4.589367e+000 4.188721e+001 -1.948108e+001 2.386982e+001 -2.441576e+000 -9.023186e+001
3230000000 -5.342087e+000 -5.839534e+001 4.517194e+000 4.150372e+001 -1.949527e+001 2.363604e+001 -2.417356e+000 -9.052412e+001
3240000000 -5.314997e+000 -5.860388e+001 4.467190e+000 4.116792e+001 -1.951567e+001 2.333973e+001 -2.402211e+000 -9.077924e+001
3250000000 -5.289104e+000 -5.865554e+001 4.402393e+000 4.078097e+001 -1.951383e+001 2.308763e+001 -2.381023e+000 -9.108577e+001
3260000000 -5.256625e+000 -5.879459e+001 4.346920e+000 4.043649e+001 -1.952644e+001 2.278539e+001 -2.362027e+000 -9.138240e+001
3270000000 -5.228541e+000 -5.890859e+001 4.268834e+000 4.007571e+001 -1.953790e+001 2.252551e+001 -2.347078e+000 -9.165012e+001
3280000000 -5.203804e+000 -5.902568e+001 4.213664e+000 3.972444e+001 -1.954314e+001 2.228710e+001 -2.331577e+000 -9.194186e+001
3290000000 -5.176079e+000 -5.920243e+001 4.153478e+000 3.936841e+001 -1.955343e+001 2.201128e+001 -2.314802e+000 -9.221768e+001
3300000000 -5.153467e+000 -5.931864e+001 4.082418e+000 3.904171e+001 -1.956593e+001 2.176723e+001 -2.297920e+000 -9.248997e+001
3310000000 -5.116755e+000 -5.942415e+001 4.017554e+000 3.871571e+001 -1.956599e+001 2.148822e+001 -2.282748e+000 -9.277540e+001
3320000000 -5.091124e+000 -5.959458e+001 3.962253e+000 3.836473e+001 -1.958039e+001 2.120327e+001 -2.269621e+000 -9.304928e+001
3330000000 -5.073559e+000 -5.969023e+001 3.901563e+000 3.798047e+001 -1.958910e+001 2.098635e+001 -2.250489e+000 -9.333697e+001
3340000000 -5.036679e+000 -5.971512e+001 3.837912e+000 3.769485e+001 -1.959804e+001 2.074905e+001 -2.236226e+000 -9.363746e+001
3350000000 -5.023993e+000 -5.987873e+001 3.781911e+000 3.730683e+001 -1.961310e+001 2.047075e+001 -2.224823e+000 -9.389771e+001
3360000000 -4.994431e+000 -5.999936e+001 3.708962e+000 3.701687e+001 -1.961253e+001 2.025568e+001 -2.207591e+000 -9.418150e+001
3370000000 -4.965118e+000 -6.013915e+001 3.653119e+000 3.668207e+001 -1.962469e+001 1.998405e+001 -2.192909e+000 -9.445194e+001
3380000000 -4.952312e+000 -6.025749e+001 3.587247e+000 3.628997e+001 -1.963990e+001 1.975016e+001 -2.177480e+000 -9.470030e+001
3390000000 -4.923630e+000 -6.039219e+001 3.519455e+000 3.599114e+001 -1.965080e+001 1.946977e+001 -2.163653e+000 -9.498264e+001
3400000000 -4.901743e+000 -6.051700e+001 3.455112e+000 3.568608e+001 -1.965053e+001 1.924260e+001 -2.149174e+000 -9.523132e+001
3410000000 -4.868003e+000 -6.057697e+001 3.400086e+000 3.534423e+001 -1.965829e+001 1.901239e+001 -2.139674e+000 -9.551212e+001
3420000000 -4.854338e+000 -6.077429e+001 3.349080e+000 3.503782e+001 -1.967207e+001 1.873941e+001 -2.128977e+000 -9.577518e+001
3430000000 -4.824655e+000 -6.092826e+001 3.293272e+000 3.469112e+001 -1.968029e+001 1.851267e+001 -2.116293e+000 -9.604417e+001
3440000000 -4.810735e+000 -6.100072e+001 3.229890e+000 3.433837e+001 -1.968328e+001 1.825090e+001 -2.105152e+000 -9.631181e+001
3450000000 -4.784558e+000 -6.118245e+001 3.172390e+000 3.403570e+001 -1.968787e+001 1.798170e+001 -2.091162e+000 -9.657915e+001
3460000000 -4.759943e+000 -6.129319e+001 3.099029e+000 3.372360e+001 -1.968876e+001 1.779726e+001 -2.076116e+000 -9.685392e+001
3470000000 -4.735201e+000 -6.140525e+001 3.046650e+000 3.350311e+001 -1.970753e+001 1.748777e+001 -2.065949e+000 -9.713036e+001
3480000000 -4.715660e+000 -6.154750e+001 2.978441e+000 3.311307e+001 -1.971430e+001 1.726166e+001 -2.054683e+000 -9.741500e+001
3490000000 -4.693892e+000 -6.166358e+001 2.921064e+000 3.284392e+001 -1.972508e+001 1.704294e+001 -2.044022e+000 -9.768822e+001
3500000000 -4.662230e+000 -6.173008e+001 2.852650e+000 3.246652e+001 -1.972834e+001 1.681398e+001 -2.030864e+000 -9.796656e+001
3510000000 -4.653731e+000 -6.195718e+001 2.798309e+000 3.206066e+001 -1.973979e+001 1.657358e+001 -2.018062e+000 -9.822401e+001
3520000000 -4.632542e+000 -6.200798e+001 2.740673e+000 3.175365e+001 -1.974943e+001 1.634880e+001 -2.006271e+000 -9.846723e+001
3530000000 -4.606439e+000 -6.211287e+001 2.682939e+000 3.155010e+001 -1.975018e+001 1.609647e+001 -1.995905e+000 -9.871326e+001
3540000000 -4.583912e+000 -6.226416e+001 2.617401e+000 3.121996e+001 -1.975812e+001 1.584236e+001 -1.989564e+000 -9.895085e+001
3550000000 -4.571489e+000 -6.239166e+001 2.561739e+000 3.088141e+001 -1.976546e+001 1.561527e+001 -1.979356e+000 -9.920060e+001
3560000000 -4.552114e+000 -6.246646e+001 2.505445e+000 3.061885e+001 -1.977442e+001 1.540628e+001 -1.969752e+000 -9.944977e+001
3570000000 -4.528706e+000 -6.264820e+001 2.442714e+000 3.018942e+001 -1.978145e+001 1.512643e+001 -1.956165e+000 -9.969531e+001
3580000000 -4.509026e+000 -6.277710e+001 2.380082e+000 2.995298e+001 -1.979869e+001 1.491277e+001 -1.951332e+000 -9.993527e+001
3590000000 -4.487403e+000 -6.289020e+001 2.325905e+000 2.962990e+001 -1.979535e+001 1.465897e+001 -1.934488e+000 -1.002121e+002
3600000000 -4.471709e+000 -6.304481e+001 2.262558e+000 2.937949e+001 -1.980747e+001 1.433791e+001 -1.923500e+000 -1.004919e+002
3610000000 -4.454587e+000 -6.312865e+001 2.210254e+000 2.904849e+001 -1.982328e+001 1.420758e+001 -1.915808e+000 -1.007412e+002
3620000000 -4.430541e+000 -6.317569e+001 2.137058e+000 2.875492e+001 -1.982450e+001 1.396771e+001 -1.905580e+000 -1.010229e+002
3630000000 -4.421853e+000 -6.333888e+001 2.077734e+000 2.856577e+001 -1.984335e+001 1.373913e+001 -1.890570e+000 -1.012678e+002
3640000000 -4.397418e+000 -6.351323e+001 2.023633e+000 2.817471e+001 -1.985521e+001 1.351332e+001 -1.885001e+000 -1.015314e+002
3650000000 -4.384031e+000 -6.361666e+001 1.964768e+000 2.788286e+001 -1.985844e+001 1.331733e+001 -1.869715e+000 -1.017671e+002
3660000000 -4.362838e+000 -6.372204e+001 1.905309e+000 2.762500e+001 -1.986979e+001 1.307006e+001 -1.867830e+000 -1.020283e+002
3670000000 -4.344811e+000 -6.382651e+001 1.845665e+000 2.727612e+001 -1.987451e+001 1.287371e+001 -1.854129e+000 -1.022695e+002
3680000000 -4.335766e+000 -6.396944e+001 1.794936e+000 2.703971e+001 -1.988354e+001 1.265859e+001 -1.845998e+000 -1.025129e+002
3690000000 -4.313118e+000 -6.413499e+001 1.741011e+000 2.675087e+001 -1.988757e+001 1.240532e+001 -1.838611e+000 -1.027651e+002
3700000000 -4.293618e+000 -6.415113e+001 1.673931e+000 2.641030e+001 -1.989375e+001 1.220121e+001 -1.830450e+000 -1.030076e+002
3710000000 -4.281039e+000 -6.434724e+001 1.623232e+000 2.615337e+001 -1.990879e+001 1.199594e+001 -1.822968e+000 -1.032498e+002
3720000000 -4.271014e+000 -6.441368e+001 1.554879e+000 2.585399e+001 -1.991337e+001 1.180312e+001 -1.816650e+000 -1.035090e+002
3730000000 -4.251851e+000 -6.461399e+001 1.492864e+000 2.553465e+001 -1.992270e+001 1.149100e+001 -1.808152e+000 -1.037554e+002
3740000000 -4.235520e+000 -6.471381e+001 1.443087e+000 2.526509e+001 -1.993284e+001 1.132969e+001 -1.802205e+000 -1.040086e+002
3750000000 -4.208569e+000 -6.482765e+001 1.379865e+000 2.499330e+001 -1.993422e+001 1.111151e+001 -1.793240e+000 -1.042775e+002
3760000000 -4.196814e+000 -6.489909e+001 1.317265e+000 2.477887e+001 -1.994516e+001 1.089455e+001 -1.786954e+000 -1.045343e+002
3770000000 -4.186842e+000 -6.511089e+001 1.287507e+000 2.437366e+001 -1.994633e+001 1.065239e+001 -1.774658e+000 -1.047680e+002
3780000000 -4.161105e+000 -6.511124e+001 1.216505e+000 2.414290e+001 -1.995509e+001 1.049341e+001 -1.765790e+000 -1.050539e+002
3790000000 -4.146820e+000 -6.527886e+001 1.151897e+000 2.383825e+001 -1.996628e+001 1.027112e+001 -1.758538e+000 -1.052925e+002
3800000000 -4.145051e+000 -6.536254e+001 1.091768e+000 2.361533e+001 -1.998160e+001 1.008822e+001 -1.751326e+000 -1.055387e+002
3810000000 -4.125261e+000 -6.549301e+001 1.033931e+000 2.331145e+001 -1.998307e+001 9.837767e+000 -1.744466e+000 -1.058013e+002
3820000000 -4.113568e+000 -6.559005e+001 9.864040e-001 2.303206e+001 -1.999377e+001 9.689359e+000 -1.735137e+000 -1.060550e+002
3830000000 -4.096214e+000 -6.577204e+001 9.210907e-001 2.270548e+001 -1.999645e+001 9.442996e+000 -1.730917e+000 -1.062940e+002
3840000000 -4.083879e+000 -6.581630e+001 8.630784e-001 2.247284e+001 -2.000342e+001 9.268843e+000 -1.725376e+000 -1.065615e+002
3850000000 -4.066425e+000 -6.602393e+001 8.119253e-001 2.217162e+001 -2.001263e+001 9.004475e+000 -1.718566e+000 -1.067950e+002
3860000000 -4.053575e+000 -6.612386e+001 7.559736e-001 2.193021e+001 -2.001417e+001 8.826509e+000 -1.712508e+000 -1.070760e+002
3870000000 -4.034728e+000 -6.618034e+001 6.988410e-001 2.166016e+001 -2.001824e+001 8.643789e+000 -1.706516e+000 -1.073610e+002
3880000000 -4.029834e+000 -6.634915e+001 6.473303e-001 2.129680e+001 -2.003058e+001 8.382487e+000 -1.700642e+000 -1.076188e+002
3890000000 -4.006215e+000 -6.649979e+001 5.896676e-001 2.107683e+001 -2.003802e+001 8.167585e+000 -1.694606e+000 -1.078900e+002
3900000000 -3.999715e+000 -6.657652e+001 5.323116e-001 2.085807e+001 -2.004948e+001 7.995670e+000 -1.685983e+000 -1.081585e+002
3910000000 -3.979446e+000 -6.669606e+001 4.694447e-001 2.055110e+001 -2.005191e+001 7.804010e+000 -1.683296e+000 -1.083855e+002
3920000000 -3.968472e+000 -6.686103e+001 4.221487e-001 2.016240e+001 -2.005657e+001 7.572366e+000 -1.677637e+000 -1.086318e+002
3930000000 -3.955001e+000 -6.691473e+001 3.657571e-001 1.992131e+001 -2.006178e+001 7.402826e+000 -1.667356e+000 -1.088789e+002
3940000000 -3.952741e+000 -6.698261e+001 2.976940e-001 1.971699e+001 -2.007225e+001 7.222259e+000 -1.660713e+000 -1.091157e+002
3950000000 -3.933876e+000 -6.717316e+001 2.465664e-001 1.940613e+001 -2.007572e+001 6.982537e+000 -1.657414e+000 -1.093680e+002
3960000000 -3.927988e+000 -6.733043e+001 1.814701e-001 1.916542e+001 -2.008605e+001 6.750733e+000 -1.652466e+000 -1.096063e+002
3970000000 -3.914087e+000 -6.741937e+001 1.333199e-001 1.885699e+001 -2.008540e+001 6.572642e+000 -1.653960e+000 -1.098443e+002
3980000000 -3.899573e+000 -6.754199e+001 7.609635e-002 1.860416e+001 -2.008604e+001 6.404521e+000 -1.644879e+000 -1.100814e+002
3990000000 -3.885023e+000 -6.767356e+001 8.779251e-003 1.836294e+001 -2.009356e+001 6.176418e+000 -1.643211e+000 -1.103337e+002
4000000000 -3.884645e+000 -6.781447e+001 -4.850370e-002 1.803984e+001 -2.011019e+001 5.938847e+000 -1.639264e+000 -1.105831e+002
4010000000 -3.861142e+000 -6.790850e+001 -9.650629e-002 1.778170e+001 -2.011441e+001 5.777309e+000 -1.632777e+000 -1.108663e+002
4020000000 -3.860641e+000 -6.804396e+001 -1.492190e-001 1.746556e+001 -2.012013e+001 5.538894e+000 -1.631910e+000 -1.111339e+002
4030000000 -3.846184e+000 -6.815614e+001 -1.964925e-001 1.718506e+001 -2.012357e+001 5.346467e+000 -1.624424e+000 -1.114045e+002
4040000000 -3.835805e+000 -6.821178e+001 -2.676241e-001 1.682450e+001 -2.012464e+001 5.161405e+000 -1.621261e+000 -1.116626e+002
4050000000 -3.816458e+000 -6.838887e+001 -3.165953e-001 1.665670e+001 -2.013200e+001 4.920194e+000 -1.619801e+000 -1.119347e+002
4060000000 -3.817630e+000 -6.849620e+001 -3.745779e-001 1.650441e+001 -2.014336e+001 4.722196e+000 -1.614860e+000 -1.122011e+002
4070000000 -3.806022e+000 -6.860539e+001 -4.457467e-001 1.617452e+001 -2.014268e+001 4.577045e+000 -1.608688e+000 -1.124314e+002
4080000000 -3.779882e+000 -6.873993e+001 -4.723949e-001 1.589353e+001 -2.013643e+001 4.365509e+000 -1.606471e+000 -1.126680e+002
4090000000 -3.777996e+000 -6.888284e+001 -5.387584e-001 1.566590e+001 -2.015163e+001 4.071707e+000 -1.601278e+000 -1.129142e+002
4100000000 -3.764446e+000 -6.898869e+001 -6.038000e-001 1.537060e+001 -2.016068e+001 3.887262e+000 -1.601277e+000 -1.131713e+002
4110000000 -3.766270e+000 -6.909046e+001 -6.674281e-001 1.513524e+001 -2.017033e+001 3.649490e+000 -1.593902e+000 -1.134211e+002
4120000000 -3.750640e+000 -6.923951e+001 -7.215118e-001 1.488796e+001 -2.016924e+001 3.487277e+000 -1.591669e+000 -1.136734e+002
4130000000 -3.725488e+000 -6.932175e+001 -7.560632e-001 1.459697e+001 -2.016826e+001 3.235571e+000 -1.587311e+000 -1.139126e+002
4140000000 -3.725056e+000 -6.951800e+001 -8.253468e-001 1.428089e+001 -2.018442e+001 3.000515e+000 -1.586715e+000 -1.141673e+002
4150000000 -3.712753e+000 -6.956404e+001 -8.787501e-001 1.405060e+001 -2.019084e+001 2.834754e+000 -1.579410e+000 -1.144171e+002
4160000000 -3.703142e+000 -6.973058e+001 -9.281441e-001 1.383796e+001 -2.020494e+001 2.551414e+000 -1.578906e+000 -1.146630e+002
4170000000 -3.701459e+000 -6.978793e+001 -9.975402e-001 1.354608e+001 -2.020976e+001 2.385958e+000 -1.572666e+000 -1.149359e+002
4180000000 -3.696498e+000 -6.991312e+001 -1.063566e+000 1.328593e+001 -2.022564e+001 2.168316e+000 -1.565853e+000 -1.151712e+002
4190000000 -3.679641e+000 -7.003049e+001 -1.099851e+000 1.300953e+001 -2.021923e+001 1.957416e+000 -1.556778e+000 -1.154262e+002
4200000000 -3.666848e+000 -7.014498e+001 -1.170109e+000 1.274843e+001 -2.023460e+001 1.770118e+000 -1.556269e+000 -1.156902e+002
4210000000 -3.659695e+000 -7.027939e+001 -1.225066e+000 1.247416e+001 -2.024148e+001 1.585636e+000 -1.550964e+000 -1.159369e+002
4220000000 -3.657470e+000 -7.044812e+001 -1.278770e+000 1.225764e+001 -2.025574e+001 1.302267e+000 -1.547787e+000 -1.161923e+002
4230000000 -3.648857e+000 -7.058633e+001 -1.334047e+000 1.195258e+001 -2.026105e+001 1.128110e+000 -1.545351e+000 -1.164496e+002
4240000000 -3.640717e+000 -7.072581e+001 -1.384778e+000 1.171573e+001 -2.026991e+001 9.790733e-001 -1.543395e+000 -1.167027e+002
4250000000 -3.623420e+000 -7.083974e+001 -1.438661e+000 1.146154e+001 -2.027687e+001 8.142905e-001 -1.540181e+000 -1.169484e+002
4260000000 -3.606939e+000 -7.096796e+001 -1.489050e+000 1.123456e+001 -2.027459e+001 6.018325e-001 -1.537414e+000 -1.172127e+002
4270000000 -3.606810e+000 -7.112326e+001 -1.553372e+000 1.092128e+001 -2.028259e+001 3.737254e-001 -1.528294e+000 -1.174694e+002
4280000000 -3.604386e+000 -7.126904e+001 -1.604620e+000 1.066900e+001 -2.029479e+001 1.742309e-001 -1.529756e+000 -1.177240e+002
4290000000 -3.595986e+000 -7.136781e+001 -1.669486e+000 1.042815e+001 -2.031026e+001 -6.141397e-002 -1.526293e+000 -1.179825e+002
4300000000 -3.578980e+000 -7.141537e+001 -1.726348e+000 1.020882e+001 -2.030644e+001 -2.279068e-001 -1.524348e+000 -1.182700e+002
4310000000 -3.582190e+000 -7.155296e+001 -1.806280e+000 9.919024e+000 -2.032636e+001 -4.318169e-001 -1.520738e+000 -1.185132e+002
4320000000 -3.568246e+000 -7.173199e+001 -1.836485e+000 9.675949e+000 -2.033578e+001 -6.270601e-001 -1.518873e+000 -1.187851e+002
4330000000 -3.554139e+000 -7.178646e+001 -1.891111e+000 9.400747e+000 -2.033830e+001 -8.009695e-001 -1.515235e+000 -1.190642e+002
4340000000 -3.555932e+000 -7.191093e+001 -1.953873e+000 9.222552e+000 -2.034675e+001 -9.384431e-001 -1.511053e+000 -1.192992e+002
4350000000 -3.540864e+000 -7.208543e+001 -2.013516e+000 8.938959e+000 -2.034394e+001 -1.247932e+000 -1.506738e+000 -1.195805e+002
4360000000 -3.540671e+000 -7.223281e+001 -2.065732e+000 8.622081e+000 -2.035397e+001 -1.399098e+000 -1.504378e+000 -1.198374e+002
4370000000 -3.530624e+000 -7.233990e+001 -2.129907e+000 8.440006e+000 -2.037068e+001 -1.626525e+000 -1.501720e+000 -1.201018e+002
4380000000 -3.531908e+000 -7.249984e+001 -2.178570e+000 8.165560e+000 -2.037612e+001 -1.828293e+000 -1.499515e+000 -1.203594e+002
4390000000 -3.513061e+000 -7.258461e+001 -2.233308e+000 7.954448e+000 -2.037772e+001 -1.980953e+000 -1.497656e+000 -1.206179e+002
4400000000 -3.502821e+000 -7.271117e+001 -2.295743e+000 7.634020e+000 -2.038510e+001 -2.186418e+000 -1.495416e+000 -1.208895e+002
4410000000 -3.505980e+000 -7.288940e+001 -2.354011e+000 7.373435e+000 -2.039726e+001 -2.395489e+000 -1.489602e+000 -1.211608e+002
4420000000 -3.500052e+000 -7.302102e+001 -2.401561e+000 7.099621e+000 -2.039948e+001 -2.595552e+000 -1.487192e+000 -1.214053e+002
4430000000 -3.488388e+000 -7.319736e+001 -2.460875e+000 6.842098e+000 -2.041425e+001 -2.813096e+000 -1.484842e+000 -1.216667e+002
4440000000 -3.480065e+000 -7.333064e+001 -2.509778e+000 6.592031e+000 -2.042260e+001 -3.001925e+000 -1.484758e+000 -1.219439e+002
4450000000 -3.469647e+000 -7.344266e+001 -2.574774e+000 6.360848e+000 -2.042652e+001 -3.173643e+000 -1.484622e+000 -1.222144e+002
4460000000 -3.460021e+000 -7.357367e+001 -2.643313e+000 6.112123e+000 -2.043461e+001 -3.390354e+000 -1.478685e+000 -1.224721e+002
4470000000 -3.450703e+000 -7.370940e+001 -2.696709e+000 5.889000e+000 -2.044183e+001 -3.589110e+000 -1.479731e+000 -1.227519e+002
4480000000 -3.454408e+000 -7.379966e+001 -2.750741e+000 5.593244e+000 -2.045154e+001 -3.736404e+000 -1.475214e+000 -1.229923e+002
4490000000 -3.444666e+000 -7.393827e+001 -2.804217e+000 5.431040e+000 -2.046070e+001 -3.966399e+000 -1.473113e+000 -1.232679e+002
4500000000 -3.437526e+000 -7.412894e+001 -2.853682e+000 5.092138e+000 -2.046584e+001 -4.185028e+000 -1.471840e+000 -1.235392e+002
4510000000 -3.427828e+000 -7.427283e+001 -2.917231e+000 4.871553e+000 -2.047179e+001 -4.346649e+000 -1.467532e+000 -1.237910e+002
4520000000 -3.428651e+000 -7.441740e+001 -2.986646e+000 4.605636e+000 -2.048187e+001 -4.558319e+000 -1.469689e+000 -1.240475e+002
4530000000 -3.422729e+000 -7.459399e+001 -3.042175e+000 4.407244e+000 -2.049180e+001 -4.766745e+000 -1.466145e+000 -1.243205e+002
4540000000 -3.417036e+000 -7.470468e+001 -3.094930e+000 4.156055e+000 -2.049039e+001 -4.925172e+000 -1.463036e+000 -1.245644e+002
4550000000 -3.404258e+000 -7.478658e+001 -3.151305e+000 3.887970e+000 -2.049802e+001 -5.161435e+000 -1.468712e+000 -1.248563e+002
4560000000 -3.404203e+000 -7.500798e+001 -3.211580e+000 3.607017e+000 -2.051198e+001 -5.371399e+000 -1.464026e+000 -1.251045e+002
4570000000 -3.394273e+000 -7.516978e+001 -3.269669e+000 3.398080e+000 -2.051757e+001 -5.592084e+000 -1.462111e+000 -1.253571e+002
4580000000 -3.386958e+000 -7.529422e+001 -3.328197e+000 3.185689e+000 -2.052221e+001 -5.758032e+000 -1.461082e+000 -1.256176e+002
4590000000 -3.383773e+000 -7.540112e+001 -3.389586e+000 2.963420e+000 -2.053433e+001 -5.933737e+000 -1.457573e+000 -1.258982e+002
4600000000 -3.389928e+000 -7.554984e+001 -3.445984e+000 2.697258e+000 -2.054539e+001 -6.108699e+000 -1.453246e+000 -1.261412e+002
4610000000 -3.373783e+000 -7.567214e+001 -3.502688e+000 2.417611e+000 -2.054545e+001 -6.347634e+000 -1.452296e+000 -1.264230e+002
4620000000 -3.372656e+000 -7.582487e+001 -3.556687e+000 2.172363e+000 -2.054929e+001 -6.521946e+000 -1.446945e+000 -1.266925e+002
4630000000 -3.357227e+000 -7.599041e+001 -3.614141e+000 1.922102e+000 -2.056408e+001 -6.746072e+000 -1.449562e+000 -1.269660e+002
4640000000 -3.355264e+000 -7.611901e+001 -3.672136e+000 1.692039e+000 -2.057091e+001 -6.936356e+000 -1.450027e+000 -1.272389e+002
4650000000 -3.354100e+000 -7.629708e+001 -3.740458e+000 1.411289e+000 -2.058031e+001 -7.159684e+000 -1.450897e+000 -1.274953e+002
4660000000 -3.337181e+000 -7.639194e+001 -3.788166e+000 1.277109e+000 -2.058119e+001 -7.313273e+000 -1.449438e+000 -1.277632e+002
4670000000 -3.345895e+000 -7.658566e+001 -3.848093e+000 9.714870e-001 -2.059261e+001 -7.518987e+000 -1.446057e+000 -1.280293e+002
4680000000 -3.332916e+000 -7.675401e+001 -3.906762e+000 6.429334e-001 -2.059603e+001 -7.756409e+000 -1.445497e+000 -1.283009e+002
4690000000 -3.330239e+000 -7.688463e+001 -3.965767e+000 4.273748e-001 -2.060398e+001 -7.999207e+000 -1.443869e+000 -1.285703e+002
4700000000 -3.322315e+000 -7.704398e+001 -4.017449e+000 1.740789e-001 -2.062250e+001 -8.143937e+000 -1.440925e+000 -1.288497e+002
4710000000 -3.329142e+000 -7.719832e+001 -4.093688e+000 -8.534627e-002 -2.063380e+001 -8.402068e+000 -1.441980e+000 -1.291116e+002
4720000000 -3.317782e+000 -7.737237e+001 -4.150052e+000 -3.364161e-001 -2.064602e+001 -8.581952e+000 -1.440289e+000 -1.293887e+002
4730000000 -3.315853e+000 -7.755858e+001 -4.217517e+000 -5.746057e-001 -2.065509e+001 -8.781934e+000 -1.437960e+000 -1.296501e+002
4740000000 -3.304106e+000 -7.771599e+001 -4.269001e+000 -7.491413e-001 -2.065848e+001 -8.956074e+000 -1.434416e+000 -1.298986e+002
4750000000 -3.302303e+000 -7.781579e+001 -4.327810e+000 -1.002181e+000 -2.067013e+001 -9.143735e+000 -1.434670e+000 -1.301713e+002
4760000000 -3.299349e+000 -7.795599e+001 -4.382541e+000 -1.171818e+000 -2.068229e+001 -9.326052e+000 -1.431206e+000 -1.304449e+002
4770000000 -3.294353e+000 -7.813446e+001 -4.450965e+000 -1.542445e+000 -2.068466e+001 -9.546008e+000 -1.429251e+000 -1.306942e+002
4780000000 -3.300898e+000 -7.827195e+001 -4.509459e+000 -1.752433e+000 -2.070213e+001 -9.725997e+000 -1.431492e+000 -1.309751e+002
4790000000 -3.281751e+000 -7.844355e+001 -4.576143e+000 -1.937842e+000 -2.070926e+001 -9.976922e+000 -1.432266e+000 -1.312422e+002
4800000000 -3.281477e+000 -7.859571e+001 -4.626471e+000 -2.219574e+000 -2.071680e+001 -1.016511e+001 -1.428593e+000 -1.315257e+002
4810000000 -3.278872e+000 -7.880066e+001 -4.688421e+000 -2.522608e+000 -2.072869e+001 -1.044682e+001 -1.425361e+000 -1.317854e+002
4820000000 -3.277399e+000 -7.896928e+001 -4.760468e+000 -2.766015e+000 -2.073859e+001 -1.062281e+001 -1.424226e+000 -1.320715e+002
4830000000 -3.275614e+000 -7.918214e+001 -4.814032e+000 -2.956655e+000 -2.074978e+001 -1.087562e+001 -1.422748e+000 -1.323521e+002
4840000000 -3.275253e+000 -7.927081e+001 -4.873268e+000 -3.267436e+000 -2.076048e+001 -1.103090e+001 -1.420033e+000 -1.326264e+002
4850000000 -3.272896e+000 -7.942366e+001 -4.939989e+000 -3.425842e+000 -2.077003e+001 -1.120845e+001 -1.418790e+000 -1.328956e+002
4860000000 -3.270893e+000 -7.956713e+001 -5.000313e+000 -3.715585e+000 -2.078714e+001 -1.142899e+001 -1.418343e+000 -1.331880e+002
4870000000 -3.269090e+000 -7.978343e+001 -5.064689e+000 -3.914540e+000 -2.079792e+001 -1.162611e+001 -1.415020e+000 -1.334594e+002
4880000000 -3.267125e+000 -7.994083e+001 -5.126338e+000 -4.164817e+000 -2.081115e+001 -1.181989e+001 -1.415422e+000 -1.337401e+002
4890000000 -3.261213e+000 -8.014939e+001 -5.184726e+000 -4.425577e+000 -2.082278e+001 -1.204463e+001 -1.414073e+000 -1.340101e+002
4900000000 -3.261344e+000 -8.031682e+001 -5.244218e+000 -4.628814e+000 -2.082964e+001 -1.219153e+001 -1.413949e+000 -1.342672e+002
4910000000 -3.262819e+000 -8.056645e+001 -5.311145e+000 -4.935243e+000 -2.084399e+001 -1.247224e+001 -1.414276e+000 -1.345310e+002
4920000000 -3.263401e+000 -8.073898e+001 -5.374493e+000 -5.205458e+000 -2.085752e+001 -1.260758e+001 -1.410471e+000 -1.347905e+002
4930000000 -3.268317e+000 -8.089827e+001 -5.449093e+000 -5.343032e+000 -2.086804e+001 -1.282535e+001 -1.406983e+000 -1.350693e+002
4940000000 -3.256743e+000 -8.112797e+001 -5.501241e+000 -5.671432e+000 -2.087741e+001 -1.302842e+001 -1.407866e+000 -1.353423e+002
4950000000 -3.255423e+000 -8.129256e+001 -5.571023e+000 -5.884398e+000 -2.089226e+001 -1.323579e+001 -1.410697e+000 -1.356260e+002
4960000000 -3.259854e+000 -8.154174e+001 -5.627584e+000 -6.123612e+000 -2.090898e+001 -1.343463e+001 -1.405788e+000 -1.359015e+002
4970000000 -3.258938e+000 -8.171266e+001 -5.698678e+000 -6.366685e+000 -2.092207e+001 -1.363443e+001 -1.402861e+000 -1.361668e+002
4980000000 -3.257077e+000 -8.196613e+001 -5.758040e+000 -6.628238e+000 -2.093644e+001 -1.386033e+001 -1.407195e+000 -1.364522e+002
4990000000 -3.257199e+000 -8.216879e+001 -5.827922e+000 -6.869767e+000 -2.094736e+001 -1.405426e+001 -1.404145e+000 -1.367269e+002
5000000000 -3.260721e+000 -8.238571e+001 -5.899894e+000 -7.158572e+000 -2.095931e+001 -1.425996e+001 -1.400613e+000 -1.369995e+002
5010000000 -3.265081e+000 -8.257837e+001 -5.962768e+000 -7.323718e+000 -2.098285e+001 -1.445671e+001 -1.399682e+000 -1.372449e+002
5020000000 -3.269089e+000 -8.276761e+001 -6.027126e+000 -7.573091e+000 -2.099695e+001 -1.464166e+001 -1.401270e+000 -1.375112e+002
5030000000 -3.270978e+000 -8.302837e+001 -6.086929e+000 -7.810141e+000 -2.100643e+001 -1.486954e+001 -1.397213e+000 -1.377901e+002
5040000000 -3.286179e+000 -8.323618e+001 -6.172800e+000 -8.037507e+000 -2.102878e+001 -1.506400e+001 -1.396533e+000 -1.380347e+002
5050000000 -3.289150e+000 -8.343146e+001 -6.235873e+000 -8.303506e+000 -2.104849e+001 -1.525966e+001 -1.397610e+000 -1.383062e+002
5060000000 -3.304336e+000 -8.366082e+001 -6.297807e+000 -8.512064e+000 -2.106372e+001 -1.546543e+001 -1.395393e+000 -1.385617e+002
5070000000 -3.318379e+000 -8.388770e+001 -6.381814e+000 -8.767704e+000 -2.108933e+001 -1.566535e+001 -1.395147e+000 -1.388252e+002
5080000000 -3.335859e+000 -8.411507e+001 -6.458170e+000 -9.035912e+000 -2.111059e+001 -1.589277e+001 -1.394668e+000 -1.390966e+002
5090000000 -3.356675e+000 -8.435372e+001 -6.526583e+000 -9.290608e+000 -2.113253e+001 -1.607068e+001 -1.395376e+000 -1.393913e+002
5100000000 -3.375667e+000 -8.452704e+001 -6.608881e+000 -9.479507e+000 -2.115704e+001 -1.622284e+001 -1.395334e+000 -1.396502e+002
5110000000 -3.409023e+000 -8.470845e+001 -6.676588e+000 -9.742762e+000 -2.119140e+001 -1.636599e+001 -1.393518e+000 -1.399246e+002
5120000000 -3.441191e+000 -8.487078e+001 -6.773630e+000 -9.899604e+000 -2.122175e+001 -1.660574e+001 -1.393785e+000 -1.402231e+002
5130000000 -3.473560e+000 -8.498722e+001 -6.853459e+000 -1.017293e+001 -2.124715e+001 -1.666515e+001 -1.390207e+000 -1.404954e+002
5140000000 -3.518634e+000 -8.500111e+001 -6.935717e+000 -1.031207e+001 -2.127904e+001 -1.673852e+001 -1.389483e+000 -1.407552e+002
5150000000 -3.560713e+000 -8.496165e+001 -7.022120e+000 -1.049417e+001 -2.130674e+001 -1.678269e+001 -1.389171e+000 -1.410295e+002
5160000000 -3.595139e+000 -8.481100e+001 -7.095038e+000 -1.054106e+001 -2.132641e+001 -1.677680e+001 -1.384705e+000 -1.412964e+002
5170000000 -3.614981e+000 -8.451217e+001 -7.174177e+000 -1.058499e+001 -2.134965e+001 -1.675386e+001 -1.385648e+000 -1.415536e+002
5180000000 -3.624536e+000 -8.424676e+001 -7.247644e+000 -1.058463e+001 -2.135502e+001 -1.673208e+001 -1.383745e+000 -1.418157e+002
5190000000 -3.604588e+000 -8.394885e+001 -7.315031e+000 -1.059465e+001 -2.135484e+001 -1.667949e+001 -1.382071e+000 -1.420686e+002
5200000000 -3.566571e+000 -8.371317e+001 -7.371648e+000 -1.064130e+001 -2.134601e+001 -1.666438e+001 -1.382698e+000 -1.423354e+002
5210000000 -3.523361e+000 -8.360033e+001 -7.432959e+000 -1.067136e+001 -2.133875e+001 -1.676036e+001 -1.382323e+000 -1.426196e+002
5220000000 -3.465954e+000 -8.362056e+001 -7.472837e+000 -1.082862e+001 -2.131487e+001 -1.685867e+001 -1.385311e+000 -1.428657e+002
5230000000 -3.414040e+000 -8.373895e+001 -7.525566e+000 -1.097440e+001 -2.130633e+001 -1.702574e+001 -1.387100e+000 -1.431146e+002
5240000000 -3.374325e+000 -8.386506e+001 -7.583834e+000 -1.107727e+001 -2.130427e+001 -1.717482e+001 -1.388059e+000 -1.433882e+002
5250000000 -3.323550e+000 -8.408237e+001 -7.634088e+000 -1.139333e+001 -2.129126e+001 -1.739201e+001 -1.388678e+000 -1.436603e+002
5260000000 -3.295689e+000 -8.439104e+001 -7.687974e+000 -1.156546e+001 -2.129653e+001 -1.762276e+001 -1.386434e+000 -1.439335e+002
5270000000 -3.264165e+000 -8.459965e+001 -7.751895e+000 -1.172662e+001 -2.129715e+001 -1.778333e+001 -1.383458e+000 -1.441852e+002
5280000000 -3.237727e+000 -8.493083e+001 -7.807552e+000 -1.196094e+001 -2.129513e+001 -1.805813e+001 -1.380666e+000 -1.444415e+002
5290000000 -3.219245e+000 -8.524641e+001 -7.865095e+000 -1.218642e+001 -2.129696e+001 -1.827756e+001 -1.379945e+000 -1.447025e+002
5300000000 -3.200744e+000 -8.552293e+001 -7.924545e+000 -1.242806e+001 -2.130083e+001 -1.851036e+001 -1.380090e+000 -1.449554e+002
5310000000 -3.176709e+000 -8.577974e+001 -7.989009e+000 -1.263931e+001 -2.130243e+001 -1.871691e+001 -1.377803e+000 -1.452126e+002
5320000000 -3.167962e+000 -8.604141e+001 -8.060133e+000 -1.288764e+001 -2.131643e+001 -1.893656e+001 -1.378715e+000 -1.454554e+002
5330000000 -3.159742e+000 -8.631953e+001 -8.134169e+000 -1.303122e+001 -2.132829e+001 -1.910847e+001 -1.382352e+000 -1.456786e+002
5340000000 -3.151825e+000 -8.653145e+001 -8.188857e+000 -1.325371e+001 -2.133485e+001 -1.929698e+001 -1.375194e+000 -1.459516e+002
5350000000 -3.137914e+000 -8.680659e+001 -8.262560e+000 -1.339041e+001 -2.134774e+001 -1.947347e+001 -1.377763e+000 -1.461924e+002
5360000000 -3.131731e+000 -8.711696e+001 -8.325257e+000 -1.376465e+001 -2.135749e+001 -1.973879e+001 -1.377568e+000 -1.464548e+002
5370000000 -3.126420e+000 -8.734550e+001 -8.390284e+000 -1.392592e+001 -2.136288e+001 -1.987696e+001 -1.378624e+000 -1.467072e+002
5380000000 -3.117063e+000 -8.759814e+001 -8.457576e+000 -1.410459e+001 -2.137109e+001 -2.008653e+001 -1.375923e+000 -1.469693e+002
5390000000 -3.121208e+000 -8.783621e+001 -8.537967e+000 -1.424193e+001 -2.138742e+001 -2.027132e+001 -1.374890e+000 -1.472112e+002
5400000000 -3.113410e+000 -8.807348e+001 -8.605086e+000 -1.450437e+001 -2.139311e+001 -2.047378e+001 -1.373283e+000 -1.474614e+002
5410000000 -3.105575e+000 -8.830817e+001 -8.668266e+000 -1.466255e+001 -2.140367e+001 -2.069858e+001 -1.373117e+000 -1.476989e+002
5420000000 -3.097602e+000 -8.855597e+001 -8.738822e+000 -1.483273e+001 -2.140414e+001 -2.091515e+001 -1.371349e+000 -1.479604e+002
5430000000 -3.087708e+000 -8.876046e+001 -8.794474e+000 -1.509154e+001 -2.141412e+001 -2.111680e+001 -1.370447e+000 -1.482163e+002
5440000000 -3.089330e+000 -8.900387e+001 -8.870298e+000 -1.528690e+001 -2.143260e+001 -2.137040e+001 -1.367531e+000 -1.484650e+002
5450000000 -3.088717e+000 -8.926026e+001 -8.950459e+000 -1.553994e+001 -2.144092e+001 -2.157966e+001 -1.366473e+000 -1.487212e+002
5460000000 -3.079530e+000 -8.953587e+001 -9.016785e+000 -1.569610e+001 -2.145474e+001 -2.178735e+001 -1.364240e+000 -1.489679e+002
5470000000 -3.078102e+000 -8.975230e+001 -9.093107e+000 -1.594648e+001 -2.147256e+001 -2.196077e+001 -1.362843e+000 -1.492046e+002
5480000000 -3.081356e+000 -8.999412e+001 -9.178280e+000 -1.607277e+001 -2.149046e+001 -2.218661e+001 -1.366129e+000 -1.494464e+002
5490000000 -3.068989e+000 -9.025530e+001 -9.245323e+000 -1.628488e+001 -2.149778e+001 -2.233152e+001 -1.361023e+000 -1.496703e+002
5500000000 -3.072462e+000 -9.049135e+001 -9.324880e+000 -1.650994e+001 -2.151086e+001 -2.253793e+001 -1.362214e+000 -1.499054e+002
5510000000 -3.063504e+000 -9.076514e+001 -9.388976e+000 -1.668665e+001 -2.151741e+001 -2.275920e+001 -1.358929e+000 -1.501530e+002
5520000000 -3.067092e+000 -9.100258e+001 -9.469232e+000 -1.685838e+001 -2.154028e+001 -2.294809e+001 -1.355843e+000 -1.503856e+002
5530000000 -3.057935e+000 -9.125597e+001 -9.536072e+000 -1.703991e+001 -2.155124e+001 -2.313534e+001 -1.352397e+000 -1.506217e+002
5540000000 -3.059885e+000 -9.148248e+001 -9.612846e+000 -1.726430e+001 -2.156585e+001 -2.334613e+001 -1.349375e+000 -1.508603e+002
5550000000 -3.054241e+000 -9.176613e+001 -9.704389e+000 -1.743091e+001 -2.158074e+001 -2.355558e+001 -1.347169e+000 -1.511065e+002
5560000000 -3.053586e+000 -9.202320e+001 -9.774562e+000 -1.757941e+001 -2.159669e+001 -2.375528e+001 -1.345506e+000 -1.513264e+002
5570000000 -3.043203e+000 -9.226515e+001 -9.841361e+000 -1.774362e+001 -2.161664e+001 -2.394052e+001 -1.349829e+000 -1.515895e+002
5580000000 -3.047523e+000 -9.251147e+001 -9.944575e+000 -1.789356e+001 -2.163585e+001 -2.411208e+001 -1.350366e+000 -1.518167e+002
5590000000 -3.043907e+000 -9.276060e+001 -1.001374e+001 -1.816970e+001 -2.164747e+001 -2.428041e+001 -1.349416e+000 -1.520558e+002
5600000000 -3.039897e+000 -9.308069e+001 -1.008359e+001 -1.823280e+001 -2.166397e+001 -2.448808e+001 -1.349495e+000 -1.522855e+002
5610000000 -3.041430e+000 -9.334533e+001 -1.017291e+001 -1.851101e+001 -2.167885e+001 -2.471521e+001 -1.348742e+000 -1.525241e+002
5620000000 -3.039071e+000 -9.356947e+001 -1.024693e+001 -1.859459e+001 -2.169341e+001 -2.485797e+001 -1.344967e+000 -1.527783e+002
5630000000 -3.036095e+000 -9.382694e+001 -1.032929e+001 -1.871674e+001 -2.171174e+001 -2.503432e+001 -1.344040e+000 -1.530392e+002
5640000000 -3.033576e+000 -9.410046e+001 -1.039702e+001 -1.894866e+001 -2.172422e+001 -2.522599e+001 -1.342168e+000 -1.532849e+002
5650000000 -3.033536e+000 -9.434895e+001 -1.049456e+001 -1.907414e+001 -2.173894e+001 -2.539016e+001 -1.340446e+000 -1.535417e+002
5660000000 -3.025407e+000 -9.463817e+001 -1.055893e+001 -1.934709e+001 -2.175577e+001 -2.564412e+001 -1.341058e+000 -1.537906e+002
5670000000 -3.020420e+000 -9.484206e+001 -1.064104e+001 -1.938060e+001 -2.177930e+001 -2.577197e+001 -1.337552e+000 -1.540304e+002
5680000000 -3.013268e+000 -9.515453e+001 -1.072933e+001 -1.958596e+001 -2.178462e+001 -2.599293e+001 -1.335763e+000 -1.542648e+002
5690000000 -3.017022e+000 -9.537743e+001 -1.082174e+001 -1.969921e+001 -2.181342e+001 -2.613945e+001 -1.337546e+000 -1.544915e+002
5700000000 -3.006696e+000 -9.565707e+001 -1.088775e+001 -1.982953e+001 -2.182448e+001 -2.632105e+001 -1.335101e+000 -1.547323e+002
5710000000 -3.005876e+000 -9.591498e+001 -1.098753e+001 -2.006971e+001 -2.184956e+001 -2.649920e+001 -1.336926e+000 -1.549550e+002
5720000000 -3.004335e+000 -9.612659e+001 -1.106110e+001 -2.011783e+001 -2.186765e+001 -2.664569e+001 -1.333822e+000 -1.551882e+002
5730000000 -2.995036e+000 -9.635023e+001 -1.113311e+001 -2.026447e+001 -2.188287e+001 -2.680376e+001 -1.331668e+000 -1.554050e+002
5740000000 -3.000111e+000 -9.667260e+001 -1.122711e+001 -2.041011e+001 -2.190022e+001 -2.700584e+001 -1.330515e+000 -1.555980e+002
5750000000 -2.998647e+000 -9.688718e+001 -1.131603e+001 -2.045821e+001 -2.191581e+001 -2.714611e+001 -1.328297e+000 -1.558166e+002
5760000000 -2.996634e+000 -9.713821e+001 -1.138465e+001 -2.060282e+001 -2.193009e+001 -2.732565e+001 -1.325948e+000 -1.560432e+002
5770000000 -2.984946e+000 -9.738843e+001 -1.147178e+001 -2.076631e+001 -2.194203e+001 -2.749210e+001 -1.326185e+000 -1.562621e+002
5780000000 -2.984843e+000 -9.773132e+001 -1.156036e+001 -2.089941e+001 -2.195892e+001 -2.767826e+001 -1.323847e+000 -1.564708e+002
5790000000 -2.982357e+000 -9.798540e+001 -1.164052e+001 -2.100711e+001 -2.197627e+001 -2.786382e+001 -1.321821e+000 -1.566952e+002
5800000000 -2.983680e+000 -9.820495e+001 -1.173082e+001 -2.110605e+001 -2.199189e+001 -2.804919e+001 -1.322476e+000 -1.569288e+002
5810000000 -2.980328e+000 -9.846613e+001 -1.182166e+001 -2.119526e+001 -2.201158e+001 -2.813534e+001 -1.321884e+000 -1.571270e+002
5820000000 -2.976324e+000 -9.875239e+001 -1.189440e+001 -2.127565e+001 -2.203277e+001 -2.833378e+001 -1.320276e+000 -1.573246e+002
5830000000 -2.976406e+000 -9.899025e+001 -1.198798e+001 -2.138670e+001 -2.204891e+001 -2.848244e+001 -1.319900e+000 -1.575150e+002
5840000000 -2.971368e+000 -9.928078e+001 -1.207221e+001 -2.152623e+001 -2.206097e+001 -2.864777e+001 -1.318328e+000 -1.577476e+002
5850000000 -2.980473e+000 -9.953346e+001 -1.216631e+001 -2.162631e+001 -2.208189e+001 -2.882794e+001 -1.320413e+000 -1.579466e+002
5860000000 -2.969483e+000 -9.985937e+001 -1.224346e+001 -2.172242e+001 -2.209858e+001 -2.904955e+001 -1.321435e+000 -1.581836e+002
5870000000 -2.966323e+000 -1.000836e+002 -1.233460e+001 -2.183180e+001 -2.211559e+001 -2.922027e+001 -1.320621e+000 -1.584040e+002
5880000000 -2.957113e+000 -1.003173e+002 -1.243573e+001 -2.187289e+001 -2.212946e+001 -2.937804e+001 -1.316425e+000 -1.586315e+002
5890000000 -2.963236e+000 -1.005667e+002 -1.252515e+001 -2.204520e+001 -2.215558e+001 -2.956326e+001 -1.316784e+000 -1.588579e+002
5900000000 -2.953301e+000 -1.008468e+002 -1.259509e+001 -2.212554e+001 -2.216675e+001 -2.976047e+001 -1.318995e+000 -1.591167e+002
5910000000 -2.945409e+000 -1.011101e+002 -1.269159e+001 -2.223976e+001 -2.218508e+001 -2.998917e+001 -1.319231e+000 -1.593460e+002
5920000000 -2.959619e+000 -1.013694e+002 -1.278901e+001 -2.231906e+001 -2.221733e+001 -3.006741e+001 -1.318154e+000 -1.595762e+002
5930000000 -2.954422e+000 -1.016458e+002 -1.287331e+001 -2.246919e+001 -2.224230e+001 -3.029971e+001 -1.318355e+000 -1.597931e+002
5940000000 -2.949852e+000 -1.019176e+002 -1.297045e+001 -2.246017e+001 -2.225428e+001 -3.043919e+001 -1.315265e+000 -1.600278e+002
5950000000 -2.942430e+000 -1.021915e+002 -1.306889e+001 -2.249383e+001 -2.227208e+001 -3.060399e+001 -1.312126e+000 -1.602443e+002
5960000000 -2.934912e+000 -1.023962e+002 -1.314847e+001 -2.261974e+001 -2.229893e+001 -3.074188e+001 -1.310114e+000 -1.604776e+002
5970000000 -2.941723e+000 -1.026572e+002 -1.325012e+001 -2.271344e+001 -2.233133e+001 -3.094267e+001 -1.306079e+000 -1.607065e+002
5980000000 -2.930566e+000 -1.029058e+002 -1.334386e+001 -2.266702e+001 -2.234570e+001 -3.101752e+001 -1.304683e+000 -1.609082e+002
5990000000 -2.923259e+000 -1.031357e+002 -1.342784e+001 -2.269143e+001 -2.236167e+001 -3.114191e+001 -1.299255e+000 -1.611218e+002
6000000000 -2.925596e+000 -1.033718e+002 -1.351874e+001 -2.273396e+001 -2.239326e+001 -3.125980e+001 -1.297176e+000 -1.613049e+002
6010000000 -2.920442e+000 -1.036209e+002 -1.362648e+001 -2.272041e+001 -2.240902e+001 -3.136808e+001 -1.296083e+000 -1.614950e+002
6020000000 -2.923206e+000 -1.039209e+002 -1.372544e+001 -2.272025e+001 -2.242727e+001 -3.156273e+001 -1.293255e+000 -1.616395e+002
6030000000 -2.915192e+000 -1.041887e+002 -1.380459e+001 -2.275833e+001 -2.244033e+001 -3.165840e+001 -1.296323e+000 -1.618089e+002
6040000000 -2.918796e+000 -1.044644e+002 -1.390027e+001 -2.283775e+001 -2.246487e+001 -3.175048e+001 -1.296607e+000 -1.619943e+002
6050000000 -2.917335e+000 -1.047473e+002 -1.399945e+001 -2.282603e+001 -2.248137e+001 -3.191006e+001 -1.297314e+000 -1.621667e+002
6060000000 -2.910558e+000 -1.049956e+002 -1.407835e+001 -2.274926e+001 -2.249372e+001 -3.203004e+001 -1.296301e+000 -1.623443e+002
6070000000 -2.909219e+000 -1.053290e+002 -1.417458e+001 -2.278507e+001 -2.251556e+001 -3.214035e+001 -1.296543e+000 -1.625099e+002
6080000000 -2.908869e+000 -1.056477e+002 -1.427441e+001 -2.280373e+001 -2.253422e+001 -3.233216e+001 -1.293625e+000 -1.626905e+002
6090000000 -2.910578e+000 -1.059122e+002 -1.435683e+001 -2.283738e+001 -2.254862e+001 -3.245400e+001 -1.290992e+000 -1.628764e+002
6100000000 -2.904315e+000 -1.062137e+002 -1.445152e+001 -2.284266e+001 -2.256875e+001 -3.257756e+001 -1.289055e+000 -1.630634e+002
6110000000 -2.905770e+000 -1.065525e+002 -1.455247e+001 -2.287822e+001 -2.258279e+001 -3.273332e+001 -1.289233e+000 -1.632473e+002
6120000000 -2.890945e+000 -1.068058e+002 -1.463630e+001 -2.289106e+001 -2.259510e+001 -3.290606e+001 -1.288847e+000 -1.634576e+002
6130000000 -2.893811e+000 -1.071116e+002 -1.473497e+001 -2.281105e+001 -2.261987e+001 -3.300341e+001 -1.286906e+000 -1.636381e+002
6140000000 -2.887492e+000 -1.074362e+002 -1.482701e+001 -2.283140e+001 -2.263715e+001 -3.318292e+001 -1.288157e+000 -1.638152e+002
6150000000 -2.878331e+000 -1.077010e+002 -1.493188e+001 -2.288313e+001 -2.264838e+001 -3.329305e+001 -1.290212e+000 -1.640105e+002
6160000000 -2.880222e+000 -1.079557e+002 -1.502155e+001 -2.278631e+001 -2.267273e+001 -3.342521e+001 -1.285863e+000 -1.642009e+002
6170000000 -2.877379e+000 -1.082161e+002 -1.511431e+001 -2.269686e+001 -2.268978e+001 -3.357928e+001 -1.287951e+000 -1.643785e+002
6180000000 -2.876951e+000 -1.085275e+002 -1.521732e+001 -2.270200e+001 -2.271103e+001 -3.375629e+001 -1.286865e+000 -1.645529e+002
6190000000 -2.866451e+000 -1.088096e+002 -1.530821e+001 -2.266964e+001 -2.272457e+001 -3.387015e+001 -1.283196e+000 -1.647442e+002
6200000000 -2.855323e+000 -1.090738e+002 -1.540398e+001 -2.272715e+001 -2.272574e+001 -3.403073e+001 -1.281888e+000 -1.649475e+002
6210000000 -2.864269e+000 -1.093486e+002 -1.549752e+001 -2.260159e+001 -2.275983e+001 -3.415267e+001 -1.279492e+000 -1.651156e+002
6220000000 -2.854162e+000 -1.096196e+002 -1.559826e+001 -2.248637e+001 -2.276689e+001 -3.427054e+001 -1.277278e+000 -1.653168e+002
6230000000 -2.853888e+000 -1.099254e+002 -1.569723e+001 -2.239781e+001 -2.278946e+001 -3.442838e+001 -1.274713e+000 -1.654893e+002
6240000000 -2.848958e+000 -1.101690e+002 -1.579463e+001 -2.238342e+001 -2.281345e+001 -3.455880e+001 -1.271340e+000 -1.656811e+002
6250000000 -2.840130e+000 -1.104642e+002 -1.589139e+001 -2.231630e+001 -2.283406e+001 -3.472597e+001 -1.270702e+000 -1.658728e+002
6260000000 -2.842319e+000 -1.107443e+002 -1.600126e+001 -2.232493e+001 -2.285545e+001 -3.484224e+001 -1.268697e+000 -1.660271e+002
6270000000 -2.835155e+000 -1.109933e+002 -1.610400e+001 -2.215653e+001 -2.287053e+001 -3.494334e+001 -1.267330e+000 -1.661780e+002
6280000000 -2.832763e+000 -1.112523e+002 -1.619061e+001 -2.207990e+001 -2.288601e+001 -3.505890e+001 -1.263671e+000 -1.663427e+002
6290000000 -2.826287e+000 -1.114882e+002 -1.629459e+001 -2.191259e+001 -2.290570e+001 -3.520593e+001 -1.263416e+000 -1.664986e+002
6300000000 -2.828247e+000 -1.117391e+002 -1.638971e+001 -2.181955e+001 -2.292719e+001 -3.538445e+001 -1.262768e+000 -1.666571e+002
6310000000 -2.822405e+000 -1.119920e+002 -1.648113e+001 -2.172185e+001 -2.293439e+001 -3.548457e+001 -1.260853e+000 -1.668095e+002
6320000000 -2.820935e+000 -1.122392e+002 -1.658619e+001 -2.159101e+001 -2.295750e+001 -3.561060e+001 -1.259979e+000 -1.669694e+002
6330000000 -2.827957e+000 -1.125162e+002 -1.667783e+001 -2.148335e+001 -2.297481e+001 -3.574411e+001 -1.257471e+000 -1.671388e+002
6340000000 -2.822334e+000 -1.128118e+002 -1.678145e+001 -2.136326e+001 -2.299610e+001 -3.587477e+001 -1.255291e+000 -1.672872e+002
6350000000 -2.817170e+000 -1.130891e+002 -1.688843e+001 -2.125533e+001 -2.301034e+001 -3.600602e+001 -1.251875e+000 -1.674455e+002
6360000000 -2.823869e+000 -1.133906e+002 -1.696992e+001 -2.113629e+001 -2.302234e+001 -3.616495e+001 -1.250375e+000 -1.676142e+002
6370000000 -2.822773e+000 -1.137115e+002 -1.708476e+001 -2.086846e+001 -2.304194e+001 -3.627653e+001 -1.249378e+000 -1.677543e+002
6380000000 -2.822781e+000 -1.140182e+002 -1.717126e+001 -2.078284e+001 -2.305915e+001 -3.643715e+001 -1.247632e+000 -1.679186e+002
6390000000 -2.810430e+000 -1.143526e+002 -1.726199e+001 -2.064916e+001 -2.306817e+001 -3.661946e+001 -1.245288e+000 -1.680873e+002
6400000000 -2.813297e+000 -1.146929e+002 -1.737284e+001 -2.054244e+001 -2.309286e+001 -3.670960e+001 -1.246054e+000 -1.682328e+002
6410000000 -2.805762e+000 -1.150573e+002 -1.746678e+001 -2.039647e+001 -2.310043e+001 -3.690227e+001 -1.244663e+000 -1.683911e+002
6420000000 -2.799239e+000 -1.153868e+002 -1.755822e+001 -2.020701e+001 -2.312206e+001 -3.702893e+001 -1.242593e+000 -1.685331e+002
6430000000 -2.790741e+000 -1.157188e+002 -1.766557e+001 -1.999655e+001 -2.314111e+001 -3.719513e+001 -1.240255e+000 -1.686945e+002
6440000000 -2.784321e+000 -1.159923e+002 -1.775739e+001 -1.983419e+001 -2.315858e+001 -3.734395e+001 -1.237856e+000 -1.688437e+002
6450000000 -2.782230e+000 -1.162947e+002 -1.785979e+001 -1.967672e+001 -2.317556e+001 -3.751726e+001 -1.233284e+000 -1.690199e+002
6460000000 -2.772260e+000 -1.165281e+002 -1.794460e+001 -1.939106e+001 -2.319084e+001 -3.763145e+001 -1.234559e+000 -1.691707e+002
6470000000 -2.768704e+000 -1.168273e+002 -1.806749e+001 -1.920257e+001 -2.322095e+001 -3.776003e+001 -1.233200e+000 -1.693147e+002
6480000000 -2.772779e+000 -1.171365e+002 -1.815773e+001 -1.903525e+001 -2.324259e+001 -3.792076e+001 -1.229897e+000 -1.694779e+002
6490000000 -2.766758e+000 -1.173739e+002 -1.826957e+001 -1.868413e+001 -2.326441e+001 -3.799060e+001 -1.226904e+000 -1.696074e+002
6500000000 -2.756126e+000 -1.176569e+002 -1.837233e+001 -1.849780e+001 -2.328149e+001 -3.809819e+001 -1.226307e+000 -1.697331e+002
6510000000 -2.757633e+000 -1.179798e+002 -1.845351e+001 -1.827045e+001 -2.329339e+001 -3.825438e+001 -1.225324e+000 -1.698677e+002
6520000000 -2.750451e+000 -1.182585e+002 -1.855012e+001 -1.799563e+001 -2.331828e+001 -3.839029e+001 -1.223746e+000 -1.700012e+002
6530000000 -2.749784e+000 -1.185192e+002 -1.866810e+001 -1.767279e+001 -2.333616e+001 -3.847955e+001 -1.219827e+000 -1.701267e+002
6540000000 -2.736290e+000 -1.188356e+002 -1.875955e+001 -1.746508e+001 -2.334847e+001 -3.862476e+001 -1.216920e+000 -1.702531e+002
6550000000 -2.729166e+000 -1.191261e+002 -1.886346e+001 -1.723932e+001 -2.337822e+001 -3.877778e+001 -1.216166e+000 -1.703763e+002
6560000000 -2.721330e+000 -1.194132e+002 -1.894489e+001 -1.684346e+001 -2.338864e+001 -3.888469e+001 -1.215274e+000 -1.705021e+002
6570000000 -2.710570e+000 -1.196760e+002 -1.902857e+001 -1.664881e+001 -2.340476e+001 -3.907793e+001 -1.210996e+000 -1.706380e+002
6580000000 -2.707371e+000 -1.199544e+002 -1.913851e+001 -1.630746e+001 -2.342848e+001 -3.919973e+001 -1.213729e+000 -1.707638e+002
6590000000 -2.707521e+000 -1.201839e+002 -1.922950e+001 -1.601892e+001 -2.344038e+001 -3.925403e+001 -1.210132e+000 -1.709003e+002
6600000000 -2.690873e+000 -1.205107e+002 -1.934738e+001 -1.570061e+001 -2.345999e+001 -3.947292e+001 -1.207860e+000 -1.710295e+002
6610000000 -2.698242e+000 -1.207709e+002 -1.944320e+001 -1.549859e+001 -2.348278e+001 -3.958850e+001 -1.205823e+000 -1.711485e+002
6620000000 -2.681335e+000 -1.210080e+002 -1.950183e+001 -1.495679e+001 -2.349415e+001 -3.966801e+001 -1.204376e+000 -1.712746e+002
6630000000 -2.679251e+000 -1.212753e+002 -1.960279e+001 -1.467826e+001 -2.351056e+001 -3.980087e+001 -1.200820e+000 -1.713960e+002
6640000000 -2.675417e+000 -1.215967e+002 -1.969839e+001 -1.430414e+001 -2.353302e+001 -3.998204e+001 -1.198518e+000 -1.715179e+002
6650000000 -2.672140e+000 -1.218342e+002 -1.981576e+001 -1.402572e+001 -2.355365e+001 -4.009438e+001 -1.198742e+000 -1.716504e+002
6660000000 -2.667766e+000 -1.220974e+002 -1.989184e+001 -1.356434e+001 -2.357885e+001 -4.018782e+001 -1.199344e+000 -1.717649e+002
6670000000 -2.657505e+000 -1.223750e+002 -1.998864e+001 -1.331395e+001 -2.358739e+001 -4.036346e+001 -1.194435e+000 -1.718922e+002
6680000000 -2.657534e+000 -1.226475e+002 -2.009305e+001 -1.283734e+001 -2.360060e+001 -4.046918e+001 -1.192092e+000 -1.720165e+002
6690000000 -2.656145e+000 -1.229539e+002 -2.016557e+001 -1.258846e+001 -2.362837e+001 -4.059097e+001 -1.190647e+000 -1.721474e+002
6700000000 -2.651448e+000 -1.231228e+002 -2.026579e+001 -1.204576e+001 -2.365482e+001 -4.069281e+001 -1.191383e+000 -1.722671e+002
6710000000 -2.643038e+000 -1.235089e+002 -2.036839e+001 -1.176245e+001 -2.366138e+001 -4.093725e+001 -1.190398e+000 -1.724091e+002
6720000000 -2.632420e+000 -1.237546e+002 -2.043219e+001 -1.138019e+001 -2.367542e+001 -4.104832e+001 -1.186723e+000 -1.725335e+002
6730000000 -2.620035e+000 -1.240103e+002 -2.052434e+001 -1.082328e+001 -2.370161e+001 -4.117279e+001 -1.186045e+000 -1.726536e+002
6740000000 -2.619032e+000 -1.242426e+002 -2.062597e+001 -1.040632e+001 -2.371676e+001 -4.126597e+001 -1.182483e+000 -1.727666e+002
6750000000 -2.608908e+000 -1.245390e+002 -2.070375e+001 -9.970440e+000 -2.373669e+001 -4.141566e+001 -1.181858e+000 -1.728687e+002
6760000000 -2.615407e+000 -1.247927e+002 -2.080557e+001 -9.676103e+000 -2.376076e+001 -4.153405e+001 -1.178757e+000 -1.729980e+002
6770000000 -2.602971e+000 -1.250804e+002 -2.085221e+001 -9.157084e+000 -2.377169e+001 -4.171185e+001 -1.175015e+000 -1.730992e+002
6780000000 -2.600586e+000 -1.253468e+002 -2.095948e+001 -8.545180e+000 -2.378444e+001 -4.183256e+001 -1.173051e+000 -1.732162e+002
6790000000 -2.596391e+000 -1.256194e+002 -2.106475e+001 -8.153639e+000 -2.381782e+001 -4.200352e+001 -1.170512e+000 -1.733301e+002
6800000000 -2.590054e+000 -1.258712e+002 -2.113220e+001 -7.753435e+000 -2.382974e+001 -4.210997e+001 -1.168409e+000 -1.734375e+002
6810000000 -2.578111e+000 -1.262020e+002 -2.119656e+001 -7.306222e+000 -2.385736e+001 -4.225112e+001 -1.166078e+000 -1.735453e+002
6820000000 -2.571229e+000 -1.264189e+002 -2.130015e+001 -6.689947e+000 -2.386504e+001 -4.235586e+001 -1.164482e+000 -1.736592e+002
6830000000 -2.569231e+000 -1.267059e+002 -2.136637e+001 -6.289391e+000 -2.390060e+001 -4.254948e+001 -1.164322e+000 -1.737744e+002
6840000000 -2.561167e+000 -1.270075e+002 -2.145472e+001 -5.755491e+000 -2.391234e+001 -4.269458e+001 -1.161117e+000 -1.738752e+002
6850000000 -2.546366e+000 -1.272632e+002 -2.150812e+001 -5.214598e+000 -2.392805e+001 -4.283292e+001 -1.159443e+000 -1.739885e+002
6860000000 -2.543928e+000 -1.275336e+002 -2.161716e+001 -4.741850e+000 -2.394910e+001 -4.296021e+001 -1.159454e+000 -1.740898e+002
6870000000 -2.543309e+000 -1.278081e+002 -2.168919e+001 -4.270667e+000 -2.397741e+001 -4.309001e+001 -1.154794e+000 -1.742093e+002
6880000000 -2.530002e+000 -1.280554e+002 -2.174243e+001 -3.645571e+000 -2.399023e+001 -4.326176e+001 -1.152210e+000 -1.743118e+002
6890000000 -2.528130e+000 -1.283333e+002 -2.184079e+001 -3.193612e+000 -2.401656e+001 -4.333990e+001 -1.151796e+000 -1.744163e+002
6900000000 -2.527081e+000 -1.286271e+002 -2.191240e+001 -2.649946e+000 -2.404065e+001 -4.352694e+001 -1.150020e+000 -1.745225e+002
6910000000 -2.518242e+000 -1.288884e+002 -2.196555e+001 -2.084748e+000 -2.406384e+001 -4.364885e+001 -1.148712e+000 -1.746027e+002
6920000000 -2.507446e+000 -1.291523e+002 -2.204491e+001 -1.643192e+000 -2.408133e+001 -4.380545e+001 -1.142486e+000 -1.746880e+002
6930000000 -2.507205e+000 -1.294238e+002 -2.209554e+001 -1.044207e+000 -2.409700e+001 -4.392087e+001 -1.140531e+000 -1.747658e+002
6940000000 -2.498222e+000 -1.296848e+002 -2.216809e+001 -3.247359e-001 -2.412189e+001 -4.408827e+001 -1.137404e+000 -1.748447e+002
6950000000 -2.492955e+000 -1.299120e+002 -2.222073e+001 2.195515e-001 -2.414300e+001 -4.418658e+001 -1.131240e+000 -1.749227e+002
6960000000 -2.481732e+000 -1.302301e+002 -2.227968e+001 8.537162e-001 -2.416603e+001 -4.435368e+001 -1.131020e+000 -1.750083e+002
6970000000 -2.475011e+000 -1.304332e+002 -2.238140e+001 1.486920e+000 -2.417477e+001 -4.445979e+001 -1.132922e+000 -1.750989e+002
6980000000 -2.468033e+000 -1.307868e+002 -2.241768e+001 1.943561e+000 -2.420642e+001 -4.468655e+001 -1.131491e+000 -1.751942e+002
6990000000 -2.461696e+000 -1.309509e+002 -2.246436e+001 2.668861e+000 -2.422547e+001 -4.472524e+001 -1.134284e+000 -1.752763e+002
7000000000 -2.456684e+000 -1.312138e+002 -2.251204e+001 3.146351e+000 -2.425112e+001 -4.492001e+001 -1.130218e+000 -1.753541e+002
7010000000 -2.451174e+000 -1.314347e+002 -2.259144e+001 3.716240e+000 -2.427656e+001 -4.501660e+001 -1.129630e+000 -1.754643e+002
7020000000 -2.436601e+000 -1.317475e+002 -2.263007e+001 4.496689e+000 -2.429249e+001 -4.513824e+001 -1.126517e+000 -1.755545e+002
7030000000 -2.430262e+000 -1.320018e+002 -2.270318e+001 5.075719e+000 -2.431939e+001 -4.527646e+001 -1.124536e+000 -1.756507e+002
7040000000 -2.424535e+000 -1.322674e+002 -2.275082e+001 5.716117e+000 -2.434161e+001 -4.547838e+001 -1.121702e+000 -1.757543e+002
7050000000 -2.415468e+000 -1.325594e+002 -2.280900e+001 6.206343e+000 -2.437578e+001 -4.557612e+001 -1.119488e+000 -1.758516e+002
7060000000 -2.407022e+000 -1.327744e+002 -2.283421e+001 6.995635e+000 -2.439190e+001 -4.572139e+001 -1.117202e+000 -1.759473e+002
7070000000 -2.402718e+000 -1.330697e+002 -2.289783e+001 7.442458e+000 -2.441111e+001 -4.589542e+001 -1.114362e+000 -1.760248e+002
7080000000 -2.398996e+000 -1.333111e+002 -2.293064e+001 8.202870e+000 -2.444960e+001 -4.608049e+001 -1.112255e+000 -1.761110e+002
7090000000 -2.386240e+000 -1.335511e+002 -2.297287e+001 8.850925e+000 -2.445850e+001 -4.618146e+001 -1.109137e+000 -1.761928e+002
7100000000 -2.388320e+000 -1.337677e+002 -2.301609e+001 9.373126e+000 -2.449293e+001 -4.625966e+001 -1.106680e+000 -1.762621e+002
7110000000 -2.375293e+000 -1.340227e+002 -2.306199e+001 1.015548e+001 -2.450750e+001 -4.645190e+001 -1.104669e+000 -1.763626e+002
7120000000 -2.359724e+000 -1.342436e+002 -2.307030e+001 1.080080e+001 -2.453247e+001 -4.652944e+001 -1.103664e+000 -1.764282e+002
7130000000 -2.359141e+000 -1.344971e+002 -2.312708e+001 1.133609e+001 -2.456805e+001 -4.668113e+001 -1.103138e+000 -1.765161e+002
7140000000 -2.345167e+000 -1.347505e+002 -2.315734e+001 1.212560e+001 -2.458705e+001 -4.680367e+001 -1.102065e+000 -1.765927e+002
7150000000 -2.340094e+000 -1.350400e+002 -2.318953e+001 1.289184e+001 -2.462138e+001 -4.693428e+001 -1.098972e+000 -1.766807e+002
7160000000 -2.335923e+000 -1.352453e+002 -2.321495e+001 1.330976e+001 -2.464368e+001 -4.710544e+001 -1.096880e+000 -1.767591e+002
7170000000 -2.330993e+000 -1.354732e+002 -2.325409e+001 1.410770e+001 -2.467373e+001 -4.718459e+001 -1.096293e+000 -1.768313e+002
7180000000 -2.320687e+000 -1.357706e+002 -2.326528e+001 1.445072e+001 -2.469626e+001 -4.735340e+001 -1.091941e+000 -1.769175e+002
7190000000 -2.309109e+000 -1.360000e+002 -2.328605e+001 1.520135e+001 -2.472272e+001 -4.749781e+001 -1.089996e+000 -1.769876e+002
7200000000 -2.310468e+000 -1.362157e+002 -2.333056e+001 1.588259e+001 -2.474354e+001 -4.757241e+001 -1.087167e+000 -1.770515e+002
7210000000 -2.302199e+000 -1.364637e+002 -2.332062e+001 1.662738e+001 -2.478081e+001 -4.771144e+001 -1.083092e+000 -1.771121e+002
7220000000 -2.286134e+000 -1.367337e+002 -2.334286e+001 1.709553e+001 -2.480372e+001 -4.791418e+001 -1.083156e+000 -1.771729e+002
7230000000 -2.281464e+000 -1.369103e+002 -2.338377e+001 1.786276e+001 -2.483025e+001 -4.798825e+001 -1.079290e+000 -1.772282e+002
7240000000 -2.272955e+000 -1.371425e+002 -2.337132e+001 1.842604e+001 -2.486248e+001 -4.814305e+001 -1.081731e+000 -1.772988e+002
7250000000 -2.262081e+000 -1.374004e+002 -2.337563e+001 1.910535e+001 -2.487746e+001 -4.825737e+001 -1.081551e+000 -1.773640e+002
7260000000 -2.254044e+000 -1.376629e+002 -2.340511e+001 1.990240e+001 -2.491272e+001 -4.836938e+001 -1.080775e+000 -1.774119e+002
7270000000 -2.251926e+000 -1.379317e+002 -2.343980e+001 2.052760e+001 -2.495064e+001 -4.850237e+001 -1.076202e+000 -1.774658e+002
7280000000 -2.246893e+000 -1.381556e+002 -2.340636e+001 2.121478e+001 -2.497791e+001 -4.861082e+001 -1.075332e+000 -1.775199e+002
7290000000 -2.235123e+000 -1.384386e+002 -2.344740e+001 2.176443e+001 -2.501248e+001 -4.876104e+001 -1.071474e+000 -1.776121e+002
7300000000 -2.225655e+000 -1.386179e+002 -2.345704e+001 2.213279e+001 -2.504359e+001 -4.890180e+001 -1.069070e+000 -1.776796e+002
7310000000 -2.222142e+000 -1.388443e+002 -2.344693e+001 2.279013e+001 -2.507181e+001 -4.900246e+001 -1.068844e+000 -1.777532e+002
7320000000 -2.213450e+000 -1.391691e+002 -2.347187e+001 2.335518e+001 -2.510718e+001 -4.917481e+001 -1.067077e+000 -1.778207e+002
7330000000 -2.207549e+000 -1.393904e+002 -2.345778e+001 2.416048e+001 -2.514012e+001 -4.931089e+001 -1.064444e+000 -1.778692e+002
7340000000 -2.195210e+000 -1.395629e+002 -2.346222e+001 2.470327e+001 -2.516963e+001 -4.942596e+001 -1.064114e+000 -1.779268e+002
7350000000 -2.184688e+000 -1.397866e+002 -2.346614e+001 2.518573e+001 -2.520761e+001 -4.950225e+001 -1.062544e+000 -1.779821e+002
7360000000 -2.183230e+000 -1.399932e+002 -2.345246e+001 2.594786e+001 -2.523876e+001 -4.960473e+001 -1.054731e+000 -1.780345e+002
7370000000 -2.174027e+000 -1.402074e+002 -2.344089e+001 2.651353e+001 -2.526460e+001 -4.977303e+001 -1.055233e+000 -1.780968e+002
7380000000 -2.174527e+000 -1.403929e+002 -2.344113e+001 2.729872e+001 -2.530813e+001 -4.985976e+001 -1.055887e+000 -1.781536e+002
7390000000 -2.145171e+000 -1.406751e+002 -2.341601e+001 2.783650e+001 -2.534119e+001 -4.999086e+001 -1.057892e+000 -1.782059e+002
7400000000 -2.145398e+000 -1.409097e+002 -2.339186e+001 2.832523e+001 -2.538078e+001 -5.012393e+001 -1.057005e+000 -1.782494e+002
7410000000 -2.145455e+000 -1.410606e+002 -2.339723e+001 2.894689e+001 -2.542652e+001 -5.012159e+001 -1.054844e+000 -1.783038e+002
7420000000 -2.130909e+000 -1.413616e+002 -2.338437e+001 2.954238e+001 -2.546397e+001 -5.026532e+001 -1.054582e+000 -1.783794e+002
7430000000 -2.120095e+000 -1.415492e+002 -2.336271e+001 3.019302e+001 -2.550822e+001 -5.034770e+001 -1.050993e+000 -1.784319e+002
7440000000 -2.117424e+000 -1.417895e+002 -2.336271e+001 3.054327e+001 -2.555394e+001 -5.048041e+001 -1.049008e+000 -1.785023e+002
7450000000 -2.111038e+000 -1.419935e+002 -2.334977e+001 3.128821e+001 -2.559278e+001 -5.051374e+001 -1.044813e+000 -1.785503e+002
7460000000 -2.096894e+000 -1.422206e+002 -2.331019e+001 3.174982e+001 -2.563335e+001 -5.060176e+001 -1.044775e+000 -1.786044e+002
7470000000 -2.089545e+000 -1.424762e+002 -2.328564e+001 3.212498e+001 -2.567956e+001 -5.072069e+001 -1.045113e+000 -1.786550e+002
7480000000 -2.088265e+000 -1.426185e+002 -2.326210e+001 3.289337e+001 -2.572953e+001 -5.074292e+001 -1.041547e+000 -1.786990e+002
7490000000 -2.070432e+000 -1.428326e+002 -2.323709e+001 3.340532e+001 -2.577432e+001 -5.089402e+001 -1.042195e+000 -1.787696e+002
7500000000 -2.068925e+000 -1.430119e+002 -2.318635e+001 3.397177e+001 -2.583111e+001 -5.082199e+001 -1.044230e+000 -1.788154e+002
7510000000 -2.059021e+000 -1.432372e+002 -2.317019e+001 3.442138e+001 -2.588317e+001 -5.078435e+001 -1.043059e+000 -1.788607e+002
7520000000 -2.052338e+000 -1.434309e+002 -2.313379e+001 3.497220e+001 -2.594029e+001 -5.083927e+001 -1.043728e+000 -1.789173e+002
7530000000 -2.051849e+000 -1.436388e+002 -2.310545e+001 3.560637e+001 -2.600512e+001 -5.078458e+001 -1.045726e+000 -1.789776e+002
7540000000 -2.047266e+000 -1.438204e+002 -2.304405e+001 3.618039e+001 -2.605931e+001 -5.067019e+001 -1.044754e+000 -1.790305e+002
7550000000 -2.038124e+000 -1.441119e+002 -2.304938e+001 3.657605e+001 -2.612472e+001 -5.062163e+001 -1.045501e+000 -1.791088e+002
7560000000 -2.026013e+000 -1.443990e+002 -2.298267e+001 3.679547e+001 -2.618420e+001 -5.054986e+001 -1.046607e+000 -1.791773e+002
7570000000 -2.018846e+000 -1.445799e+002 -2.294358e+001 3.749370e+001 -2.623865e+001 -5.038132e+001 -1.049107e+000 -1.792357e+002
7580000000 -2.017530e+000 -1.447912e+002 -2.289250e+001 3.804757e+001 -2.630463e+001 -5.013194e+001 -1.049539e+000 -1.792830e+002
7590000000 -2.010499e+000 -1.450500e+002 -2.284124e+001 3.857488e+001 -2.636498e+001 -4.999107e+001 -1.049768e+000 -1.793447e+002
7600000000 -2.002413e+000 -1.451939e+002 -2.278596e+001 3.903860e+001 -2.642018e+001 -4.961436e+001 -1.051809e+000 -1.793675e+002
7610000000 -1.982121e+000 -1.453748e+002 -2.271279e+001 3.944474e+001 -2.645452e+001 -4.930285e+001 -1.054450e+000 -1.794233e+002
7620000000 -1.980218e+000 -1.455531e+002 -2.266925e+001 3.983544e+001 -2.650830e+001 -4.885015e+001 -1.056840e+000 -1.794737e+002
7630000000 -1.976899e+000 -1.457754e+002 -2.261062e+001 4.015151e+001 -2.654720e+001 -4.837436e+001 -1.060917e+000 -1.794957e+002
7640000000 -1.968975e+000 -1.459154e+002 -2.253408e+001 4.052899e+001 -2.657386e+001 -4.781345e+001 -1.064807e+000 -1.795372e+002
7650000000 -1.970987e+000 -1.461984e+002 -2.246645e+001 4.079046e+001 -2.660653e+001 -4.735857e+001 -1.071245e+000 -1.795768e+002
7660000000 -1.958399e+000 -1.463513e+002 -2.238194e+001 4.096010e+001 -2.661091e+001 -4.678529e+001 -1.076623e+000 -1.796033e+002
7670000000 -1.955847e+000 -1.465590e+002 -2.229027e+001 4.112032e+001 -2.662409e+001 -4.615458e+001 -1.085653e+000 -1.796351e+002
7680000000 -1.948141e+000 -1.467321e+002 -2.224191e+001 4.130143e+001 -2.659406e+001 -4.551616e+001 -1.090987e+000 -1.796558e+002
7690000000 -1.952208e+000 -1.468875e+002 -2.213211e+001 4.140995e+001 -2.656110e+001 -4.487224e+001 -1.095937e+000 -1.796658e+002
7700000000 -1.947013e+000 -1.470135e+002 -2.207668e+001 4.138737e+001 -2.649898e+001 -4.428202e+001 -1.106107e+000 -1.796751e+002
7710000000 -1.946607e+000 -1.471883e+002 -2.200685e+001 4.138529e+001 -2.643692e+001 -4.365102e+001 -1.113641e+000 -1.796547e+002
7720000000 -1.940559e+000 -1.473699e+002 -2.193766e+001 4.118732e+001 -2.633871e+001 -4.319612e+001 -1.121553e+000 -1.796374e+002
7730000000 -1.935534e+000 -1.475108e+002 -2.184468e+001 4.095201e+001 -2.622142e+001 -4.275750e+001 -1.130849e+000 -1.795999e+002
7740000000 -1.933191e+000 -1.477114e+002 -2.180175e+001 4.062058e+001 -2.609477e+001 -4.256785e+001 -1.140196e+000 -1.795657e+002
7750000000 -1.923436e+000 -1.479004e+002 -2.177916e+001 4.029409e+001 -2.595603e+001 -4.244642e+001 -1.147721e+000 -1.794990e+002
7760000000 -1.922080e+000 -1.479371e+002 -2.174768e+001 3.999070e+001 -2.581991e+001 -4.250809e+001 -1.151978e+000 -1.794333e+002
7770000000 -1.924890e+000 -1.481071e+002 -2.175806e+001 3.963147e+001 -2.568383e+001 -4.280678e+001 -1.156802e+000 -1.793468e+002
7780000000 -1.912531e+000 -1.481917e+002 -2.177126e+001 3.927240e+001 -2.555221e+001 -4.320940e+001 -1.156444e+000 -1.792717e+002
7790000000 -1.903487e+000 -1.482971e+002 -2.179282e+001 3.906681e+001 -2.544162e+001 -4.381113e+001 -1.152591e+000 -1.791894e+002
7800000000 -1.898875e+000 -1.485242e+002 -2.183174e+001 3.878369e+001 -2.535401e+001 -4.454723e+001 -1.147377e+000 -1.790997e+002
7810000000 -1.881745e+000 -1.485386e+002 -2.187763e+001 3.877721e+001 -2.527594e+001 -4.522923e+001 -1.138633e+000 -1.790359e+002
7820000000 -1.875472e+000 -1.487646e+002 -2.192392e+001 3.859572e+001 -2.521490e+001 -4.610300e+001 -1.128576e+000 -1.789715e+002
7830000000 -1.864437e+000 -1.488860e+002 -2.199321e+001 3.866008e+001 -2.518334e+001 -4.697038e+001 -1.119555e+000 -1.789079e+002
7840000000 -1.857792e+000 -1.490755e+002 -2.205726e+001 3.871106e+001 -2.515843e+001 -4.776968e+001 -1.105923e+000 -1.788635e+002
7850000000 -1.849228e+000 -1.491585e+002 -2.211295e+001 3.890588e+001 -2.516595e+001 -4.860369e+001 -1.093766e+000 -1.788215e+002
7860000000 -1.830087e+000 -1.493016e+002 -2.213181e+001 3.924862e+001 -2.516986e+001 -4.935714e+001 -1.084131e+000 -1.787949e+002
7870000000 -1.825939e+000 -1.494933e+002 -2.220156e+001 3.945490e+001 -2.520651e+001 -5.005972e+001 -1.072428e+000 -1.787757e+002
7880000000 -1.803045e+000 -1.496834e+002 -2.222419e+001 3.991493e+001 -2.523507e+001 -5.073980e+001 -1.060991e+000 -1.787681e+002
7890000000 -1.810024e+000 -1.497583e+002 -2.225375e+001 4.015586e+001 -2.529061e+001 -5.135197e+001 -1.051260e+000 -1.787799e+002
7900000000 -1.796463e+000 -1.499994e+002 -2.229328e+001 4.050703e+001 -2.532418e+001 -5.195022e+001 -1.040950e+000 -1.787772e+002
7910000000 -1.780693e+000 -1.501115e+002 -2.230774e+001 4.090541e+001 -2.536611e+001 -5.250671e+001 -1.035044e+000 -1.787752e+002
7920000000 -1.774569e+000 -1.502834e+002 -2.233549e+001 4.140315e+001 -2.541274e+001 -5.293367e+001 -1.027326e+000 -1.787817e+002
7930000000 -1.757822e+000 -1.504400e+002 -2.233547e+001 4.173443e+001 -2.547493e+001 -5.340443e+001 -1.021206e+000 -1.787834e+002
7940000000 -1.755540e+000 -1.505450e+002 -2.233966e+001 4.227497e+001 -2.553156e+001 -5.373041e+001 -1.014897e+000 -1.787738e+002
7950000000 -1.738302e+000 -1.507640e+002 -2.233912e+001 4.241712e+001 -2.557667e+001 -5.414779e+001 -1.008414e+000 -1.787759e+002
7960000000 -1.726615e+000 -1.508201e+002 -2.233848e+001 4.284218e+001 -2.562236e+001 -5.447954e+001 -1.001319e+000 -1.787785e+002
7970000000 -1.719731e+000 -1.509876e+002 -2.233401e+001 4.322973e+001 -2.566382e+001 -5.478021e+001 -9.932180e-001 -1.788036e+002
7980000000 -1.712980e+000 -1.510561e+002 -2.231444e+001 4.367497e+001 -2.571930e+001 -5.513350e+001 -9.882424e-001 -1.788095e+002
7990000000 -1.701347e+000 -1.512294e+002 -2.229136e+001 4.419778e+001 -2.576981e+001 -5.537788e+001 -9.843224e-001 -1.788041e+002
8000000000 -1.695376e+000 -1.513634e+002 -2.231138e+001 4.433279e+001 -2.583154e+001 -5.571096e+001 -9.847468e-001 -1.788477e+002
8010000000 -1.688355e+000 -1.514991e+002 -2.228380e+001 4.481477e+001 -2.587572e+001 -5.594579e+001 -9.794269e-001 -1.788458e+002
8020000000 -1.683677e+000 -1.516641e+002 -2.225502e+001 4.498678e+001 -2.593836e+001 -5.619204e+001 -9.776019e-001 -1.788951e+002
8030000000 -1.671696e+000 -1.518431e+002 -2.225707e+001 4.539163e+001 -2.598434e+001 -5.639579e+001 -9.728919e-001 -1.788953e+002
8040000000 -1.671951e+000 -1.520160e+002 -2.223647e+001 4.579951e+001 -2.603428e+001 -5.653319e+001 -9.659490e-001 -1.789042e+002
8050000000 -1.657228e+000 -1.521716e+002 -2.221224e+001 4.583696e+001 -2.608545e+001 -5.679129e+001 -9.605814e-001 -1.789371e+002
8060000000 -1.647712e+000 -1.522543e+002 -2.221250e+001 4.624917e+001 -2.613213e+001 -5.694705e+001 -9.587367e-001 -1.789500e+002
8070000000 -1.638867e+000 -1.524409e+002 -2.217351e+001 4.658744e+001 -2.618110e+001 -5.716770e+001 -9.577802e-001 -1.789482e+002
8080000000 -1.633771e+000 -1.525482e+002 -2.218028e+001 4.688172e+001 -2.623963e+001 -5.737798e+001 -9.534816e-001 -1.789520e+002
8090000000 -1.631576e+000 -1.527037e+002 -2.216401e+001 4.708545e+001 -2.628799e+001 -5.747292e+001 -9.488292e-001 -1.789359e+002
8100000000 -1.619676e+000 -1.528061e+002 -2.213471e+001 4.749876e+001 -2.633621e+001 -5.765492e+001 -9.453830e-001 -1.789264e+002
8110000000 -1.609748e+000 -1.529286e+002 -2.211233e+001 4.777190e+001 -2.637972e+001 -5.784893e+001 -9.436584e-001 -1.789269e+002
8120000000 -1.595700e+000 -1.530200e+002 -2.209014e+001 4.794749e+001 -2.642331e+001 -5.798111e+001 -9.406747e-001 -1.789104e+002
8130000000 -1.594788e+000 -1.531623e+002 -2.207768e+001 4.808995e+001 -2.646685e+001 -5.810191e+001 -9.401617e-001 -1.788904e+002
8140000000 -1.593531e+000 -1.532507e+002 -2.205894e+001 4.847314e+001 -2.651709e+001 -5.822906e+001 -9.369301e-001 -1.788711e+002
8150000000 -1.577396e+000 -1.534258e+002 -2.203395e+001 4.853173e+001 -2.657109e+001 -5.838697e+001 -9.356232e-001 -1.788900e+002
8160000000 -1.573600e+000 -1.535143e+002 -2.199814e+001 4.891880e+001 -2.661137e+001 -5.846576e+001 -9.303083e-001 -1.788542e+002
8170000000 -1.567709e+000 -1.536377e+002 -2.200020e+001 4.921652e+001 -2.665571e+001 -5.857924e+001 -9.287099e-001 -1.788452e+002
8180000000 -1.549113e+000 -1.537774e+002 -2.195761e+001 4.932694e+001 -2.669780e+001 -5.874095e+001 -9.267042e-001 -1.788522e+002
8190000000 -1.549340e+000 -1.538951e+002 -2.194642e+001 4.950679e+001 -2.673710e+001 -5.883188e+001 -9.262750e-001 -1.788412e+002
8200000000 -1.537441e+000 -1.539613e+002 -2.191491e+001 4.987109e+001 -2.677931e+001 -5.897109e+001 -9.237590e-001 -1.788368e+002
8210000000 -1.529980e+000 -1.540745e+002 -2.189041e+001 4.990032e+001 -2.682621e+001 -5.906450e+001 -9.235693e-001 -1.788237e+002
8220000000 -1.526061e+000 -1.541505e+002 -2.186946e+001 5.010181e+001 -2.687084e+001 -5.915102e+001 -9.206830e-001 -1.787987e+002
8230000000 -1.515155e+000 -1.543188e+002 -2.183561e+001 5.026398e+001 -2.690173e+001 -5.926650e+001 -9.183385e-001 -1.787756e+002
8240000000 -1.512280e+000 -1.544028e+002 -2.183381e+001 5.049443e+001 -2.696181e+001 -5.935786e+001 -9.159643e-001 -1.787424e+002
8250000000 -1.499610e+000 -1.545118e+002 -2.178678e+001 5.075810e+001 -2.698949e+001 -5.942361e+001 -9.113095e-001 -1.787147e+002
8260000000 -1.498595e+000 -1.545756e+002 -2.174727e+001 5.085776e+001 -2.703999e+001 -5.949410e+001 -9.122583e-001 -1.787042e+002
8270000000 -1.496313e+000 -1.546774e+002 -2.176382e+001 5.105510e+001 -2.707752e+001 -5.960757e+001 -9.099649e-001 -1.786664e+002
8280000000 -1.486731e+000 -1.548121e+002 -2.172514e+001 5.124286e+001 -2.712006e+001 -5.975558e+001 -9.082108e-001 -1.786733e+002
8290000000 -1.483562e+000 -1.549222e+002 -2.167494e+001 5.130677e+001 -2.716829e+001 -5.977801e+001 -9.047368e-001 -1.786518e+002
8300000000 -1.480855e+000 -1.549731e+002 -2.168344e+001 5.162280e+001 -2.720934e+001 -5.990450e+001 -9.066535e-001 -1.786305e+002
8310000000 -1.467020e+000 -1.550289e+002 -2.163848e+001 5.182833e+001 -2.725301e+001 -5.994742e+001 -9.040541e-001 -1.786239e+002
8320000000 -1.458613e+000 -1.552605e+002 -2.164368e+001 5.193838e+001 -2.729009e+001 -6.012527e+001 -9.030026e-001 -1.786060e+002
8330000000 -1.450734e+000 -1.552850e+002 -2.162104e+001 5.194080e+001 -2.733681e+001 -6.011662e+001 -9.042497e-001 -1.785983e+002
8340000000 -1.447374e+000 -1.553302e+002 -2.157333e+001 5.220264e+001 -2.737452e+001 -6.018888e+001 -9.016979e-001 -1.785822e+002
8350000000 -1.435686e+000 -1.554732e+002 -2.155281e+001 5.224301e+001 -2.741496e+001 -6.031269e+001 -9.001937e-001 -1.785649e+002
8360000000 -1.433122e+000 -1.554822e+002 -2.154941e+001 5.252212e+001 -2.745803e+001 -6.031028e+001 -8.981855e-001 -1.785522e+002
8370000000 -1.434098e+000 -1.555879e+002 -2.154766e+001 5.262388e+001 -2.750087e+001 -6.041771e+001 -8.969386e-001 -1.785169e+002
8380000000 -1.417452e+000 -1.557238e+002 -2.151841e+001 5.290992e+001 -2.754454e+001 -6.048799e+001 -8.936818e-001 -1.784665e+002
8390000000 -1.416213e+000 -1.558048e+002 -2.149154e+001 5.292347e+001 -2.758596e+001 -6.058692e+001 -8.926206e-001 -1.784603e+002
8400000000 -1.408623e+000 -1.558819e+002 -2.146406e+001 5.313342e+001 -2.763758e+001 -6.063905e+001 -8.959490e-001 -1.784407e+002
8410000000 -1.401976e+000 -1.559452e+002 -2.143598e+001 5.325558e+001 -2.767710e+001 -6.066395e+001 -8.931607e-001 -1.783928e+002
8420000000 -1.398606e+000 -1.560116e+002 -2.140636e+001 5.331846e+001 -2.772184e+001 -6.075590e+001 -8.947121e-001 -1.783659e+002
8430000000 -1.389855e+000 -1.561190e+002 -2.139888e+001 5.340399e+001 -2.776160e+001 -6.075647e+001 -8.934644e-001 -1.783189e+002
8440000000 -1.384233e+000 -1.561344e+002 -2.138088e+001 5.358785e+001 -2.779561e+001 -6.075563e+001 -8.907177e-001 -1.783037e+002
8450000000 -1.379275e+000 -1.562034e+002 -2.136247e+001 5.394107e+001 -2.784395e+001 -6.082576e+001 -8.909154e-001 -1.782688e+002
8460000000 -1.364751e+000 -1.562862e+002 -2.132027e+001 5.389277e+001 -2.787626e+001 -6.088146e+001 -8.867401e-001 -1.782348e+002
8470000000 -1.365490e+000 -1.564218e+002 -2.128910e+001 5.384981e+001 -2.791738e+001 -6.095510e+001 -8.871666e-001 -1.782300e+002
8480000000 -1.363721e+000 -1.564344e+002 -2.128636e+001 5.409860e+001 -2.796188e+001 -6.092724e+001 -8.845375e-001 -1.781875e+002
8490000000 -1.357164e+000 -1.564929e+002 -2.127507e+001 5.414499e+001 -2.800645e+001 -6.095041e+001 -8.854899e-001 -1.781514e+002
8500000000 -1.345113e+000 -1.565469e+002 -2.123661e+001 5.431041e+001 -2.805225e+001 -6.096773e+001 -8.856574e-001 -1.781121e+002
8510000000 -1.342756e+000 -1.565782e+002 -2.122860e+001 5.434936e+001 -2.809232e+001 -6.098283e+001 -8.826126e-001 -1.780920e+002
8520000000 -1.333088e+000 -1.566679e+002 -2.120725e+001 5.438610e+001 -2.812044e+001 -6.096836e+001 -8.811302e-001 -1.780402e+002
8530000000 -1.334377e+000 -1.567356e+002 -2.120998e+001 5.451914e+001 -2.816591e+001 -6.106656e+001 -8.839703e-001 -1.780100e+002
8540000000 -1.332038e+000 -1.567898e+002 -2.117447e+001 5.465112e+001 -2.820902e+001 -6.112651e+001 -8.836401e-001 -1.779526e+002
8550000000 -1.314252e+000 -1.568771e+002 -2.113531e+001 5.472867e+001 -2.823185e+001 -6.112780e+001 -8.805280e-001 -1.779125e+002
8560000000 -1.310683e+000 -1.569345e+002 -2.113383e+001 5.492246e+001 -2.827925e+001 -6.109683e+001 -8.772119e-001 -1.778712e+002
8570000000 -1.306189e+000 -1.569206e+002 -2.113640e+001 5.496664e+001 -2.830472e+001 -6.118059e+001 -8.730679e-001 -1.778292e+002
8580000000 -1.300686e+000 -1.569847e+002 -2.109361e+001 5.509905e+001 -2.835158e+001 -6.115589e+001 -8.743147e-001 -1.777857e+002
8590000000 -1.293435e+000 -1.569867e+002 -2.107586e+001 5.520038e+001 -2.839169e+001 -6.116833e+001 -8.756444e-001 -1.777405e+002
8600000000 -1.286950e+000 -1.570491e+002 -2.105980e+001 5.532027e+001 -2.842207e+001 -6.117297e+001 -8.769084e-001 -1.777046e+002
8610000000 -1.281326e+000 -1.571191e+002 -2.103736e+001 5.537913e+001 -2.846113e+001 -6.125741e+001 -8.730246e-001 -1.776517e+002
8620000000 -1.282268e+000 -1.571190e+002 -2.101106e+001 5.548536e+001 -2.851653e+001 -6.121226e+001 -8.741226e-001 -1.775989e+002
8630000000 -1.265703e+000 -1.571847e+002 -2.100477e+001 5.549833e+001 -2.854359e+001 -6.131384e+001 -8.717132e-001 -1.775463e+002
8640000000 -1.260632e+000 -1.571663e+002 -2.098939e+001 5.570149e+001 -2.857186e+001 -6.129605e+001 -8.716851e-001 -1.774940e+002
8650000000 -1.259571e+000 -1.572189e+002 -2.095668e+001 5.573642e+001 -2.861133e+001 -6.130128e+001 -8.711160e-001 -1.774602e+002
8660000000 -1.248267e+000 -1.572632e+002 -2.094669e+001 5.589002e+001 -2.864822e+001 -6.132252e+001 -8.736222e-001 -1.774063e+002
8670000000 -1.250668e+000 -1.572884e+002 -2.092052e+001 5.588523e+001 -2.868771e+001 -6.131046e+001 -8.747257e-001 -1.773533e+002
8680000000 -1.242695e+000 -1.573196e+002 -2.091458e+001 5.603813e+001 -2.872515e+001 -6.136803e+001 -8.737900e-001 -1.773146e+002
8690000000 -1.247474e+000 -1.573889e+002 -2.089840e+001 5.591647e+001 -2.876877e+001 -6.141396e+001 -8.722126e-001 -1.772569e+002
8700000000 -1.230956e+000 -1.573806e+002 -2.087388e+001 5.611543e+001 -2.879298e+001 -6.137062e+001 -8.715454e-001 -1.772277e+002
8710000000 -1.239527e+000 -1.574294e+002 -2.087050e+001 5.623117e+001 -2.883944e+001 -6.138774e+001 -8.687814e-001 -1.771527e+002
8720000000 -1.232638e+000 -1.574728e+002 -2.083677e+001 5.634654e+001 -2.887241e+001 -6.134417e+001 -8.680304e-001 -1.771207e+002
8730000000 -1.225618e+000 -1.574880e+002 -2.080850e+001 5.644285e+001 -2.892034e+001 -6.137508e+001 -8.662546e-001 -1.770739e+002
8740000000 -1.221934e+000 -1.574949e+002 -2.081255e+001 5.645181e+001 -2.894364e+001 -6.133842e+001 -8.672974e-001 -1.770285e+002
8750000000 -1.209824e+000 -1.575715e+002 -2.076645e+001 5.645907e+001 -2.898010e+001 -6.142113e+001 -8.661634e-001 -1.770037e+002
8760000000 -1.199248e+000 -1.574935e+002 -2.076417e+001 5.661671e+001 -2.901514e+001 -6.132768e+001 -8.680834e-001 -1.769466e+002
8770000000 -1.203003e+000 -1.575353e+002 -2.077226e+001 5.672647e+001 -2.905716e+001 -6.138496e+001 -8.687106e-001 -1.768973e+002
8780000000 -1.192764e+000 -1.576015e+002 -2.073922e+001 5.666524e+001 -2.909303e+001 -6.144776e+001 -8.679528e-001 -1.768511e+002
8790000000 -1.187689e+000 -1.576038e+002 -2.072392e+001 5.682559e+001 -2.913596e+001 -6.147389e+001 -8.673424e-001 -1.768077e+002
8800000000 -1.181919e+000 -1.576528e+002 -2.070801e+001 5.686287e+001 -2.916466e+001 -6.149484e+001 -8.677663e-001 -1.767694e+002
8810000000 -1.173367e+000 -1.576486e+002 -2.066830e+001 5.694817e+001 -2.920657e+001 -6.152963e+001 -8.687539e-001 -1.767068e+002
8820000000 -1.171485e+000 -1.576869e+002 -2.067717e+001 5.696941e+001 -2.924456e+001 -6.152132e+001 -8.648100e-001 -1.766569e+002
8830000000 -1.165571e+000 -1.576779e+002 -2.064068e+001 5.703701e+001 -2.929006e+001 -6.142439e+001 -8.651493e-001 -1.765934e+002
8840000000 -1.158294e+000 -1.576828e+002 -2.062742e+001 5.728086e+001 -2.931380e+001 -6.149926e+001 -8.589985e-001 -1.765478e+002
8850000000 -1.162953e+000 -1.577034e+002 -2.063866e+001 5.737076e+001 -2.935594e+001 -6.150988e+001 -8.560212e-001 -1.764848e+002
8860000000 -1.156670e+000 -1.577559e+002 -2.061155e+001 5.739386e+001 -2.940268e+001 -6.160542e+001 -8.584100e-001 -1.764194e+002
8870000000 -1.154969e+000 -1.577092e+002 -2.060589e+001 5.728465e+001 -2.944224e+001 -6.147544e+001 -8.586460e-001 -1.763563e+002
8880000000 -1.147313e+000 -1.576920e+002 -2.059143e+001 5.747427e+001 -2.948825e+001 -6.155927e+001 -8.582067e-001 -1.762981e+002
8890000000 -1.139603e+000 -1.576230e+002 -2.057436e+001 5.769398e+001 -2.952698e+001 -6.145771e+001 -8.572056e-001 -1.762129e+002
8900000000 -1.139251e+000 -1.576394e+002 -2.056944e+001 5.781856e+001 -2.956624e+001 -6.147760e+001 -8.586969e-001 -1.761308e+002
8910000000 -1.126892e+000 -1.576520e+002 -2.053619e+001 5.787772e+001 -2.960579e+001 -6.143983e+001 -8.568346e-001 -1.760635e+002
8920000000 -1.131522e+000 -1.576121e+002 -2.053617e+001 5.787701e+001 -2.964424e+001 -6.147604e+001 -8.545001e-001 -1.759891e+002
8930000000 -1.119325e+000 -1.576052e+002 -2.053443e+001 5.786006e+001 -2.968701e+001 -6.139617e+001 -8.575014e-001 -1.758902e+002
8940000000 -1.119324e+000 -1.575766e+002 -2.050150e+001 5.808814e+001 -2.972303e+001 -6.139025e+001 -8.599677e-001 -1.758127e+002
8950000000 -1.118591e+000 -1.576024e+002 -2.051340e+001 5.809605e+001 -2.976928e+001 -6.139213e+001 -8.595293e-001 -1.757410e+002
8960000000 -1.109904e+000 -1.576445e+002 -2.045954e+001 5.823013e+001 -2.978230e+001 -6.135538e+001 -8.566870e-001 -1.756505e+002
8970000000 -1.106588e+000 -1.575883e+002 -2.045534e+001 5.819833e+001 -2.983910e+001 -6.127291e+001 -8.553883e-001 -1.755885e+002
8980000000 -1.112814e+000 -1.575695e+002 -2.044105e+001 5.838207e+001 -2.988197e+001 -6.129885e+001 -8.572005e-001 -1.755313e+002
8990000000 -1.093945e+000 -1.576003e+002 -2.040819e+001 5.848481e+001 -2.991395e+001 -6.124273e+001 -8.570304e-001 -1.754581e+002
9000000000 -1.092929e+000 -1.575637e+002 -2.038453e+001 5.856022e+001 -2.994536e+001 -6.123691e+001 -8.555501e-001 -1.754180e+002
9010000000 -1.084810e+000 -1.575560e+002 -2.038513e+001 5.854473e+001 -2.999332e+001 -6.123004e+001 -8.600488e-001 -1.753485e+002
9020000000 -1.079991e+000 -1.575493e+002 -2.036681e+001 5.852544e+001 -3.002933e+001 -6.128549e+001 -8.644804e-001 -1.752976e+002
9030000000 -1.074120e+000 -1.575359e+002 -2.033617e+001 5.866779e+001 -3.007910e+001 -6.119632e+001 -8.623582e-001 -1.752467e+002
9040000000 -1.071273e+000 -1.574827e+002 -2.032708e+001 5.884652e+001 -3.012977e+001 -6.114469e+001 -8.634471e-001 -1.751900e+002
9050000000 -1.074116e+000 -1.574759e+002 -2.032316e+001 5.886568e+001 -3.015852e+001 -6.113467e+001 -8.609277e-001 -1.751283e+002
9060000000 -1.063421e+000 -1.573936e+002 -2.031526e+001 5.888467e+001 -3.019410e+001 -6.100786e+001 -8.624318e-001 -1.750835e+002
9070000000 -1.057370e+000 -1.573741e+002 -2.028192e+001 5.907330e+001 -3.025017e+001 -6.103787e+001 -8.624291e-001 -1.750242e+002
9080000000 -1.052130e+000 -1.573618e+002 -2.026746e+001 5.897309e+001 -3.028121e+001 -6.089878e+001 -8.629152e-001 -1.749637e+002
9090000000 -1.057576e+000 -1.573264e+002 -2.024879e+001 5.904832e+001 -3.034071e+001 -6.095506e+001 -8.617510e-001 -1.748998e+002
9100000000 -1.048137e+000 -1.572303e+002 -2.024018e+001 5.919811e+001 -3.037559e+001 -6.081998e+001 -8.562099e-001 -1.748170e+002
9110000000 -1.049188e+000 -1.571618e+002 -2.022877e+001 5.929414e+001 -3.042066e+001 -6.074139e+001 -8.606890e-001 -1.747347e+002
9120000000 -1.037658e+000 -1.571256e+002 -2.019490e+001 5.944590e+001 -3.045981e+001 -6.062824e+001 -8.611255e-001 -1.746731e+002
9130000000 -1.034448e+000 -1.571017e+002 -2.020533e+001 5.948051e+001 -3.050774e+001 -6.059560e+001 -8.613478e-001 -1.745957e+002
9140000000 -1.033245e+000 -1.570799e+002 -2.016968e+001 5.949618e+001 -3.054389e+001 -6.048792e+001 -8.606555e-001 -1.745184e+002
9150000000 -1.038609e+000 -1.570616e+002 -2.014909e+001 5.970965e+001 -3.059509e+001 -6.055410e+001 -8.635835e-001 -1.744320e+002
9160000000 -1.030632e+000 -1.569881e+002 -2.014694e+001 5.968251e+001 -3.064018e+001 -6.041609e+001 -8.645199e-001 -1.743351e+002
9170000000 -1.018692e+000 -1.569776e+002 -2.011680e+001 5.955571e+001 -3.068056e+001 -6.028905e+001 -8.654614e-001 -1.742620e+002
9180000000 -1.015938e+000 -1.569178e+002 -2.009760e+001 5.973430e+001 -3.072510e+001 -6.020250e+001 -8.655413e-001 -1.741746e+002
9190000000 -1.012742e+000 -1.568544e+002 -2.008535e+001 5.979877e+001 -3.077343e+001 -6.006906e+001 -8.638393e-001 -1.740915e+002
9200000000 -1.014082e+000 -1.568213e+002 -2.008093e+001 5.982430e+001 -3.081415e+001 -5.997889e+001 -8.666540e-001 -1.740196e+002
9210000000 -1.012218e+000 -1.567926e+002 -2.005512e+001 5.985310e+001 -3.085932e+001 -5.981516e+001 -8.694428e-001 -1.739332e+002
9220000000 -1.009314e+000 -1.567011e+002 -2.002665e+001 5.997871e+001 -3.089629e+001 -5.972883e+001 -8.653094e-001 -1.738689e+002
9230000000 -1.014056e+000 -1.566721e+002 -2.001629e+001 5.999801e+001 -3.092479e+001 -5.960749e+001 -8.678444e-001 -1.737844e+002
9240000000 -9.962109e-001 -1.566264e+002 -2.000654e+001 5.999632e+001 -3.095540e+001 -5.938621e+001 -8.637139e-001 -1.736862e+002
9250000000 -9.957597e-001 -1.565454e+002 -1.997989e+001 6.017864e+001 -3.102215e+001 -5.931864e+001 -8.666903e-001 -1.736340e+002
9260000000 -9.998782e-001 -1.565130e+002 -1.994425e+001 6.011577e+001 -3.104802e+001 -5.912643e+001 -8.656346e-001 -1.735371e+002
9270000000 -9.950827e-001 -1.564495e+002 -1.995021e+001 6.014980e+001 -3.109289e+001 -5.905518e+001 -8.690351e-001 -1.734579e+002
9280000000 -9.895252e-001 -1.563993e+002 -1.994290e+001 6.026214e+001 -3.112299e+001 -5.897718e+001 -8.692131e-001 -1.733682e+002
9290000000 -9.757265e-001 -1.563636e+002 -1.991187e+001 6.032813e+001 -3.115819e+001 -5.874677e+001 -8.735651e-001 -1.732829e+002
9300000000 -9.839688e-001 -1.563008e+002 -1.990500e+001 6.034248e+001 -3.119705e+001 -5.866312e+001 -8.752426e-001 -1.731924e+002
9310000000 -9.792101e-001 -1.562285e+002 -1.990803e+001 6.041101e+001 -3.122578e+001 -5.842053e+001 -8.743211e-001 -1.731038e+002
9320000000 -9.827107e-001 -1.561270e+002 -1.988244e+001 6.050315e+001 -3.127510e+001 -5.829754e+001 -8.739130e-001 -1.730244e+002
9330000000 -9.732592e-001 -1.561035e+002 -1.984041e+001 6.055309e+001 -3.131065e+001 -5.815472e+001 -8.777309e-001 -1.729529e+002
9340000000 -9.702341e-001 -1.560088e+002 -1.981492e+001 6.066455e+001 -3.135444e+001 -5.797792e+001 -8.786828e-001 -1.728731e+002
9350000000 -9.653477e-001 -1.559697e+002 -1.981046e+001 6.058769e+001 -3.139239e+001 -5.783397e+001 -8.821173e-001 -1.727933e+002
9360000000 -9.727403e-001 -1.559002e+002 -1.980617e+001 6.062204e+001 -3.142334e+001 -5.761357e+001 -8.816425e-001 -1.726873e+002
9370000000 -9.658992e-001 -1.558440e+002 -1.976211e+001 6.078506e+001 -3.145374e+001 -5.740804e+001 -8.780360e-001 -1.726177e+002
9380000000 -9.662101e-001 -1.558306e+002 -1.974749e+001 6.077329e+001 -3.149125e+001 -5.731831e+001 -8.808888e-001 -1.725313e+002
9390000000 -9.641460e-001 -1.557605e+002 -1.973776e+001 6.088278e+001 -3.152375e+001 -5.717604e+001 -8.800166e-001 -1.724435e+002
9400000000 -9.621328e-001 -1.556847e+002 -1.973580e+001 6.088758e+001 -3.155652e+001 -5.705796e+001 -8.824674e-001 -1.723616e+002
9410000000 -9.597696e-001 -1.556608e+002 -1.972587e+001 6.079724e+001 -3.159781e+001 -5.683109e+001 -8.860139e-001 -1.722850e+002
9420000000 -9.524795e-001 -1.555895e+002 -1.966788e+001 6.092794e+001 -3.162333e+001 -5.652171e+001 -8.847438e-001 -1.721861e+002
9430000000 -9.535510e-001 -1.555386e+002 -1.966536e+001 6.099866e+001 -3.167136e+001 -5.639468e+001 -8.926204e-001 -1.720949e+002
9440000000 -9.508288e-001 -1.554672e+002 -1.965636e+001 6.084310e+001 -3.172052e+001 -5.623328e+001 -8.934025e-001 -1.720053e+002
9450000000 -9.446079e-001 -1.554324e+002 -1.962951e+001 6.093535e+001 -3.173634e+001 -5.607455e+001 -8.953571e-001 -1.719123e+002
9460000000 -9.401635e-001 -1.553142e+002 -1.961874e+001 6.124461e+001 -3.178241e+001 -5.585508e+001 -8.959870e-001 -1.718314e+002
9470000000 -9.461606e-001 -1.552532e+002 -1.960253e+001 6.107244e+001 -3.182810e+001 -5.569642e+001 -8.995038e-001 -1.717396e+002
9480000000 -9.362154e-001 -1.551447e+002 -1.955904e+001 6.118787e+001 -3.185567e+001 -5.539636e+001 -9.019475e-001 -1.716693e+002
9490000000 -9.223328e-001 -1.550291e+002 -1.954584e+001 6.122850e+001 -3.187181e+001 -5.514379e+001 -8.994156e-001 -1.715741e+002
9500000000 -9.309642e-001 -1.550103e+002 -1.954158e+001 6.113707e+001 -3.191373e+001 -5.502274e+001 -9.026566e-001 -1.714955e+002
9510000000 -9.276971e-001 -1.548812e+002 -1.951737e+001 6.128463e+001 -3.195059e+001 -5.474469e+001 -9.039539e-001 -1.714120e+002
9520000000 -9.274908e-001 -1.548326e+002 -1.949553e+001 6.129120e+001 -3.198219e+001 -5.439915e+001 -9.081044e-001 -1.713315e+002
9530000000 -9.288182e-001 -1.547008e+002 -1.949072e+001 6.138859e+001 -3.200168e+001 -5.421536e+001 -9.076139e-001 -1.712418e+002
9540000000 -9.324945e-001 -1.546272e+002 -1.946794e+001 6.140747e+001 -3.205076e+001 -5.403299e+001 -9.116586e-001 -1.711643e+002
9550000000 -9.287524e-001 -1.545238e+002 -1.945456e+001 6.145957e+001 -3.209087e+001 -5.375427e+001 -9.158933e-001 -1.710675e+002
9560000000 -9.221960e-001 -1.544682e+002 -1.941414e+001 6.149506e+001 -3.212848e+001 -5.337077e+001 -9.202001e-001 -1.709883e+002
9570000000 -9.253905e-001 -1.543951e+002 -1.940938e+001 6.154036e+001 -3.215796e+001 -5.311205e+001 -9.197277e-001 -1.708948e+002
9580000000 -9.233035e-001 -1.542878e+002 -1.937121e+001 6.145750e+001 -3.217242e+001 -5.276949e+001 -9.257787e-001 -1.708032e+002
9590000000 -9.115756e-001 -1.542408e+002 -1.936927e+001 6.150568e+001 -3.220391e+001 -5.244513e+001 -9.309625e-001 -1.707268e+002
9600000000 -9.142526e-001 -1.540985e+002 -1.934144e+001 6.150415e+001 -3.224432e+001 -5.208123e+001 -9.353132e-001 -1.706134e+002
9610000000 -9.113827e-001 -1.540217e+002 -1.930527e+001 6.160521e+001 -3.227533e+001 -5.191530e+001 -9.390626e-001 -1.705498e+002
9620000000 -9.058554e-001 -1.539141e+002 -1.929035e+001 6.161494e+001 -3.230479e+001 -5.146538e+001 -9.443578e-001 -1.704346e+002
9630000000 -9.053813e-001 -1.538267e+002 -1.926478e+001 6.161286e+001 -3.233272e+001 -5.094025e+001 -9.467167e-001 -1.703284e+002
9640000000 -9.011405e-001 -1.536871e+002 -1.925494e+001 6.175209e+001 -3.235516e+001 -5.063054e+001 -9.482811e-001 -1.702183e+002
9650000000 -9.014963e-001 -1.535302e+002 -1.922204e+001 6.175029e+001 -3.237578e+001 -5.025282e+001 -9.544554e-001 -1.701329e+002
9660000000 -9.026530e-001 -1.534754e+002 -1.919355e+001 6.171887e+001 -3.239969e+001 -4.978003e+001 -9.571483e-001 -1.700457e+002
9670000000 -8.934015e-001 -1.533605e+002 -1.917103e+001 6.179504e+001 -3.240902e+001 -4.922186e+001 -9.644806e-001 -1.699316e+002
9680000000 -8.965778e-001 -1.532672e+002 -1.916157e+001 6.174559e+001 -3.243600e+001 -4.895037e+001 -9.679059e-001 -1.698464e+002
9690000000 -8.964933e-001 -1.531794e+002 -1.912459e+001 6.174783e+001 -3.245378e+001 -4.850306e+001 -9.756057e-001 -1.697405e+002
9700000000 -9.040477e-001 -1.531128e+002 -1.911027e+001 6.165156e+001 -3.244928e+001 -4.789715e+001 -9.834189e-001 -1.696341e+002
9710000000 -8.958135e-001 -1.530233e+002 -1.907628e+001 6.165345e+001 -3.247698e+001 -4.735323e+001 -9.942197e-001 -1.695296e+002
9720000000 -8.902751e-001 -1.529816e+002 -1.904847e+001 6.168238e+001 -3.245087e+001 -4.686849e+001 -1.001447e+000 -1.694146e+002
9730000000 -8.876540e-001 -1.529201e+002 -1.903648e+001 6.147557e+001 -3.245821e+001 -4.631530e+001 -1.010105e+000 -1.692962e+002
9740000000 -8.931969e-001 -1.527844e+002 -1.902012e+001 6.155896e+001 -3.243556e+001 -4.561487e+001 -1.018795e+000 -1.691765e+002
9750000000 -8.929899e-001 -1.526820e+002 -1.899427e+001 6.150814e+001 -3.242293e+001 -4.507940e+001 -1.026146e+000 -1.690591e+002
9760000000 -8.942203e-001 -1.525827e+002 -1.897313e+001 6.130189e+001 -3.240886e+001 -4.448677e+001 -1.034778e+000 -1.689432e+002
9770000000 -8.850049e-001 -1.524563e+002 -1.894807e+001 6.127850e+001 -3.234964e+001 -4.393982e+001 -1.047147e+000 -1.688021e+002
9780000000 -8.819893e-001 -1.523448e+002 -1.891929e+001 6.120352e+001 -3.232475e+001 -4.342384e+001 -1.056297e+000 -1.686649e+002
9790000000 -8.918914e-001 -1.521305e+002 -1.890820e+001 6.126429e+001 -3.228153e+001 -4.262849e+001 -1.067608e+000 -1.685279e+002
9800000000 -8.877215e-001 -1.520806e+002 -1.887488e+001 6.113436e+001 -3.219455e+001 -4.219051e+001 -1.077527e+000 -1.683889e+002
9810000000 -8.805903e-001 -1.520091e+002 -1.885389e+001 6.097832e+001 -3.213464e+001 -4.171760e+001 -1.086225e+000 -1.682406e+002
9820000000 -8.851017e-001 -1.519222e+002 -1.884661e+001 6.081907e+001 -3.205212e+001 -4.123404e+001 -1.100229e+000 -1.681047e+002
9830000000 -8.890209e-001 -1.517453e+002 -1.884002e+001 6.072105e+001 -3.195275e+001 -4.073436e+001 -1.111725e+000 -1.679605e+002
9840000000 -8.810260e-001 -1.517309e+002 -1.882932e+001 6.049356e+001 -3.187559e+001 -4.047364e+001 -1.121263e+000 -1.678017e+002
9850000000 -8.910415e-001 -1.516161e+002 -1.882006e+001 6.033004e+001 -3.176212e+001 -4.023885e+001 -1.130145e+000 -1.676416e+002
9860000000 -8.827449e-001 -1.515108e+002 -1.882184e+001 6.024335e+001 -3.166030e+001 -4.002390e+001 -1.136639e+000 -1.674752e+002
9870000000 -8.786766e-001 -1.513930e+002 -1.881009e+001 6.011117e+001 -3.155195e+001 -3.982435e+001 -1.145963e+000 -1.672715e+002
9880000000 -8.711823e-001 -1.512733e+002 -1.882113e+001 5.999793e+001 -3.142782e+001 -3.982567e+001 -1.147459e+000 -1.670820e+002
9890000000 -8.687714e-001 -1.511340e+002 -1.881991e+001 5.992196e+001 -3.132396e+001 -3.988936e+001 -1.148813e+000 -1.668664e+002
9900000000 -8.669947e-001 -1.510627e+002 -1.883173e+001 5.968469e+001 -3.121340e+001 -3.995869e+001 -1.153156e+000 -1.666363e+002
9910000000 -8.616931e-001 -1.508039e+002 -1.883842e+001 5.983540e+001 -3.111090e+001 -4.016068e+001 -1.154384e+000 -1.664242e+002
9920000000 -8.633903e-001 -1.506879e+002 -1.887335e+001 5.982151e+001 -3.100917e+001 -4.043362e+001 -1.151324e+000 -1.661902e+002
9930000000 -8.637242e-001 -1.505553e+002 -1.886516e+001 5.970565e+001 -3.091761e+001 -4.075185e+001 -1.147855e+000 -1.659854e+002
9940000000 -8.663871e-001 -1.503517e+002 -1.887984e+001 5.971396e+001 -3.085738e+001 -4.116941e+001 -1.143113e+000 -1.657831e+002
9950000000 -8.715584e-001 -1.502546e+002 -1.888801e+001 5.989950e+001 -3.078540e+001 -4.161729e+001 -1.140103e+000 -1.655754e+002
9960000000 -8.662943e-001 -1.501499e+002 -1.889055e+001 5.976831e+001 -3.072754e+001 -4.208548e+001 -1.133249e+000 -1.653980e+002
9970000000 -8.673182e-001 -1.500002e+002 -1.891854e+001 5.989318e+001 -3.067870e+001 -4.254593e+001 -1.126825e+000 -1.652059e+002
9980000000 -8.657971e-001 -1.499767e+002 -1.894628e+001 5.982170e+001 -3.064186e+001 -4.317355e+001 -1.121075e+000 -1.650285e+002
9990000000 -8.604551e-001 -1.498658e+002 -1.895521e+001 5.987175e+001 -3.060749e+001 -4.370327e+001 -1.112501e+000 -1.648737e+002
10000000000 -8.693238e-001 -1.497739e+002 -1.895605e+001 6.018285e+001 -3.060790e+001 -4.416476e+001 -1.100813e+000 -1.647263e+002
10010000000 -8.578579e-001 -1.496291e+002 -1.895641e+001 6.018075e+001 -3.058238e+001 -4.465407e+001 -1.089832e+000 -1.645585e+002
10020000000 -8.582408e-001 -1.495211e+002 -1.897101e+001 6.026953e+001 -3.057574e+001 -4.509497e+001 -1.080136e+000 -1.643984e+002
10030000000 -8.562815e-001 -1.494641e+002 -1.896872e+001 6.047321e+001 -3.057357e+001 -4.542000e+001 -1.072816e+000 -1.642823e+002
10040000000 -8.469630e-001 -1.492401e+002 -1.893798e+001 6.061448e+001 -3.058833e+001 -4.580817e+001 -1.061044e+000 -1.641494e+002
10050000000 -8.552451e-001 -1.491478e+002 -1.896331e+001 6.071849e+001 -3.060146e+001 -4.626436e+001 -1.049873e+000 -1.640189e+002
10060000000 -8.438773e-001 -1.489789e+002 -1.894296e+001 6.097433e+001 -3.061229e+001 -4.653417e+001 -1.044105e+000 -1.638892e+002
10070000000 -8.396949e-001 -1.488275e+002 -1.894614e+001 6.115277e+001 -3.062549e+001 -4.695192e+001 -1.034041e+000 -1.637997e+002
10080000000 -8.360962e-001 -1.486417e+002 -1.893148e+001 6.135806e+001 -3.065138e+001 -4.725314e+001 -1.028431e+000 -1.636868e+002
10090000000 -8.446047e-001 -1.485117e+002 -1.893337e+001 6.152238e+001 -3.067618e+001 -4.754369e+001 -1.023430e+000 -1.635759e+002
10100000000 -8.447211e-001 -1.483999e+002 -1.891952e+001 6.158771e+001 -3.069645e+001 -4.787121e+001 -1.022033e+000 -1.634917e+002
10110000000 -8.492038e-001 -1.483279e+002 -1.889968e+001 6.169226e+001 -3.073654e+001 -4.811983e+001 -1.015919e+000 -1.634107e+002
10120000000 -8.443380e-001 -1.482180e+002 -1.890612e+001 6.181073e+001 -3.075933e+001 -4.834786e+001 -1.012270e+000 -1.633173e+002
10130000000 -8.483371e-001 -1.479996e+002 -1.887580e+001 6.208704e+001 -3.078175e+001 -4.836425e+001 -1.008707e+000 -1.632283e+002
10140000000 -8.410124e-001 -1.479279e+002 -1.883820e+001 6.213630e+001 -3.082088e+001 -4.862828e+001 -1.000986e+000 -1.631514e+002
10150000000 -8.367842e-001 -1.478040e+002 -1.884624e+001 6.223520e+001 -3.084378e+001 -4.886141e+001 -9.987493e-001 -1.630794e+002
10160000000 -8.322116e-001 -1.477078e+002 -1.879190e+001 6.240663e+001 -3.087186e+001 -4.897949e+001 -9.937076e-001 -1.629812e+002
10170000000 -8.387409e-001 -1.475867e+002 -1.879760e+001 6.250242e+001 -3.091957e+001 -4.915629e+001 -9.910190e-001 -1.629052e+002
10180000000 -8.341656e-001 -1.474946e+002 -1.877495e+001 6.259280e+001 -3.093787e+001 -4.920429e+001 -9.843633e-001 -1.628119e+002
10190000000 -8.276223e-001 -1.473544e+002 -1.874379e+001 6.291118e+001 -3.098390e+001 -4.924435e+001 -9.834291e-001 -1.627323e+002
10200000000 -8.371787e-001 -1.472017e+002 -1.873426e+001 6.288054e+001 -3.098855e+001 -4.933837e+001 -9.808958e-001 -1.626074e+002
10210000000 -8.368932e-001 -1.470917e+002 -1.872289e+001 6.301027e+001 -3.102279e+001 -4.953678e+001 -9.835565e-001 -1.625109e+002
10220000000 -8.361634e-001 -1.470194e+002 -1.869887e+001 6.308507e+001 -3.105152e+001 -4.955705e+001 -9.792845e-001 -1.624085e+002
10230000000 -8.288745e-001 -1.467990e+002 -1.864653e+001 6.321413e+001 -3.107208e+001 -4.953276e+001 -9.791711e-001 -1.622910e+002
10240000000 -8.291267e-001 -1.466851e+002 -1.863423e+001 6.352303e+001 -3.110243e+001 -4.956069e+001 -9.768585e-001 -1.621928e+002
10250000000 -8.373442e-001 -1.465594e+002 -1.862583e+001 6.353936e+001 -3.113631e+001 -4.959564e+001 -9.748132e-001 -1.620727e+002
10260000000 -8.342983e-001 -1.464280e+002 -1.858676e+001 6.358684e+001 -3.113617e+001 -4.950388e+001 -9.762985e-001 -1.619908e+002
10270000000 -8.249100e-001 -1.463164e+002 -1.855445e+001 6.371287e+001 -3.116332e+001 -4.956910e+001 -9.757541e-001 -1.618867e+002
10280000000 -8.274021e-001 -1.460992e+002 -1.854298e+001 6.381276e+001 -3.118162e+001 -4.957204e+001 -9.758086e-001 -1.617995e+002
10290000000 -8.311433e-001 -1.460065e+002 -1.849532e+001 6.383177e+001 -3.121974e+001 -4.961037e+001 -9.763365e-001 -1.617055e+002
10300000000 -8.343443e-001 -1.458491e+002 -1.847226e+001 6.407079e+001 -3.123679e+001 -4.958093e+001 -9.790827e-001 -1.616066e+002
10310000000 -8.297954e-001 -1.457411e+002 -1.845985e+001 6.399257e+001 -3.126176e+001 -4.956458e+001 -9.808809e-001 -1.615283e+002
10320000000 -8.315248e-001 -1.455724e+002 -1.843052e+001 6.403297e+001 -3.127790e+001 -4.958927e+001 -9.804872e-001 -1.614426e+002
10330000000 -8.298658e-001 -1.454329e+002 -1.840323e+001 6.424962e+001 -3.130196e+001 -4.957588e+001 -9.796609e-001 -1.613866e+002
10340000000 -8.324471e-001 -1.453308e+002 -1.836829e+001 6.416067e+001 -3.130784e+001 -4.954341e+001 -9.803888e-001 -1.612926e+002
10350000000 -8.367587e-001 -1.452515e+002 -1.834089e+001 6.422243e+001 -3.133827e+001 -4.964642e+001 -9.808742e-001 -1.612460e+002
10360000000 -8.357655e-001 -1.451019e+002 -1.830342e+001 6.436756e+001 -3.136699e+001 -4.952799e+001 -9.828737e-001 -1.611659e+002
10370000000 -8.274758e-001 -1.449164e+002 -1.828392e+001 6.445763e+001 -3.136200e+001 -4.950688e+001 -9.855270e-001 -1.610614e+002
10380000000 -8.297285e-001 -1.447515e+002 -1.824850e+001 6.447807e+001 -3.139768e+001 -4.940803e+001 -9.860417e-001 -1.609803e+002
10390000000 -8.355923e-001 -1.446633e+002 -1.821145e+001 6.450671e+001 -3.142558e+001 -4.940167e+001 -9.865804e-001 -1.608763e+002
10400000000 -8.379403e-001 -1.445306e+002 -1.818543e+001 6.465258e+001 -3.143301e+001 -4.931405e+001 -9.885858e-001 -1.607744e+002
10410000000 -8.302508e-001 -1.443912e+002 -1.814905e+001 6.468913e+001 -3.143694e+001 -4.923053e+001 -9.885922e-001 -1.606999e+002
10420000000 -8.329258e-001 -1.442507e+002 -1.811115e+001 6.481536e+001 -3.146290e+001 -4.921419e+001 -9.921228e-001 -1.605999e+002
10430000000 -8.370320e-001 -1.440684e+002 -1.809735e+001 6.484309e+001 -3.148566e+001 -4.901785e+001 -9.966587e-001 -1.605439e+002
10440000000 -8.427493e-001 -1.439306e+002 -1.805787e+001 6.493086e+001 -3.150524e+001 -4.893811e+001 -1.001991e+000 -1.604559e+002
10450000000 -8.403852e-001 -1.438024e+002 -1.803044e+001 6.483173e+001 -3.151179e+001 -4.886271e+001 -1.007304e+000 -1.603645e+002
10460000000 -8.408794e-001 -1.436671e+002 -1.799510e+001 6.480372e+001 -3.151554e+001 -4.879044e+001 -1.005484e+000 -1.603239e+002
10470000000 -8.414326e-001 -1.436021e+002 -1.797915e+001 6.484457e+001 -3.153030e+001 -4.868941e+001 -1.008185e+000 -1.602458e+002
10480000000 -8.405507e-001 -1.434344e+002 -1.795251e+001 6.504502e+001 -3.154312e+001 -4.867624e+001 -1.011346e+000 -1.601806e+002
10490000000 -8.419234e-001 -1.433091e+002 -1.791321e+001 6.497731e+001 -3.154013e+001 -4.849970e+001 -1.010916e+000 -1.601139e+002
10500000000 -8.495052e-001 -1.431303e+002 -1.789164e+001 6.504826e+001 -3.155535e+001 -4.844343e+001 -1.012257e+000 -1.600242e+002
10510000000 -8.437021e-001 -1.430348e+002 -1.785306e+001 6.510241e+001 -3.155571e+001 -4.843939e+001 -1.016755e+000 -1.599455e+002
10520000000 -8.455037e-001 -1.429085e+002 -1.782750e+001 6.519355e+001 -3.155369e+001 -4.827984e+001 -1.019459e+000 -1.598350e+002
10530000000 -8.465247e-001 -1.427674e+002 -1.779160e+001 6.518430e+001 -3.155518e+001 -4.814234e+001 -1.017130e+000 -1.597117e+002
10540000000 -8.508107e-001 -1.426046e+002 -1.775454e+001 6.528167e+001 -3.156783e+001 -4.806893e+001 -1.021405e+000 -1.595955e+002
10550000000 -8.485796e-001 -1.425156e+002 -1.772313e+001 6.520096e+001 -3.155330e+001 -4.793684e+001 -1.024053e+000 -1.594900e+002
10560000000 -8.569370e-001 -1.423621e+002 -1.768987e+001 6.535129e+001 -3.156320e+001 -4.778558e+001 -1.028518e+000 -1.593696e+002
10570000000 -8.576601e-001 -1.422387e+002 -1.766215e+001 6.531021e+001 -3.156347e+001 -4.772747e+001 -1.036387e+000 -1.592792e+002
10580000000 -8.529755e-001 -1.421103e+002 -1.763155e+001 6.531244e+001 -3.157020e+001 -4.759709e+001 -1.041646e+000 -1.591734e+002
10590000000 -8.607758e-001 -1.420339e+002 -1.761129e+001 6.527383e+001 -3.156730e+001 -4.760342e+001 -1.040759e+000 -1.591113e+002
10600000000 -8.621750e-001 -1.418538e+002 -1.757121e+001 6.547427e+001 -3.155433e+001 -4.749614e+001 -1.050928e+000 -1.590096e+002
10610000000 -8.597076e-001 -1.417301e+002 -1.753293e+001 6.540708e+001 -3.156309e+001 -4.739218e+001 -1.053682e+000 -1.589517e+002
10620000000 -8.577430e-001 -1.415575e+002 -1.748643e+001 6.550146e+001 -3.154437e+001 -4.728093e+001 -1.059330e+000 -1.588685e+002
10630000000 -8.598583e-001 -1.414184e+002 -1.746622e+001 6.547125e+001 -3.153702e+001 -4.723995e+001 -1.064115e+000 -1.587970e+002
10640000000 -8.632268e-001 -1.412761e+002 -1.743642e+001 6.555883e+001 -3.154204e+001 -4.719333e+001 -1.067231e+000 -1.587265e+002
10650000000 -8.672118e-001 -1.411350e+002 -1.738802e+001 6.559266e+001 -3.152817e+001 -4.707838e+001 -1.067610e+000 -1.586515e+002
10660000000 -8.677406e-001 -1.409753e+002 -1.735946e+001 6.564729e+001 -3.153524e+001 -4.695224e+001 -1.070142e+000 -1.585642e+002
10670000000 -8.707752e-001 -1.408273e+002 -1.732668e+001 6.574064e+001 -3.151373e+001 -4.695331e+001 -1.072332e+000 -1.584855e+002
10680000000 -8.727003e-001 -1.406880e+002 -1.728654e+001 6.571806e+001 -3.150845e+001 -4.681758e+001 -1.076833e+000 -1.584284e+002
10690000000 -8.749979e-001 -1.405037e+002 -1.724533e+001 6.583309e+001 -3.149595e+001 -4.678107e+001 -1.081382e+000 -1.583504e+002
10700000000 -8.785588e-001 -1.404026e+002 -1.720949e+001 6.581799e+001 -3.149661e+001 -4.667277e+001 -1.089612e+000 -1.582760e+002
10710000000 -8.837213e-001 -1.403004e+002 -1.717577e+001 6.579301e+001 -3.149247e+001 -4.678200e+001 -1.094088e+000 -1.582195e+002
10720000000 -8.897189e-001 -1.402005e+002 -1.711984e+001 6.581534e+001 -3.147748e+001 -4.666649e+001 -1.094941e+000 -1.581409e+002
10730000000 -8.883500e-001 -1.400383e+002 -1.706598e+001 6.585749e+001 -3.147581e+001 -4.652522e+001 -1.098459e+000 -1.580596e+002
10740000000 -8.976470e-001 -1.398916e+002 -1.704389e+001 6.584872e+001 -3.146029e+001 -4.642827e+001 -1.102515e+000 -1.580094e+002
10750000000 -8.975291e-001 -1.397941e+002 -1.700657e+001 6.583262e+001 -3.145991e+001 -4.644417e+001 -1.105234e+000 -1.579479e+002
10760000000 -9.015417e-001 -1.396747e+002 -1.694021e+001 6.587212e+001 -3.144597e+001 -4.633827e+001 -1.111093e+000 -1.578963e+002
10770000000 -9.024962e-001 -1.395489e+002 -1.689661e+001 6.598510e+001 -3.143116e+001 -4.626620e+001 -1.114262e+000 -1.578144e+002
10780000000 -9.052705e-001 -1.394184e+002 -1.685814e+001 6.599544e+001 -3.142407e+001 -4.620565e+001 -1.118427e+000 -1.577539e+002
10790000000 -9.073688e-001 -1.393151e+002 -1.682035e+001 6.595537e+001 -3.142350e+001 -4.610887e+001 -1.122043e+000 -1.576676e+002
10800000000 -9.138865e-001 -1.391944e+002 -1.678029e+001 6.603374e+001 -3.140457e+001 -4.606033e+001 -1.129212e+000 -1.575991e+002
10810000000 -9.173214e-001 -1.390450e+002 -1.673638e+001 6.598282e+001 -3.139244e+001 -4.593222e+001 -1.131072e+000 -1.575126e+002
10820000000 -9.238796e-001 -1.389442e+002 -1.668205e+001 6.604173e+001 -3.138179e+001 -4.596777e+001 -1.135102e+000 -1.574436e+002
10830000000 -9.290357e-001 -1.388325e+002 -1.664843e+001 6.598408e+001 -3.135501e+001 -4.587362e+001 -1.142441e+000 -1.573653e+002
10840000000 -9.301277e-001 -1.386975e+002 -1.658096e+001 6.595428e+001 -3.133199e+001 -4.582705e+001 -1.144129e+000 -1.572946e+002
10850000000 -9.394546e-001 -1.385690e+002 -1.653582e+001 6.593342e+001 -3.131652e+001 -4.578119e+001 -1.148492e+000 -1.572313e+002
10860000000 -9.446747e-001 -1.384801e+002 -1.648030e+001 6.588150e+001 -3.131144e+001 -4.577612e+001 -1.156843e+000 -1.571566e+002
10870000000 -9.493082e-001 -1.383882e+002 -1.642236e+001 6.584792e+001 -3.127425e+001 -4.568831e+001 -1.156657e+000 -1.570920e+002
10880000000 -9.573767e-001 -1.382477e+002 -1.637427e+001 6.587610e+001 -3.125629e+001 -4.561841e+001 -1.161730e+000 -1.570179e+002
10890000000 -9.640254e-001 -1.381381e+002 -1.631776e+001 6.576044e+001 -3.124089e+001 -4.556196e+001 -1.163725e+000 -1.569423e+002
10900000000 -9.633363e-001 -1.380648e+002 -1.626374e+001 6.565224e+001 -3.120365e+001 -4.553884e+001 -1.169408e+000 -1.569088e+002
10910000000 -9.756924e-001 -1.379392e+002 -1.620940e+001 6.569905e+001 -3.117771e+001 -4.555634e+001 -1.176000e+000 -1.568403e+002
10920000000 -9.844769e-001 -1.378103e+002 -1.615637e+001 6.555126e+001 -3.117252e+001 -4.559055e+001 -1.176521e+000 -1.567903e+002
10930000000 -9.925468e-001 -1.377128e+002 -1.610368e+001 6.541479e+001 -3.113442e+001 -4.556789e+001 -1.179582e+000 -1.567486e+002
10940000000 -1.004336e+000 -1.375870e+002 -1.605333e+001 6.539385e+001 -3.111584e+001 -4.553988e+001 -1.183619e+000 -1.567140e+002
10950000000 -1.009505e+000 -1.374984e+002 -1.600422e+001 6.522349e+001 -3.109992e+001 -4.559718e+001 -1.188949e+000 -1.566583e+002
10960000000 -1.013252e+000 -1.373592e+002 -1.595283e+001 6.508494e+001 -3.108786e+001 -4.570641e+001 -1.195942e+000 -1.566390e+002
10970000000 -1.023503e+000 -1.372264e+002 -1.590914e+001 6.504515e+001 -3.106523e+001 -4.577900e+001 -1.199310e+000 -1.565996e+002
10980000000 -1.024212e+000 -1.371209e+002 -1.583997e+001 6.481252e+001 -3.104211e+001 -4.586664e+001 -1.200328e+000 -1.565825e+002
10990000000 -1.042860e+000 -1.369274e+002 -1.579748e+001 6.474074e+001 -3.102418e+001 -4.588383e+001 -1.204335e+000 -1.565631e+002
11000000000 -1.055301e+000 -1.368321e+002 -1.575673e+001 6.465023e+001 -3.101196e+001 -4.598050e+001 -1.207611e+000 -1.565075e+002
11010000000 -1.060252e+000 -1.366692e+002 -1.569747e+001 6.453227e+001 -3.098361e+001 -4.597071e+001 -1.210357e+000 -1.564973e+002
11020000000 -1.069390e+000 -1.365365e+002 -1.565036e+001 6.434862e+001 -3.098258e+001 -4.600021e+001 -1.216338e+000 -1.564682e+002
11030000000 -1.082698e+000 -1.363862e+002 -1.559988e+001 6.420551e+001 -3.096259e+001 -4.607159e+001 -1.222102e+000 -1.564415e+002
11040000000 -1.094573e+000 -1.362050e+002 -1.555313e+001 6.407743e+001 -3.095946e+001 -4.614288e+001 -1.230590e+000 -1.563997e+002
11050000000 -1.102966e+000 -1.360770e+002 -1.550989e+001 6.387207e+001 -3.093821e+001 -4.619837e+001 -1.233958e+000 -1.563723e+002
11060000000 -1.116732e+000 -1.359221e+002 -1.545750e+001 6.358671e+001 -3.093113e+001 -4.619321e+001 -1.238190e+000 -1.563433e+002
11070000000 -1.127618e+000 -1.357848e+002 -1.541326e+001 6.345528e+001 -3.090965e+001 -4.627174e+001 -1.242932e+000 -1.563241e+002
11080000000 -1.141385e+000 -1.356649e+002 -1.538023e+001 6.331551e+001 -3.090194e+001 -4.629942e+001 -1.247398e+000 -1.562983e+002
11090000000 -1.148606e+000 -1.354656e+002 -1.532558e+001 6.316013e+001 -3.089456e+001 -4.638384e+001 -1.256491e+000 -1.562947e+002
11100000000 -1.159827e+000 -1.353251e+002 -1.529041e+001 6.289515e+001 -3.087871e+001 -4.633121e+001 -1.260877e+000 -1.562981e+002
11110000000 -1.172573e+000 -1.352070e+002 -1.525692e+001 6.275777e+001 -3.087876e+001 -4.652620e+001 -1.272374e+000 -1.562925e+002
11120000000 -1.174863e+000 -1.350241e+002 -1.521459e+001 6.258223e+001 -3.085670e+001 -4.642443e+001 -1.276037e+000 -1.562560e+002
11130000000 -1.186375e+000 -1.349046e+002 -1.518659e+001 6.236019e+001 -3.085626e+001 -4.649179e+001 -1.285599e+000 -1.562602e+002
11140000000 -1.194434e+000 -1.347366e+002 -1.515586e+001 6.225203e+001 -3.084913e+001 -4.652357e+001 -1.290193e+000 -1.562418e+002
11150000000 -1.195414e+000 -1.345630e+002 -1.510544e+001 6.221022e+001 -3.084496e+001 -4.653461e+001 -1.298870e+000 -1.562482e+002
11160000000 -1.208750e+000 -1.343945e+002 -1.508551e+001 6.209679e+001 -3.084380e+001 -4.644388e+001 -1.302156e+000 -1.562238e+002
11170000000 -1.205448e+000 -1.342626e+002 -1.503826e+001 6.193208e+001 -3.082963e+001 -4.639256e+001 -1.311889e+000 -1.562132e+002
11180000000 -1.211990e+000 -1.341119e+002 -1.501937e+001 6.174457e+001 -3.082935e+001 -4.632009e+001 -1.319574e+000 -1.562162e+002
11190000000 -1.208992e+000 -1.339781e+002 -1.496403e+001 6.168706e+001 -3.081483e+001 -4.630587e+001 -1.324296e+000 -1.561992e+002
11200000000 -1.209732e+000 -1.338414e+002 -1.493946e+001 6.153812e+001 -3.080189e+001 -4.622066e+001 -1.332433e+000 -1.561744e+002
11210000000 -1.214171e+000 -1.336566e+002 -1.490561e+001 6.158087e+001 -3.078511e+001 -4.620419e+001 -1.339697e+000 -1.561724e+002
11220000000 -1.215989e+000 -1.335723e+002 -1.487198e+001 6.140046e+001 -3.077452e+001 -4.612196e+001 -1.347144e+000 -1.561646e+002
11230000000 -1.212586e+000 -1.334503e+002 -1.481725e+001 6.129143e+001 -3.075639e+001 -4.601641e+001 -1.358581e+000 -1.561490e+002
11240000000 -1.220875e+000 -1.333424e+002 -1.478113e+001 6.125611e+001 -3.073403e+001 -4.599282e+001 -1.364501e+000 -1.561545e+002
11250000000 -1.214835e+000 -1.331981e+002 -1.472964e+001 6.124479e+001 -3.072279e+001 -4.592689e+001 -1.375342e+000 -1.561700e+002
11260000000 -1.214396e+000 -1.330656e+002 -1.469812e+001 6.111176e+001 -3.068725e+001 -4.579980e+001 -1.379316e+000 -1.561657e+002
11270000000 -1.221388e+000 -1.330027e+002 -1.464117e+001 6.102900e+001 -3.067049e+001 -4.580298e+001 -1.386646e+000 -1.561911e+002
11280000000 -1.225254e+000 -1.329106e+002 -1.460295e+001 6.101189e+001 -3.065629e+001 -4.560333e+001 -1.390177e+000 -1.562116e+002
11290000000 -1.224747e+000 -1.328475e+002 -1.453967e+001 6.095698e+001 -3.061884e+001 -4.560067e+001 -1.397520e+000 -1.562337e+002
11300000000 -1.227390e+000 -1.327139e+002 -1.449980e+001 6.102284e+001 -3.059265e+001 -4.546574e+001 -1.405464e+000 -1.562626e+002
11310000000 -1.223931e+000 -1.326773e+002 -1.442820e+001 6.084655e+001 -3.055856e+001 -4.550920e+001 -1.415759e+000 -1.562989e+002
11320000000 -1.227680e+000 -1.326241e+002 -1.437485e+001 6.074732e+001 -3.052250e+001 -4.533032e+001 -1.420629e+000 -1.563231e+002
11330000000 -1.234580e+000 -1.325608e+002 -1.432646e+001 6.074898e+001 -3.048672e+001 -4.527877e+001 -1.429049e+000 -1.563605e+002
11340000000 -1.234382e+000 -1.325046e+002 -1.425173e+001 6.066653e+001 -3.044074e+001 -4.533712e+001 -1.433429e+000 -1.563868e+002
11350000000 -1.234945e+000 -1.324115e+002 -1.418978e+001 6.069644e+001 -3.040609e+001 -4.532167e+001 -1.442538e+000 -1.564244e+002
11360000000 -1.240266e+000 -1.323163e+002 -1.412551e+001 6.059625e+001 -3.036789e+001 -4.519866e+001 -1.449868e+000 -1.564768e+002
11370000000 -1.249336e+000 -1.323129e+002 -1.405348e+001 6.054552e+001 -3.033266e+001 -4.522899e+001 -1.459070e+000 -1.565210e+002
11380000000 -1.249992e+000 -1.322716e+002 -1.397276e+001 6.041951e+001 -3.029486e+001 -4.520933e+001 -1.468428e+000 -1.565813e+002
11390000000 -1.254106e+000 -1.321847e+002 -1.390213e+001 6.032690e+001 -3.024637e+001 -4.522409e+001 -1.476591e+000 -1.566481e+002
11400000000 -1.268002e+000 -1.321932e+002 -1.382960e+001 6.019160e+001 -3.020537e+001 -4.525239e+001 -1.484169e+000 -1.567150e+002
11410000000 -1.272534e+000 -1.321296e+002 -1.375058e+001 6.008152e+001 -3.017707e+001 -4.528964e+001 -1.492630e+000 -1.567977e+002
11420000000 -1.282811e+000 -1.321440e+002 -1.366648e+001 5.996375e+001 -3.012407e+001 -4.531308e+001 -1.501958e+000 -1.568848e+002
11430000000 -1.284018e+000 -1.321375e+002 -1.358811e+001 5.978507e+001 -3.009965e+001 -4.527408e+001 -1.512452e+000 -1.569895e+002
11440000000 -1.300967e+000 -1.320881e+002 -1.350923e+001 5.961467e+001 -3.004178e+001 -4.541603e+001 -1.518269e+000 -1.570907e+002
11450000000 -1.303149e+000 -1.321550e+002 -1.341848e+001 5.946510e+001 -3.000268e+001 -4.552880e+001 -1.526699e+000 -1.572018e+002
11460000000 -1.308969e+000 -1.320739e+002 -1.332710e+001 5.934883e+001 -2.996584e+001 -4.553780e+001 -1.535130e+000 -1.572862e+002
11470000000 -1.320200e+000 -1.320880e+002 -1.322854e+001 5.903512e+001 -2.993859e+001 -4.568523e+001 -1.543393e+000 -1.573873e+002
11480000000 -1.331699e+000 -1.321507e+002 -1.313562e+001 5.881236e+001 -2.990057e+001 -4.572536e+001 -1.551340e+000 -1.574816e+002
11490000000 -1.342016e+000 -1.320578e+002 -1.303945e+001 5.856421e+001 -2.986115e+001 -4.580114e+001 -1.559896e+000 -1.575851e+002
11500000000 -1.353753e+000 -1.321554e+002 -1.293543e+001 5.828820e+001 -2.981738e+001 -4.589051e+001 -1.571025e+000 -1.576738e+002
11510000000 -1.374600e+000 -1.321337e+002 -1.284745e+001 5.799279e+001 -2.978097e+001 -4.597683e+001 -1.584660e+000 -1.577831e+002
11520000000 -1.386887e+000 -1.321252e+002 -1.274409e+001 5.773195e+001 -2.975394e+001 -4.612435e+001 -1.592534e+000 -1.578804e+002
11530000000 -1.403250e+000 -1.321948e+002 -1.263963e+001 5.734972e+001 -2.970693e+001 -4.616925e+001 -1.605523e+000 -1.580095e+002
11540000000 -1.426200e+000 -1.322018e+002 -1.254485e+001 5.706784e+001 -2.968950e+001 -4.615560e+001 -1.617197e+000 -1.581186e+002
11550000000 -1.437011e+000 -1.323407e+002 -1.243208e+001 5.664560e+001 -2.965433e+001 -4.632732e+001 -1.632473e+000 -1.582429e+002
11560000000 -1.455714e+000 -1.323401e+002 -1.233377e+001 5.621694e+001 -2.962561e+001 -4.642655e+001 -1.643580e+000 -1.583797e+002
11570000000 -1.474541e+000 -1.323715e+002 -1.221607e+001 5.576365e+001 -2.959209e+001 -4.640598e+001 -1.657886e+000 -1.585236e+002
11580000000 -1.493729e+000 -1.324007e+002 -1.211269e+001 5.525867e+001 -2.955496e+001 -4.658190e+001 -1.669841e+000 -1.586782e+002
11590000000 -1.507201e+000 -1.324958e+002 -1.198914e+001 5.471468e+001 -2.952231e+001 -4.664507e+001 -1.683368e+000 -1.588192e+002
11600000000 -1.539171e+000 -1.325685e+002 -1.188448e+001 5.418687e+001 -2.950076e+001 -4.667507e+001 -1.696538e+000 -1.589771e+002
11610000000 -1.568786e+000 -1.326264e+002 -1.178340e+001 5.360994e+001 -2.946124e+001 -4.676365e+001 -1.711374e+000 -1.591289e+002
11620000000 -1.584400e+000 -1.326989e+002 -1.165704e+001 5.301794e+001 -2.943800e+001 -4.684268e+001 -1.724562e+000 -1.592885e+002
11630000000 -1.627446e+000 -1.328075e+002 -1.155334e+001 5.227628e+001 -2.943232e+001 -4.678594e+001 -1.743384e+000 -1.594457e+002
11640000000 -1.660393e+000 -1.329367e+002 -1.144972e+001 5.159623e+001 -2.940501e+001 -4.676670e+001 -1.752575e+000 -1.596090e+002
11650000000 -1.698081e+000 -1.330152e+002 -1.134042e+001 5.092881e+001 -2.938160e+001 -4.678427e+001 -1.768548e+000 -1.597825e+002
11660000000 -1.733927e+000 -1.330827e+002 -1.124468e+001 5.014233e+001 -2.934928e+001 -4.677500e+001 -1.787838e+000 -1.599576e+002
11670000000 -1.772895e+000 -1.331389e+002 -1.112461e+001 4.936674e+001 -2.931952e+001 -4.674596e+001 -1.799907e+000 -1.601148e+002
11680000000 -1.812366e+000 -1.332063e+002 -1.102418e+001 4.854633e+001 -2.929749e+001 -4.666489e+001 -1.815690e+000 -1.603173e+002
11690000000 -1.854935e+000 -1.333059e+002 -1.092911e+001 4.761113e+001 -2.926298e+001 -4.661729e+001 -1.833174e+000 -1.604957e+002
11700000000 -1.905689e+000 -1.333681e+002 -1.083469e+001 4.669793e+001 -2.923792e+001 -4.647016e+001 -1.849942e+000 -1.606839e+002
11710000000 -1.956714e+000 -1.334621e+002 -1.073393e+001 4.564210e+001 -2.920851e+001 -4.626321e+001 -1.869208e+000 -1.608894e+002
11720000000 -2.006639e+000 -1.334945e+002 -1.063671e+001 4.471309e+001 -2.915836e+001 -4.619576e+001 -1.885513e+000 -1.610784e+002
11730000000 -2.059198e+000 -1.335886e+002 -1.053458e+001 4.365767e+001 -2.911681e+001 -4.597874e+001 -1.901657e+000 -1.612619e+002
11740000000 -2.119616e+000 -1.336012e+002 -1.044222e+001 4.253365e+001 -2.907844e+001 -4.580027e+001 -1.918317e+000 -1.614673e+002
11750000000 -2.181041e+000 -1.336035e+002 -1.035612e+001 4.143491e+001 -2.901583e+001 -4.549340e+001 -1.935256e+000 -1.616946e+002
11760000000 -2.249897e+000 -1.336544e+002 -1.027201e+001 4.012964e+001 -2.894977e+001 -4.538972e+001 -1.951486e+000 -1.619281e+002
11770000000 -2.318418e+000 -1.335865e+002 -1.019826e+001 3.889092e+001 -2.890222e+001 -4.515232e+001 -1.970632e+000 -1.621599e+002
11780000000 -2.404055e+000 -1.335639e+002 -1.014059e+001 3.760809e+001 -2.882965e+001 -4.489598e+001 -1.989460e+000 -1.623947e+002
11790000000 -2.474617e+000 -1.335111e+002 -1.008428e+001 3.613976e+001 -2.875715e+001 -4.461998e+001 -2.011401e+000 -1.626254e+002
11800000000 -2.559352e+000 -1.334152e+002 -1.003894e+001 3.462042e+001 -2.867342e+001 -4.436150e+001 -2.025922e+000 -1.628751e+002
11810000000 -2.635772e+000 -1.332257e+002 -9.984715e+000 3.320036e+001 -2.858863e+001 -4.409266e+001 -2.043979e+000 -1.631062e+002
11820000000 -2.721883e+000 -1.330226e+002 -9.951866e+000 3.158140e+001 -2.847335e+001 -4.390910e+001 -2.059414e+000 -1.633672e+002
11830000000 -2.803966e+000 -1.327584e+002 -9.940517e+000 3.006419e+001 -2.837340e+001 -4.370170e+001 -2.075894e+000 -1.635809e+002
11840000000 -2.885237e+000 -1.324710e+002 -9.921511e+000 2.842637e+001 -2.823619e+001 -4.347464e+001 -2.092885e+000 -1.638259e+002
11850000000 -2.966979e+000 -1.321078e+002 -9.940794e+000 2.667831e+001 -2.811316e+001 -4.337201e+001 -2.111580e+000 -1.640824e+002
11860000000 -3.045499e+000 -1.316492e+002 -9.967214e+000 2.508139e+001 -2.797773e+001 -4.317310e+001 -2.124516e+000 -1.643224e+002
11870000000 -3.114186e+000 -1.312108e+002 -1.001347e+001 2.323681e+001 -2.784035e+001 -4.321731e+001 -2.140289e+000 -1.645709e+002
11880000000 -3.182004e+000 -1.306341e+002 -1.009161e+001 2.158343e+001 -2.768402e+001 -4.320765e+001 -2.154248e+000 -1.648320e+002
11890000000 -3.239966e+000 -1.300333e+002 -1.016708e+001 1.982882e+001 -2.753032e+001 -4.326955e+001 -2.173688e+000 -1.651153e+002
11900000000 -3.291144e+000 -1.294761e+002 -1.027936e+001 1.806812e+001 -2.737881e+001 -4.341902e+001 -2.188351e+000 -1.654079e+002
11910000000 -3.321886e+000 -1.288179e+002 -1.041091e+001 1.651372e+001 -2.721692e+001 -4.359829e+001 -2.205255e+000 -1.656777e+002
11920000000 -3.342229e+000 -1.281499e+002 -1.055913e+001 1.493308e+001 -2.705315e+001 -4.392668e+001 -2.220674e+000 -1.660091e+002
11930000000 -3.354499e+000 -1.274744e+002 -1.072792e+001 1.340951e+001 -2.690334e+001 -4.436943e+001 -2.231781e+000 -1.663423e+002
11940000000 -3.352028e+000 -1.269011e+002 -1.091866e+001 1.202144e+001 -2.674147e+001 -4.475580e+001 -2.250035e+000 -1.666961e+002
11950000000 -3.334582e+000 -1.262815e+002 -1.111645e+001 1.072457e+001 -2.658635e+001 -4.532795e+001 -2.261279e+000 -1.670453e+002
11960000000 -3.309694e+000 -1.257709e+002 -1.135046e+001 9.562152e+000 -2.644488e+001 -4.593196e+001 -2.274055e+000 -1.674291e+002
11970000000 -3.276036e+000 -1.252703e+002 -1.157975e+001 8.557722e+000 -2.630192e+001 -4.656445e+001 -2.286388e+000 -1.678262e+002
11980000000 -3.229833e+000 -1.248501e+002 -1.182243e+001 7.743056e+000 -2.616939e+001 -4.715888e+001 -2.300642e+000 -1.682161e+002
11990000000 -3.180151e+000 -1.245020e+002 -1.207536e+001 7.045138e+000 -2.604034e+001 -4.785579e+001 -2.315077e+000 -1.686125e+002
12000000000 -3.132317e+000 -1.242654e+002 -1.233484e+001 6.503253e+000 -2.592006e+001 -4.869616e+001 -2.328192e+000 -1.690233e+002
! NOISE PARAMETERS  :
1575000000	0.54       0.36       44         0.14
1610000000	0.54       0.36       45         0.14
