!Agilent Technologies,E5071C,MY46316587,B.13.01
!Date: Tue Sep 12 11:06:44 2017
!Data & Calibration Information:
!Freq	S11:SOLT2(ON)	S21:SOLT2(ON)	S12:SOLT2(ON)	S22:SOLT2(ON)
!PortZ  Port1:50+j0    Port2:50+j0
!Above PortZ is port z conversion or system Z0 setting when saving the data.
!When reading, reference impedance value at option line is always used.
# Hz S dB R 50
300000	-7.052629e-001	1.321387e+000	-6.038420e+001	3.444706e+001	-5.445408e+001	-1.703173e+002	-4.312722e-002	2.989580e-002
6549813	-4.427111e-001	-1.373406e-001	-2.607867e+001	-1.359264e+002	-6.074809e+001	-9.027011e+000	-1.591198e-001	-1.817787e+000
12799625	-4.341824e-001	-7.755227e-001	-2.494760e+001	-1.360780e+002	-7.308595e+001	1.303540e+002	-2.195703e-001	-2.737430e+000
19049438	-4.321295e-001	-1.235393e+000	-2.423948e+001	-1.325742e+002	-6.791567e+001	1.041597e+002	-2.429580e-001	-3.629471e+000
25299250	-4.338204e-001	-1.690233e+000	-2.387100e+001	-1.372210e+002	-6.496174e+001	1.191902e+002	-2.526936e-001	-4.626083e+000
31549063	-4.308083e-001	-2.128577e+000	-2.396809e+001	-1.323828e+002	-6.262617e+001	8.889340e+001	-2.643606e-001	-5.591428e+000
37798875	-4.281344e-001	-2.568433e+000	-2.370756e+001	-1.239405e+002	-6.384693e+001	1.149953e+002	-2.725678e-001	-6.593901e+000
44048688	-4.293911e-001	-3.044479e+000	-2.306983e+001	-1.150593e+002	-6.006812e+001	1.161707e+002	-2.782338e-001	-7.585360e+000
50298500	-4.241006e-001	-3.479350e+000	-2.215153e+001	-1.069164e+002	-6.122714e+001	1.130862e+002	-2.877747e-001	-8.645447e+000
56548313	-4.278846e-001	-3.984901e+000	-2.087967e+001	-1.005059e+002	-6.006076e+001	1.139837e+002	-2.928155e-001	-9.672402e+000
62798125	-4.300529e-001	-4.419750e+000	-1.973655e+001	-9.627054e+001	-5.971387e+001	1.014846e+002	-3.008924e-001	-1.068638e+001
69047938	-4.288954e-001	-4.916856e+000	-1.867804e+001	-9.273223e+001	-5.805575e+001	9.868868e+001	-3.120185e-001	-1.172280e+001
75297750	-4.294147e-001	-5.354116e+000	-1.761509e+001	-9.016921e+001	-5.590057e+001	9.797079e+001	-3.211895e-001	-1.274142e+001
81547563	-4.306922e-001	-5.792377e+000	-1.664247e+001	-8.840415e+001	-5.608305e+001	1.017266e+002	-3.332027e-001	-1.376018e+001
87797375	-4.307741e-001	-6.226245e+000	-1.573500e+001	-8.700780e+001	-5.556778e+001	9.184956e+001	-3.425595e-001	-1.478704e+001
94047188	-4.345070e-001	-6.708392e+000	-1.489363e+001	-8.602387e+001	-5.529059e+001	9.659156e+001	-3.543071e-001	-1.582086e+001
100297000	-4.333185e-001	-7.123335e+000	-1.410578e+001	-8.514358e+001	-5.419827e+001	9.860278e+001	-3.643917e-001	-1.681375e+001
106546813	-4.363560e-001	-7.584951e+000	-1.335564e+001	-8.444960e+001	-5.383027e+001	9.968924e+001	-3.819575e-001	-1.781193e+001
112796625	-4.417306e-001	-8.014080e+000	-1.262754e+001	-8.384790e+001	-5.402212e+001	9.411861e+001	-3.913756e-001	-1.886017e+001
119046438	-4.437980e-001	-8.500124e+000	-1.191977e+001	-8.339271e+001	-5.353254e+001	9.774681e+001	-4.037176e-001	-1.988125e+001
125296250	-4.444513e-001	-8.935492e+000	-1.125284e+001	-8.305762e+001	-5.296037e+001	9.294183e+001	-4.189649e-001	-2.088331e+001
131546063	-4.492232e-001	-9.393183e+000	-1.062632e+001	-8.271825e+001	-5.269647e+001	9.563744e+001	-4.325523e-001	-2.192572e+001
137795875	-4.488390e-001	-9.841174e+000	-1.000914e+001	-8.240062e+001	-5.107270e+001	9.714160e+001	-4.479384e-001	-2.294042e+001
144045688	-4.548953e-001	-1.028520e+001	-9.419656e+000	-8.226769e+001	-5.127518e+001	9.401977e+001	-4.675233e-001	-2.396506e+001
150295500	-4.594371e-001	-1.068106e+001	-8.840188e+000	-8.210658e+001	-5.130647e+001	9.600684e+001	-4.829785e-001	-2.498922e+001
156545313	-4.557867e-001	-1.117438e+001	-8.263940e+000	-8.215422e+001	-5.125595e+001	9.428899e+001	-5.008208e-001	-2.601918e+001
162795125	-4.586067e-001	-1.163211e+001	-7.702386e+000	-8.232769e+001	-5.038473e+001	1.006927e+002	-5.163438e-001	-2.702555e+001
169044938	-4.639326e-001	-1.206532e+001	-7.166123e+000	-8.262553e+001	-5.068647e+001	9.595273e+001	-5.331103e-001	-2.804843e+001
175294750	-4.637288e-001	-1.251811e+001	-6.658682e+000	-8.298274e+001	-5.076689e+001	9.369112e+001	-5.501175e-001	-2.907771e+001
181544563	-4.715470e-001	-1.299200e+001	-6.173267e+000	-8.345835e+001	-5.063742e+001	9.963649e+001	-5.738341e-001	-3.008361e+001
187794375	-4.733881e-001	-1.340888e+001	-5.705348e+000	-8.389082e+001	-5.057928e+001	9.849661e+001	-5.908668e-001	-3.110970e+001
194044188	-4.717946e-001	-1.386882e+001	-5.240025e+000	-8.438163e+001	-5.036889e+001	9.535098e+001	-6.132370e-001	-3.213621e+001
200294000	-4.755887e-001	-1.434128e+001	-4.799405e+000	-8.489268e+001	-5.060917e+001	9.909695e+001	-6.336229e-001	-3.317437e+001
206543813	-4.824051e-001	-1.477263e+001	-4.356905e+000	-8.545913e+001	-5.030080e+001	1.003609e+002	-6.521540e-001	-3.420927e+001
212793625	-4.819471e-001	-1.522828e+001	-3.930985e+000	-8.612096e+001	-4.998743e+001	1.047898e+002	-6.757715e-001	-3.524274e+001
219043438	-4.864796e-001	-1.567938e+001	-3.514075e+000	-8.676499e+001	-4.963774e+001	1.025049e+002	-7.000306e-001	-3.626883e+001
225293250	-4.899736e-001	-1.611523e+001	-3.102387e+000	-8.746249e+001	-5.017476e+001	1.068546e+002	-7.198539e-001	-3.731488e+001
231543063	-4.938112e-001	-1.658758e+001	-2.708010e+000	-8.814270e+001	-4.993644e+001	1.045558e+002	-7.459958e-001	-3.836207e+001
237792875	-4.966805e-001	-1.704823e+001	-2.319557e+000	-8.887182e+001	-4.988100e+001	1.105582e+002	-7.692710e-001	-3.936929e+001
244042688	-4.998819e-001	-1.748482e+001	-1.923640e+000	-8.949002e+001	-4.969128e+001	1.048167e+002	-7.957861e-001	-4.040500e+001
250292500	-5.045504e-001	-1.794965e+001	-1.541912e+000	-9.023372e+001	-4.935245e+001	1.108048e+002	-8.279709e-001	-4.147622e+001
256542313	-5.110319e-001	-1.845646e+001	-1.150240e+000	-9.101761e+001	-4.975906e+001	1.130272e+002	-8.496439e-001	-4.249281e+001
262792125	-5.130592e-001	-1.891367e+001	-7.760205e-001	-9.192367e+001	-4.966343e+001	1.173122e+002	-8.860082e-001	-4.353085e+001
269041938	-5.157756e-001	-1.937958e+001	-4.181296e-001	-9.291857e+001	-4.936083e+001	1.164700e+002	-9.134320e-001	-4.461716e+001
275291750	-5.164985e-001	-1.985428e+001	-7.958557e-002	-9.391383e+001	-4.951581e+001	1.218486e+002	-9.385048e-001	-4.566698e+001
281541563	-5.236103e-001	-2.035235e+001	2.530755e-001	-9.485117e+001	-4.855631e+001	1.237396e+002	-9.763018e-001	-4.671886e+001
287791375	-5.246404e-001	-2.080360e+001	5.610569e-001	-9.589443e+001	-4.885013e+001	1.278542e+002	-1.006232e+000	-4.778923e+001
294041188	-5.271632e-001	-2.126743e+001	8.797420e-001	-9.688069e+001	-4.845875e+001	1.333796e+002	-1.038883e+000	-4.883910e+001
300291000	-5.339188e-001	-2.174446e+001	1.175244e+000	-9.782885e+001	-4.817601e+001	1.335128e+002	-1.072521e+000	-4.991309e+001
306540813	-5.308818e-001	-2.223479e+001	1.482406e+000	-9.884437e+001	-4.811878e+001	1.318167e+002	-1.114126e+000	-5.101234e+001
312790625	-5.391099e-001	-2.271658e+001	1.778290e+000	-9.993010e+001	-4.740415e+001	1.358345e+002	-1.148974e+000	-5.203721e+001
319040438	-5.451965e-001	-2.322416e+001	2.074201e+000	-1.010149e+002	-4.719423e+001	1.401086e+002	-1.190446e+000	-5.311890e+001
325290250	-5.482381e-001	-2.368135e+001	2.358820e+000	-1.020893e+002	-4.688533e+001	1.425743e+002	-1.226903e+000	-5.419831e+001
331540063	-5.536955e-001	-2.418803e+001	2.637717e+000	-1.031724e+002	-4.686166e+001	1.435011e+002	-1.271543e+000	-5.531418e+001
337789875	-5.592683e-001	-2.469998e+001	2.913633e+000	-1.042791e+002	-4.579650e+001	1.463579e+002	-1.310127e+000	-5.637791e+001
344039688	-5.643961e-001	-2.519022e+001	3.189651e+000	-1.053244e+002	-4.553372e+001	1.484335e+002	-1.356858e+000	-5.752415e+001
350289500	-5.695765e-001	-2.566724e+001	3.452602e+000	-1.064580e+002	-4.523007e+001	1.502635e+002	-1.401492e+000	-5.858508e+001
356539313	-5.819251e-001	-2.619029e+001	3.723019e+000	-1.076274e+002	-4.445733e+001	1.548929e+002	-1.451272e+000	-5.965965e+001
362789125	-5.816967e-001	-2.673193e+001	3.978141e+000	-1.087459e+002	-4.405290e+001	1.555106e+002	-1.500808e+000	-6.076363e+001
369038938	-5.904978e-001	-2.721768e+001	4.224376e+000	-1.099245e+002	-4.348999e+001	1.550800e+002	-1.554934e+000	-6.187103e+001
375288750	-5.981106e-001	-2.775525e+001	4.460527e+000	-1.111680e+002	-4.320478e+001	1.573006e+002	-1.606424e+000	-6.296931e+001
381538563	-6.055918e-001	-2.824539e+001	4.699022e+000	-1.123813e+002	-4.260047e+001	1.578237e+002	-1.664323e+000	-6.409381e+001
387788375	-6.148161e-001	-2.877545e+001	4.921497e+000	-1.135618e+002	-4.205253e+001	1.603542e+002	-1.722792e+000	-6.521756e+001
394038188	-6.249236e-001	-2.934437e+001	5.138196e+000	-1.148039e+002	-4.145787e+001	1.602596e+002	-1.787613e+000	-6.632056e+001
400288000	-6.289960e-001	-2.987227e+001	5.359197e+000	-1.159944e+002	-4.091767e+001	1.609673e+002	-1.844805e+000	-6.745926e+001
406537813	-6.435275e-001	-3.039216e+001	5.580001e+000	-1.171989e+002	-4.068512e+001	1.615207e+002	-1.908283e+000	-6.860055e+001
412787625	-6.548592e-001	-3.091763e+001	5.787283e+000	-1.185496e+002	-4.002433e+001	1.617311e+002	-1.973342e+000	-6.971788e+001
419037438	-6.682387e-001	-3.146592e+001	6.005073e+000	-1.198277e+002	-3.949975e+001	1.629342e+002	-2.046186e+000	-7.082840e+001
425287250	-6.772381e-001	-3.202806e+001	6.213169e+000	-1.210924e+002	-3.899698e+001	1.619608e+002	-2.121051e+000	-7.198164e+001
431537063	-6.914581e-001	-3.258384e+001	6.427290e+000	-1.224133e+002	-3.857892e+001	1.642858e+002	-2.188702e+000	-7.315464e+001
437786875	-7.095623e-001	-3.314602e+001	6.619177e+000	-1.237571e+002	-3.807973e+001	1.640633e+002	-2.261090e+000	-7.426927e+001
444036688	-7.226263e-001	-3.371147e+001	6.823920e+000	-1.250470e+002	-3.760447e+001	1.633093e+002	-2.346632e+000	-7.540019e+001
450286500	-7.384757e-001	-3.425913e+001	7.020056e+000	-1.263520e+002	-3.732400e+001	1.635643e+002	-2.428225e+000	-7.653791e+001
456536313	-7.484237e-001	-3.485318e+001	7.207686e+000	-1.276649e+002	-3.689532e+001	1.639171e+002	-2.510664e+000	-7.773398e+001
462786125	-7.717828e-001	-3.545574e+001	7.398277e+000	-1.290146e+002	-3.649032e+001	1.635414e+002	-2.601198e+000	-7.884603e+001
469035938	-7.904391e-001	-3.603541e+001	7.579835e+000	-1.303991e+002	-3.597895e+001	1.630434e+002	-2.695080e+000	-8.004373e+001
475285750	-8.093139e-001	-3.662874e+001	7.756614e+000	-1.317118e+002	-3.551375e+001	1.629144e+002	-2.792351e+000	-8.117766e+001
481535563	-8.308346e-001	-3.722917e+001	7.923299e+000	-1.330646e+002	-3.512952e+001	1.626096e+002	-2.891835e+000	-8.229772e+001
487785375	-8.575690e-001	-3.782854e+001	8.080228e+000	-1.344684e+002	-3.469416e+001	1.626095e+002	-2.996559e+000	-8.346594e+001
494035188	-8.793095e-001	-3.840711e+001	8.242904e+000	-1.358856e+002	-3.427580e+001	1.619521e+002	-3.109003e+000	-8.462824e+001
500285000	-9.037637e-001	-3.900134e+001	8.396473e+000	-1.372468e+002	-3.392574e+001	1.614949e+002	-3.219434e+000	-8.578715e+001
506534813	-9.329916e-001	-3.962633e+001	8.556982e+000	-1.386829e+002	-3.361475e+001	1.608980e+002	-3.334301e+000	-8.690520e+001
512784625	-9.599568e-001	-4.019943e+001	8.703141e+000	-1.400728e+002	-3.323213e+001	1.604776e+002	-3.453573e+000	-8.811788e+001
519034438	-9.904681e-001	-4.082419e+001	8.855169e+000	-1.415340e+002	-3.274745e+001	1.600093e+002	-3.580835e+000	-8.925574e+001
525284250	-1.017165e+000	-4.144517e+001	9.008509e+000	-1.429914e+002	-3.245203e+001	1.593575e+002	-3.709737e+000	-9.038900e+001
531534063	-1.053571e+000	-4.205250e+001	9.145468e+000	-1.444121e+002	-3.206723e+001	1.587710e+002	-3.846721e+000	-9.154938e+001
537783875	-1.089268e+000	-4.267547e+001	9.287672e+000	-1.458370e+002	-3.171142e+001	1.580290e+002	-3.985944e+000	-9.270414e+001
544033688	-1.124334e+000	-4.330235e+001	9.420797e+000	-1.472908e+002	-3.145833e+001	1.571532e+002	-4.132977e+000	-9.384886e+001
550283500	-1.162814e+000	-4.392431e+001	9.555887e+000	-1.487571e+002	-3.114147e+001	1.568977e+002	-4.284402e+000	-9.499683e+001
556533313	-1.202465e+000	-4.455089e+001	9.678015e+000	-1.501916e+002	-3.076797e+001	1.554240e+002	-4.444373e+000	-9.607896e+001
562783125	-1.244093e+000	-4.517164e+001	9.800736e+000	-1.516963e+002	-3.047455e+001	1.551922e+002	-4.602148e+000	-9.721698e+001
569032938	-1.286071e+000	-4.582042e+001	9.920084e+000	-1.531744e+002	-3.014591e+001	1.545202e+002	-4.769756e+000	-9.832192e+001
575282750	-1.331374e+000	-4.644489e+001	1.003482e+001	-1.546773e+002	-2.983983e+001	1.533362e+002	-4.953691e+000	-9.939836e+001
581532563	-1.387290e+000	-4.711440e+001	1.014157e+001	-1.561821e+002	-2.951800e+001	1.521589e+002	-5.129730e+000	-1.004820e+002
587782375	-1.442511e+000	-4.771313e+001	1.023958e+001	-1.576774e+002	-2.920652e+001	1.515295e+002	-5.323965e+000	-1.015366e+002
594032188	-1.503324e+000	-4.827149e+001	1.033387e+001	-1.591777e+002	-2.896384e+001	1.504927e+002	-5.513540e+000	-1.025507e+002
600282000	-1.553936e+000	-4.883919e+001	1.043700e+001	-1.606154e+002	-2.874029e+001	1.497601e+002	-5.706147e+000	-1.035892e+002
606531813	-1.607962e+000	-4.937770e+001	1.051415e+001	-1.621402e+002	-2.847668e+001	1.484582e+002	-5.912019e+000	-1.045982e+002
612781625	-1.658593e+000	-4.998708e+001	1.061381e+001	-1.635569e+002	-2.820294e+001	1.479385e+002	-6.125772e+000	-1.056125e+002
619031438	-1.719691e+000	-5.058637e+001	1.070713e+001	-1.650485e+002	-2.789682e+001	1.467780e+002	-6.352277e+000	-1.066295e+002
625281250	-1.780155e+000	-5.119580e+001	1.079883e+001	-1.665367e+002	-2.770994e+001	1.463826e+002	-6.589401e+000	-1.076234e+002
631531063	-1.844949e+000	-5.178995e+001	1.088475e+001	-1.680684e+002	-2.742270e+001	1.449222e+002	-6.851338e+000	-1.085609e+002
637780875	-1.912919e+000	-5.239761e+001	1.096963e+001	-1.696067e+002	-2.718195e+001	1.439073e+002	-7.100086e+000	-1.094464e+002
644030688	-1.988209e+000	-5.300204e+001	1.104751e+001	-1.711841e+002	-2.692224e+001	1.430006e+002	-7.374723e+000	-1.102257e+002
650280500	-2.063526e+000	-5.355047e+001	1.110280e+001	-1.727145e+002	-2.668532e+001	1.419131e+002	-7.649281e+000	-1.110157e+002
656530313	-2.141828e+000	-5.410383e+001	1.116377e+001	-1.742413e+002	-2.650145e+001	1.409122e+002	-7.926935e+000	-1.117013e+002
662780125	-2.215256e+000	-5.460497e+001	1.121934e+001	-1.757514e+002	-2.624618e+001	1.399321e+002	-8.224224e+000	-1.123819e+002
669029938	-2.297124e+000	-5.517104e+001	1.127574e+001	-1.772232e+002	-2.605752e+001	1.387087e+002	-8.512763e+000	-1.129766e+002
675279750	-2.375692e+000	-5.567021e+001	1.132622e+001	-1.786875e+002	-2.585103e+001	1.377124e+002	-8.820884e+000	-1.135875e+002
681529563	-2.462784e+000	-5.615561e+001	1.137626e+001	1.798155e+002	-2.563631e+001	1.368103e+002	-9.140571e+000	-1.141260e+002
687779375	-2.547616e+000	-5.667299e+001	1.141990e+001	1.783468e+002	-2.548198e+001	1.355093e+002	-9.487215e+000	-1.146261e+002
694029188	-2.634997e+000	-5.713323e+001	1.146957e+001	1.768810e+002	-2.527120e+001	1.344776e+002	-9.827165e+000	-1.150661e+002
700279000	-2.718689e+000	-5.754239e+001	1.151350e+001	1.754160e+002	-2.508417e+001	1.334502e+002	-1.020032e+001	-1.153968e+002
706528813	-2.800755e+000	-5.798625e+001	1.154686e+001	1.739113e+002	-2.493566e+001	1.324249e+002	-1.059942e+001	-1.155010e+002
712778625	-2.891516e+000	-5.845925e+001	1.158344e+001	1.723654e+002	-2.474144e+001	1.313416e+002	-1.099856e+001	-1.154561e+002
719028438	-2.984367e+000	-5.887667e+001	1.160603e+001	1.708282e+002	-2.455239e+001	1.305509e+002	-1.139904e+001	-1.153249e+002
725278250	-3.079038e+000	-5.931720e+001	1.162644e+001	1.694087e+002	-2.437987e+001	1.295109e+002	-1.180748e+001	-1.149396e+002
731528063	-3.182361e+000	-5.972098e+001	1.164831e+001	1.679647e+002	-2.421846e+001	1.284072e+002	-1.221291e+001	-1.144459e+002
737777875	-3.285495e+000	-6.011419e+001	1.166385e+001	1.665365e+002	-2.404423e+001	1.273347e+002	-1.266627e+001	-1.139758e+002
744027688	-3.379538e+000	-6.042316e+001	1.167974e+001	1.651075e+002	-2.389666e+001	1.262213e+002	-1.311809e+001	-1.131098e+002
750277500	-3.483635e+000	-6.077978e+001	1.169495e+001	1.637019e+002	-2.375435e+001	1.251511e+002	-1.359245e+001	-1.121458e+002
756527313	-3.590583e+000	-6.109946e+001	1.170395e+001	1.622236e+002	-2.362072e+001	1.242315e+002	-1.404988e+001	-1.107001e+002
762777125	-3.701078e+000	-6.142046e+001	1.171676e+001	1.608163e+002	-2.349327e+001	1.230672e+002	-1.452652e+001	-1.091210e+002
769026938	-3.802763e+000	-6.167787e+001	1.171559e+001	1.594008e+002	-2.336580e+001	1.219209e+002	-1.498428e+001	-1.071080e+002
775276750	-3.912048e+000	-6.196874e+001	1.171699e+001	1.579697e+002	-2.322079e+001	1.209733e+002	-1.544862e+001	-1.047496e+002
781526563	-4.018217e+000	-6.219679e+001	1.170978e+001	1.565544e+002	-2.309476e+001	1.198508e+002	-1.586454e+001	-1.020914e+002
787776375	-4.125136e+000	-6.243380e+001	1.170858e+001	1.551662e+002	-2.299528e+001	1.187996e+002	-1.626919e+001	-9.870269e+001
794026188	-4.232395e+000	-6.261451e+001	1.169602e+001	1.537494e+002	-2.284896e+001	1.177439e+002	-1.660170e+001	-9.530594e+001
800276000	-4.339131e+000	-6.274404e+001	1.168321e+001	1.523706e+002	-2.275727e+001	1.168189e+002	-1.689307e+001	-9.135572e+001
806525813	-4.455019e+000	-6.288634e+001	1.166219e+001	1.509781e+002	-2.261852e+001	1.158370e+002	-1.709633e+001	-8.726584e+001
812775625	-4.564081e+000	-6.297638e+001	1.164003e+001	1.496183e+002	-2.252098e+001	1.147978e+002	-1.720239e+001	-8.308138e+001
819025438	-4.667066e+000	-6.307284e+001	1.160920e+001	1.482756e+002	-2.242720e+001	1.137398e+002	-1.726348e+001	-7.883566e+001
825275250	-4.773683e+000	-6.308336e+001	1.157892e+001	1.470013e+002	-2.231664e+001	1.128290e+002	-1.721799e+001	-7.485053e+001
831525063	-4.882365e+000	-6.314225e+001	1.155273e+001	1.457260e+002	-2.224033e+001	1.120061e+002	-1.714748e+001	-7.085712e+001
837774875	-4.979405e+000	-6.313890e+001	1.152254e+001	1.444601e+002	-2.215637e+001	1.109706e+002	-1.699479e+001	-6.696252e+001
844024688	-5.089105e+000	-6.320678e+001	1.149167e+001	1.432128e+002	-2.205775e+001	1.101241e+002	-1.680092e+001	-6.373470e+001
850274500	-5.191415e+000	-6.315539e+001	1.145745e+001	1.419644e+002	-2.195978e+001	1.090247e+002	-1.652466e+001	-6.035637e+001
856524313	-5.297645e+000	-6.308287e+001	1.142179e+001	1.407327e+002	-2.186758e+001	1.080497e+002	-1.626247e+001	-5.748496e+001
862774125	-5.398466e+000	-6.298643e+001	1.138117e+001	1.395451e+002	-2.177526e+001	1.071300e+002	-1.596150e+001	-5.509113e+001
869023938	-5.496579e+000	-6.290809e+001	1.134365e+001	1.384021e+002	-2.173401e+001	1.062994e+002	-1.566799e+001	-5.294474e+001
875273750	-5.591493e+000	-6.285322e+001	1.131619e+001	1.372572e+002	-2.163013e+001	1.054038e+002	-1.538345e+001	-5.065182e+001
881523563	-5.691865e+000	-6.273852e+001	1.128854e+001	1.360779e+002	-2.156768e+001	1.045096e+002	-1.506194e+001	-4.852810e+001
887773375	-5.792622e+000	-6.258912e+001	1.125685e+001	1.348261e+002	-2.147413e+001	1.035632e+002	-1.466114e+001	-4.665448e+001
894023188	-5.890630e+000	-6.245379e+001	1.121067e+001	1.335640e+002	-2.143714e+001	1.026451e+002	-1.428447e+001	-4.538245e+001
900273000	-5.987412e+000	-6.220150e+001	1.116410e+001	1.323732e+002	-2.135170e+001	1.016954e+002	-1.390295e+001	-4.446667e+001
906522813	-6.078581e+000	-6.197710e+001	1.111040e+001	1.311862e+002	-2.127431e+001	1.009636e+002	-1.354110e+001	-4.376536e+001
912772625	-6.157502e+000	-6.172177e+001	1.105803e+001	1.300194e+002	-2.125680e+001	1.000527e+002	-1.320041e+001	-4.314877e+001
919022438	-6.251704e+000	-6.146803e+001	1.099559e+001	1.288998e+002	-2.117771e+001	9.912171e+001	-1.288253e+001	-4.275525e+001
925272250	-6.331301e+000	-6.119703e+001	1.093661e+001	1.278308e+002	-2.111561e+001	9.838867e+001	-1.258504e+001	-4.235849e+001
931522063	-6.410306e+000	-6.085999e+001	1.088243e+001	1.267379e+002	-2.105809e+001	9.766206e+001	-1.229508e+001	-4.225327e+001
937771875	-6.487951e+000	-6.058517e+001	1.082455e+001	1.256694e+002	-2.101291e+001	9.669544e+001	-1.203708e+001	-4.214046e+001
944021688	-6.552250e+000	-6.032767e+001	1.076622e+001	1.246301e+002	-2.095077e+001	9.594207e+001	-1.177764e+001	-4.201575e+001
950271500	-6.620519e+000	-6.002601e+001	1.070956e+001	1.236195e+002	-2.090543e+001	9.533551e+001	-1.153357e+001	-4.198220e+001
956521313	-6.686652e+000	-5.971213e+001	1.065671e+001	1.225812e+002	-2.086897e+001	9.455849e+001	-1.130165e+001	-4.191367e+001
962771125	-6.766005e+000	-5.935458e+001	1.059982e+001	1.215919e+002	-2.081240e+001	9.372700e+001	-1.105789e+001	-4.198483e+001
969020938	-6.823587e+000	-5.906506e+001	1.054504e+001	1.205481e+002	-2.078194e+001	9.301367e+001	-1.083917e+001	-4.206628e+001
975270750	-6.887396e+000	-5.868595e+001	1.048435e+001	1.195566e+002	-2.071141e+001	9.220468e+001	-1.061344e+001	-4.230804e+001
981520563	-6.949932e+000	-5.834231e+001	1.041927e+001	1.185209e+002	-2.070798e+001	9.138307e+001	-1.039545e+001	-4.250324e+001
987770375	-7.010364e+000	-5.794169e+001	1.035346e+001	1.175189e+002	-2.065506e+001	9.084836e+001	-1.019041e+001	-4.283940e+001
994020188	-7.056347e+000	-5.754408e+001	1.028699e+001	1.165354e+002	-2.061464e+001	9.008452e+001	-9.999250e+000	-4.315132e+001
1000270000	-7.110142e+000	-5.715003e+001	1.022004e+001	1.155517e+002	-2.056770e+001	8.922110e+001	-9.814707e+000	-4.359543e+001
1006519813	-7.146846e+000	-5.675728e+001	1.015354e+001	1.146243e+002	-2.053550e+001	8.855665e+001	-9.636367e+000	-4.397309e+001
1012769625	-7.188958e+000	-5.635679e+001	1.008077e+001	1.136703e+002	-2.051705e+001	8.789269e+001	-9.456377e+000	-4.445369e+001
1019019438	-7.221630e+000	-5.593355e+001	1.001296e+001	1.127707e+002	-2.047386e+001	8.715611e+001	-9.303128e+000	-4.495427e+001
1025269250	-7.261970e+000	-5.557609e+001	9.942766e+000	1.118647e+002	-2.045987e+001	8.659523e+001	-9.144971e+000	-4.536769e+001
1031519063	-7.283816e+000	-5.514991e+001	9.873994e+000	1.109485e+002	-2.041663e+001	8.583091e+001	-9.003570e+000	-4.582108e+001
1037768875	-7.316505e+000	-5.476092e+001	9.808725e+000	1.100671e+002	-2.039327e+001	8.522570e+001	-8.854238e+000	-4.636120e+001
1044018688	-7.341366e+000	-5.440412e+001	9.732947e+000	1.091609e+002	-2.035003e+001	8.453337e+001	-8.717033e+000	-4.680688e+001
1050268500	-7.369902e+000	-5.395826e+001	9.664538e+000	1.083105e+002	-2.033382e+001	8.394962e+001	-8.586260e+000	-4.727725e+001
1056518313	-7.385212e+000	-5.352777e+001	9.596742e+000	1.074305e+002	-2.033177e+001	8.326429e+001	-8.447872e+000	-4.782003e+001
1062768125	-7.407275e+000	-5.314729e+001	9.519285e+000	1.065442e+002	-2.029482e+001	8.282102e+001	-8.309892e+000	-4.843701e+001
1069017938	-7.416651e+000	-5.276204e+001	9.442687e+000	1.056891e+002	-2.029313e+001	8.203788e+001	-8.192458e+000	-4.911004e+001
1075267750	-7.420068e+000	-5.233461e+001	9.351840e+000	1.048967e+002	-2.027933e+001	8.146037e+001	-8.081637e+000	-4.978409e+001
1081517563	-7.429130e+000	-5.196824e+001	9.274928e+000	1.041063e+002	-2.025120e+001	8.091960e+001	-8.000926e+000	-5.034237e+001
1087767375	-7.429638e+000	-5.157217e+001	9.203337e+000	1.033698e+002	-2.025795e+001	8.029657e+001	-7.895668e+000	-5.092349e+001
1094017188	-7.424853e+000	-5.120320e+001	9.121639e+000	1.025730e+002	-2.019064e+001	7.979625e+001	-7.786732e+000	-5.145316e+001
1100267000	-7.424592e+000	-5.079741e+001	9.041406e+000	1.017436e+002	-2.021413e+001	7.923480e+001	-7.694062e+000	-5.211328e+001
1106516813	-7.412936e+000	-5.045402e+001	8.963511e+000	1.009932e+002	-2.019836e+001	7.876729e+001	-7.608369e+000	-5.274160e+001
1112766625	-7.398093e+000	-5.018172e+001	8.878323e+000	1.002649e+002	-2.017921e+001	7.820110e+001	-7.522989e+000	-5.340210e+001
1119016438	-7.376263e+000	-4.990542e+001	8.796058e+000	9.950072e+001	-2.018646e+001	7.783134e+001	-7.451750e+000	-5.405019e+001
1125266250	-7.370943e+000	-4.973918e+001	8.712160e+000	9.879892e+001	-2.017680e+001	7.750381e+001	-7.380340e+000	-5.466068e+001
1131516063	-7.377169e+000	-4.950766e+001	8.624704e+000	9.817917e+001	-2.016088e+001	7.690402e+001	-7.318743e+000	-5.524759e+001
1137765875	-7.376673e+000	-4.925239e+001	8.558249e+000	9.748392e+001	-2.011907e+001	7.652238e+001	-7.255148e+000	-5.576561e+001
1144015688	-7.373173e+000	-4.891416e+001	8.481865e+000	9.673164e+001	-2.011368e+001	7.594374e+001	-7.175905e+000	-5.630681e+001
1150265500	-7.362963e+000	-4.856352e+001	8.397463e+000	9.601925e+001	-2.010171e+001	7.540656e+001	-7.105406e+000	-5.693053e+001
1156515313	-7.350346e+000	-4.827225e+001	8.309492e+000	9.530871e+001	-2.007951e+001	7.479312e+001	-7.037511e+000	-5.761067e+001
1162765125	-7.333645e+000	-4.802979e+001	8.220223e+000	9.464498e+001	-2.008631e+001	7.446457e+001	-6.975863e+000	-5.826500e+001
1169014938	-7.300833e+000	-4.774775e+001	8.135240e+000	9.396470e+001	-2.006466e+001	7.415567e+001	-6.929411e+000	-5.892130e+001
1175264750	-7.270976e+000	-4.754101e+001	8.046094e+000	9.330812e+001	-2.008067e+001	7.358819e+001	-6.887167e+000	-5.964283e+001
1181514563	-7.255074e+000	-4.728461e+001	7.950534e+000	9.270038e+001	-2.008015e+001	7.311444e+001	-6.844517e+000	-6.038464e+001
1187764375	-7.218421e+000	-4.710011e+001	7.856636e+000	9.207874e+001	-2.006256e+001	7.282838e+001	-6.804116e+000	-6.111421e+001
1194014188	-7.198839e+000	-4.696054e+001	7.758378e+000	9.146987e+001	-2.006680e+001	7.247116e+001	-6.777022e+000	-6.183721e+001
1200264000	-7.167888e+000	-4.679989e+001	7.654076e+000	9.093203e+001	-2.006925e+001	7.216927e+001	-6.756842e+000	-6.258684e+001
1206513813	-7.128382e+000	-4.673213e+001	7.548253e+000	9.038649e+001	-2.006754e+001	7.184620e+001	-6.748031e+000	-6.328427e+001
1212763625	-7.099642e+000	-4.660474e+001	7.449938e+000	8.993359e+001	-2.007782e+001	7.155755e+001	-6.740417e+000	-6.404835e+001
1219013438	-7.063438e+000	-4.652730e+001	7.338427e+000	8.954552e+001	-2.008906e+001	7.137220e+001	-6.754031e+000	-6.473680e+001
1225263250	-7.025265e+000	-4.652453e+001	7.226474e+000	8.924180e+001	-2.009338e+001	7.125106e+001	-6.783219e+000	-6.549538e+001
1231513063	-6.990885e+000	-4.657502e+001	7.125378e+000	8.905770e+001	-2.010208e+001	7.098358e+001	-6.843731e+000	-6.611520e+001
1237762875	-6.969091e+000	-4.673215e+001	7.044010e+000	8.900706e+001	-2.007321e+001	7.115634e+001	-6.922293e+000	-6.646717e+001
1244012688	-6.968031e+000	-4.688860e+001	6.991295e+000	8.891262e+001	-2.001678e+001	7.106551e+001	-6.999833e+000	-6.653163e+001
1250262500	-6.982641e+000	-4.694615e+001	6.956244e+000	8.881121e+001	-1.992928e+001	7.067838e+001	-7.041578e+000	-6.639159e+001
1256512313	-6.997601e+000	-4.687460e+001	6.948128e+000	8.848637e+001	-1.984826e+001	7.050783e+001	-7.033519e+000	-6.611444e+001
1262762125	-7.017404e+000	-4.670311e+001	6.929095e+000	8.796417e+001	-1.983684e+001	7.008491e+001	-6.983180e+000	-6.601695e+001
1269011938	-7.009171e+000	-4.641628e+001	6.872019e+000	8.742353e+001	-1.979616e+001	6.940340e+001	-6.920816e+000	-6.629496e+001
1275261750	-6.987756e+000	-4.629517e+001	6.816294e+000	8.682987e+001	-1.979483e+001	6.910020e+001	-6.890437e+000	-6.664149e+001
1281511563	-6.963049e+000	-4.616147e+001	6.750921e+000	8.633601e+001	-1.974379e+001	6.876522e+001	-6.857868e+000	-6.706170e+001
1287761375	-6.942918e+000	-4.604993e+001	6.668519e+000	8.592901e+001	-1.976923e+001	6.835878e+001	-6.855676e+000	-6.749130e+001
1294011188	-6.911611e+000	-4.600747e+001	6.602359e+000	8.560340e+001	-1.975818e+001	6.812481e+001	-6.873828e+000	-6.782049e+001
1300261000	-6.889100e+000	-4.594641e+001	6.543812e+000	8.536917e+001	-1.975844e+001	6.784373e+001	-6.892861e+000	-6.799084e+001
1306510813	-6.877597e+000	-4.597512e+001	6.500328e+000	8.503867e+001	-1.972349e+001	6.773377e+001	-6.897482e+000	-6.803488e+001
1312760625	-6.862328e+000	-4.590535e+001	6.475257e+000	8.469339e+001	-1.970650e+001	6.742528e+001	-6.879645e+000	-6.802279e+001
1319010438	-6.852891e+000	-4.588040e+001	6.449244e+000	8.420005e+001	-1.968208e+001	6.713534e+001	-6.830609e+000	-6.807788e+001
1325260250	-6.836773e+000	-4.577815e+001	6.401827e+000	8.360007e+001	-1.965306e+001	6.677343e+001	-6.764010e+000	-6.829815e+001
1331510063	-6.808459e+000	-4.573367e+001	6.347245e+000	8.305682e+001	-1.967226e+001	6.639980e+001	-6.731986e+000	-6.872358e+001
1337759875	-6.790052e+000	-4.567833e+001	6.265356e+000	8.247054e+001	-1.966770e+001	6.619031e+001	-6.695755e+000	-6.926098e+001
1344009688	-6.762139e+000	-4.567966e+001	6.172555e+000	8.204903e+001	-1.964210e+001	6.603415e+001	-6.703255e+000	-6.984664e+001
1350259500	-6.736503e+000	-4.574494e+001	6.084593e+000	8.181015e+001	-1.962444e+001	6.589085e+001	-6.735456e+000	-7.034509e+001
1356509313	-6.719064e+000	-4.583565e+001	6.008297e+000	8.171236e+001	-1.960043e+001	6.582362e+001	-6.794085e+000	-7.059977e+001
1362759125	-6.708076e+000	-4.591600e+001	5.970419e+000	8.167792e+001	-1.958625e+001	6.569304e+001	-6.843144e+000	-7.060099e+001
1369008938	-6.711177e+000	-4.597855e+001	5.954197e+000	8.145636e+001	-1.950125e+001	6.555762e+001	-6.852570e+000	-7.040860e+001
1375258750	-6.712513e+000	-4.603367e+001	5.937883e+000	8.110308e+001	-1.945903e+001	6.542566e+001	-6.835296e+000	-7.029361e+001
1381508563	-6.716409e+000	-4.598574e+001	5.912179e+000	8.069246e+001	-1.941237e+001	6.510982e+001	-6.815346e+000	-7.028810e+001
1387758375	-6.718358e+000	-4.594385e+001	5.894684e+000	8.020426e+001	-1.936076e+001	6.470052e+001	-6.767472e+000	-7.022613e+001
1394008188	-6.716746e+000	-4.583884e+001	5.847691e+000	7.968911e+001	-1.930230e+001	6.431999e+001	-6.722224e+000	-7.047866e+001
1400258000	-6.713952e+000	-4.579389e+001	5.796279e+000	7.915081e+001	-1.928479e+001	6.392292e+001	-6.678200e+000	-7.067544e+001
1406507813	-6.696105e+000	-4.566198e+001	5.739503e+000	7.866285e+001	-1.926263e+001	6.349994e+001	-6.644506e+000	-7.098363e+001
1412757625	-6.684533e+000	-4.552102e+001	5.672259e+000	7.819478e+001	-1.924975e+001	6.312904e+001	-6.622401e+000	-7.138911e+001
1419007438	-6.664831e+000	-4.548237e+001	5.602312e+000	7.781718e+001	-1.924559e+001	6.284513e+001	-6.615964e+000	-7.174556e+001
1425257250	-6.642966e+000	-4.541481e+001	5.544284e+000	7.753186e+001	-1.923495e+001	6.254882e+001	-6.622792e+000	-7.200567e+001
1431507063	-6.620670e+000	-4.539758e+001	5.498740e+000	7.725090e+001	-1.922629e+001	6.210896e+001	-6.620416e+000	-7.212108e+001
1437756875	-6.600025e+000	-4.536159e+001	5.451133e+000	7.691292e+001	-1.923108e+001	6.195879e+001	-6.607668e+000	-7.231918e+001
1444006688	-6.564144e+000	-4.528538e+001	5.405166e+000	7.641936e+001	-1.925326e+001	6.154813e+001	-6.586265e+000	-7.254858e+001
1450256500	-6.525536e+000	-4.530668e+001	5.344903e+000	7.597819e+001	-1.925503e+001	6.153071e+001	-6.558441e+000	-7.298304e+001
1456506313	-6.488431e+000	-4.539912e+001	5.270774e+000	7.554065e+001	-1.928771e+001	6.137914e+001	-6.567230e+000	-7.347808e+001
1462756125	-6.454324e+000	-4.559332e+001	5.186668e+000	7.512192e+001	-1.930214e+001	6.156834e+001	-6.576544e+000	-7.390562e+001
1469005938	-6.410223e+000	-4.583934e+001	5.089609e+000	7.480980e+001	-1.928127e+001	6.191940e+001	-6.594631e+000	-7.456307e+001
1475255750	-6.387747e+000	-4.624388e+001	4.974168e+000	7.468007e+001	-1.926078e+001	6.239021e+001	-6.686729e+000	-7.521600e+001
1481505563	-6.396039e+000	-4.654791e+001	4.879798e+000	7.484150e+001	-1.916369e+001	6.250063e+001	-6.826591e+000	-7.555161e+001
1487755375	-6.418679e+000	-4.677845e+001	4.824309e+000	7.516193e+001	-1.906073e+001	6.255134e+001	-6.973037e+000	-7.537912e+001
1494005188	-6.440991e+000	-4.694932e+001	4.797706e+000	7.542445e+001	-1.896004e+001	6.255476e+001	-7.085298e+000	-7.483118e+001
1500255000	-6.469029e+000	-4.702137e+001	4.807760e+000	7.559114e+001	-1.885265e+001	6.226099e+001	-7.155322e+000	-7.412966e+001
1506504813	-6.492413e+000	-4.703323e+001	4.833610e+000	7.558500e+001	-1.875674e+001	6.197106e+001	-7.170389e+000	-7.328341e+001
1512754625	-6.522950e+000	-4.697500e+001	4.858486e+000	7.536820e+001	-1.867289e+001	6.154825e+001	-7.144239e+000	-7.255224e+001
1519004438	-6.537005e+000	-4.689746e+001	4.875581e+000	7.503696e+001	-1.860757e+001	6.099739e+001	-7.088034e+000	-7.209236e+001
1525254250	-6.544629e+000	-4.676808e+001	4.863074e+000	7.463243e+001	-1.855351e+001	6.065698e+001	-7.043217e+000	-7.185867e+001
1531504063	-6.533589e+000	-4.666912e+001	4.840650e+000	7.439576e+001	-1.850975e+001	6.016878e+001	-7.024823e+000	-7.171005e+001
1537753875	-6.536243e+000	-4.670550e+001	4.826558e+000	7.415021e+001	-1.847924e+001	5.969700e+001	-7.027529e+000	-7.139456e+001
1544003688	-6.533012e+000	-4.664439e+001	4.814697e+000	7.397180e+001	-1.843678e+001	5.939289e+001	-7.008895e+000	-7.100718e+001
1550253500	-6.536844e+000	-4.660488e+001	4.815743e+000	7.378980e+001	-1.838037e+001	5.912698e+001	-6.983425e+000	-7.048321e+001
1556503313	-6.537303e+000	-4.654312e+001	4.826745e+000	7.352190e+001	-1.832758e+001	5.878783e+001	-6.950561e+000	-6.996800e+001
1562753125	-6.555874e+000	-4.654397e+001	4.830266e+000	7.319186e+001	-1.825382e+001	5.850244e+001	-6.886649e+000	-6.951288e+001
1569002938	-6.548372e+000	-4.643959e+001	4.846564e+000	7.291431e+001	-1.820607e+001	5.787692e+001	-6.805678e+000	-6.917106e+001
1575252750	-6.552929e+000	-4.637123e+001	4.849382e+000	7.248391e+001	-1.817763e+001	5.753058e+001	-6.725928e+000	-6.884619e+001
1581502563	-6.549458e+000	-4.629718e+001	4.858831e+000	7.209162e+001	-1.810823e+001	5.702522e+001	-6.638245e+000	-6.856275e+001
1587752375	-6.541749e+000	-4.624207e+001	4.862146e+000	7.161861e+001	-1.806629e+001	5.657933e+001	-6.555542e+000	-6.840554e+001
1594002188	-6.544719e+000	-4.607980e+001	4.854115e+000	7.119889e+001	-1.802707e+001	5.618649e+001	-6.460916e+000	-6.823083e+001
1600252000	-6.539732e+000	-4.600453e+001	4.861849e+000	7.076811e+001	-1.799551e+001	5.578615e+001	-6.370548e+000	-6.812209e+001
1606501813	-6.539550e+000	-4.593821e+001	4.865315e+000	7.022507e+001	-1.795429e+001	5.519953e+001	-6.277042e+000	-6.804116e+001
1612751625	-6.530462e+000	-4.584135e+001	4.862117e+000	6.974067e+001	-1.791718e+001	5.481920e+001	-6.174811e+000	-6.800343e+001
1619001438	-6.519403e+000	-4.572009e+001	4.853839e+000	6.923622e+001	-1.789659e+001	5.424558e+001	-6.072680e+000	-6.805899e+001
1625251250	-6.514214e+000	-4.562199e+001	4.837998e+000	6.866667e+001	-1.785576e+001	5.380599e+001	-5.981735e+000	-6.817804e+001
1631501063	-6.493804e+000	-4.549878e+001	4.823147e+000	6.814975e+001	-1.782981e+001	5.322665e+001	-5.900993e+000	-6.832730e+001
1637750875	-6.486740e+000	-4.535296e+001	4.795495e+000	6.761025e+001	-1.781836e+001	5.269936e+001	-5.821197e+000	-6.849468e+001
1644000688	-6.475994e+000	-4.527276e+001	4.774969e+000	6.713052e+001	-1.778992e+001	5.215036e+001	-5.746563e+000	-6.862143e+001
1650250500	-6.459131e+000	-4.520256e+001	4.758509e+000	6.660880e+001	-1.775354e+001	5.186316e+001	-5.670929e+000	-6.878500e+001
1656500313	-6.439382e+000	-4.513641e+001	4.729711e+000	6.605959e+001	-1.776838e+001	5.122490e+001	-5.592858e+000	-6.899660e+001
1662750125	-6.419516e+000	-4.503626e+001	4.696431e+000	6.560905e+001	-1.774159e+001	5.091731e+001	-5.526378e+000	-6.925467e+001
1668999938	-6.399786e+000	-4.493864e+001	4.665154e+000	6.517178e+001	-1.773058e+001	5.052015e+001	-5.467282e+000	-6.944264e+001
1675249750	-6.383208e+000	-4.494563e+001	4.640858e+000	6.469986e+001	-1.771454e+001	5.008031e+001	-5.406512e+000	-6.965633e+001
1681499563	-6.361828e+000	-4.487956e+001	4.618402e+000	6.428876e+001	-1.770759e+001	4.969932e+001	-5.347848e+000	-6.970850e+001
1687749375	-6.345333e+000	-4.481844e+001	4.589947e+000	6.382801e+001	-1.770382e+001	4.924846e+001	-5.290512e+000	-6.982797e+001
1693999188	-6.320348e+000	-4.476159e+001	4.574462e+000	6.341531e+001	-1.766807e+001	4.894142e+001	-5.208502e+000	-6.999008e+001
1700249000	-6.296302e+000	-4.470821e+001	4.551127e+000	6.289267e+001	-1.767159e+001	4.847438e+001	-5.131715e+000	-7.012914e+001
1706498813	-6.279272e+000	-4.464426e+001	4.537863e+000	6.243964e+001	-1.766845e+001	4.804270e+001	-5.056717e+000	-7.036250e+001
1712748625	-6.256400e+000	-4.462871e+001	4.513592e+000	6.195975e+001	-1.765750e+001	4.760231e+001	-4.973879e+000	-7.063505e+001
1718998438	-6.233328e+000	-4.463142e+001	4.491415e+000	6.139105e+001	-1.763496e+001	4.711888e+001	-4.896393e+000	-7.087051e+001
1725248250	-6.211684e+000	-4.459431e+001	4.459435e+000	6.086398e+001	-1.764031e+001	4.672066e+001	-4.820174e+000	-7.122791e+001
1731498063	-6.184894e+000	-4.457755e+001	4.437980e+000	6.034398e+001	-1.763440e+001	4.628866e+001	-4.756462e+000	-7.151746e+001
1737747875	-6.170122e+000	-4.455192e+001	4.395511e+000	5.983691e+001	-1.763604e+001	4.594497e+001	-4.693908e+000	-7.186007e+001
1743997688	-6.139881e+000	-4.456338e+001	4.363832e+000	5.928613e+001	-1.761930e+001	4.555076e+001	-4.619646e+000	-7.226007e+001
1750247500	-6.114691e+000	-4.458098e+001	4.342623e+000	5.876089e+001	-1.762242e+001	4.516623e+001	-4.566394e+000	-7.261105e+001
1756497313	-6.086724e+000	-4.455610e+001	4.292408e+000	5.825489e+001	-1.761156e+001	4.486580e+001	-4.510830e+000	-7.305014e+001
1762747125	-6.062470e+000	-4.453930e+001	4.255411e+000	5.781060e+001	-1.760785e+001	4.449903e+001	-4.462375e+000	-7.347710e+001
1768996938	-6.047994e+000	-4.452381e+001	4.200613e+000	5.725071e+001	-1.760895e+001	4.407429e+001	-4.424730e+000	-7.393005e+001
1775246750	-6.029140e+000	-4.453463e+001	4.153441e+000	5.680813e+001	-1.758519e+001	4.382090e+001	-4.379659e+000	-7.427204e+001
1781496563	-6.006880e+000	-4.452368e+001	4.099043e+000	5.632707e+001	-1.759924e+001	4.343757e+001	-4.355263e+000	-7.461006e+001
1787746375	-5.974439e+000	-4.452921e+001	4.067447e+000	5.597366e+001	-1.760690e+001	4.303344e+001	-4.315720e+000	-7.488340e+001
1793996188	-5.942213e+000	-4.449310e+001	4.035320e+000	5.555134e+001	-1.759375e+001	4.283411e+001	-4.269144e+000	-7.522261e+001
1800246000	-5.926347e+000	-4.455219e+001	3.987567e+000	5.506311e+001	-1.758715e+001	4.230583e+001	-4.238475e+000	-7.551981e+001
1806495813	-5.898137e+000	-4.457486e+001	3.956215e+000	5.467121e+001	-1.760128e+001	4.198520e+001	-4.190986e+000	-7.584959e+001
1812745625	-5.875459e+000	-4.458081e+001	3.916976e+000	5.421715e+001	-1.760905e+001	4.168583e+001	-4.154445e+000	-7.616017e+001
1818995438	-5.849534e+000	-4.465438e+001	3.881730e+000	5.380703e+001	-1.760950e+001	4.152063e+001	-4.111515e+000	-7.648039e+001
1825245250	-5.826232e+000	-4.464415e+001	3.839877e+000	5.339058e+001	-1.760767e+001	4.107884e+001	-4.073545e+000	-7.684499e+001
1831495063	-5.802437e+000	-4.468251e+001	3.794121e+000	5.301846e+001	-1.759130e+001	4.076995e+001	-4.038287e+000	-7.717133e+001
1837744875	-5.788143e+000	-4.479940e+001	3.752978e+000	5.253048e+001	-1.760033e+001	4.044192e+001	-4.009230e+000	-7.747464e+001
1843994688	-5.767906e+000	-4.479969e+001	3.716556e+000	5.214640e+001	-1.759817e+001	4.025647e+001	-3.970829e+000	-7.777564e+001
1850244500	-5.741103e+000	-4.483134e+001	3.684771e+000	5.177705e+001	-1.758904e+001	3.980040e+001	-3.934952e+000	-7.812710e+001
1856494313	-5.717994e+000	-4.485007e+001	3.634253e+000	5.136488e+001	-1.759596e+001	3.951820e+001	-3.895142e+000	-7.841040e+001
1862744125	-5.701630e+000	-4.489322e+001	3.596797e+000	5.095214e+001	-1.759767e+001	3.926939e+001	-3.863683e+000	-7.876063e+001
1868993938	-5.675004e+000	-4.497113e+001	3.557838e+000	5.052493e+001	-1.760732e+001	3.898992e+001	-3.827884e+000	-7.910925e+001
1875243750	-5.661227e+000	-4.502119e+001	3.514887e+000	5.014875e+001	-1.759750e+001	3.874658e+001	-3.793669e+000	-7.941010e+001
1881493563	-5.631813e+000	-4.504106e+001	3.474072e+000	4.972665e+001	-1.761097e+001	3.851413e+001	-3.762293e+000	-7.972674e+001
1887743375	-5.613835e+000	-4.507772e+001	3.438319e+000	4.933868e+001	-1.760749e+001	3.814481e+001	-3.743074e+000	-8.013209e+001
1893993188	-5.597466e+000	-4.514590e+001	3.380279e+000	4.893361e+001	-1.759826e+001	3.782971e+001	-3.711632e+000	-8.045944e+001
1900243000	-5.575459e+000	-4.522719e+001	3.350239e+000	4.852669e+001	-1.761118e+001	3.755442e+001	-3.680370e+000	-8.071604e+001
1906492813	-5.558843e+000	-4.527640e+001	3.304313e+000	4.813878e+001	-1.761817e+001	3.729079e+001	-3.652194e+000	-8.106006e+001
1912742625	-5.538778e+000	-4.535290e+001	3.253678e+000	4.774861e+001	-1.761404e+001	3.701070e+001	-3.627025e+000	-8.135252e+001
1918992438	-5.510676e+000	-4.543046e+001	3.224170e+000	4.741687e+001	-1.762417e+001	3.655187e+001	-3.604468e+000	-8.168560e+001
1925242250	-5.488827e+000	-4.549971e+001	3.184687e+000	4.699043e+001	-1.762286e+001	3.634062e+001	-3.575984e+000	-8.202796e+001
1931492063	-5.476341e+000	-4.557113e+001	3.129855e+000	4.655743e+001	-1.763459e+001	3.604653e+001	-3.547321e+000	-8.232884e+001
1937741875	-5.456008e+000	-4.565111e+001	3.094649e+000	4.622494e+001	-1.765806e+001	3.573958e+001	-3.520186e+000	-8.264752e+001
1943991688	-5.429943e+000	-4.573459e+001	3.057177e+000	4.578395e+001	-1.766080e+001	3.540899e+001	-3.504663e+000	-8.294432e+001
1950241500	-5.412494e+000	-4.582926e+001	3.012665e+000	4.546194e+001	-1.764691e+001	3.519766e+001	-3.468154e+000	-8.330306e+001
1956491313	-5.398819e+000	-4.590851e+001	2.966754e+000	4.502800e+001	-1.764523e+001	3.484401e+001	-3.444247e+000	-8.364115e+001
1962741125	-5.376509e+000	-4.597683e+001	2.921258e+000	4.467738e+001	-1.765644e+001	3.470207e+001	-3.426897e+000	-8.399969e+001
1968990938	-5.353147e+000	-4.602741e+001	2.883436e+000	4.432590e+001	-1.767529e+001	3.446838e+001	-3.408083e+000	-8.431746e+001
1975240750	-5.333219e+000	-4.611828e+001	2.839985e+000	4.396468e+001	-1.768803e+001	3.420626e+001	-3.378353e+000	-8.466944e+001
1981490563	-5.306247e+000	-4.620511e+001	2.798947e+000	4.365525e+001	-1.769820e+001	3.402316e+001	-3.358298e+000	-8.504047e+001
1987740375	-5.298909e+000	-4.628771e+001	2.744141e+000	4.325756e+001	-1.770298e+001	3.388081e+001	-3.337289e+000	-8.538137e+001
1993990188	-5.285317e+000	-4.636126e+001	2.697657e+000	4.292347e+001	-1.769316e+001	3.358335e+001	-3.324959e+000	-8.570562e+001
2000240000	-5.266173e+000	-4.650277e+001	2.662827e+000	4.255009e+001	-1.770914e+001	3.333924e+001	-3.307639e+000	-8.600912e+001
2006489813	-5.241320e+000	-4.659273e+001	2.618924e+000	4.227532e+001	-1.771693e+001	3.322932e+001	-3.289828e+000	-8.629075e+001
2012739625	-5.228985e+000	-4.665495e+001	2.574539e+000	4.190787e+001	-1.771744e+001	3.293521e+001	-3.271199e+000	-8.666969e+001
2018989438	-5.216114e+000	-4.673255e+001	2.521224e+000	4.153873e+001	-1.774571e+001	3.275785e+001	-3.256249e+000	-8.695022e+001
2025239250	-5.195473e+000	-4.676467e+001	2.479835e+000	4.131937e+001	-1.771777e+001	3.258834e+001	-3.237085e+000	-8.728082e+001
2031489063	-5.182894e+000	-4.691351e+001	2.440846e+000	4.090125e+001	-1.775073e+001	3.239778e+001	-3.233251e+000	-8.759168e+001
2037738875	-5.173513e+000	-4.703296e+001	2.385725e+000	4.054597e+001	-1.775802e+001	3.218884e+001	-3.217827e+000	-8.793849e+001
2043988688	-5.156025e+000	-4.711043e+001	2.358799e+000	4.033718e+001	-1.774147e+001	3.210956e+001	-3.212173e+000	-8.818753e+001
2050238500	-5.150390e+000	-4.714708e+001	2.309997e+000	3.996948e+001	-1.772036e+001	3.195419e+001	-3.200975e+000	-8.851527e+001
2056488313	-5.134508e+000	-4.716519e+001	2.261072e+000	3.972484e+001	-1.772284e+001	3.181666e+001	-3.188261e+000	-8.874925e+001
2062738125	-5.115694e+000	-4.724383e+001	2.229716e+000	3.944526e+001	-1.771618e+001	3.154393e+001	-3.179598e+000	-8.901802e+001
2068987938	-5.106117e+000	-4.730925e+001	2.187637e+000	3.900973e+001	-1.769181e+001	3.127703e+001	-3.168589e+000	-8.932069e+001
2075237750	-5.082873e+000	-4.738191e+001	2.151087e+000	3.874641e+001	-1.768142e+001	3.118131e+001	-3.149156e+000	-8.952027e+001
2081487563	-5.066508e+000	-4.741146e+001	2.104232e+000	3.844703e+001	-1.771013e+001	3.085408e+001	-3.131467e+000	-8.975271e+001
2087737375	-5.050264e+000	-4.754877e+001	2.067771e+000	3.810414e+001	-1.770505e+001	3.049355e+001	-3.119121e+000	-9.010689e+001
2093987188	-5.024398e+000	-4.763372e+001	2.031604e+000	3.779677e+001	-1.771469e+001	3.030850e+001	-3.099865e+000	-9.034893e+001
2100237000	-5.021251e+000	-4.768912e+001	1.985526e+000	3.744614e+001	-1.774502e+001	3.004751e+001	-3.086644e+000	-9.069225e+001
2106486813	-5.000005e+000	-4.775743e+001	1.952117e+000	3.721806e+001	-1.773500e+001	2.977705e+001	-3.077017e+000	-9.092625e+001
2112736625	-4.987080e+000	-4.790659e+001	1.898024e+000	3.683552e+001	-1.774232e+001	2.968307e+001	-3.065503e+000	-9.124251e+001
2118986438	-4.971446e+000	-4.803284e+001	1.874503e+000	3.649217e+001	-1.773144e+001	2.941823e+001	-3.053025e+000	-9.151361e+001
2125236250	-4.958077e+000	-4.811344e+001	1.826931e+000	3.621968e+001	-1.775037e+001	2.914509e+001	-3.040883e+000	-9.181994e+001
2131486063	-4.936281e+000	-4.820792e+001	1.785684e+000	3.596584e+001	-1.774482e+001	2.908344e+001	-3.032148e+000	-9.203918e+001
2137735875	-4.926931e+000	-4.828703e+001	1.740790e+000	3.562158e+001	-1.776289e+001	2.878835e+001	-3.029790e+000	-9.235109e+001
2143985688	-4.905756e+000	-4.838025e+001	1.707158e+000	3.536878e+001	-1.774510e+001	2.859495e+001	-3.012051e+000	-9.261325e+001
2150235500	-4.896577e+000	-4.850908e+001	1.660668e+000	3.502707e+001	-1.775027e+001	2.841976e+001	-3.010170e+000	-9.291989e+001
2156485313	-4.882344e+000	-4.859083e+001	1.621503e+000	3.466753e+001	-1.775664e+001	2.825788e+001	-3.001394e+000	-9.311614e+001
2162735125	-4.864275e+000	-4.865767e+001	1.571678e+000	3.447422e+001	-1.773590e+001	2.802432e+001	-2.984689e+000	-9.338759e+001
2168984938	-4.853988e+000	-4.878903e+001	1.543756e+000	3.419014e+001	-1.775327e+001	2.789032e+001	-2.979769e+000	-9.368785e+001
2175234750	-4.836387e+000	-4.885780e+001	1.481065e+000	3.384578e+001	-1.775192e+001	2.757392e+001	-2.976464e+000	-9.392876e+001
2181484563	-4.820417e+000	-4.893684e+001	1.458243e+000	3.357622e+001	-1.776647e+001	2.744009e+001	-2.960634e+000	-9.414417e+001
2187734375	-4.814850e+000	-4.906074e+001	1.411297e+000	3.334170e+001	-1.775478e+001	2.725041e+001	-2.957483e+000	-9.442214e+001
2193984188	-4.797355e+000	-4.912055e+001	1.365276e+000	3.306119e+001	-1.776960e+001	2.704877e+001	-2.940115e+000	-9.468944e+001
2200234000	-4.786277e+000	-4.919469e+001	1.338502e+000	3.270431e+001	-1.777491e+001	2.684258e+001	-2.938004e+000	-9.496260e+001
2206483813	-4.773757e+000	-4.931923e+001	1.307528e+000	3.245347e+001	-1.778960e+001	2.665657e+001	-2.929705e+000	-9.513767e+001
2212733625	-4.756238e+000	-4.942473e+001	1.262130e+000	3.216284e+001	-1.780215e+001	2.644679e+001	-2.915561e+000	-9.548519e+001
2218983438	-4.747126e+000	-4.950837e+001	1.217448e+000	3.183474e+001	-1.780495e+001	2.631573e+001	-2.914557e+000	-9.565084e+001
2225233250	-4.729709e+000	-4.956293e+001	1.172147e+000	3.163501e+001	-1.778966e+001	2.617242e+001	-2.903723e+000	-9.596849e+001
2231483063	-4.727726e+000	-4.965591e+001	1.133703e+000	3.134312e+001	-1.778269e+001	2.588631e+001	-2.901821e+000	-9.623416e+001
2237732875	-4.711776e+000	-4.978101e+001	1.109287e+000	3.107132e+001	-1.780906e+001	2.571559e+001	-2.890535e+000	-9.648147e+001
2243982688	-4.695681e+000	-4.985387e+001	1.062196e+000	3.083039e+001	-1.778608e+001	2.547340e+001	-2.884896e+000	-9.676108e+001
2250232500	-4.695564e+000	-4.994932e+001	1.024356e+000	3.054318e+001	-1.777580e+001	2.536526e+001	-2.882808e+000	-9.698248e+001
2256482313	-4.675653e+000	-5.003399e+001	9.910355e-001	3.029839e+001	-1.780307e+001	2.515018e+001	-2.880280e+000	-9.721845e+001
2262732125	-4.666615e+000	-5.015205e+001	9.408085e-001	2.998310e+001	-1.781175e+001	2.500579e+001	-2.861389e+000	-9.745905e+001
2268981938	-4.654249e+000	-5.022077e+001	8.971681e-001	2.973501e+001	-1.781120e+001	2.477587e+001	-2.865410e+000	-9.770075e+001
2275231750	-4.640544e+000	-5.031508e+001	8.583563e-001	2.949006e+001	-1.779853e+001	2.463869e+001	-2.854414e+000	-9.799353e+001
2281481563	-4.633925e+000	-5.047096e+001	8.248801e-001	2.915977e+001	-1.781290e+001	2.458153e+001	-2.845595e+000	-9.811798e+001
2287731375	-4.621549e+000	-5.056247e+001	7.846417e-001	2.895149e+001	-1.783972e+001	2.439268e+001	-2.835529e+000	-9.841508e+001
2293981188	-4.607122e+000	-5.061996e+001	7.464264e-001	2.865912e+001	-1.782684e+001	2.415984e+001	-2.829813e+000	-9.868845e+001
2300231000	-4.590492e+000	-5.074731e+001	7.079337e-001	2.852583e+001	-1.783734e+001	2.402863e+001	-2.826926e+000	-9.887415e+001
2306480813	-4.576493e+000	-5.080974e+001	6.754068e-001	2.821810e+001	-1.784554e+001	2.382161e+001	-2.816167e+000	-9.909820e+001
2312730625	-4.570727e+000	-5.093896e+001	6.297398e-001	2.790271e+001	-1.784534e+001	2.360761e+001	-2.809227e+000	-9.937169e+001
2318980438	-4.562498e+000	-5.103246e+001	5.974680e-001	2.767094e+001	-1.785230e+001	2.350896e+001	-2.809581e+000	-9.961001e+001
2325230250	-4.551478e+000	-5.108900e+001	5.397410e-001	2.743064e+001	-1.786367e+001	2.333526e+001	-2.803103e+000	-9.986493e+001
2331480063	-4.546370e+000	-5.120325e+001	5.034802e-001	2.721668e+001	-1.786089e+001	2.313524e+001	-2.796091e+000	-1.001144e+002
2337729875	-4.539459e+000	-5.132584e+001	4.769106e-001	2.691272e+001	-1.785426e+001	2.296295e+001	-2.787356e+000	-1.003565e+002
2343979688	-4.526091e+000	-5.143961e+001	4.430559e-001	2.665794e+001	-1.787049e+001	2.286251e+001	-2.784527e+000	-1.005723e+002
2350229500	-4.519085e+000	-5.152959e+001	4.129334e-001	2.638703e+001	-1.788192e+001	2.274236e+001	-2.780367e+000	-1.007867e+002
2356479313	-4.507550e+000	-5.161848e+001	3.659368e-001	2.614644e+001	-1.788955e+001	2.252889e+001	-2.783041e+000	-1.010180e+002
2362729125	-4.498110e+000	-5.167083e+001	3.180297e-001	2.598691e+001	-1.791299e+001	2.246712e+001	-2.771483e+000	-1.013067e+002
2368978938	-4.487103e+000	-5.185074e+001	2.848955e-001	2.565651e+001	-1.790230e+001	2.221465e+001	-2.763028e+000	-1.014999e+002
2375228750	-4.477893e+000	-5.195381e+001	2.440359e-001	2.540893e+001	-1.792999e+001	2.210574e+001	-2.765616e+000	-1.017503e+002
2381478563	-4.464597e+000	-5.207252e+001	2.107485e-001	2.522787e+001	-1.793303e+001	2.193333e+001	-2.766731e+000	-1.019577e+002
2387728375	-4.458279e+000	-5.219161e+001	1.732125e-001	2.496889e+001	-1.796318e+001	2.190715e+001	-2.758453e+000	-1.022433e+002
2393978188	-4.449495e+000	-5.230150e+001	1.338959e-001	2.476951e+001	-1.798333e+001	2.189763e+001	-2.762230e+000	-1.025323e+002
2400228000	-4.447103e+000	-5.245099e+001	9.397310e-002	2.449386e+001	-1.794551e+001	2.198217e+001	-2.761378e+000	-1.027807e+002
2406477813	-4.439506e+000	-5.251041e+001	5.084706e-002	2.437179e+001	-1.795467e+001	2.197998e+001	-2.771401e+000	-1.029863e+002
2412727625	-4.435772e+000	-5.258990e+001	1.224694e-002	2.416636e+001	-1.794501e+001	2.198818e+001	-2.769840e+000	-1.031712e+002
2418977438	-4.437744e+000	-5.271217e+001	-2.359557e-002	2.396082e+001	-1.792475e+001	2.181033e+001	-2.783145e+000	-1.033652e+002
2425227250	-4.429886e+000	-5.283345e+001	-4.526476e-002	2.373549e+001	-1.787934e+001	2.162453e+001	-2.777808e+000	-1.035468e+002
2431477063	-4.425040e+000	-5.287669e+001	-6.779562e-002	2.346753e+001	-1.785746e+001	2.166606e+001	-2.777292e+000	-1.036721e+002
2437726875	-4.414953e+000	-5.294473e+001	-1.062620e-001	2.323737e+001	-1.781499e+001	2.133067e+001	-2.765382e+000	-1.038314e+002
2443976688	-4.406098e+000	-5.297798e+001	-1.370853e-001	2.303761e+001	-1.784303e+001	2.119651e+001	-2.770157e+000	-1.040045e+002
2450226500	-4.400052e+000	-5.308915e+001	-1.722623e-001	2.273378e+001	-1.782698e+001	2.091327e+001	-2.756405e+000	-1.041569e+002
2456476313	-4.384342e+000	-5.312544e+001	-2.029624e-001	2.256916e+001	-1.783163e+001	2.051931e+001	-2.752165e+000	-1.043475e+002
2462726125	-4.374750e+000	-5.320536e+001	-2.271030e-001	2.224223e+001	-1.779989e+001	2.038419e+001	-2.740076e+000	-1.046348e+002
2468975938	-4.360824e+000	-5.330690e+001	-2.614581e-001	2.200892e+001	-1.782042e+001	2.014830e+001	-2.726722e+000	-1.048145e+002
2475225750	-4.350845e+000	-5.336316e+001	-3.049080e-001	2.188187e+001	-1.783491e+001	1.999329e+001	-2.727733e+000	-1.050127e+002
2481475563	-4.347131e+000	-5.346286e+001	-3.313421e-001	2.156392e+001	-1.784319e+001	1.975597e+001	-2.716042e+000	-1.052100e+002
2487725375	-4.333845e+000	-5.354787e+001	-3.609327e-001	2.140628e+001	-1.782959e+001	1.958918e+001	-2.723521e+000	-1.054569e+002
2493975188	-4.323670e+000	-5.359587e+001	-3.985673e-001	2.109445e+001	-1.783235e+001	1.942196e+001	-2.706508e+000	-1.057277e+002
2500225000	-4.316786e+000	-5.374471e+001	-4.233991e-001	2.088620e+001	-1.784891e+001	1.909809e+001	-2.714715e+000	-1.058913e+002
2506474813	-4.306897e+000	-5.383526e+001	-4.712650e-001	2.058527e+001	-1.784807e+001	1.900025e+001	-2.707761e+000	-1.060735e+002
2512724625	-4.298373e+000	-5.390599e+001	-5.002534e-001	2.042219e+001	-1.785124e+001	1.886252e+001	-2.688496e+000	-1.063108e+002
2518974438	-4.293237e+000	-5.401237e+001	-5.360554e-001	2.014586e+001	-1.786010e+001	1.855020e+001	-2.699110e+000	-1.065041e+002
2525224250	-4.278465e+000	-5.408209e+001	-5.641620e-001	1.999118e+001	-1.782349e+001	1.844378e+001	-2.694033e+000	-1.067437e+002
2531474063	-4.278044e+000	-5.416388e+001	-5.991014e-001	1.973463e+001	-1.784620e+001	1.828848e+001	-2.695672e+000	-1.069124e+002
2537723875	-4.267011e+000	-5.427391e+001	-6.357611e-001	1.956011e+001	-1.785007e+001	1.813882e+001	-2.688535e+000	-1.071272e+002
2543973688	-4.258427e+000	-5.436890e+001	-6.640282e-001	1.930070e+001	-1.786028e+001	1.800356e+001	-2.690405e+000	-1.073357e+002
2550223500	-4.251132e+000	-5.445419e+001	-7.016497e-001	1.910111e+001	-1.783345e+001	1.794000e+001	-2.678452e+000	-1.075815e+002
2556473313	-4.244812e+000	-5.454247e+001	-7.425394e-001	1.886677e+001	-1.785458e+001	1.768989e+001	-2.673552e+000	-1.077572e+002
2562723125	-4.232226e+000	-5.464276e+001	-7.670542e-001	1.857881e+001	-1.784631e+001	1.757590e+001	-2.676949e+000	-1.079607e+002
2568972938	-4.225458e+000	-5.474216e+001	-8.118394e-001	1.844447e+001	-1.787897e+001	1.743776e+001	-2.673331e+000	-1.081487e+002
2575222750	-4.219218e+000	-5.482768e+001	-8.393845e-001	1.814323e+001	-1.787475e+001	1.724438e+001	-2.667507e+000	-1.084126e+002
2581472563	-4.209831e+000	-5.495227e+001	-8.517555e-001	1.792532e+001	-1.788241e+001	1.707357e+001	-2.665125e+000	-1.086239e+002
2587722375	-4.201032e+000	-5.504560e+001	-8.915342e-001	1.776253e+001	-1.788511e+001	1.697556e+001	-2.664551e+000	-1.088110e+002
2593972188	-4.200737e+000	-5.514199e+001	-9.319969e-001	1.748495e+001	-1.788998e+001	1.673310e+001	-2.665005e+000	-1.089990e+002
2600222000	-4.189726e+000	-5.523249e+001	-9.683985e-001	1.727679e+001	-1.788377e+001	1.668203e+001	-2.659036e+000	-1.092170e+002
2606471813	-4.184828e+000	-5.534286e+001	-9.913767e-001	1.701963e+001	-1.790406e+001	1.654564e+001	-2.655666e+000	-1.094267e+002
2612721625	-4.182373e+000	-5.542953e+001	-1.040103e+000	1.676397e+001	-1.789822e+001	1.646736e+001	-2.650771e+000	-1.096229e+002
2618971438	-4.170428e+000	-5.552206e+001	-1.068763e+000	1.659629e+001	-1.789569e+001	1.627600e+001	-2.654233e+000	-1.098255e+002
2625221250	-4.160176e+000	-5.563857e+001	-1.095911e+000	1.640413e+001	-1.791273e+001	1.621916e+001	-2.656664e+000	-1.100550e+002
2631471063	-4.152386e+000	-5.572138e+001	-1.130705e+000	1.615223e+001	-1.787771e+001	1.594569e+001	-2.645636e+000	-1.102445e+002
2637720875	-4.144645e+000	-5.586482e+001	-1.154133e+000	1.587649e+001	-1.789049e+001	1.586431e+001	-2.652837e+000	-1.104279e+002
2643970688	-4.131618e+000	-5.592150e+001	-1.176898e+000	1.575356e+001	-1.787795e+001	1.558043e+001	-2.644132e+000	-1.106551e+002
2650220500	-4.131516e+000	-5.604618e+001	-1.226233e+000	1.548143e+001	-1.787012e+001	1.539882e+001	-2.648435e+000	-1.108441e+002
2656470313	-4.122281e+000	-5.612606e+001	-1.251711e+000	1.529988e+001	-1.788560e+001	1.523548e+001	-2.645412e+000	-1.110677e+002
2662720125	-4.118659e+000	-5.622356e+001	-1.279456e+000	1.509619e+001	-1.789156e+001	1.520705e+001	-2.638693e+000	-1.112690e+002
2668969938	-4.113274e+000	-5.628578e+001	-1.335687e+000	1.491159e+001	-1.790702e+001	1.492208e+001	-2.640518e+000	-1.114252e+002
2675219750	-4.105400e+000	-5.640271e+001	-1.363840e+000	1.461850e+001	-1.789832e+001	1.488787e+001	-2.633962e+000	-1.116620e+002
2681469563	-4.089916e+000	-5.645636e+001	-1.394254e+000	1.448765e+001	-1.789446e+001	1.460995e+001	-2.636793e+000	-1.118953e+002
2687719375	-4.085512e+000	-5.655931e+001	-1.420947e+000	1.428871e+001	-1.790860e+001	1.436751e+001	-2.627475e+000	-1.121183e+002
2693969188	-4.087376e+000	-5.665337e+001	-1.450776e+000	1.403340e+001	-1.792794e+001	1.440833e+001	-2.623735e+000	-1.122117e+002
2700219000	-4.078329e+000	-5.673790e+001	-1.493302e+000	1.383633e+001	-1.793719e+001	1.419010e+001	-2.627196e+000	-1.124332e+002
2706468813	-4.074788e+000	-5.684843e+001	-1.521920e+000	1.369112e+001	-1.793418e+001	1.404808e+001	-2.631179e+000	-1.127045e+002
2712718625	-4.067115e+000	-5.689239e+001	-1.544972e+000	1.344791e+001	-1.793698e+001	1.382686e+001	-2.626094e+000	-1.128737e+002
2718968438	-4.059697e+000	-5.701269e+001	-1.578115e+000	1.318349e+001	-1.791956e+001	1.368611e+001	-2.628601e+000	-1.131402e+002
2725218250	-4.057905e+000	-5.708114e+001	-1.607518e+000	1.294559e+001	-1.793173e+001	1.358362e+001	-2.630317e+000	-1.133165e+002
2731468063	-4.053693e+000	-5.719251e+001	-1.637242e+000	1.268382e+001	-1.792258e+001	1.331739e+001	-2.633723e+000	-1.135916e+002
2737717875	-4.046571e+000	-5.727856e+001	-1.667994e+000	1.255677e+001	-1.790601e+001	1.318109e+001	-2.629286e+000	-1.137544e+002
2743967688	-4.040505e+000	-5.736718e+001	-1.704191e+000	1.231257e+001	-1.792851e+001	1.300483e+001	-2.632325e+000	-1.139279e+002
2750217500	-4.037495e+000	-5.742051e+001	-1.741109e+000	1.205766e+001	-1.793087e+001	1.306281e+001	-2.631107e+000	-1.141246e+002
2756467313	-4.035735e+000	-5.751097e+001	-1.763105e+000	1.193097e+001	-1.793485e+001	1.292377e+001	-2.632814e+000	-1.143339e+002
2762717125	-4.025492e+000	-5.765274e+001	-1.792574e+000	1.166746e+001	-1.793163e+001	1.263042e+001	-2.640601e+000	-1.144782e+002
2768966938	-4.018657e+000	-5.775446e+001	-1.833567e+000	1.162343e+001	-1.793183e+001	1.255686e+001	-2.628916e+000	-1.147051e+002
2775216750	-4.016101e+000	-5.782035e+001	-1.855088e+000	1.134451e+001	-1.793831e+001	1.236508e+001	-2.628809e+000	-1.148841e+002
2781466563	-4.004764e+000	-5.792080e+001	-1.879777e+000	1.115653e+001	-1.793616e+001	1.224353e+001	-2.628095e+000	-1.150859e+002
2787716375	-3.997729e+000	-5.801835e+001	-1.914820e+000	1.093801e+001	-1.794550e+001	1.215185e+001	-2.629436e+000	-1.152571e+002
2793966188	-4.002435e+000	-5.813192e+001	-1.956640e+000	1.070518e+001	-1.793606e+001	1.193515e+001	-2.628474e+000	-1.154433e+002
2800216000	-3.992278e+000	-5.822483e+001	-1.988692e+000	1.051700e+001	-1.793463e+001	1.165627e+001	-2.629031e+000	-1.156690e+002
2806465813	-3.990412e+000	-5.828238e+001	-2.008594e+000	1.030499e+001	-1.793403e+001	1.163431e+001	-2.633389e+000	-1.159814e+002
2812715625	-3.984080e+000	-5.839027e+001	-2.050076e+000	1.014232e+001	-1.794282e+001	1.147792e+001	-2.634388e+000	-1.160151e+002
2818965438	-3.974883e+000	-5.846993e+001	-2.084481e+000	9.841963e+000	-1.793392e+001	1.133886e+001	-2.638793e+000	-1.162579e+002
2825215250	-3.972929e+000	-5.857269e+001	-2.107314e+000	9.672409e+000	-1.792781e+001	1.099886e+001	-2.634834e+000	-1.164855e+002
2831465063	-3.969263e+000	-5.864565e+001	-2.151136e+000	9.452453e+000	-1.792168e+001	1.085771e+001	-2.633798e+000	-1.167410e+002
2837714875	-3.961544e+000	-5.875678e+001	-2.182475e+000	9.327940e+000	-1.793644e+001	1.069517e+001	-2.642405e+000	-1.169703e+002
2843964688	-3.955524e+000	-5.882716e+001	-2.201249e+000	8.990072e+000	-1.793047e+001	1.041921e+001	-2.638396e+000	-1.171209e+002
2850214500	-3.951098e+000	-5.892302e+001	-2.246252e+000	8.848312e+000	-1.794271e+001	1.041561e+001	-2.637608e+000	-1.172768e+002
2856464313	-3.948499e+000	-5.899493e+001	-2.286911e+000	8.630392e+000	-1.792862e+001	1.008166e+001	-2.650852e+000	-1.175323e+002
2862714125	-3.936049e+000	-5.909231e+001	-2.300151e+000	8.370028e+000	-1.793565e+001	9.854720e+000	-2.641193e+000	-1.177071e+002
2868963938	-3.934337e+000	-5.918248e+001	-2.343526e+000	8.287074e+000	-1.795230e+001	9.793846e+000	-2.643655e+000	-1.179145e+002
2875213750	-3.925758e+000	-5.928543e+001	-2.371836e+000	8.094412e+000	-1.798217e+001	9.518524e+000	-2.651509e+000	-1.181194e+002
2881463563	-3.920426e+000	-5.933451e+001	-2.400229e+000	7.952617e+000	-1.795156e+001	9.327753e+000	-2.647298e+000	-1.183527e+002
2887713375	-3.919355e+000	-5.941949e+001	-2.440641e+000	7.697758e+000	-1.795683e+001	9.060656e+000	-2.643380e+000	-1.185742e+002
2893963188	-3.908252e+000	-5.952243e+001	-2.468197e+000	7.480097e+000	-1.796247e+001	8.961304e+000	-2.649796e+000	-1.187356e+002
2900213000	-3.902460e+000	-5.954527e+001	-2.508468e+000	7.271456e+000	-1.798349e+001	8.722670e+000	-2.648666e+000	-1.189264e+002
2906462813	-3.893966e+000	-5.966056e+001	-2.531480e+000	7.129571e+000	-1.798702e+001	8.260667e+000	-2.655520e+000	-1.190810e+002
2912712625	-3.893210e+000	-5.975656e+001	-2.567130e+000	7.050254e+000	-1.797813e+001	8.169179e+000	-2.659580e+000	-1.193543e+002
2918962438	-3.881217e+000	-5.977774e+001	-2.617614e+000	6.835559e+000	-1.798285e+001	7.904357e+000	-2.666166e+000	-1.195458e+002
2925212250	-3.878944e+000	-5.987846e+001	-2.651057e+000	6.650728e+000	-1.799187e+001	7.693827e+000	-2.668253e+000	-1.197310e+002
2931462063	-3.873967e+000	-5.996329e+001	-2.690323e+000	6.450850e+000	-1.800287e+001	7.349459e+000	-2.672950e+000	-1.199627e+002
2937711875	-3.861581e+000	-6.002728e+001	-2.734274e+000	6.318475e+000	-1.801921e+001	7.164681e+000	-2.679142e+000	-1.201182e+002
2943961688	-3.853425e+000	-6.013525e+001	-2.760270e+000	6.175039e+000	-1.805173e+001	6.836199e+000	-2.690398e+000	-1.203210e+002
2950211500	-3.841098e+000	-6.022760e+001	-2.788695e+000	5.965183e+000	-1.805311e+001	6.623709e+000	-2.695156e+000	-1.205071e+002
2956461313	-3.824854e+000	-6.030366e+001	-2.831990e+000	5.787696e+000	-1.807494e+001	6.350490e+000	-2.701087e+000	-1.207323e+002
2962711125	-3.818765e+000	-6.034902e+001	-2.855246e+000	5.714091e+000	-1.808633e+001	6.032676e+000	-2.712338e+000	-1.209069e+002
2968960938	-3.804804e+000	-6.041542e+001	-2.894256e+000	5.657023e+000	-1.812428e+001	5.745437e+000	-2.712626e+000	-1.210919e+002
2975210750	-3.786931e+000	-6.054915e+001	-2.927023e+000	5.506830e+000	-1.816500e+001	5.467472e+000	-2.722063e+000	-1.213249e+002
2981460563	-3.775736e+000	-6.064695e+001	-2.968347e+000	5.409492e+000	-1.819429e+001	5.322598e+000	-2.731209e+000	-1.214943e+002
2987710375	-3.760667e+000	-6.077762e+001	-2.991950e+000	5.324254e+000	-1.822864e+001	5.082685e+000	-2.732968e+000	-1.216519e+002
2993960188	-3.753002e+000	-6.089503e+001	-3.044340e+000	5.164544e+000	-1.827069e+001	5.003114e+000	-2.749463e+000	-1.218402e+002
3000210000	-3.735897e+000	-6.103950e+001	-3.067707e+000	5.076506e+000	-1.833169e+001	4.630142e+000	-2.751517e+000	-1.219798e+002
3006459813	-3.721682e+000	-6.117189e+001	-3.094975e+000	5.039848e+000	-1.837599e+001	4.660878e+000	-2.765018e+000	-1.221028e+002
3012709625	-3.707025e+000	-6.131751e+001	-3.116408e+000	5.031260e+000	-1.842287e+001	4.474321e+000	-2.770663e+000	-1.222269e+002
3018959438	-3.697165e+000	-6.147095e+001	-3.138386e+000	4.944643e+000	-1.844265e+001	4.441518e+000	-2.775453e+000	-1.224361e+002
3025209250	-3.684508e+000	-6.163620e+001	-3.154160e+000	4.843745e+000	-1.852610e+001	4.485708e+000	-2.774034e+000	-1.225341e+002
3031459063	-3.677109e+000	-6.180994e+001	-3.177480e+000	4.732601e+000	-1.854195e+001	4.567292e+000	-2.785663e+000	-1.227081e+002
3037708875	-3.668964e+000	-6.200530e+001	-3.186498e+000	4.614198e+000	-1.857577e+001	4.678480e+000	-2.774413e+000	-1.228060e+002
3043958688	-3.664288e+000	-6.217228e+001	-3.203618e+000	4.405518e+000	-1.863604e+001	4.606680e+000	-2.782915e+000	-1.229468e+002
3050208500	-3.660795e+000	-6.232954e+001	-3.212076e+000	4.367700e+000	-1.868061e+001	4.669250e+000	-2.782568e+000	-1.230937e+002
3056458313	-3.654367e+000	-6.249156e+001	-3.233241e+000	4.223694e+000	-1.868783e+001	4.983416e+000	-2.790597e+000	-1.232314e+002
3062708125	-3.657742e+000	-6.266203e+001	-3.245178e+000	4.034558e+000	-1.869617e+001	5.065697e+000	-2.785736e+000	-1.234209e+002
3068957938	-3.657579e+000	-6.282892e+001	-3.263795e+000	3.957231e+000	-1.872478e+001	5.156596e+000	-2.788461e+000	-1.235080e+002
3075207750	-3.659268e+000	-6.299434e+001	-3.268621e+000	3.806373e+000	-1.873741e+001	5.267797e+000	-2.786161e+000	-1.236878e+002
3081457563	-3.658631e+000	-6.314492e+001	-3.287036e+000	3.634314e+000	-1.872525e+001	5.351755e+000	-2.778201e+000	-1.238666e+002
3087707375	-3.666752e+000	-6.329597e+001	-3.302409e+000	3.463631e+000	-1.874077e+001	5.417497e+000	-2.796773e+000	-1.239896e+002
3093957188	-3.665275e+000	-6.344472e+001	-3.316404e+000	3.177325e+000	-1.874562e+001	5.396165e+000	-2.776303e+000	-1.241511e+002
3100207000	-3.666038e+000	-6.356292e+001	-3.328327e+000	3.082072e+000	-1.874440e+001	5.412540e+000	-2.784549e+000	-1.243017e+002
3106456813	-3.669427e+000	-6.373374e+001	-3.354206e+000	2.879947e+000	-1.874848e+001	5.454441e+000	-2.776389e+000	-1.244769e+002
3112706625	-3.669807e+000	-6.385654e+001	-3.362209e+000	2.607925e+000	-1.875205e+001	5.548911e+000	-2.769051e+000	-1.246253e+002
3118956438	-3.675024e+000	-6.398616e+001	-3.385216e+000	2.541692e+000	-1.872339e+001	5.435387e+000	-2.770633e+000	-1.248627e+002
3125206250	-3.678184e+000	-6.414655e+001	-3.417740e+000	2.195752e+000	-1.873395e+001	5.478002e+000	-2.766443e+000	-1.249865e+002
3131456063	-3.682586e+000	-6.427054e+001	-3.436439e+000	2.068960e+000	-1.875647e+001	5.582171e+000	-2.765335e+000	-1.251894e+002
3137705875	-3.681382e+000	-6.434010e+001	-3.448469e+000	1.918256e+000	-1.874415e+001	5.674882e+000	-2.761726e+000	-1.253953e+002
3143955688	-3.687992e+000	-6.447353e+001	-3.453500e+000	1.706786e+000	-1.876366e+001	5.692592e+000	-2.758360e+000	-1.256256e+002
3150205500	-3.688599e+000	-6.452346e+001	-3.479258e+000	1.464348e+000	-1.875025e+001	5.766195e+000	-2.764771e+000	-1.257716e+002
3156455313	-3.688277e+000	-6.464517e+001	-3.505394e+000	1.348953e+000	-1.871984e+001	5.707955e+000	-2.762732e+000	-1.259917e+002
3162705125	-3.688119e+000	-6.475675e+001	-3.535345e+000	1.074999e+000	-1.873550e+001	5.526743e+000	-2.766518e+000	-1.261511e+002
3168954938	-3.689269e+000	-6.483905e+001	-3.546901e+000	9.440091e-001	-1.871848e+001	5.746249e+000	-2.769362e+000	-1.263656e+002
3175204750	-3.684047e+000	-6.496202e+001	-3.564036e+000	7.133122e-001	-1.872519e+001	5.601082e+000	-2.774796e+000	-1.265818e+002
3181454563	-3.686117e+000	-6.507586e+001	-3.594492e+000	4.819367e-001	-1.871588e+001	5.524530e+000	-2.766005e+000	-1.267239e+002
3187704375	-3.684461e+000	-6.514418e+001	-3.624081e+000	3.558031e-001	-1.870867e+001	5.334887e+000	-2.767991e+000	-1.268618e+002
3193954188	-3.685419e+000	-6.527986e+001	-3.644399e+000	1.781537e-001	-1.870395e+001	5.467998e+000	-2.772193e+000	-1.271178e+002
3200204000	-3.681275e+000	-6.542449e+001	-3.657496e+000	-3.975447e-002	-1.870053e+001	5.309069e+000	-2.774865e+000	-1.272867e+002
3206453813	-3.690404e+000	-6.548173e+001	-3.685605e+000	-2.982360e-001	-1.868354e+001	5.153717e+000	-2.763580e+000	-1.274870e+002
3212703625	-3.686070e+000	-6.561195e+001	-3.713784e+000	-4.423360e-001	-1.867404e+001	5.160999e+000	-2.776469e+000	-1.276755e+002
3218953438	-3.682644e+000	-6.570868e+001	-3.729074e+000	-6.012992e-001	-1.869700e+001	5.000547e+000	-2.764531e+000	-1.278553e+002
3225203250	-3.684454e+000	-6.582917e+001	-3.745064e+000	-8.929918e-001	-1.867137e+001	5.031387e+000	-2.771082e+000	-1.280394e+002
3231453063	-3.684559e+000	-6.594293e+001	-3.772824e+000	-1.053727e+000	-1.867399e+001	4.968174e+000	-2.770899e+000	-1.282017e+002
3237702875	-3.685534e+000	-6.600829e+001	-3.793040e+000	-1.237448e+000	-1.867558e+001	4.722411e+000	-2.768336e+000	-1.284422e+002
3243952688	-3.693667e+000	-6.611852e+001	-3.822646e+000	-1.503284e+000	-1.867227e+001	4.753738e+000	-2.763966e+000	-1.286619e+002
3250202500	-3.687901e+000	-6.621984e+001	-3.837138e+000	-1.637400e+000	-1.866901e+001	4.702806e+000	-2.767434e+000	-1.288261e+002
3256452313	-3.687381e+000	-6.632134e+001	-3.844471e+000	-1.870591e+000	-1.867687e+001	4.549810e+000	-2.775119e+000	-1.290416e+002
3262702125	-3.687560e+000	-6.643660e+001	-3.887021e+000	-2.074933e+000	-1.865751e+001	4.633106e+000	-2.779966e+000	-1.292352e+002
3268951938	-3.690186e+000	-6.654292e+001	-3.900006e+000	-2.202332e+000	-1.867609e+001	4.543932e+000	-2.774488e+000	-1.294176e+002
3275201750	-3.686902e+000	-6.665432e+001	-3.918751e+000	-2.480410e+000	-1.865377e+001	4.473095e+000	-2.780634e+000	-1.296687e+002
3281451563	-3.688763e+000	-6.678337e+001	-3.953767e+000	-2.635978e+000	-1.865624e+001	4.260273e+000	-2.788512e+000	-1.298358e+002
3287701375	-3.688967e+000	-6.688819e+001	-3.968125e+000	-2.739094e+000	-1.867031e+001	4.218049e+000	-2.787679e+000	-1.300145e+002
3293951188	-3.685298e+000	-6.700853e+001	-4.002706e+000	-2.910919e+000	-1.866695e+001	3.994149e+000	-2.795680e+000	-1.301762e+002
3300201000	-3.685281e+000	-6.708307e+001	-4.022384e+000	-3.104876e+000	-1.865056e+001	3.935362e+000	-2.797317e+000	-1.303985e+002
3306450813	-3.683713e+000	-6.723320e+001	-4.047871e+000	-3.427295e+000	-1.865757e+001	3.978907e+000	-2.806746e+000	-1.305429e+002
3312700625	-3.681911e+000	-6.731708e+001	-4.052349e+000	-3.461179e+000	-1.864199e+001	3.870476e+000	-2.806416e+000	-1.307474e+002
3318950438	-3.676646e+000	-6.746320e+001	-4.086948e+000	-3.714900e+000	-1.864734e+001	3.798581e+000	-2.804315e+000	-1.309123e+002
3325200250	-3.678646e+000	-6.757323e+001	-4.116906e+000	-3.897745e+000	-1.863765e+001	3.670798e+000	-2.806254e+000	-1.311451e+002
3331450063	-3.677431e+000	-6.767168e+001	-4.134806e+000	-4.111885e+000	-1.863592e+001	3.636724e+000	-2.815662e+000	-1.313093e+002
3337699875	-3.676517e+000	-6.781398e+001	-4.160696e+000	-4.323177e+000	-1.862087e+001	3.513038e+000	-2.813990e+000	-1.315457e+002
3343949688	-3.673784e+000	-6.791211e+001	-4.172973e+000	-4.506278e+000	-1.862714e+001	3.525548e+000	-2.819108e+000	-1.317075e+002
3350199500	-3.673718e+000	-6.801948e+001	-4.212921e+000	-4.696093e+000	-1.863985e+001	3.553026e+000	-2.825387e+000	-1.318415e+002
3356449313	-3.665728e+000	-6.811472e+001	-4.245172e+000	-4.795300e+000	-1.863252e+001	3.372869e+000	-2.830897e+000	-1.320245e+002
3362699125	-3.670757e+000	-6.824458e+001	-4.271995e+000	-5.039854e+000	-1.862560e+001	3.221931e+000	-2.834900e+000	-1.322717e+002
3368948938	-3.671567e+000	-6.837465e+001	-4.275708e+000	-5.239684e+000	-1.862967e+001	3.225958e+000	-2.841077e+000	-1.324380e+002
3375198750	-3.663868e+000	-6.846359e+001	-4.299121e+000	-5.422149e+000	-1.863355e+001	3.036585e+000	-2.853366e+000	-1.326558e+002
3381448563	-3.672509e+000	-6.856745e+001	-4.336616e+000	-5.542905e+000	-1.862049e+001	2.927545e+000	-2.859552e+000	-1.328474e+002
3387698375	-3.667310e+000	-6.867706e+001	-4.362600e+000	-5.659470e+000	-1.859519e+001	2.902051e+000	-2.865958e+000	-1.329601e+002
3393948188	-3.672647e+000	-6.881100e+001	-4.394699e+000	-5.986823e+000	-1.859159e+001	2.651291e+000	-2.862688e+000	-1.331092e+002
3400198000	-3.668320e+000	-6.885745e+001	-4.402577e+000	-6.122425e+000	-1.857406e+001	2.545341e+000	-2.877332e+000	-1.332912e+002
3406447813	-3.668161e+000	-6.899388e+001	-4.430845e+000	-6.231048e+000	-1.856061e+001	2.328889e+000	-2.876801e+000	-1.333670e+002
3412697625	-3.665937e+000	-6.910971e+001	-4.450353e+000	-6.396027e+000	-1.855260e+001	2.359280e+000	-2.876117e+000	-1.335510e+002
3418947438	-3.668133e+000	-6.920478e+001	-4.466671e+000	-6.526044e+000	-1.854630e+001	2.095107e+000	-2.876443e+000	-1.336731e+002
3425197250	-3.671117e+000	-6.934313e+001	-4.496234e+000	-6.834651e+000	-1.853664e+001	1.916082e+000	-2.863258e+000	-1.338159e+002
3431447063	-3.667665e+000	-6.942648e+001	-4.513426e+000	-6.903434e+000	-1.854395e+001	1.554466e+000	-2.858338e+000	-1.339945e+002
3437696875	-3.665436e+000	-6.955680e+001	-4.512944e+000	-7.236199e+000	-1.853789e+001	1.464778e+000	-2.838986e+000	-1.341630e+002
3443946688	-3.666590e+000	-6.969172e+001	-4.561744e+000	-7.337474e+000	-1.854355e+001	1.151680e+000	-2.845467e+000	-1.343591e+002
3450196500	-3.666494e+000	-6.981444e+001	-4.573506e+000	-7.530380e+000	-1.856064e+001	1.102440e+000	-2.838115e+000	-1.345453e+002
3456446313	-3.668435e+000	-6.991425e+001	-4.601340e+000	-7.667210e+000	-1.856581e+001	8.855508e-001	-2.825356e+000	-1.347369e+002
3462696125	-3.660712e+000	-7.000349e+001	-4.609210e+000	-7.935349e+000	-1.857659e+001	8.440243e-001	-2.827252e+000	-1.349862e+002
3468945938	-3.664895e+000	-7.015196e+001	-4.641616e+000	-8.103140e+000	-1.859885e+001	7.362021e-001	-2.826366e+000	-1.352181e+002
3475195750	-3.665110e+000	-7.032087e+001	-4.661834e+000	-8.308695e+000	-1.860982e+001	4.937186e-001	-2.826537e+000	-1.354195e+002
3481445563	-3.663516e+000	-7.043108e+001	-4.680548e+000	-8.487592e+000	-1.860910e+001	5.751603e-001	-2.827554e+000	-1.356736e+002
3487695375	-3.658746e+000	-7.052740e+001	-4.706052e+000	-8.713458e+000	-1.861367e+001	3.236784e-001	-2.831122e+000	-1.359281e+002
3493945188	-3.662137e+000	-7.066435e+001	-4.742242e+000	-8.870352e+000	-1.862490e+001	1.779383e-001	-2.840742e+000	-1.361220e+002
3500195000	-3.659616e+000	-7.082034e+001	-4.759875e+000	-9.049947e+000	-1.864549e+001	-4.979417e-003	-2.847728e+000	-1.362776e+002
3506444813	-3.662526e+000	-7.092509e+001	-4.786738e+000	-9.132833e+000	-1.862645e+001	7.301295e-004	-2.846497e+000	-1.365185e+002
3512694625	-3.660268e+000	-7.104138e+001	-4.798703e+000	-9.438423e+000	-1.862730e+001	-1.602027e-001	-2.857861e+000	-1.366996e+002
3518944438	-3.657654e+000	-7.116944e+001	-4.823710e+000	-9.583737e+000	-1.862409e+001	-4.794936e-002	-2.849833e+000	-1.369044e+002
3525194250	-3.658789e+000	-7.129966e+001	-4.849433e+000	-9.728980e+000	-1.863500e+001	-2.508570e-001	-2.855445e+000	-1.371075e+002
3531444063	-3.660036e+000	-7.143133e+001	-4.867838e+000	-9.952872e+000	-1.863430e+001	-4.279031e-001	-2.857562e+000	-1.372411e+002
3537693875	-3.655985e+000	-7.152665e+001	-4.880844e+000	-1.007669e+001	-1.863545e+001	-4.113121e-001	-2.862214e+000	-1.374440e+002
3543943688	-3.653839e+000	-7.167110e+001	-4.909840e+000	-1.033648e+001	-1.862304e+001	-5.672842e-001	-2.869181e+000	-1.376143e+002
3550193500	-3.652352e+000	-7.179270e+001	-4.924690e+000	-1.049986e+001	-1.864431e+001	-6.849911e-001	-2.860905e+000	-1.377753e+002
3556443313	-3.652344e+000	-7.194482e+001	-4.950758e+000	-1.068106e+001	-1.862158e+001	-9.279963e-001	-2.864933e+000	-1.379665e+002
3562693125	-3.655104e+000	-7.203724e+001	-4.980654e+000	-1.086263e+001	-1.862796e+001	-1.061912e+000	-2.865403e+000	-1.381300e+002
3568942938	-3.648380e+000	-7.215082e+001	-4.991132e+000	-1.108990e+001	-1.863800e+001	-1.300834e+000	-2.862051e+000	-1.383402e+002
3575192750	-3.647452e+000	-7.227293e+001	-5.017249e+000	-1.117631e+001	-1.863347e+001	-1.543485e+000	-2.855288e+000	-1.385026e+002
3581442563	-3.647280e+000	-7.245865e+001	-5.040738e+000	-1.145427e+001	-1.866981e+001	-1.711762e+000	-2.859875e+000	-1.387033e+002
3587692375	-3.638497e+000	-7.254887e+001	-5.059501e+000	-1.156437e+001	-1.865699e+001	-1.792504e+000	-2.853641e+000	-1.388927e+002
3593942188	-3.651599e+000	-7.265340e+001	-5.093029e+000	-1.175781e+001	-1.869639e+001	-1.936601e+000	-2.858660e+000	-1.391223e+002
3600192000	-3.641645e+000	-7.279078e+001	-5.110866e+000	-1.188867e+001	-1.865997e+001	-2.008690e+000	-2.849597e+000	-1.393624e+002
3606441813	-3.640784e+000	-7.290792e+001	-5.129067e+000	-1.208327e+001	-1.867645e+001	-2.123083e+000	-2.852853e+000	-1.395347e+002
3612691625	-3.647704e+000	-7.306683e+001	-5.158143e+000	-1.236552e+001	-1.870822e+001	-2.375675e+000	-2.857691e+000	-1.397391e+002
3618941438	-3.645768e+000	-7.316526e+001	-5.177724e+000	-1.253442e+001	-1.871647e+001	-2.459297e+000	-2.851768e+000	-1.399739e+002
3625191250	-3.642355e+000	-7.329069e+001	-5.210626e+000	-1.271953e+001	-1.870971e+001	-2.557070e+000	-2.855603e+000	-1.401844e+002
3631441063	-3.647275e+000	-7.345000e+001	-5.226130e+000	-1.285606e+001	-1.874081e+001	-2.701659e+000	-2.858106e+000	-1.403745e+002
3637690875	-3.640672e+000	-7.357600e+001	-5.247941e+000	-1.305833e+001	-1.876534e+001	-2.632085e+000	-2.859723e+000	-1.406349e+002
3643940688	-3.640281e+000	-7.368185e+001	-5.260691e+000	-1.328785e+001	-1.875176e+001	-2.788723e+000	-2.861685e+000	-1.408091e+002
3650190500	-3.641736e+000	-7.381584e+001	-5.290875e+000	-1.343712e+001	-1.877139e+001	-2.858236e+000	-2.860732e+000	-1.410224e+002
3656440313	-3.649964e+000	-7.396275e+001	-5.320393e+000	-1.352583e+001	-1.877989e+001	-2.984240e+000	-2.866499e+000	-1.412339e+002
3662690125	-3.643641e+000	-7.411652e+001	-5.328030e+000	-1.382155e+001	-1.877280e+001	-3.218565e+000	-2.867994e+000	-1.414932e+002
3668939938	-3.643579e+000	-7.425045e+001	-5.364709e+000	-1.404317e+001	-1.880869e+001	-3.252990e+000	-2.868610e+000	-1.416628e+002
3675189750	-3.637684e+000	-7.435157e+001	-5.363866e+000	-1.420153e+001	-1.879323e+001	-3.348722e+000	-2.868859e+000	-1.418832e+002
3681439563	-3.642919e+000	-7.451753e+001	-5.398422e+000	-1.434615e+001	-1.880562e+001	-3.332162e+000	-2.877394e+000	-1.421122e+002
3687689375	-3.636613e+000	-7.465600e+001	-5.409134e+000	-1.460553e+001	-1.879729e+001	-3.625610e+000	-2.878903e+000	-1.423056e+002
3693939188	-3.638983e+000	-7.473840e+001	-5.438181e+000	-1.460739e+001	-1.881208e+001	-3.734687e+000	-2.885933e+000	-1.425547e+002
3700189000	-3.641733e+000	-7.490386e+001	-5.457033e+000	-1.486562e+001	-1.881385e+001	-3.844426e+000	-2.888922e+000	-1.427399e+002
3706438813	-3.638176e+000	-7.503075e+001	-5.477486e+000	-1.505958e+001	-1.882050e+001	-3.913599e+000	-2.886764e+000	-1.429590e+002
3712688625	-3.637612e+000	-7.516851e+001	-5.504091e+000	-1.521876e+001	-1.880941e+001	-3.925943e+000	-2.887698e+000	-1.431495e+002
3718938438	-3.641363e+000	-7.534640e+001	-5.541183e+000	-1.547831e+001	-1.881617e+001	-4.212770e+000	-2.892220e+000	-1.433657e+002
3725188250	-3.637320e+000	-7.548079e+001	-5.555705e+000	-1.562785e+001	-1.882770e+001	-4.314272e+000	-2.895662e+000	-1.435703e+002
3731438063	-3.632858e+000	-7.561499e+001	-5.580157e+000	-1.582703e+001	-1.882534e+001	-4.412715e+000	-2.889937e+000	-1.437433e+002
3737687875	-3.644713e+000	-7.576540e+001	-5.611306e+000	-1.610678e+001	-1.887423e+001	-4.632104e+000	-2.892622e+000	-1.439881e+002
3743937688	-3.636142e+000	-7.587657e+001	-5.621531e+000	-1.614663e+001	-1.884940e+001	-4.792338e+000	-2.886121e+000	-1.441625e+002
3750187500	-3.640623e+000	-7.605581e+001	-5.650535e+000	-1.640575e+001	-1.889315e+001	-4.798903e+000	-2.896219e+000	-1.443976e+002
3756437313	-3.640418e+000	-7.619603e+001	-5.673511e+000	-1.655518e+001	-1.888316e+001	-4.976467e+000	-2.892569e+000	-1.446294e+002
3762687125	-3.639129e+000	-7.639758e+001	-5.688733e+000	-1.681411e+001	-1.891838e+001	-5.162475e+000	-2.892685e+000	-1.448362e+002
3768936938	-3.641606e+000	-7.651305e+001	-5.714644e+000	-1.697966e+001	-1.891925e+001	-5.182860e+000	-2.891889e+000	-1.450517e+002
3775186750	-3.639094e+000	-7.668034e+001	-5.744859e+000	-1.719655e+001	-1.894244e+001	-5.095775e+000	-2.893869e+000	-1.453088e+002
3781436563	-3.643676e+000	-7.681505e+001	-5.767161e+000	-1.727858e+001	-1.896349e+001	-5.301759e+000	-2.900459e+000	-1.455143e+002
3787686375	-3.641357e+000	-7.697064e+001	-5.790257e+000	-1.749686e+001	-1.896216e+001	-5.412894e+000	-2.906118e+000	-1.457399e+002
3793936188	-3.645599e+000	-7.713411e+001	-5.818321e+000	-1.768408e+001	-1.896843e+001	-5.448615e+000	-2.911138e+000	-1.459386e+002
3800186000	-3.645155e+000	-7.726359e+001	-5.837360e+000	-1.780654e+001	-1.897586e+001	-5.434175e+000	-2.907168e+000	-1.461527e+002
3806435813	-3.645302e+000	-7.744351e+001	-5.864578e+000	-1.804210e+001	-1.898029e+001	-5.577529e+000	-2.917741e+000	-1.464026e+002
3812685625	-3.643192e+000	-7.759904e+001	-5.891616e+000	-1.821960e+001	-1.899315e+001	-5.607209e+000	-2.921158e+000	-1.465870e+002
3818935438	-3.642411e+000	-7.770791e+001	-5.900898e+000	-1.837230e+001	-1.898109e+001	-5.636662e+000	-2.928208e+000	-1.468039e+002
3825185250	-3.641484e+000	-7.790016e+001	-5.938533e+000	-1.861048e+001	-1.900878e+001	-5.640159e+000	-2.938360e+000	-1.470368e+002
3831435063	-3.640046e+000	-7.801596e+001	-5.938837e+000	-1.872996e+001	-1.899043e+001	-5.603496e+000	-2.934242e+000	-1.472376e+002
3837684875	-3.645402e+000	-7.816502e+001	-5.962604e+000	-1.885541e+001	-1.898480e+001	-5.880786e+000	-2.944147e+000	-1.474641e+002
3843934688	-3.639918e+000	-7.831928e+001	-5.986456e+000	-1.905473e+001	-1.901687e+001	-5.925524e+000	-2.945453e+000	-1.476535e+002
3850184500	-3.641948e+000	-7.847315e+001	-6.007551e+000	-1.929932e+001	-1.899380e+001	-5.974620e+000	-2.956528e+000	-1.478347e+002
3856434313	-3.632934e+000	-7.859981e+001	-6.032558e+000	-1.940354e+001	-1.899742e+001	-6.142469e+000	-2.961733e+000	-1.480342e+002
3862684125	-3.634509e+000	-7.874845e+001	-6.049612e+000	-1.968906e+001	-1.899816e+001	-6.268511e+000	-2.965972e+000	-1.482591e+002
3868933938	-3.641741e+000	-7.889298e+001	-6.089676e+000	-1.978633e+001	-1.896541e+001	-6.521664e+000	-2.966580e+000	-1.484714e+002
3875183750	-3.636954e+000	-7.907107e+001	-6.109460e+000	-2.004263e+001	-1.897045e+001	-6.652879e+000	-2.963608e+000	-1.486860e+002
3881433563	-3.638319e+000	-7.919447e+001	-6.130091e+000	-2.023393e+001	-1.900416e+001	-6.652784e+000	-2.973773e+000	-1.489011e+002
3887683375	-3.640881e+000	-7.934287e+001	-6.159014e+000	-2.041186e+001	-1.899440e+001	-6.957152e+000	-2.982560e+000	-1.490851e+002
3893933188	-3.639779e+000	-7.951240e+001	-6.186864e+000	-2.064833e+001	-1.901644e+001	-7.018967e+000	-2.977882e+000	-1.492573e+002
3900183000	-3.647007e+000	-7.963225e+001	-6.213945e+000	-2.074930e+001	-1.902944e+001	-7.092528e+000	-2.988299e+000	-1.494768e+002
3906432813	-3.640843e+000	-7.979182e+001	-6.215503e+000	-2.096029e+001	-1.900801e+001	-7.162083e+000	-2.989683e+000	-1.496454e+002
3912682625	-3.638160e+000	-7.999658e+001	-6.246355e+000	-2.114945e+001	-1.901470e+001	-7.354432e+000	-2.997985e+000	-1.498172e+002
3918932438	-3.639338e+000	-8.009836e+001	-6.262217e+000	-2.133291e+001	-1.901214e+001	-7.385983e+000	-2.995763e+000	-1.500120e+002
3925182250	-3.641957e+000	-8.027626e+001	-6.289271e+000	-2.146656e+001	-1.898211e+001	-7.683994e+000	-2.993098e+000	-1.501788e+002
3931432063	-3.634862e+000	-8.040834e+001	-6.292693e+000	-2.169188e+001	-1.899618e+001	-7.933997e+000	-2.988802e+000	-1.503265e+002
3937681875	-3.641400e+000	-8.059474e+001	-6.340159e+000	-2.187319e+001	-1.903426e+001	-8.078825e+000	-2.987523e+000	-1.505256e+002
3943931688	-3.642324e+000	-8.079020e+001	-6.357403e+000	-2.210011e+001	-1.905134e+001	-8.438437e+000	-2.981538e+000	-1.507332e+002
3950181500	-3.640267e+000	-8.091414e+001	-6.381549e+000	-2.224971e+001	-1.908679e+001	-8.562342e+000	-2.978614e+000	-1.509261e+002
3956431313	-3.642497e+000	-8.110067e+001	-6.394442e+000	-2.248362e+001	-1.910708e+001	-8.588103e+000	-2.977611e+000	-1.511712e+002
3962681125	-3.639854e+000	-8.128626e+001	-6.421519e+000	-2.270288e+001	-1.910907e+001	-8.751191e+000	-2.973173e+000	-1.514549e+002
3968930938	-3.636805e+000	-8.144877e+001	-6.438248e+000	-2.287689e+001	-1.914671e+001	-8.910077e+000	-2.977380e+000	-1.516754e+002
3975180750	-3.642299e+000	-8.159497e+001	-6.474821e+000	-2.299844e+001	-1.913951e+001	-8.979359e+000	-2.976581e+000	-1.518617e+002
3981430563	-3.643188e+000	-8.177155e+001	-6.497546e+000	-2.321843e+001	-1.915870e+001	-9.101042e+000	-2.981909e+000	-1.521438e+002
3987680375	-3.635354e+000	-8.196277e+001	-6.525245e+000	-2.335583e+001	-1.915727e+001	-9.134144e+000	-2.988927e+000	-1.523419e+002
3993930188	-3.642025e+000	-8.215197e+001	-6.547556e+000	-2.364146e+001	-1.917553e+001	-9.220105e+000	-2.988563e+000	-1.525585e+002
4000180000	-3.638662e+000	-8.229617e+001	-6.565194e+000	-2.381546e+001	-1.917222e+001	-9.380634e+000	-2.997967e+000	-1.527508e+002
4006429813	-3.633526e+000	-8.248542e+001	-6.588712e+000	-2.396099e+001	-1.918393e+001	-9.539562e+000	-2.989269e+000	-1.529582e+002
4012679625	-3.633781e+000	-8.262554e+001	-6.614804e+000	-2.414974e+001	-1.919689e+001	-9.613812e+000	-2.994888e+000	-1.531810e+002
4018929438	-3.634544e+000	-8.282802e+001	-6.656873e+000	-2.432890e+001	-1.921451e+001	-9.866821e+000	-2.997291e+000	-1.533717e+002
4025179250	-3.639171e+000	-8.300271e+001	-6.668926e+000	-2.459857e+001	-1.921127e+001	-9.978283e+000	-2.998984e+000	-1.535820e+002
4031429063	-3.629387e+000	-8.316974e+001	-6.693582e+000	-2.479608e+001	-1.926302e+001	-1.007821e+001	-3.000653e+000	-1.538508e+002
4037678875	-3.634937e+000	-8.333016e+001	-6.727457e+000	-2.491748e+001	-1.928770e+001	-1.020005e+001	-3.000324e+000	-1.540698e+002
4043928688	-3.635404e+000	-8.352947e+001	-6.745796e+000	-2.515620e+001	-1.929888e+001	-1.009628e+001	-3.000359e+000	-1.542660e+002
4050178500	-3.644035e+000	-8.369041e+001	-6.777812e+000	-2.521802e+001	-1.928669e+001	-1.012380e+001	-3.003912e+000	-1.544998e+002
4056428313	-3.641571e+000	-8.384617e+001	-6.801893e+000	-2.537189e+001	-1.929545e+001	-1.000204e+001	-3.007690e+000	-1.547275e+002
4062678125	-3.644230e+000	-8.404253e+001	-6.814221e+000	-2.554956e+001	-1.931868e+001	-1.025351e+001	-3.000955e+000	-1.549216e+002
4068927938	-3.646508e+000	-8.417711e+001	-6.853638e+000	-2.567263e+001	-1.931936e+001	-1.018807e+001	-3.012086e+000	-1.551680e+002
4075177750	-3.646127e+000	-8.430914e+001	-6.855185e+000	-2.585191e+001	-1.929611e+001	-1.020313e+001	-3.024539e+000	-1.553515e+002
4081427563	-3.644332e+000	-8.447864e+001	-6.881263e+000	-2.602179e+001	-1.929427e+001	-1.042241e+001	-3.026392e+000	-1.555386e+002
4087677375	-3.642173e+000	-8.466381e+001	-6.886788e+000	-2.627795e+001	-1.927043e+001	-1.074682e+001	-3.028568e+000	-1.557240e+002
4093927188	-3.643343e+000	-8.482929e+001	-6.910900e+000	-2.644820e+001	-1.924572e+001	-1.095264e+001	-3.027199e+000	-1.559160e+002
4100177000	-3.640169e+000	-8.495073e+001	-6.927994e+000	-2.651167e+001	-1.924231e+001	-1.116198e+001	-3.025209e+000	-1.561197e+002
4106426813	-3.645230e+000	-8.518021e+001	-6.965364e+000	-2.688834e+001	-1.926115e+001	-1.164586e+001	-3.019279e+000	-1.562743e+002
4112676625	-3.644100e+000	-8.535006e+001	-6.990192e+000	-2.707157e+001	-1.931626e+001	-1.183354e+001	-3.012278e+000	-1.564282e+002
4118926438	-3.637279e+000	-8.556986e+001	-7.017268e+000	-2.734023e+001	-1.935982e+001	-1.198249e+001	-3.010609e+000	-1.566989e+002
4125176250	-3.638080e+000	-8.572959e+001	-7.037336e+000	-2.748624e+001	-1.936488e+001	-1.240110e+001	-3.008063e+000	-1.569291e+002
4131426063	-3.637724e+000	-8.592682e+001	-7.076765e+000	-2.768429e+001	-1.942022e+001	-1.231360e+001	-3.007424e+000	-1.571544e+002
4137675875	-3.630471e+000	-8.608599e+001	-7.086927e+000	-2.787090e+001	-1.943814e+001	-1.242932e+001	-3.002593e+000	-1.574500e+002
4143925688	-3.638395e+000	-8.633568e+001	-7.126903e+000	-2.812341e+001	-1.948958e+001	-1.253588e+001	-3.005199e+000	-1.576122e+002
4150175500	-3.637200e+000	-8.649576e+001	-7.143956e+000	-2.829753e+001	-1.948633e+001	-1.251690e+001	-3.003858e+000	-1.579055e+002
4156425313	-3.632121e+000	-8.670204e+001	-7.165014e+000	-2.849517e+001	-1.952974e+001	-1.262132e+001	-3.009141e+000	-1.581008e+002
4162675125	-3.637257e+000	-8.689893e+001	-7.203285e+000	-2.857349e+001	-1.955151e+001	-1.272207e+001	-3.014674e+000	-1.583714e+002
4168924938	-3.632809e+000	-8.706396e+001	-7.215962e+000	-2.878288e+001	-1.956301e+001	-1.261606e+001	-3.008866e+000	-1.586218e+002
4175174750	-3.639546e+000	-8.725550e+001	-7.244209e+000	-2.895132e+001	-1.957794e+001	-1.260059e+001	-3.017588e+000	-1.588885e+002
4181424563	-3.642937e+000	-8.741016e+001	-7.286776e+000	-2.912526e+001	-1.958053e+001	-1.250520e+001	-3.025826e+000	-1.590800e+002
4187674375	-3.637518e+000	-8.761666e+001	-7.298466e+000	-2.930967e+001	-1.959002e+001	-1.260034e+001	-3.034528e+000	-1.593121e+002
4193924188	-3.641645e+000	-8.775627e+001	-7.330914e+000	-2.941282e+001	-1.956617e+001	-1.251340e+001	-3.040900e+000	-1.595291e+002
4200174000	-3.639701e+000	-8.794270e+001	-7.346142e+000	-2.961841e+001	-1.957817e+001	-1.264388e+001	-3.049516e+000	-1.597042e+002
4206423813	-3.636590e+000	-8.815480e+001	-7.364054e+000	-2.988289e+001	-1.956885e+001	-1.281048e+001	-3.060337e+000	-1.599205e+002
4212673625	-3.641965e+000	-8.829943e+001	-7.392819e+000	-2.995142e+001	-1.953585e+001	-1.298998e+001	-3.052990e+000	-1.601173e+002
4218923438	-3.635606e+000	-8.849612e+001	-7.406802e+000	-3.019421e+001	-1.952745e+001	-1.323243e+001	-3.052277e+000	-1.602489e+002
4225173250	-3.637371e+000	-8.864891e+001	-7.423526e+000	-3.037001e+001	-1.954243e+001	-1.345555e+001	-3.055521e+000	-1.604348e+002
4231423063	-3.636946e+000	-8.884382e+001	-7.451790e+000	-3.062440e+001	-1.955114e+001	-1.361244e+001	-3.049243e+000	-1.606147e+002
4237672875	-3.633297e+000	-8.905288e+001	-7.473132e+000	-3.088316e+001	-1.957232e+001	-1.390531e+001	-3.049136e+000	-1.608359e+002
4243922688	-3.624559e+000	-8.924671e+001	-7.490574e+000	-3.102485e+001	-1.958533e+001	-1.406287e+001	-3.047918e+000	-1.610699e+002
4250172500	-3.630676e+000	-8.943160e+001	-7.515502e+000	-3.126893e+001	-1.960952e+001	-1.429682e+001	-3.047473e+000	-1.612387e+002
4256422313	-3.629616e+000	-8.958174e+001	-7.548270e+000	-3.139512e+001	-1.961814e+001	-1.455137e+001	-3.045763e+000	-1.614533e+002
4262672125	-3.628897e+000	-8.983672e+001	-7.583125e+000	-3.166584e+001	-1.965858e+001	-1.466297e+001	-3.049328e+000	-1.616807e+002
4268921938	-3.628800e+000	-9.001032e+001	-7.613807e+000	-3.178940e+001	-1.966798e+001	-1.489492e+001	-3.047047e+000	-1.618853e+002
4275171750	-3.622951e+000	-9.022817e+001	-7.623400e+000	-3.212401e+001	-1.967323e+001	-1.503647e+001	-3.041404e+000	-1.620736e+002
4281421563	-3.623135e+000	-9.044869e+001	-7.644430e+000	-3.226801e+001	-1.970644e+001	-1.509176e+001	-3.047926e+000	-1.623274e+002
4287671375	-3.622305e+000	-9.062836e+001	-7.680573e+000	-3.247721e+001	-1.969467e+001	-1.531769e+001	-3.039261e+000	-1.624937e+002
4293921188	-3.625299e+000	-9.087437e+001	-7.703265e+000	-3.275982e+001	-1.972192e+001	-1.556308e+001	-3.036829e+000	-1.627111e+002
4300171000	-3.623155e+000	-9.102946e+001	-7.740285e+000	-3.287638e+001	-1.974421e+001	-1.579447e+001	-3.034148e+000	-1.629405e+002
4306420813	-3.622117e+000	-9.124061e+001	-7.768296e+000	-3.309020e+001	-1.976228e+001	-1.595198e+001	-3.026767e+000	-1.631753e+002
4312670625	-3.611763e+000	-9.143540e+001	-7.776840e+000	-3.333246e+001	-1.981210e+001	-1.600796e+001	-3.029233e+000	-1.634231e+002
4318920438	-3.616611e+000	-9.163777e+001	-7.818502e+000	-3.349338e+001	-1.983927e+001	-1.623892e+001	-3.021447e+000	-1.636199e+002
4325170250	-3.614217e+000	-9.186282e+001	-7.842683e+000	-3.375162e+001	-1.987864e+001	-1.623386e+001	-3.020851e+000	-1.639088e+002
4331420063	-3.614474e+000	-9.207069e+001	-7.888471e+000	-3.396223e+001	-1.988913e+001	-1.642702e+001	-3.020078e+000	-1.641081e+002
4337669875	-3.615101e+000	-9.226894e+001	-7.914057e+000	-3.411013e+001	-1.993744e+001	-1.640575e+001	-3.020075e+000	-1.643457e+002
4343919688	-3.608943e+000	-9.246566e+001	-7.934317e+000	-3.429968e+001	-1.995448e+001	-1.663875e+001	-3.024359e+000	-1.646469e+002
4350169500	-3.616959e+000	-9.267977e+001	-7.980734e+000	-3.444900e+001	-1.997575e+001	-1.662280e+001	-3.026585e+000	-1.648475e+002
4356419313	-3.608988e+000	-9.294175e+001	-7.991367e+000	-3.470076e+001	-2.000111e+001	-1.674404e+001	-3.022007e+000	-1.650785e+002
4362669125	-3.608490e+000	-9.312547e+001	-8.025891e+000	-3.483959e+001	-2.003645e+001	-1.689263e+001	-3.023305e+000	-1.653048e+002
4368918938	-3.601815e+000	-9.328475e+001	-8.051035e+000	-3.505013e+001	-2.003202e+001	-1.691249e+001	-3.019589e+000	-1.655458e+002
4375168750	-3.604892e+000	-9.351319e+001	-8.075034e+000	-3.528686e+001	-2.003726e+001	-1.699149e+001	-3.022010e+000	-1.657906e+002
4381418563	-3.602332e+000	-9.370735e+001	-8.107618e+000	-3.549717e+001	-2.005837e+001	-1.724051e+001	-3.025142e+000	-1.660206e+002
4387668375	-3.604339e+000	-9.390485e+001	-8.153846e+000	-3.567171e+001	-2.007413e+001	-1.741358e+001	-3.026011e+000	-1.662382e+002
4393918188	-3.596723e+000	-9.412534e+001	-8.156068e+000	-3.587506e+001	-2.010951e+001	-1.754147e+001	-3.024129e+000	-1.664973e+002
4400168000	-3.597174e+000	-9.433283e+001	-8.192029e+000	-3.608836e+001	-2.013423e+001	-1.771518e+001	-3.023898e+000	-1.667527e+002
4406417813	-3.594405e+000	-9.454900e+001	-8.225745e+000	-3.625567e+001	-2.019763e+001	-1.778094e+001	-3.023759e+000	-1.669597e+002
4412667625	-3.595242e+000	-9.475887e+001	-8.269649e+000	-3.643199e+001	-2.022462e+001	-1.798595e+001	-3.021746e+000	-1.671941e+002
4418917438	-3.595439e+000	-9.496044e+001	-8.303016e+000	-3.662092e+001	-2.023090e+001	-1.797576e+001	-3.023029e+000	-1.674436e+002
4425167250	-3.587172e+000	-9.523505e+001	-8.323672e+000	-3.687068e+001	-2.028071e+001	-1.799482e+001	-3.025191e+000	-1.676560e+002
4431417063	-3.594264e+000	-9.542430e+001	-8.355804e+000	-3.710221e+001	-2.031300e+001	-1.809980e+001	-3.026997e+000	-1.678889e+002
4437666875	-3.592626e+000	-9.566426e+001	-8.393749e+000	-3.721366e+001	-2.034091e+001	-1.824843e+001	-3.031952e+000	-1.681462e+002
4443916688	-3.584664e+000	-9.586188e+001	-8.416818e+000	-3.742919e+001	-2.035432e+001	-1.828997e+001	-3.036145e+000	-1.684180e+002
4450166500	-3.591159e+000	-9.605024e+001	-8.457951e+000	-3.759157e+001	-2.039098e+001	-1.822516e+001	-3.042677e+000	-1.686191e+002
4456416313	-3.588376e+000	-9.628886e+001	-8.485497e+000	-3.773085e+001	-2.040114e+001	-1.842712e+001	-3.046087e+000	-1.688613e+002
4462666125	-3.586964e+000	-9.658279e+001	-8.515915e+000	-3.809085e+001	-2.043227e+001	-1.859038e+001	-3.056357e+000	-1.690836e+002
4468915938	-3.581804e+000	-9.677855e+001	-8.548118e+000	-3.814729e+001	-2.044539e+001	-1.866388e+001	-3.054945e+000	-1.692828e+002
4475165750	-3.580426e+000	-9.700438e+001	-8.578556e+000	-3.838256e+001	-2.047125e+001	-1.876746e+001	-3.059777e+000	-1.695286e+002
4481415563	-3.578375e+000	-9.722947e+001	-8.620791e+000	-3.860603e+001	-2.050095e+001	-1.907300e+001	-3.059392e+000	-1.697424e+002
4487665375	-3.569876e+000	-9.749100e+001	-8.641437e+000	-3.878942e+001	-2.053986e+001	-1.910212e+001	-3.071523e+000	-1.699744e+002
4493915188	-3.567285e+000	-9.769590e+001	-8.679913e+000	-3.898050e+001	-2.060384e+001	-1.901416e+001	-3.077247e+000	-1.702147e+002
4500165000	-3.568497e+000	-9.795926e+001	-8.714399e+000	-3.916059e+001	-2.062259e+001	-1.903615e+001	-3.080535e+000	-1.704303e+002
4506414813	-3.566934e+000	-9.816982e+001	-8.763707e+000	-3.936558e+001	-2.067759e+001	-1.895898e+001	-3.078651e+000	-1.706694e+002
4512664625	-3.561895e+000	-9.839287e+001	-8.797273e+000	-3.949087e+001	-2.070067e+001	-1.918947e+001	-3.089798e+000	-1.709416e+002
4518914438	-3.558140e+000	-9.867310e+001	-8.830362e+000	-3.972363e+001	-2.075277e+001	-1.891150e+001	-3.102940e+000	-1.711221e+002
4525164250	-3.550803e+000	-9.886655e+001	-8.861656e+000	-3.979269e+001	-2.080160e+001	-1.889641e+001	-3.105514e+000	-1.713440e+002
4531414063	-3.548213e+000	-9.912706e+001	-8.897291e+000	-3.997456e+001	-2.081186e+001	-1.877949e+001	-3.119894e+000	-1.715639e+002
4537663875	-3.557169e+000	-9.934170e+001	-8.946293e+000	-4.008260e+001	-2.083414e+001	-1.873131e+001	-3.126022e+000	-1.717385e+002
4543913688	-3.553327e+000	-9.959004e+001	-8.970485e+000	-4.022891e+001	-2.083422e+001	-1.874486e+001	-3.134886e+000	-1.719232e+002
4550163500	-3.556657e+000	-9.979710e+001	-9.008436e+000	-4.040610e+001	-2.085943e+001	-1.860911e+001	-3.146673e+000	-1.721205e+002
4556413313	-3.557115e+000	-1.000114e+002	-9.029361e+000	-4.048427e+001	-2.083421e+001	-1.851263e+001	-3.154850e+000	-1.722376e+002
4562663125	-3.551546e+000	-1.002766e+002	-9.056344e+000	-4.053548e+001	-2.084142e+001	-1.846854e+001	-3.160711e+000	-1.724049e+002
4568912938	-3.551505e+000	-1.004466e+002	-9.081390e+000	-4.072994e+001	-2.084307e+001	-1.852594e+001	-3.161070e+000	-1.725110e+002
4575162750	-3.554994e+000	-1.006937e+002	-9.114164e+000	-4.078939e+001	-2.081372e+001	-1.844458e+001	-3.156504e+000	-1.726405e+002
4581412563	-3.560939e+000	-1.009521e+002	-9.129088e+000	-4.104476e+001	-2.086441e+001	-1.867859e+001	-3.152595e+000	-1.727974e+002
4587662375	-3.554118e+000	-1.011781e+002	-9.160967e+000	-4.122548e+001	-2.083305e+001	-1.893152e+001	-3.149439e+000	-1.729712e+002
4593912188	-3.560498e+000	-1.013886e+002	-9.186316e+000	-4.133748e+001	-2.083629e+001	-1.902695e+001	-3.141520e+000	-1.730847e+002
4600162000	-3.552712e+000	-1.016163e+002	-9.205871e+000	-4.158111e+001	-2.085731e+001	-1.907707e+001	-3.135978e+000	-1.732542e+002
4606411813	-3.556533e+000	-1.018783e+002	-9.227928e+000	-4.183068e+001	-2.088321e+001	-1.928509e+001	-3.132917e+000	-1.734112e+002
4612661625	-3.559929e+000	-1.021102e+002	-9.281317e+000	-4.199461e+001	-2.090622e+001	-1.928743e+001	-3.121550e+000	-1.736419e+002
4618911438	-3.550755e+000	-1.023128e+002	-9.303577e+000	-4.213799e+001	-2.091239e+001	-1.942106e+001	-3.120458e+000	-1.738354e+002
4625161250	-3.550720e+000	-1.025499e+002	-9.344687e+000	-4.230932e+001	-2.094720e+001	-1.959167e+001	-3.116918e+000	-1.740371e+002
4631411063	-3.547935e+000	-1.027745e+002	-9.363771e+000	-4.249700e+001	-2.096765e+001	-1.991371e+001	-3.120385e+000	-1.742581e+002
4637660875	-3.542570e+000	-1.030254e+002	-9.394246e+000	-4.273884e+001	-2.097649e+001	-1.984876e+001	-3.108961e+000	-1.744843e+002
4643910688	-3.535189e+000	-1.032545e+002	-9.423859e+000	-4.283362e+001	-2.100512e+001	-1.998220e+001	-3.110788e+000	-1.746766e+002
4650160500	-3.538378e+000	-1.034922e+002	-9.461490e+000	-4.309855e+001	-2.101067e+001	-2.023726e+001	-3.103012e+000	-1.748704e+002
4656410313	-3.537099e+000	-1.037294e+002	-9.496231e+000	-4.329808e+001	-2.104999e+001	-2.031881e+001	-3.108156e+000	-1.750629e+002
4662660125	-3.528903e+000	-1.039959e+002	-9.529771e+000	-4.344567e+001	-2.106600e+001	-2.040475e+001	-3.100793e+000	-1.753249e+002
4668909938	-3.527734e+000	-1.041761e+002	-9.555445e+000	-4.365647e+001	-2.108428e+001	-2.062261e+001	-3.099953e+000	-1.755080e+002
4675159750	-3.531661e+000	-1.044578e+002	-9.595061e+000	-4.388328e+001	-2.107689e+001	-2.082326e+001	-3.100156e+000	-1.756959e+002
4681409563	-3.525396e+000	-1.046777e+002	-9.629464e+000	-4.405905e+001	-2.113195e+001	-2.102180e+001	-3.099054e+000	-1.759513e+002
4687659375	-3.516703e+000	-1.048955e+002	-9.646582e+000	-4.427166e+001	-2.111572e+001	-2.096225e+001	-3.097897e+000	-1.761202e+002
4693909188	-3.510802e+000	-1.051452e+002	-9.677478e+000	-4.447419e+001	-2.115377e+001	-2.130171e+001	-3.096675e+000	-1.763041e+002
4700159000	-3.499023e+000	-1.053887e+002	-9.707391e+000	-4.467309e+001	-2.117680e+001	-2.147417e+001	-3.093848e+000	-1.764826e+002
4706408813	-3.498439e+000	-1.056170e+002	-9.749150e+000	-4.493215e+001	-2.118568e+001	-2.177885e+001	-3.090509e+000	-1.766195e+002
4712658625	-3.493272e+000	-1.058909e+002	-9.772632e+000	-4.513773e+001	-2.123491e+001	-2.226690e+001	-3.080671e+000	-1.768603e+002
4718908438	-3.489630e+000	-1.060932e+002	-9.817572e+000	-4.537203e+001	-2.128454e+001	-2.258015e+001	-3.072932e+000	-1.770795e+002
4725158250	-3.483658e+000	-1.063733e+002	-9.856860e+000	-4.567277e+001	-2.134368e+001	-2.266777e+001	-3.060675e+000	-1.772618e+002
4731408063	-3.482289e+000	-1.066086e+002	-9.903161e+000	-4.594089e+001	-2.145515e+001	-2.298493e+001	-3.058094e+000	-1.774871e+002
4737657875	-3.472236e+000	-1.068413e+002	-9.941113e+000	-4.610725e+001	-2.150495e+001	-2.313992e+001	-3.045211e+000	-1.776933e+002
4743907688	-3.467427e+000	-1.070891e+002	-9.990862e+000	-4.633821e+001	-2.155404e+001	-2.326906e+001	-3.039990e+000	-1.778960e+002
4750157500	-3.459189e+000	-1.073506e+002	-1.003039e+001	-4.650938e+001	-2.162339e+001	-2.334191e+001	-3.034235e+000	-1.781425e+002
4756407313	-3.454987e+000	-1.076232e+002	-1.007686e+001	-4.671719e+001	-2.170463e+001	-2.357276e+001	-3.031141e+000	-1.783964e+002
4762657125	-3.452972e+000	-1.078291e+002	-1.013389e+001	-4.689901e+001	-2.175872e+001	-2.337825e+001	-3.027576e+000	-1.786278e+002
4768906938	-3.449998e+000	-1.081335e+002	-1.017649e+001	-4.713680e+001	-2.181502e+001	-2.334728e+001	-3.025464e+000	-1.788976e+002
4775156750	-3.447740e+000	-1.084043e+002	-1.022513e+001	-4.740574e+001	-2.191862e+001	-2.338240e+001	-3.013628e+000	-1.791859e+002
4781406563	-3.442976e+000	-1.086476e+002	-1.027703e+001	-4.753305e+001	-2.196820e+001	-2.327419e+001	-3.020146e+000	-1.794219e+002
4787656375	-3.437833e+000	-1.089429e+002	-1.031426e+001	-4.777473e+001	-2.202257e+001	-2.334522e+001	-3.016453e+000	-1.796844e+002
4793906188	-3.428859e+000	-1.092142e+002	-1.037228e+001	-4.790714e+001	-2.209773e+001	-2.329182e+001	-3.013551e+000	-1.799245e+002
4800156000	-3.427019e+000	-1.094832e+002	-1.041762e+001	-4.804840e+001	-2.214096e+001	-2.325407e+001	-3.015349e+000	1.798032e+002
4806405813	-3.426935e+000	-1.097345e+002	-1.047427e+001	-4.821029e+001	-2.222846e+001	-2.298822e+001	-3.017134e+000	1.795654e+002
4812655625	-3.423854e+000	-1.099967e+002	-1.052387e+001	-4.834702e+001	-2.228979e+001	-2.318622e+001	-3.019041e+000	1.792866e+002
4818905438	-3.411968e+000	-1.102296e+002	-1.057004e+001	-4.842630e+001	-2.237596e+001	-2.284199e+001	-3.021550e+000	1.790664e+002
4825155250	-3.414703e+000	-1.105304e+002	-1.062300e+001	-4.859289e+001	-2.239941e+001	-2.272096e+001	-3.027128e+000	1.787900e+002
4831405063	-3.408678e+000	-1.108311e+002	-1.067248e+001	-4.876825e+001	-2.244712e+001	-2.232610e+001	-3.029979e+000	1.785890e+002
4837654875	-3.403507e+000	-1.110475e+002	-1.072708e+001	-4.886398e+001	-2.251433e+001	-2.223461e+001	-3.037652e+000	1.783287e+002
4843904688	-3.400533e+000	-1.113694e+002	-1.078227e+001	-4.900003e+001	-2.257460e+001	-2.202226e+001	-3.040442e+000	1.780596e+002
4850154500	-3.399983e+000	-1.116274e+002	-1.082821e+001	-4.914195e+001	-2.262579e+001	-2.169693e+001	-3.051986e+000	1.777875e+002
4856404313	-3.397669e+000	-1.118523e+002	-1.088629e+001	-4.915920e+001	-2.262604e+001	-2.159050e+001	-3.060448e+000	1.776147e+002
4862654125	-3.398828e+000	-1.121244e+002	-1.092334e+001	-4.928869e+001	-2.262999e+001	-2.114335e+001	-3.062927e+000	1.773963e+002
4868903938	-3.385970e+000	-1.124165e+002	-1.097332e+001	-4.929211e+001	-2.264955e+001	-2.113449e+001	-3.074092e+000	1.771438e+002
4875153750	-3.387414e+000	-1.126331e+002	-1.100898e+001	-4.942236e+001	-2.269232e+001	-2.112261e+001	-3.093272e+000	1.769645e+002
4881403563	-3.382649e+000	-1.128872e+002	-1.107187e+001	-4.951173e+001	-2.269427e+001	-2.091445e+001	-3.095821e+000	1.767533e+002
4887653375	-3.376064e+000	-1.131581e+002	-1.110110e+001	-4.961962e+001	-2.274573e+001	-2.113302e+001	-3.094256e+000	1.765654e+002
4893903188	-3.370688e+000	-1.134115e+002	-1.114640e+001	-4.970375e+001	-2.279563e+001	-2.106132e+001	-3.094902e+000	1.764031e+002
4900153000	-3.362535e+000	-1.136862e+002	-1.119779e+001	-4.994411e+001	-2.283151e+001	-2.123377e+001	-3.103575e+000	1.762050e+002
4906402813	-3.355536e+000	-1.139550e+002	-1.125809e+001	-5.004781e+001	-2.292092e+001	-2.110185e+001	-3.096985e+000	1.759863e+002
4912652625	-3.356221e+000	-1.142542e+002	-1.130964e+001	-5.019974e+001	-2.298580e+001	-2.110956e+001	-3.097167e+000	1.757576e+002
4918902438	-3.346844e+000	-1.144860e+002	-1.136865e+001	-5.026213e+001	-2.308041e+001	-2.113952e+001	-3.097236e+000	1.755362e+002
4925152250	-3.346996e+000	-1.147918e+002	-1.142665e+001	-5.043197e+001	-2.315484e+001	-2.050358e+001	-3.103785e+000	1.753390e+002
4931402063	-3.335131e+000	-1.151064e+002	-1.148325e+001	-5.053029e+001	-2.320593e+001	-2.054891e+001	-3.110813e+000	1.750909e+002
4937651875	-3.341235e+000	-1.153740e+002	-1.155288e+001	-5.060338e+001	-2.327608e+001	-2.011676e+001	-3.113566e+000	1.748455e+002
4943901688	-3.329793e+000	-1.156820e+002	-1.161634e+001	-5.063352e+001	-2.335089e+001	-1.990161e+001	-3.121389e+000	1.746409e+002
4950151500	-3.331294e+000	-1.159488e+002	-1.166636e+001	-5.073681e+001	-2.343110e+001	-1.956515e+001	-3.124149e+000	1.743978e+002
4956401313	-3.317410e+000	-1.162293e+002	-1.172888e+001	-5.066192e+001	-2.347448e+001	-1.916036e+001	-3.131621e+000	1.741676e+002
4962651125	-3.318402e+000	-1.165274e+002	-1.177909e+001	-5.070092e+001	-2.353271e+001	-1.864124e+001	-3.137226e+000	1.739661e+002
4968900938	-3.309949e+000	-1.167899e+002	-1.184837e+001	-5.068974e+001	-2.357409e+001	-1.816064e+001	-3.144307e+000	1.737203e+002
4975150750	-3.315467e+000	-1.171165e+002	-1.190740e+001	-5.077112e+001	-2.363074e+001	-1.788815e+001	-3.155580e+000	1.735210e+002
4981400563	-3.314571e+000	-1.173849e+002	-1.196776e+001	-5.071442e+001	-2.364556e+001	-1.714288e+001	-3.166555e+000	1.732935e+002
4987650375	-3.309827e+000	-1.177054e+002	-1.202303e+001	-5.067750e+001	-2.369004e+001	-1.661699e+001	-3.177531e+000	1.730798e+002
4993900188	-3.305322e+000	-1.179219e+002	-1.208991e+001	-5.059756e+001	-2.374354e+001	-1.603007e+001	-3.186190e+000	1.728340e+002
5000150000	-3.307073e+000	-1.181952e+002	-1.214748e+001	-5.050708e+001	-2.378101e+001	-1.556183e+001	-3.199133e+000	1.725735e+002
5006399813	-3.292153e+000	-1.185153e+002	-1.219274e+001	-5.034253e+001	-2.379934e+001	-1.498926e+001	-3.216046e+000	1.724298e+002
5012649625	-3.289752e+000	-1.187846e+002	-1.223798e+001	-5.032588e+001	-2.378800e+001	-1.448309e+001	-3.227431e+000	1.721781e+002
5018899438	-3.294223e+000	-1.190655e+002	-1.230437e+001	-5.022585e+001	-2.377698e+001	-1.395655e+001	-3.248232e+000	1.720248e+002
5025149250	-3.294272e+000	-1.193649e+002	-1.234288e+001	-5.018848e+001	-2.380422e+001	-1.379814e+001	-3.256943e+000	1.718446e+002
5031399063	-3.288000e+000	-1.196022e+002	-1.238636e+001	-5.010684e+001	-2.379225e+001	-1.329560e+001	-3.270254e+000	1.716336e+002
5037648875	-3.283886e+000	-1.199063e+002	-1.243576e+001	-4.997164e+001	-2.380471e+001	-1.315301e+001	-3.285872e+000	1.715000e+002
5043898688	-3.281412e+000	-1.201588e+002	-1.249295e+001	-4.988575e+001	-2.380738e+001	-1.250562e+001	-3.296450e+000	1.713613e+002
5050148500	-3.281898e+000	-1.204712e+002	-1.254476e+001	-4.974483e+001	-2.384091e+001	-1.220845e+001	-3.310857e+000	1.712332e+002
5056398313	-3.283765e+000	-1.207515e+002	-1.259343e+001	-4.963858e+001	-2.385335e+001	-1.145575e+001	-3.323535e+000	1.709747e+002
5062648125	-3.280785e+000	-1.210447e+002	-1.264335e+001	-4.947063e+001	-2.387719e+001	-1.095239e+001	-3.334451e+000	1.708487e+002
5068897938	-3.283035e+000	-1.213604e+002	-1.268167e+001	-4.932409e+001	-2.388456e+001	-1.040109e+001	-3.346380e+000	1.706559e+002
5075147750	-3.280604e+000	-1.216205e+002	-1.274253e+001	-4.910018e+001	-2.389068e+001	-9.705019e+000	-3.363635e+000	1.705104e+002
5081397563	-3.288777e+000	-1.219310e+002	-1.278906e+001	-4.889133e+001	-2.386226e+001	-9.234312e+000	-3.376999e+000	1.703439e+002
5087647375	-3.288228e+000	-1.222134e+002	-1.281705e+001	-4.868821e+001	-2.381262e+001	-8.414801e+000	-3.390851e+000	1.702303e+002
5093897188	-3.289410e+000	-1.225317e+002	-1.284806e+001	-4.850861e+001	-2.377977e+001	-8.030845e+000	-3.403112e+000	1.700217e+002
5100147000	-3.289440e+000	-1.228094e+002	-1.287410e+001	-4.829084e+001	-2.377419e+001	-7.418531e+000	-3.418016e+000	1.699221e+002
5106396813	-3.296321e+000	-1.230783e+002	-1.291194e+001	-4.791705e+001	-2.369748e+001	-6.565064e+000	-3.434977e+000	1.697985e+002
5112646625	-3.297862e+000	-1.233758e+002	-1.293213e+001	-4.774753e+001	-2.368628e+001	-5.995223e+000	-3.452087e+000	1.696575e+002
5118896438	-3.302647e+000	-1.236729e+002	-1.296264e+001	-4.757024e+001	-2.358843e+001	-5.454385e+000	-3.461912e+000	1.695255e+002
5125146250	-3.306062e+000	-1.239125e+002	-1.297972e+001	-4.724003e+001	-2.352988e+001	-4.911672e+000	-3.475290e+000	1.694374e+002
5131396063	-3.314167e+000	-1.242012e+002	-1.300221e+001	-4.697335e+001	-2.346672e+001	-4.630036e+000	-3.499168e+000	1.692988e+002
5137645875	-3.316060e+000	-1.245501e+002	-1.300498e+001	-4.673654e+001	-2.338384e+001	-4.200157e+000	-3.514438e+000	1.691271e+002
5143895688	-3.323922e+000	-1.247444e+002	-1.302290e+001	-4.648113e+001	-2.330225e+001	-3.789005e+000	-3.531845e+000	1.691038e+002
5150145500	-3.325914e+000	-1.250319e+002	-1.302612e+001	-4.622116e+001	-2.319460e+001	-3.341515e+000	-3.546529e+000	1.689530e+002
5156395313	-3.331936e+000	-1.253076e+002	-1.303072e+001	-4.596156e+001	-2.311524e+001	-2.824764e+000	-3.564487e+000	1.689095e+002
5162645125	-3.336067e+000	-1.255714e+002	-1.302713e+001	-4.583464e+001	-2.300621e+001	-2.897458e+000	-3.582404e+000	1.688052e+002
5168894938	-3.343202e+000	-1.258285e+002	-1.301132e+001	-4.551423e+001	-2.289380e+001	-2.659461e+000	-3.600380e+000	1.687449e+002
5175144750	-3.351440e+000	-1.260356e+002	-1.299586e+001	-4.534180e+001	-2.277803e+001	-2.459344e+000	-3.613889e+000	1.687142e+002
5181394563	-3.352339e+000	-1.262547e+002	-1.297858e+001	-4.521772e+001	-2.271507e+001	-2.616512e+000	-3.632099e+000	1.686253e+002
5187644375	-3.363047e+000	-1.264805e+002	-1.295862e+001	-4.508140e+001	-2.260099e+001	-2.874778e+000	-3.645576e+000	1.686581e+002
5193894188	-3.364262e+000	-1.266795e+002	-1.293142e+001	-4.492934e+001	-2.252196e+001	-2.945821e+000	-3.647999e+000	1.686379e+002
5200144000	-3.364847e+000	-1.269243e+002	-1.290562e+001	-4.499150e+001	-2.245813e+001	-3.014411e+000	-3.652651e+000	1.685868e+002
5206393813	-3.367637e+000	-1.271482e+002	-1.288322e+001	-4.492415e+001	-2.238047e+001	-3.254545e+000	-3.660805e+000	1.685903e+002
5212643625	-3.374079e+000	-1.274015e+002	-1.287675e+001	-4.496081e+001	-2.236164e+001	-3.502335e+000	-3.663979e+000	1.685674e+002
5218893438	-3.380599e+000	-1.275930e+002	-1.285630e+001	-4.495113e+001	-2.228314e+001	-3.370856e+000	-3.661198e+000	1.685324e+002
5225143250	-3.386577e+000	-1.278102e+002	-1.284064e+001	-4.495481e+001	-2.222421e+001	-3.728101e+000	-3.665895e+000	1.684682e+002
5231393063	-3.382500e+000	-1.280609e+002	-1.280522e+001	-4.501696e+001	-2.215944e+001	-3.822196e+000	-3.669942e+000	1.684189e+002
5237642875	-3.388555e+000	-1.281965e+002	-1.280139e+001	-4.498644e+001	-2.212122e+001	-4.025329e+000	-3.665772e+000	1.683408e+002
5243892688	-3.398576e+000	-1.284432e+002	-1.278139e+001	-4.513076e+001	-2.205383e+001	-4.286316e+000	-3.663151e+000	1.683436e+002
5250142500	-3.402259e+000	-1.286520e+002	-1.275152e+001	-4.515250e+001	-2.197245e+001	-4.374968e+000	-3.660915e+000	1.682917e+002
5256392313	-3.397887e+000	-1.288747e+002	-1.273432e+001	-4.514226e+001	-2.194640e+001	-4.623440e+000	-3.661926e+000	1.682548e+002
5262642125	-3.407161e+000	-1.290594e+002	-1.270467e+001	-4.533044e+001	-2.190300e+001	-4.785087e+000	-3.655035e+000	1.681606e+002
5268891938	-3.412477e+000	-1.292775e+002	-1.270473e+001	-4.548406e+001	-2.184659e+001	-5.255071e+000	-3.654710e+000	1.681771e+002
5275141750	-3.407828e+000	-1.294465e+002	-1.268083e+001	-4.556336e+001	-2.180718e+001	-5.413963e+000	-3.648633e+000	1.680643e+002
5281391563	-3.409255e+000	-1.296510e+002	-1.267023e+001	-4.578029e+001	-2.175999e+001	-5.679267e+000	-3.652075e+000	1.680373e+002
5287641375	-3.413305e+000	-1.298925e+002	-1.264420e+001	-4.598051e+001	-2.172588e+001	-6.015725e+000	-3.644269e+000	1.679526e+002
5293891188	-3.412226e+000	-1.300618e+002	-1.264415e+001	-4.619349e+001	-2.169108e+001	-6.193624e+000	-3.631976e+000	1.678832e+002
5300141000	-3.416452e+000	-1.302305e+002	-1.264044e+001	-4.643653e+001	-2.164737e+001	-6.687318e+000	-3.627372e+000	1.678184e+002
5306390813	-3.414276e+000	-1.304163e+002	-1.263331e+001	-4.659610e+001	-2.163704e+001	-6.764640e+000	-3.624955e+000	1.677056e+002
5312640625	-3.415991e+000	-1.306269e+002	-1.262464e+001	-4.677617e+001	-2.163522e+001	-7.073948e+000	-3.619967e+000	1.676346e+002
5318890438	-3.415500e+000	-1.308087e+002	-1.262152e+001	-4.704053e+001	-2.158381e+001	-7.427690e+000	-3.612152e+000	1.675476e+002
5325140250	-3.409877e+000	-1.310235e+002	-1.261685e+001	-4.725637e+001	-2.153381e+001	-7.630880e+000	-3.608115e+000	1.674665e+002
5331390063	-3.411027e+000	-1.311999e+002	-1.261362e+001	-4.754064e+001	-2.153357e+001	-8.214823e+000	-3.607632e+000	1.673703e+002
5337639875	-3.398787e+000	-1.313657e+002	-1.260620e+001	-4.773235e+001	-2.149243e+001	-8.390549e+000	-3.600818e+000	1.672685e+002
5343889688	-3.404783e+000	-1.315477e+002	-1.260752e+001	-4.806788e+001	-2.149743e+001	-8.747582e+000	-3.591766e+000	1.671802e+002
5350139500	-3.400143e+000	-1.317258e+002	-1.260614e+001	-4.831695e+001	-2.146215e+001	-9.169813e+000	-3.587506e+000	1.671161e+002
5356389313	-3.402069e+000	-1.319020e+002	-1.260647e+001	-4.858101e+001	-2.145147e+001	-9.393205e+000	-3.578831e+000	1.669966e+002
5362639125	-3.395339e+000	-1.320854e+002	-1.260982e+001	-4.878849e+001	-2.141465e+001	-9.807337e+000	-3.571559e+000	1.668635e+002
5368888938	-3.382140e+000	-1.323054e+002	-1.259941e+001	-4.920159e+001	-2.141835e+001	-1.004784e+001	-3.566050e+000	1.667817e+002
5375138750	-3.387485e+000	-1.324263e+002	-1.262348e+001	-4.944595e+001	-2.140511e+001	-1.045963e+001	-3.557716e+000	1.666717e+002
5381388563	-3.384661e+000	-1.325739e+002	-1.263018e+001	-4.970566e+001	-2.143825e+001	-1.107857e+001	-3.548583e+000	1.665346e+002
5387638375	-3.374862e+000	-1.328095e+002	-1.263120e+001	-5.003016e+001	-2.147067e+001	-1.140891e+001	-3.540070e+000	1.663806e+002
5393888188	-3.369040e+000	-1.329694e+002	-1.266461e+001	-5.035644e+001	-2.148121e+001	-1.161251e+001	-3.535480e+000	1.662755e+002
5400138000	-3.368525e+000	-1.331800e+002	-1.267030e+001	-5.070010e+001	-2.149455e+001	-1.187324e+001	-3.536481e+000	1.660967e+002
5406387813	-3.358991e+000	-1.333238e+002	-1.268177e+001	-5.098093e+001	-2.150267e+001	-1.236788e+001	-3.520159e+000	1.659298e+002
5412637625	-3.344022e+000	-1.335018e+002	-1.271136e+001	-5.136565e+001	-2.151175e+001	-1.263410e+001	-3.520835e+000	1.658221e+002
5418887438	-3.350539e+000	-1.336962e+002	-1.273780e+001	-5.170538e+001	-2.154190e+001	-1.287041e+001	-3.521423e+000	1.656362e+002
5425137250	-3.340612e+000	-1.338816e+002	-1.275923e+001	-5.192126e+001	-2.154509e+001	-1.325673e+001	-3.515425e+000	1.654554e+002
5431387063	-3.337107e+000	-1.340300e+002	-1.277185e+001	-5.220554e+001	-2.157427e+001	-1.342254e+001	-3.514443e+000	1.653023e+002
5437636875	-3.327206e+000	-1.342578e+002	-1.281184e+001	-5.246816e+001	-2.155832e+001	-1.384856e+001	-3.513417e+000	1.651111e+002
5443886688	-3.326816e+000	-1.344428e+002	-1.282926e+001	-5.283098e+001	-2.157042e+001	-1.398471e+001	-3.515920e+000	1.649778e+002
5450136500	-3.312414e+000	-1.346454e+002	-1.284851e+001	-5.298909e+001	-2.160378e+001	-1.424011e+001	-3.516240e+000	1.648245e+002
5456386313	-3.310455e+000	-1.347722e+002	-1.289772e+001	-5.334319e+001	-2.164113e+001	-1.449788e+001	-3.518053e+000	1.646323e+002
5462636125	-3.303171e+000	-1.349878e+002	-1.291723e+001	-5.361712e+001	-2.161569e+001	-1.480702e+001	-3.513077e+000	1.644766e+002
5468885938	-3.299294e+000	-1.351617e+002	-1.294249e+001	-5.386300e+001	-2.165756e+001	-1.487637e+001	-3.511613e+000	1.642935e+002
5475135750	-3.294657e+000	-1.353395e+002	-1.296760e+001	-5.422439e+001	-2.167986e+001	-1.508398e+001	-3.519211e+000	1.641457e+002
5481385563	-3.284191e+000	-1.355516e+002	-1.298550e+001	-5.447226e+001	-2.168306e+001	-1.533327e+001	-3.516203e+000	1.640310e+002
5487635375	-3.277849e+000	-1.356865e+002	-1.302944e+001	-5.473119e+001	-2.173522e+001	-1.563360e+001	-3.528584e+000	1.637890e+002
5493885188	-3.278964e+000	-1.358579e+002	-1.304838e+001	-5.505887e+001	-2.174348e+001	-1.599710e+001	-3.523730e+000	1.636313e+002
5500135000	-3.268352e+000	-1.360299e+002	-1.309047e+001	-5.534214e+001	-2.175386e+001	-1.623531e+001	-3.528759e+000	1.634749e+002
5506384813	-3.258768e+000	-1.361874e+002	-1.313037e+001	-5.561588e+001	-2.180361e+001	-1.651494e+001	-3.532254e+000	1.632980e+002
5512634625	-3.245001e+000	-1.363822e+002	-1.314390e+001	-5.594416e+001	-2.185500e+001	-1.693480e+001	-3.539432e+000	1.630558e+002
5518884438	-3.242989e+000	-1.365433e+002	-1.317699e+001	-5.634187e+001	-2.187761e+001	-1.714188e+001	-3.552273e+000	1.629069e+002
5525134250	-3.232342e+000	-1.367101e+002	-1.322898e+001	-5.663160e+001	-2.194050e+001	-1.760113e+001	-3.561264e+000	1.626473e+002
5531384063	-3.221767e+000	-1.369278e+002	-1.327876e+001	-5.697109e+001	-2.200216e+001	-1.764101e+001	-3.567350e+000	1.625250e+002
5537633875	-3.205970e+000	-1.371083e+002	-1.332418e+001	-5.726387e+001	-2.202174e+001	-1.784133e+001	-3.585110e+000	1.622960e+002
5543883688	-3.197109e+000	-1.372837e+002	-1.337420e+001	-5.761628e+001	-2.210884e+001	-1.789612e+001	-3.600523e+000	1.620723e+002
5550133500	-3.186302e+000	-1.374767e+002	-1.343257e+001	-5.774730e+001	-2.218259e+001	-1.808231e+001	-3.610794e+000	1.619200e+002
5556383313	-3.175802e+000	-1.376671e+002	-1.347238e+001	-5.800323e+001	-2.225530e+001	-1.800418e+001	-3.632353e+000	1.617671e+002
5562633125	-3.169631e+000	-1.378841e+002	-1.353660e+001	-5.840042e+001	-2.226153e+001	-1.821341e+001	-3.648705e+000	1.615590e+002
5568882938	-3.157904e+000	-1.380354e+002	-1.359855e+001	-5.857462e+001	-2.231798e+001	-1.810212e+001	-3.665498e+000	1.614066e+002
5575132750	-3.150271e+000	-1.382283e+002	-1.364834e+001	-5.887234e+001	-2.235291e+001	-1.809824e+001	-3.684892e+000	1.611667e+002
5581382563	-3.140733e+000	-1.384812e+002	-1.368821e+001	-5.909720e+001	-2.241163e+001	-1.808995e+001	-3.703976e+000	1.610339e+002
5587632375	-3.136849e+000	-1.386511e+002	-1.375667e+001	-5.921194e+001	-2.245308e+001	-1.809052e+001	-3.732026e+000	1.608606e+002
5593882188	-3.125524e+000	-1.388354e+002	-1.381568e+001	-5.941539e+001	-2.248689e+001	-1.817302e+001	-3.748131e+000	1.606889e+002
5600132000	-3.114681e+000	-1.390360e+002	-1.385956e+001	-5.968853e+001	-2.248938e+001	-1.802873e+001	-3.783128e+000	1.605111e+002
5606381813	-3.111618e+000	-1.392864e+002	-1.390173e+001	-5.985232e+001	-2.256579e+001	-1.805270e+001	-3.799546e+000	1.603621e+002
5612631625	-3.106919e+000	-1.394088e+002	-1.396865e+001	-5.998592e+001	-2.261918e+001	-1.811226e+001	-3.832387e+000	1.601639e+002
5618881438	-3.098046e+000	-1.396085e+002	-1.401975e+001	-6.019198e+001	-2.265099e+001	-1.807208e+001	-3.864930e+000	1.599936e+002
5625131250	-3.096799e+000	-1.397920e+002	-1.407671e+001	-6.045740e+001	-2.268136e+001	-1.790794e+001	-3.896138e+000	1.597992e+002
5631381063	-3.082809e+000	-1.399784e+002	-1.412548e+001	-6.057240e+001	-2.272768e+001	-1.775756e+001	-3.926823e+000	1.596578e+002
5637630875	-3.079329e+000	-1.401360e+002	-1.419138e+001	-6.081798e+001	-2.273780e+001	-1.780927e+001	-3.964899e+000	1.595310e+002
5643880688	-3.069308e+000	-1.403321e+002	-1.424175e+001	-6.089482e+001	-2.277688e+001	-1.775882e+001	-4.007954e+000	1.593624e+002
5650130500	-3.063377e+000	-1.404946e+002	-1.429548e+001	-6.103581e+001	-2.279561e+001	-1.768184e+001	-4.048557e+000	1.592428e+002
5656380313	-3.056218e+000	-1.406355e+002	-1.435761e+001	-6.117051e+001	-2.284901e+001	-1.766365e+001	-4.094043e+000	1.591434e+002
5662630125	-3.045480e+000	-1.408032e+002	-1.443689e+001	-6.133247e+001	-2.287272e+001	-1.757794e+001	-4.148157e+000	1.590517e+002
5668879938	-3.034357e+000	-1.409684e+002	-1.447988e+001	-6.147504e+001	-2.290468e+001	-1.757052e+001	-4.189194e+000	1.589543e+002
5675129750	-3.025050e+000	-1.410904e+002	-1.454524e+001	-6.156581e+001	-2.293136e+001	-1.729731e+001	-4.247265e+000	1.588554e+002
5681379563	-3.015038e+000	-1.412867e+002	-1.461300e+001	-6.171780e+001	-2.295103e+001	-1.741709e+001	-4.312521e+000	1.588209e+002
5687629375	-3.003520e+000	-1.415091e+002	-1.465310e+001	-6.187303e+001	-2.296998e+001	-1.747716e+001	-4.363700e+000	1.588278e+002
5693879188	-2.992661e+000	-1.416588e+002	-1.472824e+001	-6.197150e+001	-2.301617e+001	-1.725433e+001	-4.426437e+000	1.588659e+002
5700129000	-2.978149e+000	-1.417894e+002	-1.478913e+001	-6.213001e+001	-2.304074e+001	-1.746894e+001	-4.484120e+000	1.589037e+002
5706378813	-2.974962e+000	-1.420137e+002	-1.483456e+001	-6.226347e+001	-2.307069e+001	-1.778306e+001	-4.535525e+000	1.589687e+002
5712628625	-2.966939e+000	-1.421514e+002	-1.493384e+001	-6.256404e+001	-2.315396e+001	-1.760315e+001	-4.598248e+000	1.590504e+002
5718878438	-2.956854e+000	-1.423752e+002	-1.498021e+001	-6.276031e+001	-2.315792e+001	-1.748803e+001	-4.658982e+000	1.591492e+002
5725128250	-2.945980e+000	-1.425156e+002	-1.505286e+001	-6.284372e+001	-2.320328e+001	-1.743131e+001	-4.718860e+000	1.592706e+002
5731378063	-2.932426e+000	-1.426975e+002	-1.514421e+001	-6.285363e+001	-2.328329e+001	-1.731078e+001	-4.787513e+000	1.594354e+002
5737627875	-2.926050e+000	-1.428961e+002	-1.522134e+001	-6.304185e+001	-2.331405e+001	-1.723515e+001	-4.853848e+000	1.596201e+002
5743877688	-2.918162e+000	-1.430770e+002	-1.530755e+001	-6.312787e+001	-2.340032e+001	-1.712274e+001	-4.920222e+000	1.598671e+002
5750127500	-2.905954e+000	-1.432496e+002	-1.540373e+001	-6.317860e+001	-2.344066e+001	-1.702915e+001	-4.980836e+000	1.602116e+002
5756377313	-2.900674e+000	-1.434275e+002	-1.547864e+001	-6.318993e+001	-2.346669e+001	-1.655370e+001	-5.057350e+000	1.605247e+002
5762627125	-2.888848e+000	-1.435947e+002	-1.556988e+001	-6.327204e+001	-2.355156e+001	-1.660234e+001	-5.112925e+000	1.608988e+002
5768876938	-2.880048e+000	-1.437924e+002	-1.566236e+001	-6.316108e+001	-2.360330e+001	-1.617453e+001	-5.179071e+000	1.613569e+002
5775126750	-2.872232e+000	-1.439855e+002	-1.575620e+001	-6.308566e+001	-2.364299e+001	-1.597173e+001	-5.232559e+000	1.618582e+002
5781376563	-2.864841e+000	-1.441379e+002	-1.585488e+001	-6.306813e+001	-2.368664e+001	-1.568409e+001	-5.288649e+000	1.624201e+002
5787626375	-2.862998e+000	-1.443445e+002	-1.594474e+001	-6.292623e+001	-2.376526e+001	-1.520847e+001	-5.326412e+000	1.630349e+002
5793876188	-2.844761e+000	-1.445345e+002	-1.604032e+001	-6.270407e+001	-2.381598e+001	-1.486062e+001	-5.355111e+000	1.636821e+002
5800126000	-2.841007e+000	-1.447164e+002	-1.615260e+001	-6.248795e+001	-2.387140e+001	-1.435303e+001	-5.380301e+000	1.642887e+002
5806375813	-2.837178e+000	-1.449019e+002	-1.625122e+001	-6.216308e+001	-2.391486e+001	-1.376191e+001	-5.404865e+000	1.650048e+002
5812625625	-2.823568e+000	-1.451109e+002	-1.633766e+001	-6.182866e+001	-2.392568e+001	-1.298243e+001	-5.410585e+000	1.656976e+002
5818875438	-2.816364e+000	-1.452484e+002	-1.642244e+001	-6.148815e+001	-2.394289e+001	-1.261514e+001	-5.413906e+000	1.663680e+002
5825125250	-2.812215e+000	-1.454704e+002	-1.651108e+001	-6.109042e+001	-2.396005e+001	-1.172922e+001	-5.403739e+000	1.670654e+002
5831375063	-2.810729e+000	-1.456780e+002	-1.659453e+001	-6.054913e+001	-2.391848e+001	-1.099401e+001	-5.382930e+000	1.678360e+002
5837624875	-2.803563e+000	-1.458034e+002	-1.666015e+001	-5.985029e+001	-2.391528e+001	-1.019325e+001	-5.340801e+000	1.685012e+002
5843874688	-2.795826e+000	-1.459995e+002	-1.670830e+001	-5.945933e+001	-2.384305e+001	-9.272150e+000	-5.302201e+000	1.692112e+002
5850124500	-2.792216e+000	-1.461390e+002	-1.675035e+001	-5.878140e+001	-2.378018e+001	-8.953592e+000	-5.254565e+000	1.697898e+002
5856374313	-2.791457e+000	-1.463222e+002	-1.679175e+001	-5.820825e+001	-2.374396e+001	-8.382932e+000	-5.191310e+000	1.704532e+002
5862624125	-2.782119e+000	-1.464558e+002	-1.680879e+001	-5.758244e+001	-2.367948e+001	-7.888099e+000	-5.114140e+000	1.709729e+002
5868873938	-2.781497e+000	-1.466055e+002	-1.680642e+001	-5.709013e+001	-2.357320e+001	-7.104627e+000	-5.042444e+000	1.714383e+002
5875123750	-2.777500e+000	-1.467628e+002	-1.682685e+001	-5.649476e+001	-2.348460e+001	-7.287500e+000	-4.957828e+000	1.718592e+002
5881373563	-2.770962e+000	-1.469206e+002	-1.681876e+001	-5.600509e+001	-2.343721e+001	-6.594328e+000	-4.876987e+000	1.722270e+002
5887623375	-2.765099e+000	-1.470783e+002	-1.679082e+001	-5.548524e+001	-2.331862e+001	-6.519865e+000	-4.799636e+000	1.724859e+002
5893873188	-2.764040e+000	-1.471961e+002	-1.678151e+001	-5.496324e+001	-2.325773e+001	-6.382544e+000	-4.721020e+000	1.727840e+002
5900123000	-2.755028e+000	-1.473525e+002	-1.674941e+001	-5.476881e+001	-2.316305e+001	-6.359816e+000	-4.638836e+000	1.729314e+002
5906372813	-2.750386e+000	-1.474837e+002	-1.673047e+001	-5.451051e+001	-2.305916e+001	-6.106552e+000	-4.552492e+000	1.731293e+002
5912622625	-2.748195e+000	-1.475993e+002	-1.671682e+001	-5.426644e+001	-2.299042e+001	-6.266148e+000	-4.480753e+000	1.732090e+002
5918872438	-2.739843e+000	-1.477710e+002	-1.670881e+001	-5.403210e+001	-2.290570e+001	-6.113356e+000	-4.404110e+000	1.733160e+002
5925122250	-2.735666e+000	-1.479043e+002	-1.667944e+001	-5.381250e+001	-2.281966e+001	-6.437267e+000	-4.326749e+000	1.733992e+002
5931372063	-2.726836e+000	-1.480053e+002	-1.666049e+001	-5.360337e+001	-2.278145e+001	-6.396777e+000	-4.259172e+000	1.734102e+002
5937621875	-2.716922e+000	-1.481877e+002	-1.662764e+001	-5.336856e+001	-2.270436e+001	-6.653071e+000	-4.193057e+000	1.734126e+002
5943871688	-2.709212e+000	-1.483161e+002	-1.662772e+001	-5.318899e+001	-2.265409e+001	-6.637489e+000	-4.128072e+000	1.734131e+002
5950121500	-2.704507e+000	-1.484398e+002	-1.659624e+001	-5.318956e+001	-2.258907e+001	-6.629902e+000	-4.064616e+000	1.733847e+002
5956371313	-2.701274e+000	-1.485879e+002	-1.657260e+001	-5.298802e+001	-2.255945e+001	-6.691047e+000	-4.004113e+000	1.733465e+002
5962621125	-2.693762e+000	-1.487058e+002	-1.655450e+001	-5.285352e+001	-2.250588e+001	-6.826166e+000	-3.951336e+000	1.732572e+002
5968870938	-2.691044e+000	-1.488735e+002	-1.653860e+001	-5.270638e+001	-2.241291e+001	-6.726292e+000	-3.899877e+000	1.732319e+002
5975120750	-2.689420e+000	-1.489854e+002	-1.651507e+001	-5.264313e+001	-2.232656e+001	-6.967594e+000	-3.853937e+000	1.731954e+002
5981370563	-2.682662e+000	-1.491131e+002	-1.648051e+001	-5.242023e+001	-2.223923e+001	-7.243346e+000	-3.805273e+000	1.731230e+002
5987620375	-2.675585e+000	-1.492490e+002	-1.646210e+001	-5.236304e+001	-2.219919e+001	-7.523800e+000	-3.760354e+000	1.730347e+002
5993870188	-2.671472e+000	-1.493706e+002	-1.640267e+001	-5.223392e+001	-2.211331e+001	-7.765619e+000	-3.713621e+000	1.729650e+002
6000120000	-2.668072e+000	-1.495033e+002	-1.636471e+001	-5.236242e+001	-2.206469e+001	-8.210207e+000	-3.672043e+000	1.728877e+002
6006369813	-2.661624e+000	-1.496189e+002	-1.631978e+001	-5.226960e+001	-2.200285e+001	-8.512343e+000	-3.633645e+000	1.727788e+002
6012619625	-2.660796e+000	-1.497241e+002	-1.629300e+001	-5.237373e+001	-2.191836e+001	-8.969833e+000	-3.593546e+000	1.726563e+002
6018869438	-2.652472e+000	-1.498213e+002	-1.625957e+001	-5.250746e+001	-2.189775e+001	-9.197039e+000	-3.564544e+000	1.725918e+002
6025119250	-2.649432e+000	-1.499378e+002	-1.623916e+001	-5.264439e+001	-2.181212e+001	-9.748591e+000	-3.521238e+000	1.725028e+002
6031369063	-2.641265e+000	-1.500552e+002	-1.621008e+001	-5.281328e+001	-2.178787e+001	-1.029339e+001	-3.495122e+000	1.724430e+002
6037618875	-2.636073e+000	-1.501431e+002	-1.618240e+001	-5.294458e+001	-2.174850e+001	-1.054258e+001	-3.459187e+000	1.723410e+002
6043868688	-2.626514e+000	-1.502608e+002	-1.617552e+001	-5.312762e+001	-2.175252e+001	-1.108569e+001	-3.424932e+000	1.722723e+002
6050118500	-2.618961e+000	-1.503555e+002	-1.616218e+001	-5.337336e+001	-2.169551e+001	-1.163726e+001	-3.395290e+000	1.722316e+002
6056368313	-2.613851e+000	-1.504422e+002	-1.615065e+001	-5.338855e+001	-2.170441e+001	-1.212701e+001	-3.363788e+000	1.721111e+002
6062618125	-2.606478e+000	-1.505737e+002	-1.613921e+001	-5.359563e+001	-2.168283e+001	-1.223777e+001	-3.341825e+000	1.719802e+002
6068867938	-2.601165e+000	-1.506613e+002	-1.612044e+001	-5.375432e+001	-2.162870e+001	-1.270516e+001	-3.314018e+000	1.718826e+002
6075117750	-2.589231e+000	-1.507495e+002	-1.611267e+001	-5.402981e+001	-2.160501e+001	-1.319917e+001	-3.285077e+000	1.718112e+002
6081367563	-2.582210e+000	-1.508588e+002	-1.611406e+001	-5.409576e+001	-2.160980e+001	-1.361592e+001	-3.266920e+000	1.717565e+002
6087617375	-2.575338e+000	-1.509751e+002	-1.607269e+001	-5.416249e+001	-2.155977e+001	-1.417495e+001	-3.244108e+000	1.717276e+002
6093867188	-2.570183e+000	-1.510203e+002	-1.606450e+001	-5.440074e+001	-2.151040e+001	-1.470722e+001	-3.224116e+000	1.716609e+002
6100117000	-2.560955e+000	-1.511211e+002	-1.603175e+001	-5.468852e+001	-2.150360e+001	-1.521743e+001	-3.192655e+000	1.716474e+002
6106366813	-2.554461e+000	-1.511980e+002	-1.601833e+001	-5.499930e+001	-2.150620e+001	-1.588174e+001	-3.163622e+000	1.715984e+002
6112616625	-2.546397e+000	-1.512990e+002	-1.599361e+001	-5.534033e+001	-2.146765e+001	-1.667729e+001	-3.139209e+000	1.715682e+002
6118866438	-2.536809e+000	-1.513757e+002	-1.598509e+001	-5.562220e+001	-2.146220e+001	-1.731072e+001	-3.108667e+000	1.715640e+002
6125116250	-2.526626e+000	-1.514389e+002	-1.595735e+001	-5.612370e+001	-2.149625e+001	-1.809452e+001	-3.077970e+000	1.715138e+002
6131366063	-2.513642e+000	-1.515200e+002	-1.595067e+001	-5.651175e+001	-2.152071e+001	-1.874044e+001	-3.046350e+000	1.714626e+002
6137615875	-2.503882e+000	-1.516069e+002	-1.597769e+001	-5.694837e+001	-2.157154e+001	-1.946184e+001	-3.015124e+000	1.714241e+002
6143865688	-2.487767e+000	-1.517081e+002	-1.598663e+001	-5.744381e+001	-2.164022e+001	-2.007890e+001	-2.977950e+000	1.713462e+002
6150115500	-2.479486e+000	-1.517851e+002	-1.600498e+001	-5.783410e+001	-2.167631e+001	-2.050087e+001	-2.954159e+000	1.712637e+002
6156365313	-2.465307e+000	-1.519060e+002	-1.602684e+001	-5.822192e+001	-2.173566e+001	-2.109544e+001	-2.918538e+000	1.711934e+002
6162615125	-2.451713e+000	-1.520292e+002	-1.607710e+001	-5.853674e+001	-2.184910e+001	-2.150426e+001	-2.883927e+000	1.710493e+002
6168864938	-2.443139e+000	-1.521043e+002	-1.610796e+001	-5.882598e+001	-2.192118e+001	-2.206441e+001	-2.853870e+000	1.709165e+002
6175114750	-2.430883e+000	-1.522257e+002	-1.615421e+001	-5.922644e+001	-2.198439e+001	-2.204145e+001	-2.832117e+000	1.707970e+002
6181364563	-2.422600e+000	-1.523559e+002	-1.619386e+001	-5.951060e+001	-2.205426e+001	-2.247863e+001	-2.805163e+000	1.706356e+002
6187614375	-2.405477e+000	-1.524564e+002	-1.623726e+001	-5.959658e+001	-2.213628e+001	-2.255854e+001	-2.787320e+000	1.705071e+002
6193864188	-2.401488e+000	-1.525681e+002	-1.627175e+001	-5.982400e+001	-2.219773e+001	-2.265318e+001	-2.763005e+000	1.703928e+002
6200114000	-2.389723e+000	-1.526662e+002	-1.631761e+001	-6.001750e+001	-2.222742e+001	-2.294990e+001	-2.750926e+000	1.702336e+002
6206363813	-2.381351e+000	-1.528184e+002	-1.635459e+001	-6.019747e+001	-2.228526e+001	-2.297659e+001	-2.733758e+000	1.701190e+002
6212613625	-2.371784e+000	-1.528971e+002	-1.638028e+001	-6.040035e+001	-2.227146e+001	-2.322652e+001	-2.720122e+000	1.699981e+002
6218863438	-2.371487e+000	-1.530252e+002	-1.640885e+001	-6.052540e+001	-2.230475e+001	-2.329458e+001	-2.711254e+000	1.699398e+002
6225113250	-2.355823e+000	-1.531255e+002	-1.643248e+001	-6.067787e+001	-2.233555e+001	-2.339066e+001	-2.694352e+000	1.698450e+002
6231363063	-2.352481e+000	-1.532418e+002	-1.647050e+001	-6.086600e+001	-2.234421e+001	-2.345653e+001	-2.677952e+000	1.697677e+002
6237612875	-2.344703e+000	-1.533270e+002	-1.647150e+001	-6.097362e+001	-2.236282e+001	-2.375152e+001	-2.663334e+000	1.696528e+002
6243862688	-2.334925e+000	-1.534117e+002	-1.649950e+001	-6.120915e+001	-2.238611e+001	-2.409492e+001	-2.650574e+000	1.696138e+002
6250112500	-2.327171e+000	-1.535116e+002	-1.651142e+001	-6.134726e+001	-2.239950e+001	-2.441837e+001	-2.638728e+000	1.695543e+002
6256362313	-2.314313e+000	-1.535858e+002	-1.652034e+001	-6.160342e+001	-2.243120e+001	-2.471105e+001	-2.623889e+000	1.695239e+002
6262612125	-2.309237e+000	-1.536970e+002	-1.655206e+001	-6.192793e+001	-2.247473e+001	-2.520340e+001	-2.604221e+000	1.694216e+002
6268861938	-2.297787e+000	-1.537792e+002	-1.658413e+001	-6.220203e+001	-2.253457e+001	-2.571376e+001	-2.590199e+000	1.693995e+002
6275111750	-2.288347e+000	-1.538699e+002	-1.662245e+001	-6.249804e+001	-2.258989e+001	-2.599720e+001	-2.566965e+000	1.692893e+002
6281361563	-2.275933e+000	-1.539737e+002	-1.664886e+001	-6.285688e+001	-2.266081e+001	-2.647561e+001	-2.548864e+000	1.692131e+002
6287611375	-2.268429e+000	-1.540649e+002	-1.668968e+001	-6.312067e+001	-2.271519e+001	-2.661471e+001	-2.529879e+000	1.691208e+002
6293861188	-2.256916e+000	-1.541633e+002	-1.673500e+001	-6.330963e+001	-2.278355e+001	-2.678523e+001	-2.513980e+000	1.690229e+002
6300111000	-2.247018e+000	-1.542738e+002	-1.676774e+001	-6.351767e+001	-2.283008e+001	-2.708177e+001	-2.492505e+000	1.689274e+002
6306360813	-2.234397e+000	-1.543748e+002	-1.682174e+001	-6.374703e+001	-2.290832e+001	-2.746029e+001	-2.481498e+000	1.688089e+002
6312610625	-2.229874e+000	-1.544585e+002	-1.687353e+001	-6.393041e+001	-2.299837e+001	-2.744147e+001	-2.461966e+000	1.687221e+002
6318860438	-2.217376e+000	-1.545649e+002	-1.692230e+001	-6.406370e+001	-2.306446e+001	-2.749086e+001	-2.451125e+000	1.685989e+002
6325110250	-2.209645e+000	-1.546580e+002	-1.695052e+001	-6.431710e+001	-2.311460e+001	-2.748597e+001	-2.442092e+000	1.685410e+002
6331360063	-2.196756e+000	-1.547449e+002	-1.700393e+001	-6.450468e+001	-2.319709e+001	-2.756404e+001	-2.426773e+000	1.684096e+002
6337609875	-2.190389e+000	-1.548414e+002	-1.705490e+001	-6.458289e+001	-2.323204e+001	-2.762240e+001	-2.412739e+000	1.683198e+002
6343859688	-2.187839e+000	-1.549173e+002	-1.707837e+001	-6.475494e+001	-2.330871e+001	-2.777521e+001	-2.405615e+000	1.682265e+002
6350109500	-2.177812e+000	-1.550267e+002	-1.711998e+001	-6.504430e+001	-2.332010e+001	-2.784216e+001	-2.390542e+000	1.681767e+002
6356359313	-2.169697e+000	-1.551096e+002	-1.715403e+001	-6.513799e+001	-2.339265e+001	-2.784501e+001	-2.378776e+000	1.680879e+002
6362609125	-2.159144e+000	-1.551903e+002	-1.719604e+001	-6.535391e+001	-2.345428e+001	-2.806389e+001	-2.374521e+000	1.680125e+002
6368858938	-2.151542e+000	-1.552597e+002	-1.723776e+001	-6.556696e+001	-2.347604e+001	-2.808738e+001	-2.359631e+000	1.678920e+002
6375108750	-2.138295e+000	-1.553563e+002	-1.729061e+001	-6.564520e+001	-2.354455e+001	-2.825722e+001	-2.347333e+000	1.678557e+002
6381358563	-2.128158e+000	-1.554265e+002	-1.734978e+001	-6.582114e+001	-2.360203e+001	-2.849977e+001	-2.334263e+000	1.677696e+002
6387608375	-2.126586e+000	-1.555217e+002	-1.738265e+001	-6.600728e+001	-2.366003e+001	-2.833588e+001	-2.331240e+000	1.676590e+002
6393858188	-2.117029e+000	-1.556387e+002	-1.741420e+001	-6.605586e+001	-2.370347e+001	-2.850257e+001	-2.321143e+000	1.676113e+002
6400108000	-2.106720e+000	-1.557196e+002	-1.747287e+001	-6.620186e+001	-2.377556e+001	-2.837755e+001	-2.306546e+000	1.675074e+002
6406357813	-2.097349e+000	-1.558104e+002	-1.752314e+001	-6.650039e+001	-2.385776e+001	-2.864645e+001	-2.300363e+000	1.674573e+002
6412607625	-2.088884e+000	-1.558992e+002	-1.755224e+001	-6.662327e+001	-2.390180e+001	-2.829195e+001	-2.286709e+000	1.673854e+002
6418857438	-2.084837e+000	-1.560029e+002	-1.761880e+001	-6.671471e+001	-2.396472e+001	-2.854113e+001	-2.280814e+000	1.673146e+002
6425107250	-2.080184e+000	-1.561139e+002	-1.767392e+001	-6.683466e+001	-2.400919e+001	-2.846559e+001	-2.263456e+000	1.672549e+002
6431357063	-2.074618e+000	-1.561936e+002	-1.770212e+001	-6.699317e+001	-2.408170e+001	-2.855962e+001	-2.259652e+000	1.671614e+002
6437606875	-2.065697e+000	-1.562674e+002	-1.776875e+001	-6.716125e+001	-2.410836e+001	-2.859252e+001	-2.254526e+000	1.670959e+002
6443856688	-2.057214e+000	-1.563552e+002	-1.779695e+001	-6.728356e+001	-2.416813e+001	-2.865100e+001	-2.238538e+000	1.670176e+002
6450106500	-2.051494e+000	-1.564593e+002	-1.785392e+001	-6.738463e+001	-2.424442e+001	-2.854674e+001	-2.233800e+000	1.669562e+002
6456356313	-2.043258e+000	-1.565327e+002	-1.789000e+001	-6.749102e+001	-2.425322e+001	-2.854629e+001	-2.221908e+000	1.668692e+002
6462606125	-2.037402e+000	-1.566342e+002	-1.794426e+001	-6.752625e+001	-2.432747e+001	-2.862267e+001	-2.215028e+000	1.667778e+002
6468855938	-2.027417e+000	-1.566865e+002	-1.797602e+001	-6.754472e+001	-2.435134e+001	-2.853632e+001	-2.213394e+000	1.667259e+002
6475105750	-2.022585e+000	-1.567547e+002	-1.802716e+001	-6.778473e+001	-2.443459e+001	-2.856096e+001	-2.204702e+000	1.666239e+002
6481355563	-2.014519e+000	-1.568451e+002	-1.808843e+001	-6.786164e+001	-2.447766e+001	-2.856026e+001	-2.199068e+000	1.666084e+002
6487605375	-2.004756e+000	-1.568986e+002	-1.812812e+001	-6.791872e+001	-2.451019e+001	-2.855899e+001	-2.186276e+000	1.665365e+002
6493855188	-1.998690e+000	-1.570034e+002	-1.814739e+001	-6.814226e+001	-2.460713e+001	-2.848759e+001	-2.179161e+000	1.664813e+002
6500105000	-1.992279e+000	-1.570830e+002	-1.820464e+001	-6.831589e+001	-2.465737e+001	-2.849378e+001	-2.176037e+000	1.664076e+002
6506354813	-1.981840e+000	-1.571816e+002	-1.825818e+001	-6.849097e+001	-2.469731e+001	-2.864650e+001	-2.165796e+000	1.663789e+002
6512604625	-1.971755e+000	-1.572330e+002	-1.828517e+001	-6.851389e+001	-2.481482e+001	-2.876336e+001	-2.158999e+000	1.663108e+002
6518854438	-1.966039e+000	-1.573356e+002	-1.836477e+001	-6.883757e+001	-2.484233e+001	-2.868253e+001	-2.146022e+000	1.662310e+002
6525104250	-1.958585e+000	-1.574252e+002	-1.842113e+001	-6.896267e+001	-2.497322e+001	-2.877556e+001	-2.137089e+000	1.661913e+002
6531354063	-1.951682e+000	-1.575204e+002	-1.848702e+001	-6.908355e+001	-2.502974e+001	-2.844307e+001	-2.123264e+000	1.660685e+002
6537603875	-1.944906e+000	-1.575869e+002	-1.854131e+001	-6.903106e+001	-2.514584e+001	-2.833326e+001	-2.120572e+000	1.659923e+002
6543853688	-1.936116e+000	-1.576935e+002	-1.861488e+001	-6.923490e+001	-2.518401e+001	-2.792532e+001	-2.110988e+000	1.659284e+002
6550103500	-1.933356e+000	-1.577519e+002	-1.868443e+001	-6.927229e+001	-2.528325e+001	-2.756815e+001	-2.107466e+000	1.658455e+002
6556353313	-1.929373e+000	-1.578455e+002	-1.875900e+001	-6.925824e+001	-2.530655e+001	-2.729507e+001	-2.102236e+000	1.657426e+002
6562603125	-1.928596e+000	-1.578985e+002	-1.881315e+001	-6.916843e+001	-2.532856e+001	-2.669699e+001	-2.096612e+000	1.656412e+002
6568852938	-1.921187e+000	-1.579773e+002	-1.887385e+001	-6.915512e+001	-2.538329e+001	-2.646959e+001	-2.092168e+000	1.656017e+002
6575102750	-1.914279e+000	-1.580668e+002	-1.892150e+001	-6.917177e+001	-2.541419e+001	-2.629274e+001	-2.087104e+000	1.655267e+002
6581352563	-1.912179e+000	-1.580932e+002	-1.896747e+001	-6.912745e+001	-2.542778e+001	-2.607862e+001	-2.089760e+000	1.654491e+002
6587602375	-1.907784e+000	-1.581863e+002	-1.901847e+001	-6.911891e+001	-2.543882e+001	-2.578340e+001	-2.091072e+000	1.654059e+002
6593852188	-1.903786e+000	-1.582403e+002	-1.905691e+001	-6.904185e+001	-2.547638e+001	-2.563166e+001	-2.080148e+000	1.653228e+002
6600102000	-1.899693e+000	-1.583029e+002	-1.910201e+001	-6.900955e+001	-2.551432e+001	-2.547211e+001	-2.080381e+000	1.652771e+002
6606351813	-1.892480e+000	-1.583168e+002	-1.914169e+001	-6.912254e+001	-2.556499e+001	-2.554841e+001	-2.081729e+000	1.652386e+002
6612601625	-1.888059e+000	-1.583664e+002	-1.917960e+001	-6.901782e+001	-2.557692e+001	-2.526054e+001	-2.077552e+000	1.652078e+002
6618851438	-1.876845e+000	-1.584348e+002	-1.924099e+001	-6.915900e+001	-2.560452e+001	-2.512007e+001	-2.068914e+000	1.651503e+002
6625101250	-1.868586e+000	-1.584862e+002	-1.928019e+001	-6.931818e+001	-2.568360e+001	-2.513758e+001	-2.067989e+000	1.651084e+002
6631351063	-1.866208e+000	-1.585512e+002	-1.934621e+001	-6.929221e+001	-2.573098e+001	-2.467878e+001	-2.066667e+000	1.650242e+002
6637600875	-1.859502e+000	-1.586259e+002	-1.939290e+001	-6.932640e+001	-2.582014e+001	-2.473533e+001	-2.061799e+000	1.649915e+002
6643850688	-1.852158e+000	-1.586871e+002	-1.944659e+001	-6.944409e+001	-2.581863e+001	-2.455167e+001	-2.060524e+000	1.649363e+002
6650100500	-1.844945e+000	-1.587520e+002	-1.950380e+001	-6.942358e+001	-2.586607e+001	-2.417212e+001	-2.057668e+000	1.649069e+002
6656350313	-1.840122e+000	-1.588244e+002	-1.956325e+001	-6.929447e+001	-2.594557e+001	-2.380723e+001	-2.058288e+000	1.648226e+002
6662600125	-1.833696e+000	-1.588739e+002	-1.962148e+001	-6.940041e+001	-2.600324e+001	-2.330793e+001	-2.054081e+000	1.647949e+002
6668849938	-1.830073e+000	-1.589525e+002	-1.970477e+001	-6.919865e+001	-2.602003e+001	-2.310919e+001	-2.053359e+000	1.647104e+002
6675099750	-1.823025e+000	-1.590327e+002	-1.975211e+001	-6.918259e+001	-2.607066e+001	-2.245163e+001	-2.051924e+000	1.646431e+002
6681349563	-1.822625e+000	-1.591125e+002	-1.981411e+001	-6.894428e+001	-2.607756e+001	-2.224032e+001	-2.053254e+000	1.646238e+002
6687599375	-1.818377e+000	-1.591893e+002	-1.989069e+001	-6.896860e+001	-2.607982e+001	-2.137661e+001	-2.058330e+000	1.645451e+002
6693849188	-1.815173e+000	-1.592522e+002	-1.994008e+001	-6.856220e+001	-2.607337e+001	-2.097650e+001	-2.057865e+000	1.644924e+002
6700099000	-1.813656e+000	-1.593274e+002	-1.998617e+001	-6.839402e+001	-2.608584e+001	-2.054618e+001	-2.058242e+000	1.644667e+002
6706348813	-1.809567e+000	-1.593697e+002	-2.004612e+001	-6.819105e+001	-2.600922e+001	-1.983144e+001	-2.060814e+000	1.644208e+002
6712598625	-1.809237e+000	-1.594172e+002	-2.006443e+001	-6.802297e+001	-2.601001e+001	-1.958975e+001	-2.067545e+000	1.644029e+002
6718848438	-1.810777e+000	-1.594482e+002	-2.008503e+001	-6.782653e+001	-2.592407e+001	-1.914815e+001	-2.072927e+000	1.643496e+002
6725098250	-1.805827e+000	-1.595048e+002	-2.010046e+001	-6.736052e+001	-2.588150e+001	-1.885412e+001	-2.072847e+000	1.643390e+002
6731348063	-1.806158e+000	-1.595508e+002	-2.010041e+001	-6.743767e+001	-2.578901e+001	-1.903775e+001	-2.077364e+000	1.643445e+002
6737597875	-1.803133e+000	-1.595786e+002	-2.013159e+001	-6.711808e+001	-2.573823e+001	-1.934411e+001	-2.080260e+000	1.643352e+002
6743847688	-1.798287e+000	-1.595984e+002	-2.011191e+001	-6.692390e+001	-2.570373e+001	-1.910519e+001	-2.079478e+000	1.643546e+002
6750097500	-1.799027e+000	-1.596502e+002	-2.011039e+001	-6.698241e+001	-2.566363e+001	-1.940721e+001	-2.080212e+000	1.643665e+002
6756347313	-1.789605e+000	-1.596360e+002	-2.013559e+001	-6.685620e+001	-2.562639e+001	-1.967451e+001	-2.084003e+000	1.643650e+002
6762597125	-1.785758e+000	-1.596730e+002	-2.013130e+001	-6.695903e+001	-2.565382e+001	-1.989913e+001	-2.084980e+000	1.643655e+002
6768846938	-1.785216e+000	-1.597130e+002	-2.015125e+001	-6.704121e+001	-2.559480e+001	-2.000015e+001	-2.083895e+000	1.643924e+002
6775096750	-1.773509e+000	-1.597359e+002	-2.017947e+001	-6.696895e+001	-2.560748e+001	-2.017272e+001	-2.087742e+000	1.643859e+002
6781346563	-1.767065e+000	-1.597468e+002	-2.017151e+001	-6.702735e+001	-2.560156e+001	-2.061728e+001	-2.088054e+000	1.644277e+002
6787596375	-1.763756e+000	-1.598058e+002	-2.020914e+001	-6.701434e+001	-2.559620e+001	-2.064529e+001	-2.090547e+000	1.644354e+002
6793846188	-1.760228e+000	-1.598170e+002	-2.021708e+001	-6.709522e+001	-2.557451e+001	-2.084668e+001	-2.087941e+000	1.644422e+002
6800096000	-1.751425e+000	-1.598309e+002	-2.022064e+001	-6.707016e+001	-2.560203e+001	-2.105348e+001	-2.086206e+000	1.645030e+002
6806345813	-1.749141e+000	-1.598692e+002	-2.023645e+001	-6.719895e+001	-2.557658e+001	-2.154551e+001	-2.085806e+000	1.645363e+002
6812595625	-1.739351e+000	-1.598717e+002	-2.023106e+001	-6.738692e+001	-2.562670e+001	-2.193845e+001	-2.075998e+000	1.645741e+002
6818845438	-1.732499e+000	-1.599081e+002	-2.024128e+001	-6.745651e+001	-2.560317e+001	-2.221660e+001	-2.074909e+000	1.646033e+002
6825095250	-1.727784e+000	-1.599353e+002	-2.026251e+001	-6.769940e+001	-2.564506e+001	-2.242489e+001	-2.067685e+000	1.646521e+002
6831345063	-1.724017e+000	-1.599669e+002	-2.026982e+001	-6.805212e+001	-2.572518e+001	-2.293552e+001	-2.062979e+000	1.646544e+002
6837594875	-1.711536e+000	-1.599864e+002	-2.032336e+001	-6.800365e+001	-2.576261e+001	-2.300571e+001	-2.051580e+000	1.646796e+002
6843844688	-1.706202e+000	-1.600304e+002	-2.033364e+001	-6.834515e+001	-2.579752e+001	-2.333985e+001	-2.043453e+000	1.646853e+002
6850094500	-1.697415e+000	-1.600464e+002	-2.037682e+001	-6.843825e+001	-2.589465e+001	-2.341587e+001	-2.037482e+000	1.646889e+002
6856344313	-1.695583e+000	-1.600671e+002	-2.043099e+001	-6.868522e+001	-2.595897e+001	-2.389490e+001	-2.032948e+000	1.646759e+002
6862594125	-1.691590e+000	-1.601110e+002	-2.048074e+001	-6.886281e+001	-2.597668e+001	-2.396713e+001	-2.025482e+000	1.646863e+002
6868843938	-1.680883e+000	-1.601348e+002	-2.049036e+001	-6.930086e+001	-2.603093e+001	-2.437110e+001	-2.021113e+000	1.646848e+002
6875093750	-1.675480e+000	-1.601580e+002	-2.053487e+001	-6.913535e+001	-2.608127e+001	-2.424508e+001	-2.016138e+000	1.646956e+002
6881343563	-1.670474e+000	-1.601912e+002	-2.058644e+001	-6.928087e+001	-2.616834e+001	-2.438049e+001	-2.007088e+000	1.646657e+002
6887593375	-1.661057e+000	-1.602217e+002	-2.060325e+001	-6.966245e+001	-2.621792e+001	-2.455309e+001	-1.997092e+000	1.646725e+002
6893843188	-1.654056e+000	-1.602616e+002	-2.063690e+001	-6.974376e+001	-2.627315e+001	-2.470035e+001	-1.994607e+000	1.646557e+002
6900093000	-1.650257e+000	-1.602805e+002	-2.071821e+001	-7.007990e+001	-2.634594e+001	-2.481460e+001	-1.988011e+000	1.646731e+002
6906342813	-1.641766e+000	-1.603439e+002	-2.075030e+001	-7.011426e+001	-2.640235e+001	-2.467351e+001	-1.981135e+000	1.646671e+002
6912592625	-1.637065e+000	-1.603663e+002	-2.080042e+001	-7.030451e+001	-2.650742e+001	-2.475773e+001	-1.976279e+000	1.646537e+002
6918842438	-1.630616e+000	-1.603747e+002	-2.085766e+001	-7.049724e+001	-2.660809e+001	-2.477758e+001	-1.966088e+000	1.646312e+002
6925092250	-1.624730e+000	-1.604492e+002	-2.092179e+001	-7.060908e+001	-2.664489e+001	-2.459506e+001	-1.961962e+000	1.646587e+002
6931342063	-1.613201e+000	-1.604816e+002	-2.095200e+001	-7.064363e+001	-2.674010e+001	-2.468684e+001	-1.957330e+000	1.646747e+002
6937591875	-1.610354e+000	-1.605263e+002	-2.103319e+001	-7.090759e+001	-2.678572e+001	-2.460066e+001	-1.953960e+000	1.646372e+002
6943841688	-1.605688e+000	-1.605555e+002	-2.110071e+001	-7.105804e+001	-2.691617e+001	-2.461995e+001	-1.945378e+000	1.646109e+002
6950091500	-1.602660e+000	-1.605890e+002	-2.114141e+001	-7.102100e+001	-2.698604e+001	-2.445613e+001	-1.937038e+000	1.646227e+002
6956341313	-1.589908e+000	-1.606491e+002	-2.120936e+001	-7.108914e+001	-2.705068e+001	-2.427436e+001	-1.934960e+000	1.645884e+002
6962591125	-1.587675e+000	-1.606595e+002	-2.127404e+001	-7.125969e+001	-2.715600e+001	-2.447956e+001	-1.929075e+000	1.645818e+002
6968840938	-1.583918e+000	-1.607023e+002	-2.131615e+001	-7.129897e+001	-2.716364e+001	-2.381915e+001	-1.923648e+000	1.645484e+002
6975090750	-1.580576e+000	-1.607492e+002	-2.141456e+001	-7.141907e+001	-2.727617e+001	-2.382224e+001	-1.913612e+000	1.645281e+002
6981340563	-1.572160e+000	-1.607775e+002	-2.146560e+001	-7.161808e+001	-2.734494e+001	-2.375413e+001	-1.912885e+000	1.644893e+002
6987590375	-1.567877e+000	-1.608010e+002	-2.152172e+001	-7.157606e+001	-2.741714e+001	-2.348194e+001	-1.906838e+000	1.644592e+002
6993840188	-1.563428e+000	-1.608399e+002	-2.157298e+001	-7.174487e+001	-2.751660e+001	-2.324095e+001	-1.903433e+000	1.644416e+002
7000090000	-1.559402e+000	-1.608490e+002	-2.164234e+001	-7.168232e+001	-2.754974e+001	-2.287488e+001	-1.898459e+000	1.643995e+002
7006339813	-1.549623e+000	-1.608581e+002	-2.171977e+001	-7.169025e+001	-2.765109e+001	-2.261399e+001	-1.898209e+000	1.643699e+002
7012589625	-1.548908e+000	-1.609137e+002	-2.177087e+001	-7.176215e+001	-2.773967e+001	-2.213539e+001	-1.894281e+000	1.643517e+002
7018839438	-1.539543e+000	-1.609435e+002	-2.183275e+001	-7.168250e+001	-2.772486e+001	-2.199468e+001	-1.893091e+000	1.643189e+002
7025089250	-1.539626e+000	-1.609698e+002	-2.189059e+001	-7.164175e+001	-2.777089e+001	-2.165946e+001	-1.888777e+000	1.643020e+002
7031339063	-1.534818e+000	-1.610046e+002	-2.195943e+001	-7.181921e+001	-2.790209e+001	-2.155675e+001	-1.890864e+000	1.642517e+002
7037588875	-1.522817e+000	-1.610209e+002	-2.202294e+001	-7.169894e+001	-2.795919e+001	-2.070918e+001	-1.888132e+000	1.642343e+002
7043838688	-1.524590e+000	-1.610800e+002	-2.207525e+001	-7.166093e+001	-2.797734e+001	-2.058506e+001	-1.885407e+000	1.641762e+002
7050088500	-1.516142e+000	-1.610691e+002	-2.215381e+001	-7.176313e+001	-2.806232e+001	-2.028918e+001	-1.878754e+000	1.642418e+002
7056338313	-1.513401e+000	-1.611307e+002	-2.222125e+001	-7.164850e+001	-2.811623e+001	-1.971151e+001	-1.881013e+000	1.642025e+002
7062588125	-1.512180e+000	-1.611525e+002	-2.227235e+001	-7.154489e+001	-2.813330e+001	-1.936861e+001	-1.873137e+000	1.641668e+002
7068837938	-1.505052e+000	-1.611408e+002	-2.234632e+001	-7.161052e+001	-2.818342e+001	-1.908401e+001	-1.875224e+000	1.641680e+002
7075087750	-1.499407e+000	-1.612037e+002	-2.242241e+001	-7.178486e+001	-2.823233e+001	-1.882054e+001	-1.871287e+000	1.641341e+002
7081337563	-1.501502e+000	-1.612379e+002	-2.245723e+001	-7.149698e+001	-2.831438e+001	-1.838273e+001	-1.870784e+000	1.641115e+002
7087587375	-1.496926e+000	-1.612734e+002	-2.253488e+001	-7.134670e+001	-2.832087e+001	-1.807037e+001	-1.869527e+000	1.640958e+002
7093837188	-1.494839e+000	-1.613153e+002	-2.262874e+001	-7.139320e+001	-2.833845e+001	-1.726315e+001	-1.864492e+000	1.640971e+002
7100087000	-1.490426e+000	-1.613019e+002	-2.269342e+001	-7.115344e+001	-2.840540e+001	-1.685913e+001	-1.865777e+000	1.640732e+002
7106336813	-1.491263e+000	-1.613302e+002	-2.273982e+001	-7.101629e+001	-2.843317e+001	-1.630503e+001	-1.865157e+000	1.640447e+002
7112586625	-1.483139e+000	-1.613829e+002	-2.280313e+001	-7.102456e+001	-2.842845e+001	-1.609985e+001	-1.867264e+000	1.640434e+002
7118836438	-1.485789e+000	-1.614174e+002	-2.286207e+001	-7.093627e+001	-2.848894e+001	-1.530247e+001	-1.862512e+000	1.639877e+002
7125086250	-1.482126e+000	-1.613987e+002	-2.295260e+001	-7.080625e+001	-2.851306e+001	-1.473760e+001	-1.864671e+000	1.639910e+002
7131336063	-1.478913e+000	-1.614313e+002	-2.299347e+001	-7.061131e+001	-2.849681e+001	-1.460659e+001	-1.867371e+000	1.639684e+002
7137585875	-1.474814e+000	-1.614621e+002	-2.303937e+001	-7.047028e+001	-2.846714e+001	-1.445006e+001	-1.872405e+000	1.639244e+002
7143835688	-1.473286e+000	-1.614684e+002	-2.309056e+001	-7.025199e+001	-2.849478e+001	-1.407699e+001	-1.872392e+000	1.639386e+002
7150085500	-1.473303e+000	-1.614840e+002	-2.311082e+001	-7.010116e+001	-2.854943e+001	-1.356636e+001	-1.874807e+000	1.639061e+002
7156335313	-1.470532e+000	-1.614760e+002	-2.319013e+001	-7.001443e+001	-2.853774e+001	-1.289250e+001	-1.878699e+000	1.639044e+002
7162585125	-1.462888e+000	-1.615201e+002	-2.323645e+001	-6.979038e+001	-2.849273e+001	-1.299458e+001	-1.879118e+000	1.638809e+002
7168834938	-1.462994e+000	-1.615043e+002	-2.328671e+001	-6.950999e+001	-2.850984e+001	-1.267294e+001	-1.885560e+000	1.638781e+002
7175084750	-1.462487e+000	-1.615349e+002	-2.327422e+001	-6.964755e+001	-2.845725e+001	-1.217334e+001	-1.888965e+000	1.638872e+002
7181334563	-1.459485e+000	-1.615702e+002	-2.333458e+001	-6.951311e+001	-2.850472e+001	-1.197867e+001	-1.893270e+000	1.638723e+002
7187584375	-1.452751e+000	-1.616237e+002	-2.341042e+001	-6.943341e+001	-2.849821e+001	-1.137783e+001	-1.890842e+000	1.638618e+002
7193834188	-1.452802e+000	-1.615890e+002	-2.342429e+001	-6.904771e+001	-2.843645e+001	-1.162623e+001	-1.893568e+000	1.638810e+002
7200084000	-1.449969e+000	-1.615874e+002	-2.348939e+001	-6.891711e+001	-2.849598e+001	-1.132261e+001	-1.895500e+000	1.638831e+002
7206333813	-1.446676e+000	-1.616234e+002	-2.353299e+001	-6.895708e+001	-2.856130e+001	-1.100831e+001	-1.897876e+000	1.639076e+002
7212583625	-1.447051e+000	-1.616457e+002	-2.353944e+001	-6.911682e+001	-2.854414e+001	-1.097253e+001	-1.895447e+000	1.638975e+002
7218833438	-1.440033e+000	-1.616421e+002	-2.359521e+001	-6.907151e+001	-2.860812e+001	-1.098137e+001	-1.894693e+000	1.639167e+002
7225083250	-1.436066e+000	-1.616818e+002	-2.365656e+001	-6.896575e+001	-2.860421e+001	-1.086042e+001	-1.894509e+000	1.638946e+002
7231333063	-1.436796e+000	-1.616751e+002	-2.371232e+001	-6.900672e+001	-2.862811e+001	-1.046266e+001	-1.894116e+000	1.639018e+002
7237582875	-1.436609e+000	-1.616757e+002	-2.378220e+001	-6.880289e+001	-2.867783e+001	-1.014875e+001	-1.897434e+000	1.638680e+002
7243832688	-1.431623e+000	-1.617021e+002	-2.381410e+001	-6.854128e+001	-2.871791e+001	-9.774618e+000	-1.897287e+000	1.638829e+002
7250082500	-1.424998e+000	-1.617434e+002	-2.388340e+001	-6.867724e+001	-2.874398e+001	-8.968203e+000	-1.898991e+000	1.638734e+002
7256332313	-1.424007e+000	-1.617466e+002	-2.393504e+001	-6.834921e+001	-2.870680e+001	-8.789626e+000	-1.899320e+000	1.638573e+002
7262582125	-1.426623e+000	-1.617774e+002	-2.399625e+001	-6.800414e+001	-2.870439e+001	-8.154129e+000	-1.897725e+000	1.638493e+002
7268831938	-1.422384e+000	-1.617742e+002	-2.404647e+001	-6.793574e+001	-2.872954e+001	-7.635910e+000	-1.904233e+000	1.638529e+002
7275081750	-1.421778e+000	-1.617750e+002	-2.408740e+001	-6.760995e+001	-2.870896e+001	-7.678733e+000	-1.911264e+000	1.638613e+002
7281331563	-1.419044e+000	-1.618013e+002	-2.412201e+001	-6.748984e+001	-2.859423e+001	-7.371579e+000	-1.917853e+000	1.638744e+002
7287581375	-1.416458e+000	-1.618194e+002	-2.411368e+001	-6.723838e+001	-2.857975e+001	-7.052823e+000	-1.921579e+000	1.638946e+002
7293831188	-1.416363e+000	-1.618334e+002	-2.417578e+001	-6.724500e+001	-2.862253e+001	-7.332226e+000	-1.926084e+000	1.639238e+002
7300081000	-1.408403e+000	-1.618017e+002	-2.422758e+001	-6.701839e+001	-2.855305e+001	-7.072159e+000	-1.934291e+000	1.639717e+002
7306330813	-1.415398e+000	-1.618209e+002	-2.424409e+001	-6.686140e+001	-2.859481e+001	-7.483130e+000	-1.931825e+000	1.639938e+002
7312580625	-1.411274e+000	-1.618353e+002	-2.422088e+001	-6.704334e+001	-2.861735e+001	-7.213504e+000	-1.939155e+000	1.640592e+002
7318830438	-1.413107e+000	-1.618194e+002	-2.423235e+001	-6.687415e+001	-2.860701e+001	-7.200222e+000	-1.937896e+000	1.640743e+002
7325080250	-1.405705e+000	-1.618446e+002	-2.428280e+001	-6.713882e+001	-2.864606e+001	-7.471922e+000	-1.941809e+000	1.641489e+002
7331330063	-1.408842e+000	-1.618226e+002	-2.432891e+001	-6.703496e+001	-2.866998e+001	-7.354009e+000	-1.940181e+000	1.641666e+002
7337579875	-1.410078e+000	-1.618635e+002	-2.435042e+001	-6.716491e+001	-2.872903e+001	-7.102752e+000	-1.937191e+000	1.642249e+002
7343829688	-1.398140e+000	-1.618570e+002	-2.443328e+001	-6.714107e+001	-2.885675e+001	-7.285090e+000	-1.937887e+000	1.642580e+002
7350079500	-1.399459e+000	-1.618914e+002	-2.444667e+001	-6.721423e+001	-2.884612e+001	-6.936442e+000	-1.932771e+000	1.642751e+002
7356329313	-1.398218e+000	-1.618957e+002	-2.447214e+001	-6.736130e+001	-2.891457e+001	-6.281115e+000	-1.930287e+000	1.642936e+002
7362579125	-1.397141e+000	-1.619329e+002	-2.461520e+001	-6.753470e+001	-2.888918e+001	-6.385432e+000	-1.929287e+000	1.643335e+002
7368828938	-1.397649e+000	-1.619229e+002	-2.463600e+001	-6.727911e+001	-2.893786e+001	-6.079779e+000	-1.929405e+000	1.643413e+002
7375078750	-1.397933e+000	-1.619374e+002	-2.469893e+001	-6.738065e+001	-2.899620e+001	-5.415390e+000	-1.924058e+000	1.643515e+002
7381328563	-1.403182e+000	-1.619764e+002	-2.478295e+001	-6.733830e+001	-2.901513e+001	-5.009107e+000	-1.926044e+000	1.643191e+002
7387578375	-1.402066e+000	-1.619853e+002	-2.485397e+001	-6.735503e+001	-2.909034e+001	-4.736993e+000	-1.917765e+000	1.643376e+002
7393828188	-1.404432e+000	-1.620182e+002	-2.489035e+001	-6.719089e+001	-2.913129e+001	-4.042536e+000	-1.916145e+000	1.643484e+002
7400078000	-1.402856e+000	-1.620344e+002	-2.495084e+001	-6.704937e+001	-2.915935e+001	-4.014216e+000	-1.915891e+000	1.643598e+002
7406327813	-1.401856e+000	-1.620210e+002	-2.505416e+001	-6.667798e+001	-2.906635e+001	-3.116122e+000	-1.916184e+000	1.643758e+002
7412577625	-1.401290e+000	-1.620267e+002	-2.508798e+001	-6.682683e+001	-2.909816e+001	-3.180679e+000	-1.913973e+000	1.643392e+002
7418827438	-1.408950e+000	-1.620545e+002	-2.514384e+001	-6.646992e+001	-2.915258e+001	-2.710842e+000	-1.913928e+000	1.643749e+002
7425077250	-1.404252e+000	-1.620716e+002	-2.519720e+001	-6.644340e+001	-2.914794e+001	-2.847468e+000	-1.912284e+000	1.643522e+002
7431327063	-1.405838e+000	-1.620714e+002	-2.525390e+001	-6.627820e+001	-2.918106e+001	-2.068975e+000	-1.909844e+000	1.643750e+002
7437576875	-1.408750e+000	-1.620987e+002	-2.535705e+001	-6.628302e+001	-2.918503e+001	-1.765288e+000	-1.910176e+000	1.643736e+002
7443826688	-1.410613e+000	-1.621130e+002	-2.542866e+001	-6.609403e+001	-2.917728e+001	-1.306162e+000	-1.908512e+000	1.643845e+002
7450076500	-1.411477e+000	-1.621096e+002	-2.543560e+001	-6.591568e+001	-2.922291e+001	-8.434929e-001	-1.907723e+000	1.644053e+002
7456326313	-1.416506e+000	-1.620948e+002	-2.553036e+001	-6.573303e+001	-2.918389e+001	-5.924517e-001	-1.905842e+000	1.643715e+002
7462576125	-1.414704e+000	-1.621406e+002	-2.558925e+001	-6.579071e+001	-2.920672e+001	-7.808934e-002	-1.900940e+000	1.643978e+002
7468825938	-1.410398e+000	-1.621617e+002	-2.565948e+001	-6.549877e+001	-2.918973e+001	1.304228e-002	-1.905708e+000	1.643896e+002
7475075750	-1.416106e+000	-1.621830e+002	-2.574524e+001	-6.544024e+001	-2.923813e+001	1.128701e+000	-1.899962e+000	1.643903e+002
7481325563	-1.418106e+000	-1.621768e+002	-2.583058e+001	-6.499150e+001	-2.917657e+001	1.295814e+000	-1.898194e+000	1.643726e+002
7487575375	-1.425289e+000	-1.621789e+002	-2.588896e+001	-6.474687e+001	-2.922213e+001	1.641288e+000	-1.898063e+000	1.643459e+002
7493825188	-1.422866e+000	-1.621994e+002	-2.591386e+001	-6.402378e+001	-2.908701e+001	2.450677e+000	-1.901367e+000	1.643476e+002
7500075000	-1.429296e+000	-1.621959e+002	-2.597934e+001	-6.410109e+001	-2.915264e+001	2.884080e+000	-1.904791e+000	1.643220e+002
7506324813	-1.427229e+000	-1.621503e+002	-2.600779e+001	-6.339435e+001	-2.905502e+001	3.050086e+000	-1.905931e+000	1.643075e+002
7512574625	-1.429943e+000	-1.622038e+002	-2.611814e+001	-6.318934e+001	-2.904722e+001	4.126371e+000	-1.907604e+000	1.642824e+002
7518824438	-1.442533e+000	-1.621955e+002	-2.614986e+001	-6.302198e+001	-2.895046e+001	4.222900e+000	-1.910998e+000	1.642756e+002
7525074250	-1.444550e+000	-1.622081e+002	-2.618887e+001	-6.228771e+001	-2.892783e+001	4.502054e+000	-1.911238e+000	1.642621e+002
7531324063	-1.452914e+000	-1.622324e+002	-2.624414e+001	-6.211683e+001	-2.889310e+001	4.474718e+000	-1.918220e+000	1.642499e+002
7537573875	-1.448034e+000	-1.622144e+002	-2.626805e+001	-6.143148e+001	-2.879228e+001	4.828018e+000	-1.919888e+000	1.642340e+002
7543823688	-1.456611e+000	-1.621997e+002	-2.628327e+001	-6.120309e+001	-2.879474e+001	5.411335e+000	-1.923180e+000	1.642342e+002
7550073500	-1.465649e+000	-1.622017e+002	-2.628752e+001	-6.078169e+001	-2.869944e+001	5.349306e+000	-1.930586e+000	1.642144e+002
7556323313	-1.464142e+000	-1.622040e+002	-2.634618e+001	-6.069230e+001	-2.868261e+001	5.423048e+000	-1.935881e+000	1.642037e+002
7562573125	-1.473197e+000	-1.622220e+002	-2.634014e+001	-6.016326e+001	-2.860984e+001	5.780845e+000	-1.943156e+000	1.642189e+002
7568822938	-1.477820e+000	-1.621997e+002	-2.635638e+001	-5.992237e+001	-2.852320e+001	5.332835e+000	-1.941527e+000	1.642290e+002
7575072750	-1.490119e+000	-1.621883e+002	-2.638539e+001	-5.959255e+001	-2.849673e+001	5.627933e+000	-1.950291e+000	1.642117e+002
7581322563	-1.493803e+000	-1.621697e+002	-2.637966e+001	-5.950172e+001	-2.849318e+001	5.250713e+000	-1.955377e+000	1.642246e+002
7587572375	-1.498289e+000	-1.622009e+002	-2.640410e+001	-5.880013e+001	-2.841670e+001	5.721430e+000	-1.960563e+000	1.642629e+002
7593822188	-1.500357e+000	-1.621865e+002	-2.638314e+001	-5.870264e+001	-2.839577e+001	5.460898e+000	-1.962432e+000	1.642864e+002
7600072000	-1.510140e+000	-1.621915e+002	-2.637735e+001	-5.852893e+001	-2.840279e+001	5.325241e+000	-1.964659e+000	1.642935e+002
7606321813	-1.514575e+000	-1.621528e+002	-2.641987e+001	-5.825778e+001	-2.828443e+001	5.123589e+000	-1.971858e+000	1.643160e+002
7612571625	-1.519985e+000	-1.621942e+002	-2.641170e+001	-5.841936e+001	-2.828352e+001	5.424182e+000	-1.973446e+000	1.643408e+002
7618821438	-1.528460e+000	-1.621497e+002	-2.645996e+001	-5.783266e+001	-2.833355e+001	5.452215e+000	-1.975622e+000	1.643659e+002
7625071250	-1.533053e+000	-1.621391e+002	-2.643782e+001	-5.806824e+001	-2.827886e+001	5.272166e+000	-1.975840e+000	1.643518e+002
7631321063	-1.542552e+000	-1.621415e+002	-2.647414e+001	-5.800290e+001	-2.826141e+001	5.649579e+000	-1.982395e+000	1.643767e+002
7637570875	-1.549072e+000	-1.621165e+002	-2.651623e+001	-5.739629e+001	-2.825227e+001	5.462611e+000	-1.984375e+000	1.643854e+002
7643820688	-1.558001e+000	-1.621012e+002	-2.649254e+001	-5.699825e+001	-2.822157e+001	5.216802e+000	-1.991094e+000	1.643909e+002
7650070500	-1.567837e+000	-1.621453e+002	-2.647024e+001	-5.706320e+001	-2.812012e+001	5.068833e+000	-1.995284e+000	1.643918e+002
7656320313	-1.573117e+000	-1.620772e+002	-2.650550e+001	-5.667694e+001	-2.812447e+001	4.900721e+000	-2.000341e+000	1.644226e+002
7662570125	-1.585941e+000	-1.620864e+002	-2.649949e+001	-5.627805e+001	-2.814322e+001	4.853320e+000	-2.002689e+000	1.644175e+002
7668819938	-1.594201e+000	-1.620409e+002	-2.647646e+001	-5.629285e+001	-2.805552e+001	5.052645e+000	-2.009331e+000	1.643705e+002
7675069750	-1.605211e+000	-1.619992e+002	-2.652669e+001	-5.600891e+001	-2.801668e+001	5.039468e+000	-2.016179e+000	1.644157e+002
7681319563	-1.614573e+000	-1.619863e+002	-2.653502e+001	-5.572260e+001	-2.799796e+001	4.460782e+000	-2.028345e+000	1.644181e+002
7687569375	-1.623891e+000	-1.619768e+002	-2.645582e+001	-5.572211e+001	-2.794197e+001	4.241403e+000	-2.028738e+000	1.643971e+002
7693819188	-1.636167e+000	-1.619043e+002	-2.638649e+001	-5.551305e+001	-2.792675e+001	4.066214e+000	-2.033978e+000	1.644272e+002
7700069000	-1.649547e+000	-1.618691e+002	-2.636116e+001	-5.543163e+001	-2.784024e+001	3.804165e+000	-2.046542e+000	1.644592e+002
7706318813	-1.663669e+000	-1.618134e+002	-2.637746e+001	-5.523016e+001	-2.783616e+001	3.268452e+000	-2.050072e+000	1.644978e+002
7712568625	-1.671012e+000	-1.617695e+002	-2.634470e+001	-5.525140e+001	-2.780801e+001	2.745822e+000	-2.057883e+000	1.644711e+002
7718818438	-1.686322e+000	-1.617186e+002	-2.621648e+001	-5.556196e+001	-2.782875e+001	1.967154e+000	-2.063638e+000	1.645116e+002
7725068250	-1.697792e+000	-1.616676e+002	-2.621572e+001	-5.556582e+001	-2.785768e+001	1.632251e+000	-2.070886e+000	1.645228e+002
7731318063	-1.710048e+000	-1.616460e+002	-2.621096e+001	-5.572277e+001	-2.786169e+001	1.141282e+000	-2.071866e+000	1.645929e+002
7737567875	-1.723751e+000	-1.615960e+002	-2.619661e+001	-5.592366e+001	-2.783270e+001	5.994569e-001	-2.077699e+000	1.645967e+002
7743817688	-1.733965e+000	-1.615530e+002	-2.616879e+001	-5.608632e+001	-2.786066e+001	2.833776e-001	-2.076085e+000	1.646173e+002
7750067500	-1.750190e+000	-1.614803e+002	-2.617586e+001	-5.651108e+001	-2.790196e+001	1.014116e-001	-2.081390e+000	1.646283e+002
7756317313	-1.762918e+000	-1.613934e+002	-2.622271e+001	-5.667642e+001	-2.796227e+001	-1.876040e-001	-2.084041e+000	1.646611e+002
7762567125	-1.780321e+000	-1.613489e+002	-2.618349e+001	-5.663520e+001	-2.796998e+001	-7.677340e-001	-2.091013e+000	1.646454e+002
7768816938	-1.794832e+000	-1.613011e+002	-2.619580e+001	-5.693897e+001	-2.793791e+001	-7.553485e-001	-2.097516e+000	1.646381e+002
7775066750	-1.805616e+000	-1.612091e+002	-2.619145e+001	-5.674096e+001	-2.789017e+001	-7.679487e-001	-2.100762e+000	1.646308e+002
7781316563	-1.826210e+000	-1.611342e+002	-2.622514e+001	-5.689823e+001	-2.793901e+001	-1.619841e+000	-2.104109e+000	1.646198e+002
7787566375	-1.846613e+000	-1.610420e+002	-2.617135e+001	-5.700565e+001	-2.797625e+001	-1.870706e+000	-2.115874e+000	1.645968e+002
7793816188	-1.860390e+000	-1.609334e+002	-2.617130e+001	-5.688333e+001	-2.792095e+001	-1.969546e+000	-2.126456e+000	1.646211e+002
7800066000	-1.880524e+000	-1.608434e+002	-2.612516e+001	-5.686341e+001	-2.789242e+001	-2.459890e+000	-2.138883e+000	1.645949e+002
7806315813	-1.898370e+000	-1.607341e+002	-2.601303e+001	-5.688878e+001	-2.786853e+001	-3.284383e+000	-2.147685e+000	1.646171e+002
7812565625	-1.916796e+000	-1.606279e+002	-2.599956e+001	-5.705885e+001	-2.778344e+001	-4.368348e+000	-2.165825e+000	1.645668e+002
7818815438	-1.936976e+000	-1.604538e+002	-2.585139e+001	-5.720557e+001	-2.776838e+001	-5.438208e+000	-2.181834e+000	1.646475e+002
7825065250	-1.950497e+000	-1.602986e+002	-2.578820e+001	-5.783678e+001	-2.777705e+001	-6.017237e+000	-2.196253e+000	1.646693e+002
7831315063	-1.974700e+000	-1.601465e+002	-2.572698e+001	-5.780344e+001	-2.770690e+001	-7.709459e+000	-2.213119e+000	1.646941e+002
7837564875	-1.988479e+000	-1.599727e+002	-2.560460e+001	-5.895398e+001	-2.773458e+001	-8.706426e+000	-2.222281e+000	1.647310e+002
7843814688	-2.000791e+000	-1.597811e+002	-2.550224e+001	-5.944938e+001	-2.777245e+001	-1.044221e+001	-2.244259e+000	1.647848e+002
7850064500	-2.016394e+000	-1.595979e+002	-2.542423e+001	-6.035947e+001	-2.781979e+001	-1.210767e+001	-2.258209e+000	1.649052e+002
7856314313	-2.031589e+000	-1.593965e+002	-2.531064e+001	-6.151432e+001	-2.789621e+001	-1.374902e+001	-2.269918e+000	1.649797e+002
7862564125	-2.046411e+000	-1.592101e+002	-2.526224e+001	-6.269552e+001	-2.794144e+001	-1.554414e+001	-2.291278e+000	1.650457e+002
7868813938	-2.051982e+000	-1.589566e+002	-2.518572e+001	-6.380386e+001	-2.813500e+001	-1.746143e+001	-2.300367e+000	1.651255e+002
7875063750	-2.068966e+000	-1.587717e+002	-2.515628e+001	-6.503310e+001	-2.823434e+001	-1.950078e+001	-2.309278e+000	1.652094e+002
7881313563	-2.080203e+000	-1.585401e+002	-2.510693e+001	-6.657338e+001	-2.837208e+001	-2.149789e+001	-2.320093e+000	1.653203e+002
7887563375	-2.085172e+000	-1.583331e+002	-2.505518e+001	-6.798863e+001	-2.863556e+001	-2.387204e+001	-2.337890e+000	1.653903e+002
7893813188	-2.091814e+000	-1.581009e+002	-2.501870e+001	-6.972136e+001	-2.880441e+001	-2.612727e+001	-2.345082e+000	1.655197e+002
7900063000	-2.097151e+000	-1.578500e+002	-2.504290e+001	-7.146795e+001	-2.903438e+001	-2.839623e+001	-2.357919e+000	1.656171e+002
7906312813	-2.093630e+000	-1.575944e+002	-2.507798e+001	-7.322881e+001	-2.938192e+001	-3.119312e+001	-2.365704e+000	1.657795e+002
7912562625	-2.101929e+000	-1.573746e+002	-2.502869e+001	-7.520169e+001	-2.972848e+001	-3.386282e+001	-2.372731e+000	1.659095e+002
7918812438	-2.102338e+000	-1.571117e+002	-2.511336e+001	-7.707490e+001	-3.011963e+001	-3.628477e+001	-2.384880e+000	1.660096e+002
7925062250	-2.106020e+000	-1.568364e+002	-2.515814e+001	-7.905826e+001	-3.052536e+001	-3.938244e+001	-2.397323e+000	1.661238e+002
7931312063	-2.102660e+000	-1.565881e+002	-2.522634e+001	-8.110043e+001	-3.098439e+001	-4.269261e+001	-2.400775e+000	1.662753e+002
7937561875	-2.100302e+000	-1.563526e+002	-2.535621e+001	-8.367644e+001	-3.154411e+001	-4.581980e+001	-2.401681e+000	1.664198e+002
7943811688	-2.095764e+000	-1.560497e+002	-2.547761e+001	-8.586701e+001	-3.213506e+001	-4.954032e+001	-2.413817e+000	1.665652e+002
7950061500	-2.090283e+000	-1.557941e+002	-2.557221e+001	-8.833242e+001	-3.293447e+001	-5.329873e+001	-2.408314e+000	1.666759e+002
7956311313	-2.077106e+000	-1.555426e+002	-2.575313e+001	-9.052850e+001	-3.366431e+001	-5.759118e+001	-2.410624e+000	1.668336e+002
7962561125	-2.072234e+000	-1.552605e+002	-2.593352e+001	-9.320624e+001	-3.466046e+001	-6.139633e+001	-2.411161e+000	1.669762e+002
7968810938	-2.055607e+000	-1.549750e+002	-2.616958e+001	-9.556427e+001	-3.565128e+001	-6.638660e+001	-2.411127e+000	1.671139e+002
7975060750	-2.044603e+000	-1.546803e+002	-2.645503e+001	-9.789712e+001	-3.688846e+001	-7.251723e+001	-2.406564e+000	1.672144e+002
7981310563	-2.028669e+000	-1.543742e+002	-2.672976e+001	-1.005317e+002	-3.831327e+001	-7.826535e+001	-2.403320e+000	1.673500e+002
7987560375	-2.006740e+000	-1.541016e+002	-2.701915e+001	-1.032171e+002	-4.005091e+001	-8.831159e+001	-2.402321e+000	1.674346e+002
7993810188	-1.983565e+000	-1.538314e+002	-2.735588e+001	-1.055550e+002	-4.162036e+001	-9.834310e+001	-2.395612e+000	1.675615e+002
8000060000	-1.956023e+000	-1.535615e+002	-2.767806e+001	-1.080291e+002	-4.373146e+001	-1.143357e+002	-2.392010e+000	1.676665e+002
8006309813	-1.928402e+000	-1.532798e+002	-2.803859e+001	-1.106465e+002	-4.526754e+001	-1.393769e+002	-2.386050e+000	1.677467e+002
8012559625	-1.896584e+000	-1.530313e+002	-2.847389e+001	-1.133569e+002	-4.513354e+001	-1.641910e+002	-2.375184e+000	1.678700e+002
8018809438	-1.864207e+000	-1.527643e+002	-2.889722e+001	-1.150924e+002	-4.411532e+001	1.711438e+002	-2.373068e+000	1.679536e+002
8025059250	-1.824843e+000	-1.525459e+002	-2.936609e+001	-1.178266e+002	-4.179936e+001	1.519351e+002	-2.360999e+000	1.680360e+002
8031309063	-1.789506e+000	-1.523566e+002	-2.978413e+001	-1.202015e+002	-4.016748e+001	1.418729e+002	-2.356717e+000	1.680921e+002
8037558875	-1.739539e+000	-1.521776e+002	-3.030640e+001	-1.226705e+002	-3.888087e+001	1.324252e+002	-2.351216e+000	1.681905e+002
8043808688	-1.707676e+000	-1.519890e+002	-3.095600e+001	-1.254020e+002	-3.753767e+001	1.271134e+002	-2.342209e+000	1.682832e+002
8050058500	-1.662528e+000	-1.518152e+002	-3.145036e+001	-1.280769e+002	-3.629401e+001	1.227767e+002	-2.334900e+000	1.683659e+002
8056308313	-1.623808e+000	-1.516774e+002	-3.205399e+001	-1.299886e+002	-3.531713e+001	1.175565e+002	-2.322273e+000	1.684238e+002
8062558125	-1.578984e+000	-1.515854e+002	-3.270436e+001	-1.329905e+002	-3.441146e+001	1.135375e+002	-2.315443e+000	1.685008e+002
8068807938	-1.536784e+000	-1.514755e+002	-3.347098e+001	-1.354967e+002	-3.364580e+001	1.098837e+002	-2.300785e+000	1.685544e+002
8075057750	-1.493164e+000	-1.514523e+002	-3.411483e+001	-1.384446e+002	-3.292456e+001	1.070555e+002	-2.296879e+000	1.686236e+002
8081307563	-1.450517e+000	-1.513589e+002	-3.485617e+001	-1.413243e+002	-3.230739e+001	1.041996e+002	-2.285202e+000	1.686650e+002
8087557375	-1.406823e+000	-1.513544e+002	-3.579006e+001	-1.438923e+002	-3.184006e+001	1.019844e+002	-2.276942e+000	1.687193e+002
8093807188	-1.369835e+000	-1.513403e+002	-3.657612e+001	-1.485826e+002	-3.131182e+001	9.946725e+001	-2.271602e+000	1.687514e+002
8100057000	-1.328764e+000	-1.513135e+002	-3.762672e+001	-1.507755e+002	-3.086199e+001	9.735652e+001	-2.262113e+000	1.687785e+002
8106306813	-1.290607e+000	-1.513285e+002	-3.846410e+001	-1.540283e+002	-3.052785e+001	9.487318e+001	-2.245391e+000	1.688116e+002
8112556625	-1.255693e+000	-1.513260e+002	-3.948474e+001	-1.582507e+002	-3.011989e+001	9.345508e+001	-2.241149e+000	1.688502e+002
8118806438	-1.218136e+000	-1.513935e+002	-4.053516e+001	-1.623118e+002	-2.978868e+001	9.125567e+001	-2.237761e+000	1.688709e+002
8125056250	-1.186383e+000	-1.514607e+002	-4.160810e+001	-1.685813e+002	-2.950098e+001	8.960121e+001	-2.226041e+000	1.689103e+002
8131306063	-1.152148e+000	-1.514993e+002	-4.298191e+001	-1.735410e+002	-2.923360e+001	8.814687e+001	-2.218765e+000	1.689003e+002
8137555875	-1.124750e+000	-1.515525e+002	-4.424785e+001	1.771286e+002	-2.897357e+001	8.683016e+001	-2.217081e+000	1.689407e+002
8143805688	-1.096257e+000	-1.516187e+002	-4.507660e+001	1.697708e+002	-2.869917e+001	8.531193e+001	-2.205078e+000	1.689514e+002
8150055500	-1.066526e+000	-1.517023e+002	-4.672820e+001	1.587612e+002	-2.844868e+001	8.414571e+001	-2.204053e+000	1.689620e+002
8156305313	-1.046871e+000	-1.517670e+002	-4.672678e+001	1.404899e+002	-2.829238e+001	8.264090e+001	-2.199589e+000	1.689485e+002
8162555125	-1.022926e+000	-1.518395e+002	-4.711911e+001	1.321939e+002	-2.808241e+001	8.181011e+001	-2.194829e+000	1.689997e+002
8168804938	-1.004725e+000	-1.519129e+002	-4.662891e+001	1.147860e+002	-2.795527e+001	8.082060e+001	-2.194054e+000	1.689854e+002
8175054750	-9.796257e-001	-1.519796e+002	-4.647151e+001	1.042409e+002	-2.774944e+001	7.950808e+001	-2.185549e+000	1.689826e+002
8181304563	-9.628950e-001	-1.520780e+002	-4.555782e+001	9.570837e+001	-2.767254e+001	7.830781e+001	-2.185089e+000	1.689842e+002
8187554375	-9.424614e-001	-1.521688e+002	-4.490817e+001	8.851882e+001	-2.747489e+001	7.757978e+001	-2.182049e+000	1.689595e+002
8193804188	-9.330658e-001	-1.522273e+002	-4.382381e+001	8.279177e+001	-2.738550e+001	7.646112e+001	-2.178847e+000	1.689750e+002
8200054000	-9.071490e-001	-1.522714e+002	-4.292569e+001	7.656464e+001	-2.724793e+001	7.579389e+001	-2.177578e+000	1.689834e+002
8206303813	-8.967048e-001	-1.523291e+002	-4.244965e+001	7.380169e+001	-2.712423e+001	7.491766e+001	-2.173848e+000	1.689562e+002
8212553625	-8.845177e-001	-1.524069e+002	-4.160350e+001	6.822581e+001	-2.704469e+001	7.421959e+001	-2.174454e+000	1.689558e+002
8218803438	-8.723726e-001	-1.524868e+002	-4.101805e+001	6.693655e+001	-2.690392e+001	7.354030e+001	-2.172709e+000	1.689426e+002
8225053250	-8.558872e-001	-1.525713e+002	-4.031424e+001	6.623222e+001	-2.680252e+001	7.281956e+001	-2.171056e+000	1.689481e+002
8231303063	-8.540058e-001	-1.526150e+002	-3.977853e+001	6.163515e+001	-2.669388e+001	7.273135e+001	-2.173375e+000	1.689360e+002
8237552875	-8.430108e-001	-1.526844e+002	-3.935109e+001	6.051645e+001	-2.657798e+001	7.174006e+001	-2.164043e+000	1.689336e+002
8243802688	-8.348006e-001	-1.527359e+002	-3.895364e+001	5.943205e+001	-2.654814e+001	7.156220e+001	-2.167276e+000	1.689292e+002
8250052500	-8.218291e-001	-1.528079e+002	-3.851737e+001	5.914566e+001	-2.643597e+001	7.053886e+001	-2.168596e+000	1.689512e+002
8256302313	-8.152263e-001	-1.528597e+002	-3.811487e+001	5.801294e+001	-2.635733e+001	7.012022e+001	-2.168154e+000	1.689496e+002
8262552125	-8.043292e-001	-1.529213e+002	-3.760909e+001	5.686791e+001	-2.623970e+001	6.990854e+001	-2.166590e+000	1.689309e+002
8268801938	-8.053050e-001	-1.529986e+002	-3.729924e+001	5.591343e+001	-2.618951e+001	6.933529e+001	-2.169784e+000	1.689324e+002
8275051750	-7.972429e-001	-1.530477e+002	-3.695952e+001	5.530545e+001	-2.609666e+001	6.891617e+001	-2.165234e+000	1.689196e+002
8281301563	-7.951303e-001	-1.531052e+002	-3.667865e+001	5.480942e+001	-2.604572e+001	6.863072e+001	-2.171004e+000	1.689459e+002
8287551375	-7.834446e-001	-1.531973e+002	-3.630012e+001	5.374848e+001	-2.597045e+001	6.805028e+001	-2.167393e+000	1.689314e+002
8293801188	-7.835537e-001	-1.532000e+002	-3.607777e+001	5.356207e+001	-2.593490e+001	6.799163e+001	-2.171541e+000	1.689295e+002
8300051000	-7.712222e-001	-1.532408e+002	-3.578010e+001	5.373405e+001	-2.584342e+001	6.735717e+001	-2.173949e+000	1.689333e+002
8306300813	-7.662273e-001	-1.533038e+002	-3.551262e+001	5.289267e+001	-2.579341e+001	6.697005e+001	-2.175626e+000	1.689236e+002
8312550625	-7.669143e-001	-1.533433e+002	-3.523588e+001	5.278925e+001	-2.572915e+001	6.655023e+001	-2.179069e+000	1.689105e+002
8318800438	-7.560973e-001	-1.533788e+002	-3.504191e+001	5.294348e+001	-2.566863e+001	6.652884e+001	-2.184858e+000	1.689136e+002
8325050250	-7.548122e-001	-1.534126e+002	-3.475462e+001	5.226267e+001	-2.558732e+001	6.626723e+001	-2.186089e+000	1.689192e+002
8331300063	-7.530790e-001	-1.534806e+002	-3.464255e+001	5.231512e+001	-2.550273e+001	6.573047e+001	-2.190057e+000	1.689030e+002
8337549875	-7.560709e-001	-1.534925e+002	-3.430078e+001	5.149425e+001	-2.543414e+001	6.556609e+001	-2.195704e+000	1.689080e+002
8343799688	-7.459527e-001	-1.535570e+002	-3.420693e+001	5.188655e+001	-2.538197e+001	6.561058e+001	-2.201178e+000	1.688755e+002
8350049500	-7.468723e-001	-1.535722e+002	-3.391695e+001	5.218645e+001	-2.527694e+001	6.540378e+001	-2.197652e+000	1.688601e+002
8356299313	-7.468841e-001	-1.535853e+002	-3.376150e+001	5.166401e+001	-2.524167e+001	6.511330e+001	-2.207727e+000	1.688764e+002
8362549125	-7.441236e-001	-1.536353e+002	-3.347032e+001	5.087544e+001	-2.510861e+001	6.456721e+001	-2.212976e+000	1.688555e+002
8368798938	-7.363752e-001	-1.536550e+002	-3.329316e+001	5.141002e+001	-2.506812e+001	6.452197e+001	-2.213902e+000	1.688469e+002
8375048750	-7.366238e-001	-1.536644e+002	-3.306037e+001	5.132115e+001	-2.507111e+001	6.434406e+001	-2.217515e+000	1.688387e+002
8381298563	-7.416639e-001	-1.536958e+002	-3.289444e+001	5.141482e+001	-2.494700e+001	6.396332e+001	-2.226522e+000	1.688045e+002
8387548375	-7.402503e-001	-1.537081e+002	-3.270685e+001	5.121432e+001	-2.492566e+001	6.365218e+001	-2.223945e+000	1.688706e+002
8393798188	-7.371342e-001	-1.537366e+002	-3.251357e+001	5.090494e+001	-2.486649e+001	6.360403e+001	-2.230890e+000	1.688252e+002
8400048000	-7.370564e-001	-1.537706e+002	-3.237638e+001	5.029672e+001	-2.479130e+001	6.340200e+001	-2.236271e+000	1.688365e+002
8406297813	-7.415072e-001	-1.537929e+002	-3.223721e+001	5.011217e+001	-2.471848e+001	6.296056e+001	-2.235671e+000	1.688240e+002
8412547625	-7.396302e-001	-1.538270e+002	-3.207427e+001	5.031818e+001	-2.468218e+001	6.274164e+001	-2.242845e+000	1.688510e+002
8418797438	-7.389946e-001	-1.538001e+002	-3.198324e+001	4.981302e+001	-2.466366e+001	6.266507e+001	-2.245565e+000	1.688263e+002
8425047250	-7.371013e-001	-1.538588e+002	-3.176254e+001	4.981150e+001	-2.455666e+001	6.247480e+001	-2.250660e+000	1.688527e+002
8431297063	-7.422045e-001	-1.538875e+002	-3.165219e+001	4.958035e+001	-2.452347e+001	6.240247e+001	-2.246750e+000	1.688646e+002
8437546875	-7.369453e-001	-1.539288e+002	-3.144040e+001	4.965235e+001	-2.444108e+001	6.238907e+001	-2.258652e+000	1.688549e+002
8443796688	-7.359158e-001	-1.538920e+002	-3.134379e+001	4.971800e+001	-2.441638e+001	6.198308e+001	-2.258304e+000	1.688660e+002
8450046500	-7.385691e-001	-1.538960e+002	-3.113438e+001	4.930735e+001	-2.434202e+001	6.183054e+001	-2.257874e+000	1.688822e+002
8456296313	-7.353862e-001	-1.539119e+002	-3.100471e+001	4.912054e+001	-2.430702e+001	6.179925e+001	-2.263092e+000	1.688894e+002
8462546125	-7.358599e-001	-1.539187e+002	-3.092604e+001	5.031251e+001	-2.425351e+001	6.147414e+001	-2.273454e+000	1.689267e+002
8468795938	-7.378558e-001	-1.539487e+002	-3.077401e+001	4.962533e+001	-2.420292e+001	6.182449e+001	-2.271382e+000	1.689000e+002
8475045750	-7.354786e-001	-1.539464e+002	-3.064061e+001	4.976640e+001	-2.416164e+001	6.140797e+001	-2.275045e+000	1.688795e+002
8481295563	-7.384534e-001	-1.539563e+002	-3.059464e+001	4.963679e+001	-2.409980e+001	6.114757e+001	-2.281842e+000	1.689026e+002
8487545375	-7.377368e-001	-1.539930e+002	-3.048538e+001	4.941232e+001	-2.406021e+001	6.110093e+001	-2.288564e+000	1.688917e+002
8493795188	-7.378251e-001	-1.539705e+002	-3.027147e+001	4.945984e+001	-2.396899e+001	6.090356e+001	-2.297562e+000	1.688955e+002
8500045000	-7.436432e-001	-1.539634e+002	-3.030988e+001	5.119147e+001	-2.398478e+001	6.027629e+001	-2.292953e+000	1.689495e+002
8506294813	-7.387022e-001	-1.539067e+002	-3.002873e+001	4.989811e+001	-2.396316e+001	6.092149e+001	-2.303320e+000	1.688666e+002
8512544625	-7.406287e-001	-1.540510e+002	-2.979230e+001	5.039987e+001	-2.385212e+001	6.065329e+001	-2.321271e+000	1.688128e+002
8518794438	-7.468803e-001	-1.539152e+002	-2.984552e+001	5.012358e+001	-2.379714e+001	6.026034e+001	-2.320661e+000	1.689781e+002
8525044250	-7.272062e-001	-1.539869e+002	-2.982720e+001	4.988768e+001	-2.378529e+001	5.966155e+001	-2.336780e+000	1.688819e+002
8531294063	-7.405379e-001	-1.539420e+002	-2.948245e+001	4.874114e+001	-2.372501e+001	5.967151e+001	-2.332119e+000	1.689703e+002
8537543875	-7.498248e-001	-1.539719e+002	-2.954982e+001	4.961518e+001	-2.365697e+001	5.970601e+001	-2.357638e+000	1.689231e+002
8543793688	-7.493667e-001	-1.539786e+002	-2.923333e+001	4.959043e+001	-2.357593e+001	5.998376e+001	-2.351475e+000	1.689279e+002
8550043500	-7.393470e-001	-1.539906e+002	-2.899415e+001	4.897011e+001	-2.352738e+001	5.977818e+001	-2.344251e+000	1.687736e+002
8556293313	-7.487918e-001	-1.540355e+002	-2.904580e+001	4.915301e+001	-2.344596e+001	6.029325e+001	-2.361766e+000	1.688807e+002
8562543125	-7.431282e-001	-1.540680e+002	-2.898682e+001	4.965909e+001	-2.344249e+001	5.905112e+001	-2.341866e+000	1.688860e+002
8568792938	-7.544686e-001	-1.539205e+002	-2.894860e+001	4.955042e+001	-2.343397e+001	5.936143e+001	-2.375369e+000	1.688350e+002
8575042750	-7.654626e-001	-1.539110e+002	-2.864960e+001	4.927038e+001	-2.329396e+001	5.956693e+001	-2.374192e+000	1.689012e+002
8581292563	-7.572678e-001	-1.538782e+002	-2.864518e+001	4.869730e+001	-2.338628e+001	5.909049e+001	-2.387778e+000	1.688152e+002
8587542375	-7.611561e-001	-1.539902e+002	-2.851881e+001	4.923307e+001	-2.324691e+001	5.860281e+001	-2.389680e+000	1.688724e+002
8593792188	-7.813994e-001	-1.539446e+002	-2.847329e+001	4.931028e+001	-2.324556e+001	5.908229e+001	-2.396642e+000	1.688446e+002
8600042000	-7.652513e-001	-1.539426e+002	-2.837904e+001	4.965798e+001	-2.321666e+001	5.890480e+001	-2.403190e+000	1.689026e+002
8606291813	-7.728956e-001	-1.539962e+002	-2.816896e+001	5.025542e+001	-2.312051e+001	5.859463e+001	-2.402759e+000	1.688540e+002
8612541625	-7.690361e-001	-1.539538e+002	-2.812589e+001	4.928802e+001	-2.298498e+001	5.892410e+001	-2.414466e+000	1.689738e+002
8618791438	-7.690342e-001	-1.539719e+002	-2.801949e+001	4.945397e+001	-2.302196e+001	5.847081e+001	-2.440137e+000	1.689178e+002
8625041250	-7.790722e-001	-1.539892e+002	-2.786697e+001	4.915756e+001	-2.285180e+001	5.874206e+001	-2.426398e+000	1.689594e+002
8631291063	-7.670991e-001	-1.539732e+002	-2.774288e+001	4.944541e+001	-2.297832e+001	5.823520e+001	-2.434191e+000	1.688873e+002
8637540875	-7.647881e-001	-1.539731e+002	-2.771541e+001	4.845905e+001	-2.273833e+001	5.861301e+001	-2.439794e+000	1.689291e+002
8643790688	-7.915664e-001	-1.538010e+002	-2.767199e+001	4.894075e+001	-2.284464e+001	5.806740e+001	-2.453628e+000	1.688304e+002
8650040500	-7.966194e-001	-1.539867e+002	-2.759624e+001	4.939884e+001	-2.276339e+001	5.805330e+001	-2.450909e+000	1.689434e+002
8656290313	-7.905790e-001	-1.539567e+002	-2.728989e+001	4.914681e+001	-2.265132e+001	5.696924e+001	-2.454280e+000	1.689004e+002
8662540125	-7.794892e-001	-1.539286e+002	-2.727681e+001	4.844401e+001	-2.261589e+001	5.786717e+001	-2.481841e+000	1.688830e+002
8668789938	-8.046485e-001	-1.540952e+002	-2.720153e+001	4.887221e+001	-2.259040e+001	5.751991e+001	-2.494086e+000	1.690392e+002
8675039750	-7.837550e-001	-1.539807e+002	-2.690891e+001	4.911040e+001	-2.256753e+001	5.734154e+001	-2.495990e+000	1.688798e+002
8681289563	-8.009122e-001	-1.539757e+002	-2.721551e+001	4.809736e+001	-2.249010e+001	5.693872e+001	-2.497493e+000	1.689687e+002
8687539375	-7.979227e-001	-1.539067e+002	-2.681294e+001	4.719663e+001	-2.240440e+001	5.662127e+001	-2.503873e+000	1.688635e+002
8693789188	-8.024825e-001	-1.538259e+002	-2.676639e+001	4.816286e+001	-2.233143e+001	5.691457e+001	-2.525811e+000	1.689945e+002
8700039000	-8.144424e-001	-1.538593e+002	-2.652513e+001	4.755910e+001	-2.236773e+001	5.607154e+001	-2.545821e+000	1.690143e+002
8706288813	-8.121227e-001	-1.537899e+002	-2.663205e+001	4.737967e+001	-2.222744e+001	5.584424e+001	-2.547154e+000	1.690131e+002
8712538625	-8.054561e-001	-1.537170e+002	-2.664203e+001	4.700967e+001	-2.226796e+001	5.581910e+001	-2.563943e+000	1.689484e+002
8718788438	-8.075977e-001	-1.538243e+002	-2.655683e+001	4.681677e+001	-2.226235e+001	5.590938e+001	-2.571569e+000	1.690159e+002
8725038250	-8.107670e-001	-1.538006e+002	-2.639544e+001	4.675980e+001	-2.227373e+001	5.558965e+001	-2.566912e+000	1.690486e+002
8731288063	-8.116664e-001	-1.537374e+002	-2.640885e+001	4.674472e+001	-2.215726e+001	5.514218e+001	-2.570376e+000	1.690580e+002
8737537875	-8.448107e-001	-1.536565e+002	-2.638003e+001	4.691678e+001	-2.214446e+001	5.489769e+001	-2.587378e+000	1.692011e+002
8743787688	-8.278602e-001	-1.535817e+002	-2.629616e+001	4.615718e+001	-2.212859e+001	5.489219e+001	-2.589318e+000	1.691188e+002
8750037500	-8.217791e-001	-1.537694e+002	-2.632870e+001	4.583637e+001	-2.209101e+001	5.549960e+001	-2.590582e+000	1.691501e+002
8756287313	-8.249438e-001	-1.537119e+002	-2.621708e+001	4.588814e+001	-2.210990e+001	5.481479e+001	-2.598795e+000	1.692134e+002
8762537125	-8.221961e-001	-1.536822e+002	-2.611676e+001	4.601231e+001	-2.199641e+001	5.469423e+001	-2.592822e+000	1.692007e+002
8768786938	-8.536725e-001	-1.536742e+002	-2.615352e+001	4.575223e+001	-2.199787e+001	5.507159e+001	-2.604957e+000	1.691524e+002
8775036750	-8.590879e-001	-1.535276e+002	-2.602429e+001	4.642822e+001	-2.204979e+001	5.539183e+001	-2.614499e+000	1.691731e+002
8781286563	-8.289383e-001	-1.536006e+002	-2.606824e+001	4.633785e+001	-2.194437e+001	5.458489e+001	-2.619121e+000	1.692137e+002
8787536375	-8.398317e-001	-1.534848e+002	-2.589087e+001	4.583669e+001	-2.202830e+001	5.517136e+001	-2.623945e+000	1.692549e+002
8793786188	-8.321809e-001	-1.534898e+002	-2.592398e+001	4.662118e+001	-2.186058e+001	5.461650e+001	-2.634396e+000	1.692463e+002
8800036000	-8.462294e-001	-1.534799e+002	-2.594667e+001	4.709411e+001	-2.182640e+001	5.431448e+001	-2.630539e+000	1.691726e+002
8806285813	-8.389388e-001	-1.536003e+002	-2.569422e+001	4.678790e+001	-2.178388e+001	5.480826e+001	-2.630114e+000	1.692832e+002
8812535625	-8.273577e-001	-1.534617e+002	-2.568502e+001	4.673818e+001	-2.172477e+001	5.509528e+001	-2.664528e+000	1.691781e+002
8818785438	-8.492484e-001	-1.535070e+002	-2.552297e+001	4.675829e+001	-2.166561e+001	5.459278e+001	-2.666562e+000	1.691909e+002
8825035250	-8.698351e-001	-1.535787e+002	-2.552413e+001	4.664210e+001	-2.168711e+001	5.474273e+001	-2.690428e+000	1.692971e+002
8831285063	-8.675846e-001	-1.534462e+002	-2.542458e+001	4.652645e+001	-2.167893e+001	5.472125e+001	-2.699605e+000	1.692694e+002
8837534875	-8.505416e-001	-1.534913e+002	-2.526682e+001	4.647639e+001	-2.165323e+001	5.423486e+001	-2.696748e+000	1.693509e+002
8843784688	-8.518556e-001	-1.533835e+002	-2.532074e+001	4.698454e+001	-2.155204e+001	5.429116e+001	-2.700772e+000	1.693170e+002
8850034500	-8.669757e-001	-1.535282e+002	-2.517171e+001	4.623301e+001	-2.152082e+001	5.411999e+001	-2.727639e+000	1.692871e+002
8856284313	-8.815254e-001	-1.534763e+002	-2.518308e+001	4.614997e+001	-2.154643e+001	5.384229e+001	-2.721669e+000	1.694050e+002
8862534125	-8.848276e-001	-1.533495e+002	-2.514477e+001	4.610086e+001	-2.147798e+001	5.372659e+001	-2.730394e+000	1.694422e+002
8868783938	-8.597846e-001	-1.533982e+002	-2.514301e+001	4.591597e+001	-2.145270e+001	5.347380e+001	-2.743496e+000	1.693186e+002
8875033750	-8.733553e-001	-1.533230e+002	-2.503955e+001	4.654341e+001	-2.152786e+001	5.385443e+001	-2.732969e+000	1.693775e+002
8881283563	-8.697806e-001	-1.532466e+002	-2.506600e+001	4.599127e+001	-2.145920e+001	5.341914e+001	-2.754610e+000	1.694691e+002
8887533375	-8.827939e-001	-1.532333e+002	-2.496642e+001	4.648762e+001	-2.138507e+001	5.382834e+001	-2.758039e+000	1.694773e+002
8893783188	-8.736091e-001	-1.533695e+002	-2.489604e+001	4.584417e+001	-2.136999e+001	5.360183e+001	-2.762790e+000	1.694905e+002
8900033000	-9.037856e-001	-1.532670e+002	-2.490825e+001	4.641044e+001	-2.138223e+001	5.384431e+001	-2.767506e+000	1.694451e+002
8906282813	-8.647888e-001	-1.532414e+002	-2.480582e+001	4.786662e+001	-2.127343e+001	5.373940e+001	-2.772073e+000	1.694149e+002
8912532625	-8.867668e-001	-1.534105e+002	-2.471313e+001	4.746832e+001	-2.129470e+001	5.391886e+001	-2.774733e+000	1.693721e+002
8918782438	-8.851153e-001	-1.533043e+002	-2.460831e+001	4.734620e+001	-2.114386e+001	5.423353e+001	-2.793235e+000	1.694582e+002
8925032250	-8.962201e-001	-1.532092e+002	-2.459573e+001	4.718623e+001	-2.113449e+001	5.422708e+001	-2.792785e+000	1.693032e+002
8931282063	-8.745284e-001	-1.532730e+002	-2.450383e+001	4.721557e+001	-2.109430e+001	5.359983e+001	-2.806948e+000	1.693357e+002
8937531875	-9.007154e-001	-1.531275e+002	-2.447401e+001	4.749041e+001	-2.097938e+001	5.475369e+001	-2.814094e+000	1.691993e+002
8943781688	-9.104578e-001	-1.532682e+002	-2.434525e+001	4.779485e+001	-2.088964e+001	5.432520e+001	-2.829828e+000	1.693202e+002
8950031500	-9.001232e-001	-1.531877e+002	-2.430559e+001	4.809127e+001	-2.090818e+001	5.400348e+001	-2.840582e+000	1.693461e+002
8956281313	-9.123708e-001	-1.530785e+002	-2.414104e+001	4.805486e+001	-2.078982e+001	5.462229e+001	-2.849035e+000	1.692978e+002
8962531125	-9.201432e-001	-1.533064e+002	-2.400996e+001	4.773674e+001	-2.075189e+001	5.374512e+001	-2.867713e+000	1.691939e+002
8968780938	-9.042668e-001	-1.532415e+002	-2.396260e+001	4.801508e+001	-2.068803e+001	5.419864e+001	-2.880499e+000	1.693204e+002
8975030750	-9.350113e-001	-1.531789e+002	-2.382338e+001	4.678140e+001	-2.062724e+001	5.347468e+001	-2.886897e+000	1.693048e+002
8981280563	-9.280961e-001	-1.533970e+002	-2.371065e+001	4.810850e+001	-2.061983e+001	5.367460e+001	-2.915557e+000	1.693025e+002
8987530375	-9.340741e-001	-1.531443e+002	-2.363564e+001	4.821483e+001	-2.061044e+001	5.333558e+001	-2.919361e+000	1.692547e+002
8993780188	-9.408482e-001	-1.531035e+002	-2.362616e+001	4.739893e+001	-2.053398e+001	5.358972e+001	-2.932489e+000	1.693945e+002
9000030000	-9.225340e-001	-1.531094e+002	-2.353149e+001	4.703905e+001	-2.038664e+001	5.365899e+001	-2.944868e+000	1.693051e+002
9006279813	-9.462702e-001	-1.530494e+002	-2.350431e+001	4.715133e+001	-2.039997e+001	5.259368e+001	-2.955628e+000	1.692633e+002
9012529625	-9.526423e-001	-1.529451e+002	-2.350669e+001	4.709661e+001	-2.034157e+001	5.302691e+001	-2.978797e+000	1.695110e+002
9018779438	-9.552037e-001	-1.530598e+002	-2.334080e+001	4.702697e+001	-2.032781e+001	5.260438e+001	-2.983683e+000	1.692932e+002
9025029250	-9.630936e-001	-1.532203e+002	-2.333155e+001	4.709565e+001	-2.032648e+001	5.289458e+001	-2.991324e+000	1.693493e+002
9031279063	-9.596717e-001	-1.528245e+002	-2.323226e+001	4.682610e+001	-2.030783e+001	5.257706e+001	-2.996452e+000	1.694001e+002
9037528875	-9.554102e-001	-1.529822e+002	-2.319858e+001	4.714650e+001	-2.024809e+001	5.315495e+001	-3.011493e+000	1.693907e+002
9043778688	-9.932865e-001	-1.529235e+002	-2.319394e+001	4.769214e+001	-2.014455e+001	5.296242e+001	-3.019570e+000	1.693304e+002
9050028500	-9.733325e-001	-1.529997e+002	-2.296561e+001	4.755935e+001	-2.008272e+001	5.291119e+001	-3.042795e+000	1.693243e+002
9056278313	-9.801781e-001	-1.529420e+002	-2.294692e+001	4.738027e+001	-2.002071e+001	5.288145e+001	-3.059152e+000	1.692877e+002
9062528125	-9.893007e-001	-1.529813e+002	-2.278836e+001	4.756270e+001	-1.999222e+001	5.260753e+001	-3.072155e+000	1.692634e+002
9068777938	-9.805133e-001	-1.528823e+002	-2.277288e+001	4.792811e+001	-1.990963e+001	5.241189e+001	-3.074993e+000	1.692865e+002
9075027750	-9.973630e-001	-1.530340e+002	-2.261234e+001	4.811913e+001	-1.989437e+001	5.254267e+001	-3.103184e+000	1.692356e+002
9081277563	-9.964726e-001	-1.528983e+002	-2.257123e+001	4.776317e+001	-1.982084e+001	5.231971e+001	-3.126035e+000	1.692245e+002
9087527375	-1.005741e+000	-1.530777e+002	-2.253195e+001	4.651133e+001	-1.972738e+001	5.271618e+001	-3.133967e+000	1.691096e+002
9093777188	-1.009084e+000	-1.529095e+002	-2.232419e+001	4.759254e+001	-1.956020e+001	5.253960e+001	-3.152422e+000	1.691043e+002
9100027000	-1.022524e+000	-1.529885e+002	-2.219647e+001	4.702703e+001	-1.954082e+001	5.215774e+001	-3.175073e+000	1.690106e+002
9106276813	-1.020266e+000	-1.529722e+002	-2.212036e+001	4.674653e+001	-1.946634e+001	5.219197e+001	-3.174852e+000	1.692638e+002
9112526625	-1.018035e+000	-1.527771e+002	-2.203239e+001	4.659827e+001	-1.941607e+001	5.199098e+001	-3.205717e+000	1.691664e+002
9118776438	-1.023012e+000	-1.528793e+002	-2.189946e+001	4.640486e+001	-1.933891e+001	5.156308e+001	-3.222908e+000	1.691408e+002
9125026250	-1.070347e+000	-1.529845e+002	-2.183038e+001	4.631719e+001	-1.931147e+001	5.172899e+001	-3.252147e+000	1.690960e+002
9131276063	-1.076264e+000	-1.527234e+002	-2.166416e+001	4.539789e+001	-1.919557e+001	5.097217e+001	-3.276796e+000	1.691173e+002
9137525875	-1.070260e+000	-1.528427e+002	-2.157495e+001	4.594376e+001	-1.912575e+001	5.071305e+001	-3.299037e+000	1.691418e+002
9143775688	-1.079880e+000	-1.527603e+002	-2.151505e+001	4.495915e+001	-1.907782e+001	5.024526e+001	-3.310699e+000	1.692514e+002
9150025500	-1.106165e+000	-1.527421e+002	-2.143802e+001	4.463885e+001	-1.901510e+001	4.919274e+001	-3.345683e+000	1.693049e+002
9156275313	-1.111293e+000	-1.527585e+002	-2.126209e+001	4.442406e+001	-1.899927e+001	4.953913e+001	-3.364045e+000	1.694187e+002
9162525125	-1.109546e+000	-1.526494e+002	-2.125181e+001	4.361666e+001	-1.894927e+001	4.889176e+001	-3.375256e+000	1.693955e+002
9168774938	-1.132786e+000	-1.526950e+002	-2.126445e+001	4.339989e+001	-1.889459e+001	4.817508e+001	-3.416038e+000	1.694233e+002
9175024750	-1.123590e+000	-1.526163e+002	-2.111766e+001	4.333755e+001	-1.883909e+001	4.835560e+001	-3.438167e+000	1.694671e+002
9181274563	-1.137964e+000	-1.526733e+002	-2.108865e+001	4.235972e+001	-1.871896e+001	4.767425e+001	-3.438594e+000	1.694374e+002
9187524375	-1.148392e+000	-1.525332e+002	-2.107870e+001	4.233181e+001	-1.878013e+001	4.781709e+001	-3.469753e+000	1.695548e+002
9193774188	-1.167668e+000	-1.526244e+002	-2.100043e+001	4.195038e+001	-1.875617e+001	4.710854e+001	-3.461555e+000	1.696670e+002
9200024000	-1.166704e+000	-1.525738e+002	-2.095100e+001	4.175783e+001	-1.866274e+001	4.659371e+001	-3.508894e+000	1.698031e+002
9206273813	-1.179414e+000	-1.524124e+002	-2.086781e+001	4.078967e+001	-1.866123e+001	4.694496e+001	-3.522763e+000	1.696749e+002
9212523625	-1.155250e+000	-1.524274e+002	-2.092515e+001	4.062662e+001	-1.860829e+001	4.630377e+001	-3.530949e+000	1.698622e+002
9218773438	-1.175582e+000	-1.524346e+002	-2.081338e+001	4.070468e+001	-1.861690e+001	4.618504e+001	-3.537292e+000	1.697702e+002
9225023250	-1.159765e+000	-1.522019e+002	-2.070445e+001	4.056029e+001	-1.853845e+001	4.615023e+001	-3.541954e+000	1.698638e+002
9231273063	-1.190229e+000	-1.522049e+002	-2.073207e+001	3.999914e+001	-1.863168e+001	4.629178e+001	-3.587563e+000	1.698384e+002
9237522875	-1.188415e+000	-1.521796e+002	-2.062753e+001	3.970782e+001	-1.855209e+001	4.549958e+001	-3.595108e+000	1.699116e+002
9243772688	-1.179253e+000	-1.522440e+002	-2.051165e+001	4.021535e+001	-1.845107e+001	4.460033e+001	-3.613542e+000	1.698623e+002
9250022500	-1.213203e+000	-1.520999e+002	-2.057748e+001	3.976587e+001	-1.851829e+001	4.476173e+001	-3.619494e+000	1.699376e+002
9256272313	-1.207407e+000	-1.521756e+002	-2.047808e+001	3.891037e+001	-1.842573e+001	4.467735e+001	-3.651786e+000	1.698618e+002
9262522125	-1.228781e+000	-1.521596e+002	-2.032821e+001	3.917479e+001	-1.838305e+001	4.464653e+001	-3.670340e+000	1.700759e+002
9268771938	-1.244791e+000	-1.518640e+002	-2.035524e+001	3.846725e+001	-1.831009e+001	4.395980e+001	-3.693810e+000	1.700664e+002
9275021750	-1.250236e+000	-1.518842e+002	-2.029753e+001	3.809327e+001	-1.825290e+001	4.359768e+001	-3.709750e+000	1.700068e+002
9281271563	-1.234055e+000	-1.518274e+002	-2.024442e+001	3.768075e+001	-1.818543e+001	4.369557e+001	-3.722482e+000	1.699907e+002
9287521375	-1.239961e+000	-1.518213e+002	-2.013943e+001	3.764020e+001	-1.819886e+001	4.326356e+001	-3.754815e+000	1.700707e+002
9293771188	-1.276131e+000	-1.517131e+002	-2.014433e+001	3.726227e+001	-1.813908e+001	4.271183e+001	-3.755315e+000	1.702152e+002
9300021000	-1.267979e+000	-1.516526e+002	-2.003778e+001	3.676834e+001	-1.813110e+001	4.258155e+001	-3.785710e+000	1.700736e+002
9306270813	-1.260750e+000	-1.516934e+002	-1.994518e+001	3.613173e+001	-1.808723e+001	4.181988e+001	-3.783272e+000	1.702438e+002
9312520625	-1.294600e+000	-1.514432e+002	-1.992010e+001	3.603299e+001	-1.805130e+001	4.181899e+001	-3.840086e+000	1.703234e+002
9318770438	-1.290907e+000	-1.513802e+002	-2.001739e+001	3.578036e+001	-1.804457e+001	4.108912e+001	-3.848797e+000	1.703653e+002
9325020250	-1.291873e+000	-1.514234e+002	-1.985638e+001	3.495434e+001	-1.807573e+001	4.069358e+001	-3.879854e+000	1.704504e+002
9331270063	-1.299977e+000	-1.512548e+002	-1.984595e+001	3.445062e+001	-1.801513e+001	4.054681e+001	-3.882406e+000	1.705113e+002
9337519875	-1.294519e+000	-1.511259e+002	-1.981555e+001	3.421680e+001	-1.799214e+001	3.996603e+001	-3.915889e+000	1.706229e+002
9343769688	-1.317174e+000	-1.511991e+002	-1.979464e+001	3.372237e+001	-1.796059e+001	3.965444e+001	-3.937552e+000	1.706749e+002
9350019500	-1.317570e+000	-1.509691e+002	-1.975940e+001	3.329773e+001	-1.794606e+001	3.949384e+001	-3.966364e+000	1.707547e+002
9356269313	-1.339910e+000	-1.509911e+002	-1.976145e+001	3.248794e+001	-1.793840e+001	3.907865e+001	-3.954453e+000	1.709306e+002
9362519125	-1.332166e+000	-1.508391e+002	-1.969661e+001	3.208129e+001	-1.791551e+001	3.832934e+001	-3.997804e+000	1.710676e+002
9368768938	-1.327547e+000	-1.509853e+002	-1.971345e+001	3.166344e+001	-1.791282e+001	3.778429e+001	-4.020865e+000	1.711729e+002
9375018750	-1.330174e+000	-1.507918e+002	-1.966375e+001	3.162472e+001	-1.791943e+001	3.789926e+001	-4.037995e+000	1.712652e+002
9381268563	-1.333771e+000	-1.506568e+002	-1.967193e+001	3.105129e+001	-1.795760e+001	3.733935e+001	-4.039718e+000	1.714064e+002
9387518375	-1.323074e+000	-1.506881e+002	-1.969551e+001	3.054362e+001	-1.785562e+001	3.730237e+001	-4.059607e+000	1.713335e+002
9393768188	-1.331079e+000	-1.505692e+002	-1.965734e+001	3.043401e+001	-1.796424e+001	3.676126e+001	-4.063949e+000	1.713127e+002
9400018000	-1.324934e+000	-1.506057e+002	-1.975096e+001	2.990633e+001	-1.794957e+001	3.660979e+001	-4.077720e+000	1.714263e+002
9406267813	-1.335681e+000	-1.503442e+002	-1.978479e+001	2.986584e+001	-1.798465e+001	3.621493e+001	-4.068813e+000	1.714749e+002
9412517625	-1.349451e+000	-1.503092e+002	-1.974173e+001	2.988638e+001	-1.798482e+001	3.635484e+001	-4.106680e+000	1.715938e+002
9418767438	-1.337192e+000	-1.502079e+002	-1.977821e+001	2.963228e+001	-1.799493e+001	3.615497e+001	-4.121311e+000	1.716341e+002
9425017250	-1.329018e+000	-1.504469e+002	-1.969706e+001	2.935732e+001	-1.803939e+001	3.634489e+001	-4.132901e+000	1.716407e+002
9431267063	-1.338114e+000	-1.504511e+002	-1.967909e+001	2.957607e+001	-1.799640e+001	3.624316e+001	-4.131747e+000	1.715864e+002
9437516875	-1.342833e+000	-1.501986e+002	-1.965612e+001	2.933029e+001	-1.798895e+001	3.577759e+001	-4.154186e+000	1.716551e+002
9443766688	-1.348175e+000	-1.503222e+002	-1.962076e+001	2.924684e+001	-1.789895e+001	3.574290e+001	-4.165312e+000	1.716568e+002
9450016500	-1.344242e+000	-1.502795e+002	-1.960493e+001	2.949164e+001	-1.796053e+001	3.518560e+001	-4.210293e+000	1.717388e+002
9456266313	-1.321416e+000	-1.501982e+002	-1.961083e+001	2.854887e+001	-1.790139e+001	3.536071e+001	-4.223698e+000	1.717057e+002
9462516125	-1.321876e+000	-1.501784e+002	-1.953544e+001	2.862064e+001	-1.786421e+001	3.519952e+001	-4.241862e+000	1.719246e+002
9468765938	-1.344289e+000	-1.500166e+002	-1.953225e+001	2.807943e+001	-1.785956e+001	3.504003e+001	-4.265689e+000	1.720440e+002
9475015750	-1.346296e+000	-1.500296e+002	-1.953544e+001	2.770969e+001	-1.782830e+001	3.456803e+001	-4.293219e+000	1.721120e+002
9481265563	-1.337372e+000	-1.498805e+002	-1.949181e+001	2.757992e+001	-1.786350e+001	3.450538e+001	-4.307049e+000	1.722404e+002
9487515375	-1.339143e+000	-1.498874e+002	-1.951295e+001	2.702091e+001	-1.783685e+001	3.376833e+001	-4.335539e+000	1.723419e+002
9493765188	-1.329514e+000	-1.496294e+002	-1.949359e+001	2.694843e+001	-1.785195e+001	3.361304e+001	-4.353711e+000	1.724347e+002
9500015000	-1.347778e+000	-1.499366e+002	-1.951061e+001	2.668289e+001	-1.787311e+001	3.346431e+001	-4.339931e+000	1.726802e+002
9506264813	-1.346604e+000	-1.496115e+002	-1.964019e+001	2.650623e+001	-1.791433e+001	3.333170e+001	-4.356059e+000	1.729182e+002
9512514625	-1.326547e+000	-1.496853e+002	-1.967747e+001	2.567038e+001	-1.799960e+001	3.320641e+001	-4.341236e+000	1.727396e+002
9518764438	-1.327050e+000	-1.497205e+002	-1.975531e+001	2.594393e+001	-1.801862e+001	3.344428e+001	-4.352539e+000	1.728694e+002
9525014250	-1.298921e+000	-1.497412e+002	-1.973001e+001	2.660314e+001	-1.806747e+001	3.368952e+001	-4.341193e+000	1.728619e+002
9531264063	-1.311268e+000	-1.498356e+002	-1.977517e+001	2.677619e+001	-1.813105e+001	3.354929e+001	-4.337120e+000	1.730147e+002
9537513875	-1.326443e+000	-1.496468e+002	-1.972363e+001	2.765740e+001	-1.809814e+001	3.382890e+001	-4.340455e+000	1.725479e+002
9543763688	-1.280864e+000	-1.499049e+002	-1.970754e+001	2.799652e+001	-1.804915e+001	3.401052e+001	-4.363568e+000	1.727350e+002
9550013500	-1.312569e+000	-1.495660e+002	-1.971719e+001	2.811172e+001	-1.800359e+001	3.452528e+001	-4.344438e+000	1.726492e+002
9556263313	-1.326905e+000	-1.498953e+002	-1.966957e+001	2.886326e+001	-1.798659e+001	3.518206e+001	-4.384232e+000	1.724704e+002
9562513125	-1.316116e+000	-1.499118e+002	-1.961096e+001	2.910506e+001	-1.797271e+001	3.548294e+001	-4.397733e+000	1.722590e+002
9568762938	-1.322422e+000	-1.496748e+002	-1.952636e+001	2.937257e+001	-1.781575e+001	3.524043e+001	-4.448367e+000	1.724617e+002
9575012750	-1.317230e+000	-1.497762e+002	-1.942639e+001	2.908715e+001	-1.777314e+001	3.562544e+001	-4.462630e+000	1.724270e+002
9581262563	-1.367393e+000	-1.499633e+002	-1.932436e+001	2.924166e+001	-1.770044e+001	3.556134e+001	-4.492379e+000	1.723270e+002
9587512375	-1.350173e+000	-1.499654e+002	-1.921804e+001	2.937216e+001	-1.762311e+001	3.531447e+001	-4.544051e+000	1.724352e+002
9593762188	-1.351589e+000	-1.498246e+002	-1.915380e+001	2.920975e+001	-1.744740e+001	3.486790e+001	-4.551283e+000	1.723803e+002
9600012000	-1.380703e+000	-1.498777e+002	-1.900077e+001	2.865838e+001	-1.738871e+001	3.506794e+001	-4.609265e+000	1.722982e+002
9606261813	-1.396831e+000	-1.496943e+002	-1.897263e+001	2.843058e+001	-1.738824e+001	3.483291e+001	-4.620742e+000	1.724347e+002
9612511625	-1.402074e+000	-1.497186e+002	-1.887125e+001	2.788053e+001	-1.733115e+001	3.435210e+001	-4.648811e+000	1.726495e+002
9618761438	-1.391102e+000	-1.496588e+002	-1.876887e+001	2.819811e+001	-1.723851e+001	3.373224e+001	-4.665948e+000	1.726314e+002
9625011250	-1.400263e+000	-1.496336e+002	-1.875699e+001	2.732342e+001	-1.722238e+001	3.343091e+001	-4.718654e+000	1.727448e+002
9631261063	-1.404923e+000	-1.496102e+002	-1.874555e+001	2.680985e+001	-1.725219e+001	3.291453e+001	-4.733614e+000	1.728620e+002
9637510875	-1.432487e+000	-1.494843e+002	-1.871106e+001	2.647102e+001	-1.727397e+001	3.272813e+001	-4.722585e+000	1.729590e+002
9643760688	-1.419491e+000	-1.494935e+002	-1.876980e+001	2.648394e+001	-1.724375e+001	3.227768e+001	-4.743164e+000	1.730639e+002
9650010500	-1.415728e+000	-1.495165e+002	-1.872511e+001	2.624636e+001	-1.724712e+001	3.201881e+001	-4.741989e+000	1.733104e+002
9656260313	-1.423599e+000	-1.493629e+002	-1.877291e+001	2.593572e+001	-1.726858e+001	3.227537e+001	-4.766266e+000	1.732054e+002
9662510125	-1.425481e+000	-1.494413e+002	-1.873881e+001	2.614288e+001	-1.725648e+001	3.218770e+001	-4.794121e+000	1.730469e+002
9668759938	-1.419129e+000	-1.495022e+002	-1.873848e+001	2.654309e+001	-1.722398e+001	3.282587e+001	-4.806641e+000	1.731288e+002
9675009750	-1.417037e+000	-1.495178e+002	-1.864033e+001	2.647398e+001	-1.711565e+001	3.244752e+001	-4.825819e+000	1.733395e+002
9681259563	-1.403640e+000	-1.493819e+002	-1.861474e+001	2.640232e+001	-1.709727e+001	3.275237e+001	-4.872478e+000	1.731722e+002
9687509375	-1.422563e+000	-1.494752e+002	-1.852306e+001	2.637909e+001	-1.702652e+001	3.240985e+001	-4.919648e+000	1.730230e+002
9693759188	-1.436493e+000	-1.496418e+002	-1.843255e+001	2.636495e+001	-1.699130e+001	3.282295e+001	-4.943086e+000	1.731226e+002
9700009000	-1.431580e+000	-1.494862e+002	-1.839355e+001	2.655122e+001	-1.689930e+001	3.246183e+001	-4.997733e+000	1.731331e+002
9706258813	-1.465154e+000	-1.496148e+002	-1.825938e+001	2.662582e+001	-1.684312e+001	3.223414e+001	-5.012500e+000	1.731023e+002
9712508625	-1.477873e+000	-1.493608e+002	-1.819008e+001	2.667980e+001	-1.677202e+001	3.194108e+001	-5.041698e+000	1.733260e+002
9718758438	-1.474275e+000	-1.493631e+002	-1.815652e+001	2.592617e+001	-1.675459e+001	3.176118e+001	-5.094805e+000	1.735824e+002
9725008250	-1.448927e+000	-1.494753e+002	-1.801448e+001	2.604356e+001	-1.664778e+001	3.140497e+001	-5.120856e+000	1.736185e+002
9731258063	-1.492657e+000	-1.494795e+002	-1.795587e+001	2.529558e+001	-1.663756e+001	3.091327e+001	-5.130005e+000	1.736020e+002
9737507875	-1.514388e+000	-1.494415e+002	-1.786065e+001	2.493357e+001	-1.655284e+001	3.039781e+001	-5.200772e+000	1.740192e+002
9743757688	-1.518385e+000	-1.493419e+002	-1.784122e+001	2.449792e+001	-1.649197e+001	3.049438e+001	-5.220787e+000	1.738260e+002
9750007500	-1.534007e+000	-1.492473e+002	-1.785291e+001	2.438144e+001	-1.651553e+001	2.997523e+001	-5.223897e+000	1.741167e+002
9756257313	-1.548729e+000	-1.491677e+002	-1.775595e+001	2.375389e+001	-1.643754e+001	2.970270e+001	-5.285710e+000	1.742819e+002
9762507125	-1.542894e+000	-1.490195e+002	-1.773124e+001	2.365244e+001	-1.647675e+001	2.941061e+001	-5.300859e+000	1.743940e+002
9768756938	-1.564247e+000	-1.490595e+002	-1.769869e+001	2.330497e+001	-1.641085e+001	2.918536e+001	-5.301490e+000	1.744438e+002
9775006750	-1.547408e+000	-1.491920e+002	-1.773241e+001	2.298767e+001	-1.633418e+001	2.885992e+001	-5.353422e+000	1.745006e+002
9781256563	-1.575316e+000	-1.490042e+002	-1.768005e+001	2.276515e+001	-1.635609e+001	2.857690e+001	-5.352057e+000	1.746462e+002
9787506375	-1.572223e+000	-1.491419e+002	-1.761934e+001	2.258454e+001	-1.631923e+001	2.819924e+001	-5.398767e+000	1.745701e+002
9793756188	-1.584631e+000	-1.491014e+002	-1.754954e+001	2.224798e+001	-1.624763e+001	2.816968e+001	-5.416021e+000	1.746240e+002
9800006000	-1.593803e+000	-1.489676e+002	-1.754685e+001	2.184635e+001	-1.630561e+001	2.802032e+001	-5.446960e+000	1.746385e+002
9806255813	-1.597196e+000	-1.490474e+002	-1.745590e+001	2.223017e+001	-1.626669e+001	2.827859e+001	-5.492467e+000	1.748146e+002
9812505625	-1.579343e+000	-1.489402e+002	-1.745575e+001	2.209600e+001	-1.619923e+001	2.789588e+001	-5.502505e+000	1.748272e+002
9818755438	-1.604450e+000	-1.490105e+002	-1.744667e+001	2.215115e+001	-1.616396e+001	2.766282e+001	-5.514374e+000	1.748225e+002
9825005250	-1.589265e+000	-1.490400e+002	-1.730805e+001	2.202655e+001	-1.605627e+001	2.751777e+001	-5.586293e+000	1.749446e+002
9831255063	-1.631542e+000	-1.489167e+002	-1.728847e+001	2.191726e+001	-1.604486e+001	2.737901e+001	-5.573335e+000	1.752373e+002
9837504875	-1.608875e+000	-1.489765e+002	-1.720144e+001	2.169664e+001	-1.596547e+001	2.724215e+001	-5.615455e+000	1.751458e+002
9843754688	-1.647542e+000	-1.489753e+002	-1.712728e+001	2.194563e+001	-1.591747e+001	2.711882e+001	-5.665404e+000	1.751849e+002
9850004500	-1.649575e+000	-1.488023e+002	-1.703348e+001	2.162649e+001	-1.585713e+001	2.669714e+001	-5.721658e+000	1.752898e+002
9856254313	-1.635648e+000	-1.488655e+002	-1.700578e+001	2.155508e+001	-1.573024e+001	2.655731e+001	-5.734128e+000	1.755481e+002
9862504125	-1.667088e+000	-1.490772e+002	-1.694549e+001	2.086475e+001	-1.573123e+001	2.609570e+001	-5.791162e+000	1.754736e+002
9868753938	-1.671571e+000	-1.490227e+002	-1.676467e+001	2.088612e+001	-1.562560e+001	2.584747e+001	-5.856424e+000	1.756450e+002
9875003750	-1.674827e+000	-1.487342e+002	-1.674542e+001	2.039432e+001	-1.556406e+001	2.561705e+001	-5.871200e+000	1.756175e+002
9881253563	-1.688048e+000	-1.488621e+002	-1.660050e+001	2.047802e+001	-1.549355e+001	2.547794e+001	-5.917463e+000	1.757764e+002
9887503375	-1.729827e+000	-1.486673e+002	-1.656847e+001	2.009386e+001	-1.541543e+001	2.510268e+001	-5.984501e+000	1.761022e+002
9893753188	-1.722306e+000	-1.489023e+002	-1.650070e+001	1.967659e+001	-1.532733e+001	2.480222e+001	-6.037444e+000	1.762535e+002
9900003000	-1.775554e+000	-1.487055e+002	-1.640671e+001	1.904873e+001	-1.527637e+001	2.440039e+001	-6.099089e+000	1.763081e+002
9906252813	-1.758232e+000	-1.486356e+002	-1.627267e+001	1.875414e+001	-1.524739e+001	2.382726e+001	-6.154941e+000	1.765738e+002
9912502625	-1.782525e+000	-1.486498e+002	-1.619544e+001	1.835318e+001	-1.512310e+001	2.391633e+001	-6.197144e+000	1.767413e+002
9918752438	-1.779317e+000	-1.486490e+002	-1.610088e+001	1.807658e+001	-1.509067e+001	2.300011e+001	-6.256679e+000	1.770276e+002
9925002250	-1.815677e+000	-1.485239e+002	-1.600849e+001	1.744342e+001	-1.499998e+001	2.284987e+001	-6.298870e+000	1.774342e+002
9931252063	-1.802052e+000	-1.484940e+002	-1.595239e+001	1.728559e+001	-1.494543e+001	2.212413e+001	-6.356066e+000	1.776179e+002
9937501875	-1.835892e+000	-1.485029e+002	-1.586093e+001	1.640277e+001	-1.483018e+001	2.148601e+001	-6.421109e+000	1.778602e+002
9943751688	-1.861134e+000	-1.482998e+002	-1.576255e+001	1.586782e+001	-1.476794e+001	2.091901e+001	-6.460361e+000	1.782076e+002
9950001500	-1.855450e+000	-1.481828e+002	-1.572153e+001	1.550641e+001	-1.469878e+001	2.042564e+001	-6.535316e+000	1.785966e+002
9956251313	-1.880855e+000	-1.482166e+002	-1.555549e+001	1.449488e+001	-1.464025e+001	1.958186e+001	-6.571112e+000	1.789400e+002
9962501125	-1.897902e+000	-1.480960e+002	-1.549305e+001	1.414882e+001	-1.454134e+001	1.902541e+001	-6.617895e+000	1.793866e+002
9968750938	-1.915034e+000	-1.478588e+002	-1.538634e+001	1.336371e+001	-1.451928e+001	1.836316e+001	-6.680242e+000	1.797640e+002
9975000750	-1.935237e+000	-1.481161e+002	-1.527812e+001	1.278411e+001	-1.444725e+001	1.771229e+001	-6.724300e+000	-1.797640e+002
9981250563	-1.958215e+000	-1.478532e+002	-1.530424e+001	1.211757e+001	-1.436852e+001	1.734285e+001	-6.769715e+000	-1.792916e+002
9987500375	-1.941407e+000	-1.478410e+002	-1.517720e+001	1.105654e+001	-1.434582e+001	1.619819e+001	-6.810236e+000	-1.785806e+002
9993750188	-1.981714e+000	-1.476363e+002	-1.505533e+001	1.032305e+001	-1.423016e+001	1.575234e+001	-6.866578e+000	-1.784742e+002
10000000000	-1.962311e+000	-1.474582e+002	-1.498880e+001	9.717458e+000	-1.424433e+001	1.493050e+001	-6.868278e+000	-1.776996e+002


!Noise Parameters
!Freq  NFmin(dB)  Mag(GammaOpt)  Ang(GammaOpt)(deg)  rn(normalized)
6.5e+008 0.74152 0.42462 38.809 0.24503
7e+008   0.73265 0.36711 41.053 0.19412
7.5e+008 0.71613 0.45084 42.1   0.18677
8e+008   0.70341 0.45088 45.392 0.24231
8.5e+008 0.69648 0.43449 43.756 0.1691
9e+008   0.67857 0.44904 45.739 0.17355
9.5e+008 0.67568 0.43624 47.139 0.17286
1e+009   0.68562 0.43486 49.459 0.17282
