!Agilent Technologies,E5071C,MY46316587,B.13.01
!Date: Fri Dec 08 11:11:56 2017
!Data & Calibration Information:
!Freq	S11:SOLT2(ON)	S21:SOLT2(ON)	S12:SOLT2(ON)	S22:SOLT2(ON)
!PortZ  Port1:50+j0    Port2:50+j0
!Above PortZ is port z conversion or system Z0 setting when saving the data.
!When reading, reference impedance value at option line is always used.
# Hz S dB R 50
300000	-5.840314e-002	-4.462606e-001	-4.899691e+001	2.564584e+001	-5.702825e+001	1.244191e+002	-5.206293e-002	-2.159919e-001
10299700	-5.377882e-001	-2.144261e+000	-1.679394e+001	-1.135035e+002	-7.405101e+001	7.357879e+001	-1.818440e-001	-2.672248e+000
20299400	-4.553365e-001	-3.087840e+000	-2.155504e+001	-1.086810e+002	-6.919669e+001	3.659312e+001	-2.505332e-001	-4.330746e+000
30299100	-4.571909e-001	-4.492813e+000	-1.917811e+001	-1.037866e+002	-6.689844e+001	1.248629e+002	-2.822679e-001	-6.045618e+000
40298800	-4.637800e-001	-5.837522e+000	-1.707875e+001	-1.009534e+002	-7.120383e+001	1.094801e+002	-3.100310e-001	-7.761277e+000
50298500	-4.733051e-001	-7.229375e+000	-1.524515e+001	-9.911131e+001	-7.230100e+001	1.112344e+002	-3.275781e-001	-9.454278e+000
60298200	-4.769037e-001	-8.583719e+000	-1.363096e+001	-9.818659e+001	-6.871124e+001	1.379499e+002	-3.514623e-001	-1.120825e+001
70297900	-4.840506e-001	-9.934928e+000	-1.229152e+001	-9.747513e+001	-7.008124e+001	1.359718e+002	-3.660122e-001	-1.292747e+001
80297600	-4.862076e-001	-1.126777e+001	-1.107484e+001	-9.747742e+001	-6.539427e+001	1.172368e+002	-3.853451e-001	-1.465026e+001
90297300	-4.973770e-001	-1.264525e+001	-1.000053e+001	-9.785377e+001	-6.658954e+001	1.196855e+002	-4.096931e-001	-1.641275e+001
100297000	-5.014745e-001	-1.394172e+001	-9.018765e+000	-9.826325e+001	-6.311619e+001	1.156371e+002	-4.297390e-001	-1.817140e+001
110296700	-5.072453e-001	-1.532092e+001	-8.092208e+000	-9.887369e+001	-6.187983e+001	1.194518e+002	-4.564972e-001	-1.991231e+001
120296400	-5.095598e-001	-1.666811e+001	-7.227017e+000	-9.948805e+001	-6.223566e+001	1.393479e+002	-4.812955e-001	-2.164215e+001
130296100	-5.144322e-001	-1.800641e+001	-6.444322e+000	-1.002505e+002	-5.950743e+001	1.359185e+002	-5.122364e-001	-2.339155e+001
140295800	-5.212424e-001	-1.939048e+001	-5.693200e+000	-1.007480e+002	-5.777157e+001	1.448908e+002	-5.395123e-001	-2.514818e+001
150295500	-5.217225e-001	-2.073758e+001	-4.972730e+000	-1.012548e+002	-5.913708e+001	1.538076e+002	-5.710305e-001	-2.694197e+001
160295200	-5.365414e-001	-2.209956e+001	-4.289087e+000	-1.022596e+002	-5.551365e+001	1.553626e+002	-6.014000e-001	-2.868346e+001
170294900	-5.328202e-001	-2.345300e+001	-3.649061e+000	-1.033241e+002	-5.655009e+001	1.551331e+002	-6.394847e-001	-3.042443e+001
180294600	-5.441023e-001	-2.480014e+001	-3.070876e+000	-1.045591e+002	-5.400186e+001	1.646752e+002	-6.791205e-001	-3.217183e+001
190294300	-5.555037e-001	-2.612739e+001	-2.516819e+000	-1.057404e+002	-5.362879e+001	1.604183e+002	-7.219113e-001	-3.391501e+001
200294000	-5.591907e-001	-2.742789e+001	-1.983775e+000	-1.069337e+002	-5.262398e+001	1.607474e+002	-7.692911e-001	-3.566742e+001
210293700	-5.696492e-001	-2.881411e+001	-1.460463e+000	-1.082820e+002	-5.200326e+001	1.595899e+002	-8.134288e-001	-3.741605e+001
220293400	-5.830470e-001	-3.013308e+001	-9.641905e-001	-1.096789e+002	-4.993221e+001	1.637832e+002	-8.672553e-001	-3.917657e+001
230293100	-5.836039e-001	-3.148302e+001	-4.766503e-001	-1.108965e+002	-4.954371e+001	1.594573e+002	-9.209289e-001	-4.087366e+001
240292800	-5.922034e-001	-3.284957e+001	-2.924622e-002	-1.121735e+002	-4.834947e+001	1.642914e+002	-9.727961e-001	-4.265532e+001
250292500	-6.004918e-001	-3.418173e+001	4.456116e-001	-1.132804e+002	-4.795387e+001	1.635923e+002	-1.030494e+000	-4.434062e+001
260292200	-6.082271e-001	-3.554792e+001	9.079272e-001	-1.147292e+002	-4.666247e+001	1.620089e+002	-1.098934e+000	-4.606299e+001
270291900	-6.291679e-001	-3.691306e+001	1.341072e+000	-1.163186e+002	-4.608009e+001	1.620280e+002	-1.154401e+000	-4.774155e+001
280291600	-6.420896e-001	-3.823051e+001	1.726675e+000	-1.179748e+002	-4.543658e+001	1.608190e+002	-1.229659e+000	-4.947697e+001
290291300	-6.603272e-001	-3.958638e+001	2.092958e+000	-1.196614e+002	-4.419228e+001	1.603533e+002	-1.299580e+000	-5.123043e+001
300291000	-6.700810e-001	-4.086581e+001	2.452882e+000	-1.212105e+002	-4.379743e+001	1.611116e+002	-1.376951e+000	-5.289844e+001
310290700	-6.872578e-001	-4.211909e+001	2.794223e+000	-1.227411e+002	-4.328541e+001	1.590930e+002	-1.451133e+000	-5.458107e+001
320290400	-7.017664e-001	-4.345786e+001	3.137237e+000	-1.244803e+002	-4.227854e+001	1.594386e+002	-1.535218e+000	-5.626727e+001
330290100	-7.185961e-001	-4.480535e+001	3.472414e+000	-1.261940e+002	-4.194395e+001	1.593191e+002	-1.616572e+000	-5.795346e+001
340289800	-7.315300e-001	-4.607591e+001	3.782234e+000	-1.276926e+002	-4.122440e+001	1.595565e+002	-1.704794e+000	-5.959287e+001
350289500	-7.594627e-001	-4.739044e+001	4.090332e+000	-1.294023e+002	-4.059091e+001	1.578925e+002	-1.790404e+000	-6.126762e+001
360289200	-7.722005e-001	-4.871447e+001	4.388131e+000	-1.311124e+002	-3.984837e+001	1.566349e+002	-1.890227e+000	-6.292653e+001
370288900	-7.982664e-001	-5.005300e+001	4.667553e+000	-1.328922e+002	-3.929616e+001	1.569865e+002	-1.985961e+000	-6.450633e+001
380288600	-8.182813e-001	-5.136426e+001	4.932262e+000	-1.348217e+002	-3.889692e+001	1.556335e+002	-2.090033e+000	-6.622298e+001
390288300	-8.468068e-001	-5.261636e+001	5.179336e+000	-1.365894e+002	-3.826473e+001	1.533336e+002	-2.200927e+000	-6.779907e+001
400288000	-8.692596e-001	-5.388077e+001	5.413532e+000	-1.383974e+002	-3.773748e+001	1.529178e+002	-2.306855e+000	-6.939364e+001
410287700	-8.936699e-001	-5.521289e+001	5.648829e+000	-1.402831e+002	-3.717366e+001	1.515725e+002	-2.418589e+000	-7.103966e+001
420287400	-9.209839e-001	-5.648721e+001	5.893952e+000	-1.420471e+002	-3.670129e+001	1.505388e+002	-2.541571e+000	-7.258520e+001
430287100	-9.559430e-001	-5.769949e+001	6.110784e+000	-1.438341e+002	-3.620843e+001	1.504084e+002	-2.656925e+000	-7.416933e+001
440286800	-9.844773e-001	-5.889940e+001	6.326395e+000	-1.455829e+002	-3.573099e+001	1.482520e+002	-2.781438e+000	-7.566528e+001
450286500	-1.016712e+000	-6.020921e+001	6.523787e+000	-1.473945e+002	-3.525250e+001	1.469993e+002	-2.914511e+000	-7.721644e+001
460286200	-1.047113e+000	-6.149590e+001	6.705389e+000	-1.491995e+002	-3.499742e+001	1.469576e+002	-3.033012e+000	-7.871464e+001
470285900	-1.081167e+000	-6.269922e+001	6.882670e+000	-1.510801e+002	-3.459515e+001	1.448678e+002	-3.175952e+000	-8.022869e+001
480285600	-1.111779e+000	-6.391240e+001	7.052577e+000	-1.526680e+002	-3.412889e+001	1.443818e+002	-3.312247e+000	-8.180561e+001
490285300	-1.146768e+000	-6.511990e+001	7.231442e+000	-1.545896e+002	-3.373388e+001	1.431945e+002	-3.459653e+000	-8.324349e+001
500285000	-1.185249e+000	-6.635992e+001	7.374147e+000	-1.564481e+002	-3.335604e+001	1.414506e+002	-3.610738e+000	-8.465559e+001
510284700	-1.221414e+000	-6.752440e+001	7.537661e+000	-1.581156e+002	-3.295406e+001	1.401349e+002	-3.763609e+000	-8.610866e+001
520284400	-1.258497e+000	-6.876573e+001	7.694057e+000	-1.600189e+002	-3.261853e+001	1.394718e+002	-3.924008e+000	-8.752201e+001
530284100	-1.300467e+000	-6.988355e+001	7.834954e+000	-1.617926e+002	-3.227652e+001	1.376946e+002	-4.082931e+000	-8.889939e+001
540283800	-1.340656e+000	-7.106600e+001	7.961395e+000	-1.635173e+002	-3.188893e+001	1.369141e+002	-4.252349e+000	-9.025108e+001
550283500	-1.386424e+000	-7.221011e+001	8.091176e+000	-1.653144e+002	-3.147983e+001	1.358213e+002	-4.409095e+000	-9.157860e+001
560283200	-1.422939e+000	-7.337724e+001	8.214488e+000	-1.670213e+002	-3.121653e+001	1.343768e+002	-4.584047e+000	-9.291499e+001
570282900	-1.469422e+000	-7.454749e+001	8.328434e+000	-1.688198e+002	-3.098655e+001	1.333715e+002	-4.767242e+000	-9.422443e+001
580282600	-1.521788e+000	-7.564259e+001	8.427705e+000	-1.706069e+002	-3.065323e+001	1.320893e+002	-4.940106e+000	-9.548585e+001
590282300	-1.564097e+000	-7.674366e+001	8.522526e+000	-1.723454e+002	-3.035435e+001	1.307197e+002	-5.122491e+000	-9.673649e+001
600282000	-1.610865e+000	-7.782965e+001	8.616973e+000	-1.740501e+002	-3.001087e+001	1.300305e+002	-5.318067e+000	-9.803117e+001
610281700	-1.660380e+000	-7.891423e+001	8.717661e+000	-1.757318e+002	-2.973915e+001	1.285530e+002	-5.520156e+000	-9.922249e+001
620281400	-1.713051e+000	-8.000582e+001	8.810253e+000	-1.774739e+002	-2.946749e+001	1.272557e+002	-5.719150e+000	-1.003623e+002
630281100	-1.765235e+000	-8.108575e+001	8.888968e+000	-1.791696e+002	-2.915704e+001	1.262153e+002	-5.915933e+000	-1.015747e+002
640280800	-1.820272e+000	-8.212589e+001	8.964789e+000	1.791888e+002	-2.892611e+001	1.250567e+002	-6.128315e+000	-1.026959e+002
650280500	-1.869433e+000	-8.316063e+001	9.035343e+000	1.775649e+002	-2.866741e+001	1.239915e+002	-6.336487e+000	-1.038526e+002
660280200	-1.921714e+000	-8.417737e+001	9.096570e+000	1.759445e+002	-2.846793e+001	1.226908e+002	-6.549403e+000	-1.049331e+002
670279900	-1.971107e+000	-8.516625e+001	9.151080e+000	1.743627e+002	-2.822439e+001	1.213306e+002	-6.761157e+000	-1.060405e+002
680279600	-2.015845e+000	-8.618031e+001	9.206683e+000	1.729965e+002	-2.797897e+001	1.205664e+002	-6.964227e+000	-1.072636e+002
690279300	-2.068526e+000	-8.723837e+001	9.325504e+000	1.714460e+002	-2.772097e+001	1.195367e+002	-7.273691e+000	-1.085179e+002
700279000	-2.127373e+000	-8.823759e+001	9.375081e+000	1.697831e+002	-2.749854e+001	1.180452e+002	-7.516109e+000	-1.094378e+002
710278700	-2.180436e+000	-8.923864e+001	9.460607e+000	1.682186e+002	-2.724193e+001	1.171248e+002	-7.813218e+000	-1.105611e+002
720278400	-2.250659e+000	-9.020207e+001	9.507493e+000	1.665094e+002	-2.701479e+001	1.159252e+002	-8.076656e+000	-1.113473e+002
730278100	-2.309472e+000	-9.114659e+001	9.551295e+000	1.649150e+002	-2.680863e+001	1.147988e+002	-8.357464e+000	-1.121952e+002
740277800	-2.368682e+000	-9.207877e+001	9.590873e+000	1.634513e+002	-2.661180e+001	1.136827e+002	-8.628336e+000	-1.131855e+002
750277500	-2.427921e+000	-9.301660e+001	9.641768e+000	1.619978e+002	-2.634324e+001	1.127066e+002	-8.933685e+000	-1.141111e+002
760277200	-2.490311e+000	-9.397638e+001	9.695847e+000	1.604073e+002	-2.616132e+001	1.114062e+002	-9.254087e+000	-1.149212e+002
770276900	-2.550185e+000	-9.487441e+001	9.737607e+000	1.589198e+002	-2.598280e+001	1.102577e+002	-9.576452e+000	-1.156909e+002
780276600	-2.609564e+000	-9.576870e+001	9.777262e+000	1.574393e+002	-2.577682e+001	1.091931e+002	-9.913807e+000	-1.164605e+002
790276300	-2.671897e+000	-9.667337e+001	9.823776e+000	1.559007e+002	-2.561612e+001	1.075950e+002	-1.027953e+001	-1.171442e+002
800276000	-2.737465e+000	-9.752987e+001	9.855820e+000	1.544063e+002	-2.535999e+001	1.068314e+002	-1.064387e+001	-1.177455e+002
810275700	-2.802063e+000	-9.840605e+001	9.894460e+000	1.529489e+002	-2.518774e+001	1.057311e+002	-1.103659e+001	-1.183563e+002
820275400	-2.872947e+000	-9.922360e+001	9.926281e+000	1.514814e+002	-2.499813e+001	1.044126e+002	-1.144896e+001	-1.189023e+002
830275100	-2.937287e+000	-1.000896e+002	9.960444e+000	1.500423e+002	-2.484509e+001	1.032244e+002	-1.189438e+001	-1.193184e+002
840274800	-3.004971e+000	-1.009101e+002	1.000124e+001	1.486481e+002	-2.467428e+001	1.022216e+002	-1.235920e+001	-1.198371e+002
850274500	-3.070103e+000	-1.017837e+002	1.005950e+001	1.472743e+002	-2.446045e+001	1.011984e+002	-1.291334e+001	-1.200960e+002
860274200	-3.149329e+000	-1.026139e+002	1.010227e+001	1.455402e+002	-2.429234e+001	1.001026e+002	-1.350265e+001	-1.195435e+002
870273900	-3.226634e+000	-1.033875e+002	1.012276e+001	1.440639e+002	-2.413094e+001	9.881007e+001	-1.405550e+001	-1.190801e+002
880273600	-3.300017e+000	-1.041371e+002	1.015767e+001	1.426361e+002	-2.396855e+001	9.743958e+001	-1.467055e+001	-1.185829e+002
890273300	-3.377049e+000	-1.049402e+002	1.020161e+001	1.411760e+002	-2.379599e+001	9.613758e+001	-1.539826e+001	-1.176289e+002
900273000	-3.470439e+000	-1.056529e+002	1.024273e+001	1.394846e+002	-2.362883e+001	9.486517e+001	-1.616931e+001	-1.152485e+002
910272700	-3.553771e+000	-1.063416e+002	1.024800e+001	1.377972e+002	-2.352242e+001	9.386367e+001	-1.674529e+001	-1.122583e+002
920272400	-3.637758e+000	-1.070359e+002	1.024842e+001	1.362765e+002	-2.336945e+001	9.264661e+001	-1.735060e+001	-1.097363e+002
930272100	-3.718812e+000	-1.076767e+002	1.026479e+001	1.348362e+002	-2.323266e+001	9.138328e+001	-1.805328e+001	-1.064649e+002
940271800	-3.801479e+000	-1.083844e+002	1.028789e+001	1.332904e+002	-2.309354e+001	9.016881e+001	-1.874819e+001	-1.018631e+002
950271500	-3.890358e+000	-1.090149e+002	1.028804e+001	1.317346e+002	-2.299051e+001	8.897076e+001	-1.931152e+001	-9.663586e+001
960271200	-3.969023e+000	-1.096294e+002	1.029182e+001	1.302076e+002	-2.285307e+001	8.769070e+001	-1.978543e+001	-9.062080e+001
970270900	-4.053895e+000	-1.102296e+002	1.030060e+001	1.287144e+002	-2.275467e+001	8.632953e+001	-2.015585e+001	-8.366897e+001
980270600	-4.137806e+000	-1.108125e+002	1.030037e+001	1.272162e+002	-2.260567e+001	8.525853e+001	-2.034930e+001	-7.604025e+001
990270300	-4.228091e+000	-1.113848e+002	1.030554e+001	1.256906e+002	-2.250381e+001	8.401517e+001	-2.026237e+001	-6.802840e+001
1000270000	-4.316211e+000	-1.118673e+002	1.030574e+001	1.241279e+002	-2.240571e+001	8.281998e+001	-1.986881e+001	-6.051651e+001
1010269700	-4.404734e+000	-1.123611e+002	1.028846e+001	1.225204e+002	-2.229972e+001	8.170902e+001	-1.929087e+001	-5.451378e+001
1020269400	-4.492670e+000	-1.128170e+002	1.026842e+001	1.209885e+002	-2.221943e+001	8.047150e+001	-1.870469e+001	-4.955023e+001
1030269100	-4.581455e+000	-1.132508e+002	1.025201e+001	1.195350e+002	-2.210017e+001	7.919343e+001	-1.806307e+001	-4.525472e+001
1040268800	-4.662726e+000	-1.136413e+002	1.023729e+001	1.180494e+002	-2.202971e+001	7.794417e+001	-1.739610e+001	-4.179208e+001
1050268500	-4.753096e+000	-1.140143e+002	1.021582e+001	1.165624e+002	-2.195515e+001	7.690996e+001	-1.671831e+001	-3.902024e+001
1060268200	-4.840605e+000	-1.144221e+002	1.019262e+001	1.150191e+002	-2.186691e+001	7.566743e+001	-1.602409e+001	-3.678940e+001
1070267900	-4.923901e+000	-1.147642e+002	1.016871e+001	1.135170e+002	-2.178961e+001	7.444454e+001	-1.538320e+001	-3.513741e+001
1080267600	-5.011464e+000	-1.150656e+002	1.014787e+001	1.120066e+002	-2.171996e+001	7.323921e+001	-1.473075e+001	-3.392539e+001
1090267300	-5.099446e+000	-1.153260e+002	1.010833e+001	1.104111e+002	-2.166895e+001	7.208125e+001	-1.409934e+001	-3.359604e+001
1100267000	-5.176351e+000	-1.155654e+002	1.004627e+001	1.089357e+002	-2.160616e+001	7.101745e+001	-1.359601e+001	-3.385717e+001
1110266700	-5.248713e+000	-1.157906e+002	9.986318e+000	1.075500e+002	-2.154607e+001	7.002337e+001	-1.320615e+001	-3.379644e+001
1120266400	-5.324060e+000	-1.160341e+002	9.939753e+000	1.062088e+002	-2.150749e+001	6.898920e+001	-1.280113e+001	-3.346347e+001
1130266100	-5.392406e+000	-1.162758e+002	9.889400e+000	1.048205e+002	-2.147722e+001	6.799614e+001	-1.236004e+001	-3.348883e+001
1140265800	-5.462671e+000	-1.164466e+002	9.847995e+000	1.034644e+002	-2.140068e+001	6.678356e+001	-1.194176e+001	-3.350668e+001
1150265500	-5.537341e+000	-1.166188e+002	9.795235e+000	1.020735e+002	-2.136754e+001	6.571383e+001	-1.154366e+001	-3.382697e+001
1160265200	-5.594346e+000	-1.167284e+002	9.739755e+000	1.007050e+002	-2.133395e+001	6.494068e+001	-1.117494e+001	-3.432283e+001
1170264900	-5.662373e+000	-1.169127e+002	9.681608e+000	9.938740e+001	-2.127830e+001	6.393655e+001	-1.083430e+001	-3.485714e+001
1180264600	-5.721767e+000	-1.170389e+002	9.622413e+000	9.805485e+001	-2.121681e+001	6.281261e+001	-1.051070e+001	-3.536160e+001
1190264300	-5.779651e+000	-1.171779e+002	9.565817e+000	9.672995e+001	-2.120494e+001	6.197009e+001	-1.020321e+001	-3.600090e+001
1200264000	-5.833708e+000	-1.173111e+002	9.498059e+000	9.546215e+001	-2.117505e+001	6.098958e+001	-9.916186e+000	-3.653535e+001
1210263700	-5.880875e+000	-1.173751e+002	9.436721e+000	9.419008e+001	-2.113319e+001	5.995045e+001	-9.643775e+000	-3.723750e+001
1220263400	-5.940621e+000	-1.174543e+002	9.366917e+000	9.293570e+001	-2.112109e+001	5.891942e+001	-9.386635e+000	-3.793137e+001
1230263100	-5.983925e+000	-1.175351e+002	9.303384e+000	9.169730e+001	-2.109324e+001	5.815905e+001	-9.144593e+000	-3.868679e+001
1240262800	-6.026523e+000	-1.176506e+002	9.234850e+000	9.043201e+001	-2.106053e+001	5.743842e+001	-8.929940e+000	-3.941206e+001
1250262500	-6.075839e+000	-1.176995e+002	9.167816e+000	8.922993e+001	-2.103593e+001	5.644322e+001	-8.720023e+000	-4.018573e+001
1260262200	-6.110648e+000	-1.177616e+002	9.091562e+000	8.805030e+001	-2.103936e+001	5.574509e+001	-8.532238e+000	-4.082181e+001
1270261900	-6.150940e+000	-1.178248e+002	9.018237e+000	8.686767e+001	-2.099305e+001	5.484696e+001	-8.331548e+000	-4.156832e+001
1280261600	-6.187295e+000	-1.178729e+002	8.949214e+000	8.572862e+001	-2.099818e+001	5.386003e+001	-8.133653e+000	-4.236134e+001
1290261300	-6.220299e+000	-1.178790e+002	8.875165e+000	8.456628e+001	-2.098638e+001	5.326723e+001	-7.955050e+000	-4.312393e+001
1300261000	-6.252488e+000	-1.179722e+002	8.800382e+000	8.341909e+001	-2.097362e+001	5.235741e+001	-7.796493e+000	-4.390106e+001
1310260700	-6.277972e+000	-1.180499e+002	8.718371e+000	8.231820e+001	-2.093667e+001	5.156770e+001	-7.635954e+000	-4.470330e+001
1320260400	-6.310980e+000	-1.181036e+002	8.645504e+000	8.124175e+001	-2.093194e+001	5.079721e+001	-7.483439e+000	-4.542122e+001
1330260100	-6.332669e+000	-1.181415e+002	8.571658e+000	8.016753e+001	-2.086467e+001	5.008902e+001	-7.325592e+000	-4.610076e+001
1340259800	-6.355798e+000	-1.181449e+002	8.494924e+000	7.908973e+001	-2.086905e+001	4.919329e+001	-7.176996e+000	-4.683779e+001
1350259500	-6.384241e+000	-1.182245e+002	8.421667e+000	7.803020e+001	-2.086969e+001	4.866592e+001	-7.042701e+000	-4.757828e+001
1360259200	-6.402775e+000	-1.182560e+002	8.351647e+000	7.698512e+001	-2.084108e+001	4.793546e+001	-6.905992e+000	-4.829950e+001
1370258900	-6.418783e+000	-1.182558e+002	8.274099e+000	7.598692e+001	-2.083029e+001	4.720914e+001	-6.782857e+000	-4.905173e+001
1380258600	-6.439934e+000	-1.183177e+002	8.195575e+000	7.494199e+001	-2.084222e+001	4.662354e+001	-6.678217e+000	-4.975437e+001
1390258300	-6.451436e+000	-1.183826e+002	8.116285e+000	7.394269e+001	-2.080532e+001	4.583164e+001	-6.571210e+000	-5.047055e+001
1400258000	-6.466997e+000	-1.184478e+002	8.043378e+000	7.297260e+001	-2.082124e+001	4.514462e+001	-6.464306e+000	-5.114304e+001
1410257700	-6.484015e+000	-1.185150e+002	7.960692e+000	7.196587e+001	-2.081019e+001	4.453645e+001	-6.355251e+000	-5.180389e+001
1420257400	-6.499848e+000	-1.185777e+002	7.889432e+000	7.097780e+001	-2.078749e+001	4.389071e+001	-6.264121e+000	-5.250503e+001
1430257100	-6.503354e+000	-1.186566e+002	7.808899e+000	7.006172e+001	-2.080203e+001	4.311520e+001	-6.173791e+000	-5.316147e+001
1440256800	-6.509860e+000	-1.187267e+002	7.729709e+000	6.908580e+001	-2.079369e+001	4.256106e+001	-6.084330e+000	-5.386967e+001
1450256500	-6.510618e+000	-1.187829e+002	7.654267e+000	6.818368e+001	-2.076784e+001	4.208782e+001	-5.990944e+000	-5.453430e+001
1460256200	-6.519312e+000	-1.188825e+002	7.578972e+000	6.723962e+001	-2.076452e+001	4.142156e+001	-5.911510e+000	-5.516639e+001
1470255900	-6.524887e+000	-1.189723e+002	7.499235e+000	6.629727e+001	-2.076040e+001	4.079388e+001	-5.821466e+000	-5.590395e+001
1480255600	-6.526500e+000	-1.190592e+002	7.424021e+000	6.541676e+001	-2.075799e+001	4.028733e+001	-5.743040e+000	-5.652991e+001
1490255300	-6.530942e+000	-1.191277e+002	7.348553e+000	6.451450e+001	-2.073003e+001	3.948458e+001	-5.649620e+000	-5.718719e+001
1500255000	-6.535993e+000	-1.192248e+002	7.268889e+000	6.364792e+001	-2.074041e+001	3.906141e+001	-5.571958e+000	-5.780744e+001
1510254700	-6.532313e+000	-1.192587e+002	7.190917e+000	6.274370e+001	-2.071077e+001	3.853037e+001	-5.486734e+000	-5.839446e+001
1520254400	-6.538573e+000	-1.193252e+002	7.121127e+000	6.188957e+001	-2.071314e+001	3.797467e+001	-5.411587e+000	-5.900522e+001
1530254100	-6.535855e+000	-1.194103e+002	7.040788e+000	6.104336e+001	-2.069510e+001	3.739105e+001	-5.336655e+000	-5.962261e+001
1540253800	-6.526599e+000	-1.195160e+002	6.967096e+000	6.017370e+001	-2.068108e+001	3.680304e+001	-5.275768e+000	-6.020938e+001
1550253500	-6.528336e+000	-1.195543e+002	6.894805e+000	5.933923e+001	-2.068896e+001	3.619858e+001	-5.223271e+000	-6.081624e+001
1560253200	-6.526417e+000	-1.197169e+002	6.821075e+000	5.852941e+001	-2.070807e+001	3.569863e+001	-5.158635e+000	-6.145767e+001
1570252900	-6.523781e+000	-1.197796e+002	6.736593e+000	5.771612e+001	-2.068855e+001	3.517239e+001	-5.105225e+000	-6.198827e+001
1580252600	-6.522091e+000	-1.198668e+002	6.661665e+000	5.689626e+001	-2.066646e+001	3.477892e+001	-5.052815e+000	-6.259807e+001
1590252300	-6.517479e+000	-1.200139e+002	6.596336e+000	5.606108e+001	-2.067120e+001	3.417712e+001	-5.003894e+000	-6.320321e+001
1600252000	-6.514618e+000	-1.201294e+002	6.518371e+000	5.524420e+001	-2.066869e+001	3.379415e+001	-4.956009e+000	-6.378199e+001
1610251700	-6.503173e+000	-1.203042e+002	6.441879e+000	5.446887e+001	-2.066122e+001	3.325725e+001	-4.906530e+000	-6.428660e+001
1620251400	-6.502310e+000	-1.204468e+002	6.366011e+000	5.363532e+001	-2.063943e+001	3.241949e+001	-4.858766e+000	-6.486169e+001
1630251100	-6.498948e+000	-1.205590e+002	6.296378e+000	5.287952e+001	-2.066382e+001	3.209008e+001	-4.800005e+000	-6.544033e+001
1640250800	-6.493046e+000	-1.207007e+002	6.234784e+000	5.210668e+001	-2.066605e+001	3.162290e+001	-4.746259e+000	-6.596135e+001
1650250500	-6.486721e+000	-1.207978e+002	6.148731e+000	5.134759e+001	-2.065548e+001	3.113488e+001	-4.694199e+000	-6.647404e+001
1660250200	-6.472757e+000	-1.208852e+002	6.073309e+000	5.060672e+001	-2.064677e+001	3.065788e+001	-4.636873e+000	-6.699798e+001
1670249900	-6.466316e+000	-1.210439e+002	6.010053e+000	4.982604e+001	-2.062038e+001	3.020652e+001	-4.574632e+000	-6.748176e+001
1680249600	-6.460803e+000	-1.212080e+002	5.936260e+000	4.911114e+001	-2.062439e+001	2.975977e+001	-4.530295e+000	-6.808753e+001
1690249300	-6.457786e+000	-1.213445e+002	5.867078e+000	4.831924e+001	-2.061680e+001	2.945660e+001	-4.490640e+000	-6.859730e+001
1700249000	-6.449586e+000	-1.214870e+002	5.790465e+000	4.761433e+001	-2.062151e+001	2.893682e+001	-4.450931e+000	-6.915036e+001
1710248700	-6.436026e+000	-1.216248e+002	5.721579e+000	4.683765e+001	-2.060782e+001	2.848045e+001	-4.417862e+000	-6.964762e+001
1720248400	-6.432939e+000	-1.217331e+002	5.653308e+000	4.617184e+001	-2.059162e+001	2.796641e+001	-4.376956e+000	-7.011911e+001
1730248100	-6.426289e+000	-1.219344e+002	5.577878e+000	4.539528e+001	-2.060171e+001	2.750402e+001	-4.335463e+000	-7.065077e+001
1740247800	-6.406070e+000	-1.220782e+002	5.512635e+000	4.477239e+001	-2.059112e+001	2.702763e+001	-4.307714e+000	-7.113577e+001
1750247500	-6.401449e+000	-1.222133e+002	5.436099e+000	4.401582e+001	-2.059736e+001	2.676055e+001	-4.279485e+000	-7.165187e+001
1760247200	-6.393651e+000	-1.224133e+002	5.371242e+000	4.327307e+001	-2.058004e+001	2.604097e+001	-4.242624e+000	-7.217788e+001
1770246900	-6.384435e+000	-1.225662e+002	5.302175e+000	4.256028e+001	-2.058018e+001	2.573200e+001	-4.211875e+000	-7.267470e+001
1780246600	-6.372262e+000	-1.226948e+002	5.232069e+000	4.190283e+001	-2.058931e+001	2.534136e+001	-4.174752e+000	-7.318225e+001
1790246300	-6.365539e+000	-1.228548e+002	5.159291e+000	4.120423e+001	-2.056810e+001	2.484217e+001	-4.143159e+000	-7.365077e+001
1800246000	-6.355393e+000	-1.229893e+002	5.089317e+000	4.054651e+001	-2.059683e+001	2.431837e+001	-4.110317e+000	-7.415643e+001
1810245700	-6.340831e+000	-1.231701e+002	5.029755e+000	3.989267e+001	-2.059605e+001	2.406046e+001	-4.068296e+000	-7.461066e+001
1820245400	-6.324645e+000	-1.233802e+002	4.960642e+000	3.916649e+001	-2.054808e+001	2.374330e+001	-4.030993e+000	-7.509736e+001
1830245100	-6.320327e+000	-1.235873e+002	4.883184e+000	3.849319e+001	-2.053306e+001	2.322522e+001	-3.986890e+000	-7.552968e+001
1840244800	-6.314164e+000	-1.237756e+002	4.811821e+000	3.787680e+001	-2.050395e+001	2.269208e+001	-3.949585e+000	-7.593054e+001
1850244500	-6.304332e+000	-1.239667e+002	4.748977e+000	3.719371e+001	-2.055837e+001	2.228655e+001	-3.923459e+000	-7.643352e+001
1860244200	-6.290130e+000	-1.241612e+002	4.683057e+000	3.650877e+001	-2.053983e+001	2.191222e+001	-3.891834e+000	-7.681694e+001
1870243900	-6.284612e+000	-1.242992e+002	4.611770e+000	3.590698e+001	-2.054780e+001	2.160548e+001	-3.870860e+000	-7.727690e+001
1880243600	-6.273503e+000	-1.245267e+002	4.550153e+000	3.524524e+001	-2.055987e+001	2.121951e+001	-3.852219e+000	-7.772925e+001
1890243300	-6.262532e+000	-1.247062e+002	4.478961e+000	3.461575e+001	-2.056536e+001	2.089741e+001	-3.827495e+000	-7.813242e+001
1900243000	-6.242055e+000	-1.249289e+002	4.416209e+000	3.396255e+001	-2.055051e+001	2.046611e+001	-3.812591e+000	-7.861709e+001
1910242700	-6.237578e+000	-1.250657e+002	4.348694e+000	3.335564e+001	-2.055286e+001	2.008178e+001	-3.795022e+000	-7.901671e+001
1920242400	-6.221359e+000	-1.253265e+002	4.288454e+000	3.270664e+001	-2.052247e+001	1.976251e+001	-3.769041e+000	-7.952230e+001
1930242100	-6.206433e+000	-1.255379e+002	4.224232e+000	3.207509e+001	-2.051185e+001	1.931952e+001	-3.756939e+000	-7.996519e+001
1940241800	-6.191808e+000	-1.257384e+002	4.161194e+000	3.147465e+001	-2.050477e+001	1.882670e+001	-3.734820e+000	-8.039620e+001
1950241500	-6.179057e+000	-1.259269e+002	4.087949e+000	3.090157e+001	-2.053385e+001	1.851002e+001	-3.712142e+000	-8.088194e+001
1960241200	-6.178674e+000	-1.261269e+002	4.014853e+000	3.023953e+001	-2.055438e+001	1.798990e+001	-3.682671e+000	-8.134126e+001
1970240900	-6.163107e+000	-1.263238e+002	3.949220e+000	2.965234e+001	-2.054295e+001	1.752686e+001	-3.663674e+000	-8.181245e+001
1980240600	-6.156243e+000	-1.264986e+002	3.899899e+000	2.905452e+001	-2.052694e+001	1.725572e+001	-3.621347e+000	-8.225815e+001
1990240300	-6.136873e+000	-1.267064e+002	3.836552e+000	2.842007e+001	-2.049236e+001	1.706603e+001	-3.562071e+000	-8.272398e+001
2000240000	-6.125031e+000	-1.268532e+002	3.773608e+000	2.783875e+001	-2.050934e+001	1.676107e+001	-3.538382e+000	-8.307565e+001
2010239700	-6.123147e+000	-1.271052e+002	3.709055e+000	2.720540e+001	-2.047134e+001	1.641987e+001	-3.516223e+000	-8.343572e+001
2020239400	-6.107468e+000	-1.273041e+002	3.649595e+000	2.659606e+001	-2.046702e+001	1.615173e+001	-3.509274e+000	-8.385043e+001
2030239100	-6.101469e+000	-1.274946e+002	3.586928e+000	2.602717e+001	-2.045855e+001	1.582447e+001	-3.494365e+000	-8.417321e+001
2040238800	-6.092635e+000	-1.276482e+002	3.520742e+000	2.548140e+001	-2.044503e+001	1.512739e+001	-3.485315e+000	-8.455106e+001
2050238500	-6.073142e+000	-1.279666e+002	3.465482e+000	2.483658e+001	-2.046495e+001	1.494498e+001	-3.472928e+000	-8.499228e+001
2060238200	-6.065784e+000	-1.282182e+002	3.402930e+000	2.425952e+001	-2.045479e+001	1.449154e+001	-3.462623e+000	-8.534890e+001
2070237900	-6.062759e+000	-1.284188e+002	3.340143e+000	2.369048e+001	-2.046538e+001	1.417887e+001	-3.454338e+000	-8.567234e+001
2080237600	-6.050220e+000	-1.287301e+002	3.273430e+000	2.311821e+001	-2.048275e+001	1.362985e+001	-3.444196e+000	-8.611030e+001
2090237300	-6.035852e+000	-1.289348e+002	3.212736e+000	2.258152e+001	-2.050506e+001	1.344195e+001	-3.431111e+000	-8.649145e+001
2100237000	-6.029376e+000	-1.291800e+002	3.151259e+000	2.200813e+001	-2.052855e+001	1.318527e+001	-3.414841e+000	-8.690216e+001
2110236700	-6.015868e+000	-1.294654e+002	3.099332e+000	2.141936e+001	-2.049817e+001	1.286062e+001	-3.402793e+000	-8.732817e+001
2120236400	-6.011214e+000	-1.296260e+002	3.031436e+000	2.090576e+001	-2.049587e+001	1.255857e+001	-3.393553e+000	-8.778405e+001
2130236100	-5.997346e+000	-1.298668e+002	2.972861e+000	2.033649e+001	-2.045765e+001	1.240073e+001	-3.388123e+000	-8.818107e+001
2140235800	-5.981118e+000	-1.300016e+002	2.914275e+000	1.973991e+001	-2.045598e+001	1.175491e+001	-3.362093e+000	-8.858688e+001
2150235500	-5.956514e+000	-1.302933e+002	2.858450e+000	1.915900e+001	-2.044129e+001	1.126429e+001	-3.343778e+000	-8.903524e+001
2160235200	-5.943423e+000	-1.304433e+002	2.790719e+000	1.867700e+001	-2.044433e+001	1.101374e+001	-3.297876e+000	-8.943072e+001
2170234900	-5.938652e+000	-1.306951e+002	2.734590e+000	1.806145e+001	-2.042057e+001	1.075960e+001	-3.261561e+000	-8.975737e+001
2180234600	-5.917945e+000	-1.309468e+002	2.683953e+000	1.758285e+001	-2.041516e+001	1.046773e+001	-3.232767e+000	-9.009495e+001
2190234300	-5.906983e+000	-1.311785e+002	2.617529e+000	1.704709e+001	-2.043473e+001	1.026687e+001	-3.226580e+000	-9.043781e+001
2200234000	-5.900366e+000	-1.314945e+002	2.568819e+000	1.643562e+001	-2.046779e+001	1.004362e+001	-3.215326e+000	-9.078691e+001
2210233700	-5.895356e+000	-1.317075e+002	2.504466e+000	1.591500e+001	-2.046213e+001	9.946545e+000	-3.209358e+000	-9.114238e+001
2220233400	-5.885364e+000	-1.319852e+002	2.443731e+000	1.539981e+001	-2.044235e+001	9.667286e+000	-3.197103e+000	-9.147918e+001
2230233100	-5.884318e+000	-1.322522e+002	2.389270e+000	1.486655e+001	-2.042640e+001	9.412172e+000	-3.199974e+000	-9.189740e+001
2240232800	-5.870450e+000	-1.324369e+002	2.339405e+000	1.437327e+001	-2.038684e+001	9.057115e+000	-3.193224e+000	-9.228114e+001
2250232500	-5.865690e+000	-1.327225e+002	2.285757e+000	1.378311e+001	-2.035035e+001	8.688827e+000	-3.192052e+000	-9.261486e+001
2260232200	-5.847846e+000	-1.329567e+002	2.226140e+000	1.324119e+001	-2.035982e+001	7.871863e+000	-3.196802e+000	-9.294008e+001
2270231900	-5.835724e+000	-1.332631e+002	2.172029e+000	1.271549e+001	-2.036211e+001	7.352541e+000	-3.176408e+000	-9.334814e+001
2280231600	-5.821667e+000	-1.334808e+002	2.112085e+000	1.220552e+001	-2.038420e+001	7.105293e+000	-3.165288e+000	-9.365257e+001
2290231300	-5.811155e+000	-1.338643e+002	2.057375e+000	1.169148e+001	-2.044030e+001	6.708587e+000	-3.156333e+000	-9.412317e+001
2300231000	-5.809513e+000	-1.341477e+002	2.003110e+000	1.109438e+001	-2.042501e+001	6.599697e+000	-3.147211e+000	-9.449516e+001
2310230700	-5.804276e+000	-1.344253e+002	1.949968e+000	1.064248e+001	-2.045970e+001	6.390942e+000	-3.136254e+000	-9.484067e+001
2320230400	-5.800313e+000	-1.346103e+002	1.887186e+000	1.012462e+001	-2.043761e+001	6.101307e+000	-3.108728e+000	-9.519527e+001
2330230100	-5.784699e+000	-1.347977e+002	1.835867e+000	9.679452e+000	-2.041845e+001	6.274782e+000	-3.095529e+000	-9.557612e+001
2340229800	-5.777329e+000	-1.350571e+002	1.781900e+000	9.146559e+000	-2.040047e+001	5.971250e+000	-3.067945e+000	-9.600197e+001
2350229500	-5.776985e+000	-1.353558e+002	1.720937e+000	8.563306e+000	-2.037371e+001	6.004830e+000	-3.056623e+000	-9.635935e+001
2360229200	-5.769983e+000	-1.355844e+002	1.679804e+000	8.106658e+000	-2.031189e+001	5.674643e+000	-3.056036e+000	-9.675448e+001
2370228900	-5.774689e+000	-1.358135e+002	1.621306e+000	7.572857e+000	-2.023791e+001	5.454264e+000	-3.056399e+000	-9.706960e+001
2380228600	-5.761338e+000	-1.360268e+002	1.564803e+000	7.031634e+000	-2.019320e+001	4.545254e+000	-3.058171e+000	-9.735399e+001
2390228300	-5.754348e+000	-1.362307e+002	1.509359e+000	6.550564e+000	-2.021789e+001	3.826157e+000	-3.042173e+000	-9.759673e+001
2400228000	-5.740622e+000	-1.364506e+002	1.469015e+000	6.035816e+000	-2.023809e+001	3.595768e+000	-3.035720e+000	-9.801940e+001
2410227700	-5.720422e+000	-1.367185e+002	1.413582e+000	5.541129e+000	-2.024328e+001	3.143821e+000	-3.027402e+000	-9.833576e+001
2420227400	-5.687783e+000	-1.369201e+002	1.356931e+000	5.074972e+000	-2.025808e+001	2.565305e+000	-3.025071e+000	-9.871030e+001
2430227100	-5.668112e+000	-1.372924e+002	1.309159e+000	4.547942e+000	-2.028362e+001	2.221947e+000	-3.012275e+000	-9.904412e+001
2440226800	-5.655783e+000	-1.376281e+002	1.254763e+000	4.029066e+000	-2.032112e+001	1.923081e+000	-3.009459e+000	-9.940495e+001
2450226500	-5.639914e+000	-1.378829e+002	1.200815e+000	3.565504e+000	-2.030723e+001	1.372369e+000	-3.007975e+000	-9.975477e+001
2460226200	-5.631911e+000	-1.381940e+002	1.146710e+000	3.082892e+000	-2.035052e+001	1.180277e+000	-2.992860e+000	-1.001290e+002
2470225900	-5.620223e+000	-1.385146e+002	1.096416e+000	2.528747e+000	-2.034415e+001	1.075470e+000	-2.983429e+000	-1.004840e+002
2480225600	-5.610831e+000	-1.387313e+002	1.046592e+000	2.042965e+000	-2.033706e+001	8.581283e-001	-2.977831e+000	-1.008114e+002
2490225300	-5.608466e+000	-1.390280e+002	9.868329e-001	1.550146e+000	-2.031032e+001	4.765202e-001	-2.957894e+000	-1.011095e+002
2500225000	-5.595159e+000	-1.394084e+002	9.521775e-001	1.101169e+000	-2.033288e+001	-8.070392e-002	-2.941671e+000	-1.014529e+002
2510224700	-5.603038e+000	-1.396989e+002	8.814169e-001	5.066747e-001	-2.033353e+001	-1.878332e-001	-2.934039e+000	-1.018273e+002
2520224400	-5.600537e+000	-1.400168e+002	8.366467e-001	6.475876e-002	-2.034956e+001	-1.946153e-001	-2.920453e+000	-1.022019e+002
2530224100	-5.593199e+000	-1.402019e+002	7.718354e-001	-3.349558e-001	-2.036838e+001	-3.252953e-001	-2.924712e+000	-1.025645e+002
2540223800	-5.608412e+000	-1.405195e+002	7.210694e-001	-8.553648e-001	-2.036415e+001	-2.436847e-001	-2.920968e+000	-1.028858e+002
2550223500	-5.606662e+000	-1.408319e+002	6.766022e-001	-1.420322e+000	-2.032638e+001	-5.545256e-001	-2.912922e+000	-1.032528e+002
2560223200	-5.589606e+000	-1.410668e+002	6.278388e-001	-1.735228e+000	-2.029461e+001	-6.863254e-001	-2.914614e+000	-1.036307e+002
2570222900	-5.582449e+000	-1.413672e+002	5.775476e-001	-2.245163e+000	-2.025943e+001	-7.414797e-001	-2.923613e+000	-1.039885e+002
2580222600	-5.582257e+000	-1.416896e+002	5.413540e-001	-2.722401e+000	-2.019674e+001	-1.175755e+000	-2.921636e+000	-1.042944e+002
2590222300	-5.569416e+000	-1.418532e+002	4.903773e-001	-3.177881e+000	-2.013680e+001	-1.814672e+000	-2.920011e+000	-1.046073e+002
2600222000	-5.554438e+000	-1.421898e+002	4.455414e-001	-3.653549e+000	-2.010390e+001	-2.271596e+000	-2.914967e+000	-1.048708e+002
2610221700	-5.546655e+000	-1.423285e+002	3.865207e-001	-4.224619e+000	-2.008618e+001	-3.171879e+000	-2.906848e+000	-1.051965e+002
2620221400	-5.520350e+000	-1.427545e+002	3.557839e-001	-4.667381e+000	-2.010756e+001	-3.874854e+000	-2.895011e+000	-1.054759e+002
2630221100	-5.505602e+000	-1.429955e+002	2.978083e-001	-5.210287e+000	-2.018906e+001	-4.438348e+000	-2.889980e+000	-1.058213e+002
2640220800	-5.500379e+000	-1.432184e+002	2.454859e-001	-5.653855e+000	-2.023106e+001	-4.736394e+000	-2.867488e+000	-1.061613e+002
2650220500	-5.502224e+000	-1.434936e+002	1.936634e-001	-6.181592e+000	-2.023885e+001	-4.894102e+000	-2.855439e+000	-1.065463e+002
2660220200	-5.488514e+000	-1.437004e+002	1.467669e-001	-6.610827e+000	-2.024171e+001	-5.284092e+000	-2.856279e+000	-1.068537e+002
2670219900	-5.462514e+000	-1.439870e+002	1.084449e-001	-7.040696e+000	-2.025209e+001	-5.561045e+000	-2.844023e+000	-1.072128e+002
2680219600	-5.459696e+000	-1.442761e+002	5.897302e-002	-7.579110e+000	-2.026881e+001	-5.898408e+000	-2.830837e+000	-1.075618e+002
2690219300	-5.449187e+000	-1.445714e+002	6.670986e-003	-8.016299e+000	-2.029482e+001	-6.052049e+000	-2.827120e+000	-1.079234e+002
2700219000	-5.443307e+000	-1.449812e+002	-4.071831e-002	-8.548574e+000	-2.030405e+001	-6.276970e+000	-2.826018e+000	-1.082382e+002
2710218700	-5.434792e+000	-1.452592e+002	-9.298768e-002	-8.988037e+000	-2.030831e+001	-6.579119e+000	-2.825009e+000	-1.085216e+002
2720218400	-5.435656e+000	-1.456493e+002	-1.371184e-001	-9.434923e+000	-2.034142e+001	-6.629190e+000	-2.825919e+000	-1.088991e+002
2730218100	-5.433298e+000	-1.460229e+002	-2.002073e-001	-9.920097e+000	-2.031893e+001	-6.879873e+000	-2.817757e+000	-1.092769e+002
2740217800	-5.421897e+000	-1.463549e+002	-2.395033e-001	-1.036045e+001	-2.033121e+001	-7.030840e+000	-2.820721e+000	-1.096149e+002
2750217500	-5.423866e+000	-1.466954e+002	-2.868555e-001	-1.088040e+001	-2.034628e+001	-7.111066e+000	-2.816555e+000	-1.099918e+002
2760217200	-5.423113e+000	-1.470429e+002	-3.375396e-001	-1.125635e+001	-2.032926e+001	-7.394823e+000	-2.822343e+000	-1.104113e+002
2770216900	-5.411638e+000	-1.473990e+002	-3.732117e-001	-1.171292e+001	-2.032666e+001	-7.324741e+000	-2.815270e+000	-1.107818e+002
2780216600	-5.413028e+000	-1.476875e+002	-4.235813e-001	-1.224627e+001	-2.027197e+001	-7.714849e+000	-2.817435e+000	-1.111803e+002
2790216300	-5.394796e+000	-1.479210e+002	-4.749171e-001	-1.255570e+001	-2.023412e+001	-7.881813e+000	-2.813973e+000	-1.115603e+002
2800216000	-5.391106e+000	-1.482180e+002	-5.147950e-001	-1.307134e+001	-2.020638e+001	-8.055836e+000	-2.828859e+000	-1.118668e+002
2810215700	-5.372484e+000	-1.485023e+002	-5.426994e-001	-1.347998e+001	-2.014727e+001	-8.599592e+000	-2.825233e+000	-1.121158e+002
2820215400	-5.377215e+000	-1.487536e+002	-5.882837e-001	-1.399079e+001	-2.009023e+001	-9.286263e+000	-2.824998e+000	-1.123054e+002
2830215100	-5.360198e+000	-1.490227e+002	-6.342470e-001	-1.440832e+001	-2.009289e+001	-1.001087e+001	-2.802615e+000	-1.126115e+002
2840214800	-5.336756e+000	-1.493329e+002	-6.777891e-001	-1.494195e+001	-2.013219e+001	-1.044823e+001	-2.792646e+000	-1.128667e+002
2850214500	-5.334335e+000	-1.496812e+002	-7.116612e-001	-1.539964e+001	-2.016685e+001	-1.099258e+001	-2.787651e+000	-1.131771e+002
2860214200	-5.331460e+000	-1.499668e+002	-7.699106e-001	-1.587816e+001	-2.017434e+001	-1.153720e+001	-2.772179e+000	-1.135592e+002
2870213900	-5.330394e+000	-1.503338e+002	-8.205343e-001	-1.640296e+001	-2.024356e+001	-1.168864e+001	-2.761719e+000	-1.138741e+002
2880213600	-5.324882e+000	-1.506326e+002	-8.556224e-001	-1.687953e+001	-2.025851e+001	-1.190492e+001	-2.752930e+000	-1.142231e+002
2890213300	-5.316261e+000	-1.509779e+002	-9.167659e-001	-1.728517e+001	-2.022741e+001	-1.232278e+001	-2.747362e+000	-1.146628e+002
2900213000	-5.317337e+000	-1.513137e+002	-9.643580e-001	-1.775003e+001	-2.023979e+001	-1.246054e+001	-2.744299e+000	-1.150404e+002
2910212700	-5.318214e+000	-1.515900e+002	-1.011516e+000	-1.820805e+001	-2.024923e+001	-1.272128e+001	-2.746701e+000	-1.154237e+002
2920212400	-5.302932e+000	-1.518970e+002	-1.057076e+000	-1.867433e+001	-2.025639e+001	-1.303623e+001	-2.746429e+000	-1.158694e+002
2930212100	-5.294779e+000	-1.522808e+002	-1.098941e+000	-1.918465e+001	-2.026862e+001	-1.343179e+001	-2.747144e+000	-1.162424e+002
2940211800	-5.285645e+000	-1.525988e+002	-1.150282e+000	-1.962531e+001	-2.031114e+001	-1.351367e+001	-2.741959e+000	-1.165849e+002
2950211500	-5.265235e+000	-1.529017e+002	-1.206166e+000	-2.001786e+001	-2.031594e+001	-1.404756e+001	-2.747845e+000	-1.169517e+002
2960211200	-5.248805e+000	-1.532228e+002	-1.244012e+000	-2.038508e+001	-2.033386e+001	-1.431828e+001	-2.742768e+000	-1.172983e+002
2970210900	-5.246244e+000	-1.535024e+002	-1.291252e+000	-2.088364e+001	-2.031122e+001	-1.421273e+001	-2.740706e+000	-1.177257e+002
2980210600	-5.227651e+000	-1.539226e+002	-1.322111e+000	-2.134752e+001	-2.032539e+001	-1.440012e+001	-2.729684e+000	-1.180386e+002
2990210300	-5.220289e+000	-1.541323e+002	-1.369131e+000	-2.178392e+001	-2.032248e+001	-1.489697e+001	-2.734623e+000	-1.183562e+002
3000210000	-5.210167e+000	-1.545233e+002	-1.412306e+000	-2.225881e+001	-2.030898e+001	-1.511164e+001	-2.727760e+000	-1.186720e+002
3010209700	-5.202918e+000	-1.548396e+002	-1.459754e+000	-2.271680e+001	-2.032311e+001	-1.538301e+001	-2.734768e+000	-1.190075e+002
3020209400	-5.195384e+000	-1.552036e+002	-1.499818e+000	-2.312883e+001	-2.029918e+001	-1.565064e+001	-2.734491e+000	-1.193853e+002
3030209100	-5.199144e+000	-1.555734e+002	-1.553427e+000	-2.361091e+001	-2.028932e+001	-1.576306e+001	-2.736073e+000	-1.196984e+002
3040208800	-5.192063e+000	-1.558533e+002	-1.595924e+000	-2.397843e+001	-2.024909e+001	-1.614982e+001	-2.745727e+000	-1.199379e+002
3050208500	-5.188792e+000	-1.561730e+002	-1.644044e+000	-2.439404e+001	-2.022186e+001	-1.665979e+001	-2.736127e+000	-1.201838e+002
3060208200	-5.186914e+000	-1.565668e+002	-1.679812e+000	-2.490485e+001	-2.019986e+001	-1.736207e+001	-2.727010e+000	-1.205409e+002
3070207900	-5.183509e+000	-1.569842e+002	-1.733457e+000	-2.541370e+001	-2.027027e+001	-1.764928e+001	-2.712732e+000	-1.208455e+002
3080207600	-5.168303e+000	-1.573631e+002	-1.777080e+000	-2.582874e+001	-2.029835e+001	-1.816275e+001	-2.705532e+000	-1.212763e+002
3090207300	-5.164495e+000	-1.577391e+002	-1.805974e+000	-2.630135e+001	-2.030967e+001	-1.824910e+001	-2.702020e+000	-1.216693e+002
3100207000	-5.154716e+000	-1.580652e+002	-1.868835e+000	-2.673731e+001	-2.033877e+001	-1.854659e+001	-2.707516e+000	-1.220230e+002
3110206700	-5.148229e+000	-1.583757e+002	-1.908799e+000	-2.723635e+001	-2.035048e+001	-1.876411e+001	-2.695320e+000	-1.224313e+002
3120206400	-5.145499e+000	-1.587806e+002	-1.961365e+000	-2.764316e+001	-2.036672e+001	-1.907701e+001	-2.697527e+000	-1.228263e+002
3130206100	-5.130810e+000	-1.590573e+002	-2.006979e+000	-2.804944e+001	-2.038071e+001	-1.909856e+001	-2.685223e+000	-1.232108e+002
3140205800	-5.132288e+000	-1.593553e+002	-2.042086e+000	-2.846794e+001	-2.037554e+001	-1.939568e+001	-2.689255e+000	-1.235928e+002
3150205500	-5.138473e+000	-1.596466e+002	-2.087603e+000	-2.898482e+001	-2.036491e+001	-1.971873e+001	-2.684049e+000	-1.239881e+002
3160205200	-5.134775e+000	-1.598565e+002	-2.131555e+000	-2.943519e+001	-2.034840e+001	-2.000091e+001	-2.682174e+000	-1.243024e+002
3170204900	-5.109733e+000	-1.600538e+002	-2.172411e+000	-2.981495e+001	-2.034866e+001	-2.058871e+001	-2.680387e+000	-1.246657e+002
3180204600	-5.098889e+000	-1.604093e+002	-2.213063e+000	-3.026502e+001	-2.037063e+001	-2.099326e+001	-2.680817e+000	-1.250380e+002
3190204300	-5.084780e+000	-1.607458e+002	-2.263678e+000	-3.075311e+001	-2.038359e+001	-2.114511e+001	-2.676198e+000	-1.253043e+002
3200204000	-5.073082e+000	-1.610722e+002	-2.311675e+000	-3.117129e+001	-2.040811e+001	-2.179299e+001	-2.673711e+000	-1.256909e+002
3210203700	-5.068638e+000	-1.614868e+002	-2.344695e+000	-3.165883e+001	-2.040772e+001	-2.165169e+001	-2.666867e+000	-1.260697e+002
3220203400	-5.056309e+000	-1.618644e+002	-2.388041e+000	-3.208943e+001	-2.042081e+001	-2.194455e+001	-2.662901e+000	-1.264536e+002
3230203100	-5.051237e+000	-1.622939e+002	-2.435882e+000	-3.255574e+001	-2.041344e+001	-2.216636e+001	-2.667520e+000	-1.268292e+002
3240202800	-5.035478e+000	-1.627316e+002	-2.486019e+000	-3.292824e+001	-2.045474e+001	-2.248715e+001	-2.673341e+000	-1.272454e+002
3250202500	-5.039768e+000	-1.631227e+002	-2.535995e+000	-3.341410e+001	-2.047045e+001	-2.264914e+001	-2.673013e+000	-1.275840e+002
3260202200	-5.018409e+000	-1.634569e+002	-2.586009e+000	-3.379295e+001	-2.048523e+001	-2.263011e+001	-2.682303e+000	-1.279240e+002
3270201900	-5.001600e+000	-1.639427e+002	-2.619500e+000	-3.413367e+001	-2.047088e+001	-2.291363e+001	-2.691019e+000	-1.283002e+002
3280201600	-5.002781e+000	-1.642890e+002	-2.666934e+000	-3.471206e+001	-2.046434e+001	-2.329731e+001	-2.685899e+000	-1.285993e+002
3290201300	-4.993121e+000	-1.646299e+002	-2.704295e+000	-3.513934e+001	-2.046635e+001	-2.373008e+001	-2.668857e+000	-1.289060e+002
3300201000	-4.987838e+000	-1.649874e+002	-2.753885e+000	-3.559568e+001	-2.049727e+001	-2.399338e+001	-2.661779e+000	-1.292869e+002
3310200700	-4.972982e+000	-1.653236e+002	-2.787316e+000	-3.605344e+001	-2.050659e+001	-2.460791e+001	-2.645298e+000	-1.296873e+002
3320200400	-4.976750e+000	-1.656328e+002	-2.841167e+000	-3.646385e+001	-2.050274e+001	-2.450883e+001	-2.643515e+000	-1.300800e+002
3330200100	-4.976892e+000	-1.659658e+002	-2.883489e+000	-3.687974e+001	-2.049569e+001	-2.489001e+001	-2.639331e+000	-1.304177e+002
3340199800	-4.965849e+000	-1.662677e+002	-2.915146e+000	-3.725949e+001	-2.047419e+001	-2.482710e+001	-2.644130e+000	-1.307561e+002
3350199500	-4.964031e+000	-1.664957e+002	-2.965323e+000	-3.769788e+001	-2.045402e+001	-2.547055e+001	-2.640727e+000	-1.311314e+002
3360199200	-4.959786e+000	-1.668097e+002	-3.008927e+000	-3.813623e+001	-2.044139e+001	-2.569898e+001	-2.636253e+000	-1.314068e+002
3370198900	-4.946182e+000	-1.670958e+002	-3.053736e+000	-3.856943e+001	-2.043229e+001	-2.616605e+001	-2.619562e+000	-1.318011e+002
3380198600	-4.944230e+000	-1.674810e+002	-3.099759e+000	-3.894174e+001	-2.046020e+001	-2.651372e+001	-2.613281e+000	-1.321334e+002
3390198300	-4.937713e+000	-1.678128e+002	-3.141632e+000	-3.947524e+001	-2.047692e+001	-2.679885e+001	-2.614766e+000	-1.324789e+002
3400198000	-4.939559e+000	-1.681810e+002	-3.182645e+000	-3.985491e+001	-2.049681e+001	-2.723262e+001	-2.608205e+000	-1.329407e+002
3410197700	-4.938805e+000	-1.684910e+002	-3.232104e+000	-4.036265e+001	-2.051237e+001	-2.750469e+001	-2.618294e+000	-1.333213e+002
3420197400	-4.911632e+000	-1.688316e+002	-3.262088e+000	-4.076136e+001	-2.053655e+001	-2.771493e+001	-2.622435e+000	-1.337026e+002
3430197100	-4.896134e+000	-1.692074e+002	-3.316843e+000	-4.128163e+001	-2.056823e+001	-2.808893e+001	-2.625042e+000	-1.340848e+002
3440196800	-4.876714e+000	-1.696363e+002	-3.361058e+000	-4.176513e+001	-2.062448e+001	-2.854513e+001	-2.624515e+000	-1.345439e+002
3450196500	-4.855587e+000	-1.700031e+002	-3.412562e+000	-4.222654e+001	-2.062728e+001	-2.871388e+001	-2.620060e+000	-1.349581e+002
3460196200	-4.838474e+000	-1.704211e+002	-3.465838e+000	-4.262789e+001	-2.064820e+001	-2.903705e+001	-2.618071e+000	-1.353502e+002
3470195900	-4.831248e+000	-1.708058e+002	-3.515528e+000	-4.306759e+001	-2.067400e+001	-2.934308e+001	-2.625792e+000	-1.358033e+002
3480195600	-4.817557e+000	-1.711687e+002	-3.562402e+000	-4.342450e+001	-2.070906e+001	-2.946753e+001	-2.627558e+000	-1.361571e+002
3490195300	-4.809903e+000	-1.715366e+002	-3.626632e+000	-4.386756e+001	-2.074142e+001	-2.965676e+001	-2.633593e+000	-1.365051e+002
3500195000	-4.808043e+000	-1.718835e+002	-3.658081e+000	-4.422770e+001	-2.075515e+001	-2.971304e+001	-2.630366e+000	-1.368761e+002
3510194700	-4.811467e+000	-1.722897e+002	-3.703037e+000	-4.460749e+001	-2.073402e+001	-2.962597e+001	-2.623355e+000	-1.371560e+002
3520194400	-4.804508e+000	-1.725727e+002	-3.747432e+000	-4.494205e+001	-2.067514e+001	-2.960743e+001	-2.606112e+000	-1.375332e+002
3530194100	-4.804456e+000	-1.729026e+002	-3.784566e+000	-4.532535e+001	-2.062688e+001	-2.978256e+001	-2.587817e+000	-1.378841e+002
3540193800	-4.811715e+000	-1.731117e+002	-3.828873e+000	-4.576398e+001	-2.058139e+001	-3.004676e+001	-2.581016e+000	-1.382067e+002
3550193500	-4.807452e+000	-1.734893e+002	-3.864201e+000	-4.614641e+001	-2.058841e+001	-3.058674e+001	-2.575156e+000	-1.384270e+002
3560193200	-4.805284e+000	-1.737833e+002	-3.902769e+000	-4.664421e+001	-2.053435e+001	-3.099965e+001	-2.586202e+000	-1.387814e+002
3570192900	-4.786861e+000	-1.741203e+002	-3.939601e+000	-4.709136e+001	-2.058740e+001	-3.158476e+001	-2.584284e+000	-1.390892e+002
3580192600	-4.773667e+000	-1.744672e+002	-3.980347e+000	-4.757656e+001	-2.062913e+001	-3.221068e+001	-2.584602e+000	-1.394871e+002
3590192300	-4.753950e+000	-1.749124e+002	-4.029053e+000	-4.804152e+001	-2.065013e+001	-3.263190e+001	-2.582932e+000	-1.398821e+002
3600192000	-4.722398e+000	-1.752693e+002	-4.072451e+000	-4.846689e+001	-2.069956e+001	-3.294601e+001	-2.574363e+000	-1.403041e+002
3610191700	-4.718734e+000	-1.756843e+002	-4.131973e+000	-4.897797e+001	-2.078146e+001	-3.348210e+001	-2.578511e+000	-1.407400e+002
3620191400	-4.705225e+000	-1.760433e+002	-4.185694e+000	-4.940908e+001	-2.080348e+001	-3.340980e+001	-2.581178e+000	-1.411971e+002
3630191100	-4.694734e+000	-1.763923e+002	-4.223732e+000	-4.984434e+001	-2.082862e+001	-3.382572e+001	-2.573847e+000	-1.416457e+002
3640190800	-4.680185e+000	-1.767285e+002	-4.268825e+000	-5.018409e+001	-2.082993e+001	-3.416383e+001	-2.571483e+000	-1.420463e+002
3650190500	-4.664218e+000	-1.771168e+002	-4.329869e+000	-5.057180e+001	-2.083577e+001	-3.429546e+001	-2.569192e+000	-1.424816e+002
3660190200	-4.662368e+000	-1.774061e+002	-4.371028e+000	-5.101367e+001	-2.087119e+001	-3.452441e+001	-2.569264e+000	-1.428462e+002
3670189900	-4.654478e+000	-1.777388e+002	-4.423420e+000	-5.144663e+001	-2.087405e+001	-3.463119e+001	-2.569380e+000	-1.432248e+002
3680189600	-4.648017e+000	-1.780455e+002	-4.469868e+000	-5.186603e+001	-2.087619e+001	-3.505039e+001	-2.553495e+000	-1.436274e+002
3690189300	-4.632880e+000	-1.784271e+002	-4.522657e+000	-5.223944e+001	-2.084899e+001	-3.522569e+001	-2.551998e+000	-1.440180e+002
3700189000	-4.636951e+000	-1.787728e+002	-4.582002e+000	-5.264180e+001	-2.090191e+001	-3.498907e+001	-2.529527e+000	-1.443347e+002
3710188700	-4.630325e+000	-1.792225e+002	-4.631184e+000	-5.300152e+001	-2.093400e+001	-3.495270e+001	-2.531121e+000	-1.446195e+002
3720188400	-4.623163e+000	-1.796246e+002	-4.678351e+000	-5.333097e+001	-2.095142e+001	-3.477515e+001	-2.534950e+000	-1.449552e+002
3730188100	-4.632943e+000	1.799719e+002	-4.711632e+000	-5.369321e+001	-2.094332e+001	-3.470375e+001	-2.549866e+000	-1.453434e+002
3740187800	-4.634414e+000	1.796461e+002	-4.751020e+000	-5.405629e+001	-2.088189e+001	-3.486567e+001	-2.553462e+000	-1.456606e+002
3750187500	-4.619528e+000	1.793530e+002	-4.785684e+000	-5.428139e+001	-2.082059e+001	-3.528811e+001	-2.563481e+000	-1.459856e+002
3760187200	-4.618707e+000	1.790773e+002	-4.825289e+000	-5.475999e+001	-2.079329e+001	-3.577416e+001	-2.568737e+000	-1.463509e+002
3770186900	-4.593469e+000	1.787701e+002	-4.860238e+000	-5.524119e+001	-2.078034e+001	-3.640594e+001	-2.573546e+000	-1.466416e+002
3780186600	-4.582639e+000	1.784337e+002	-4.895273e+000	-5.569724e+001	-2.076346e+001	-3.708884e+001	-2.571192e+000	-1.470827e+002
3790186300	-4.568525e+000	1.782043e+002	-4.939957e+000	-5.617862e+001	-2.078955e+001	-3.748986e+001	-2.567858e+000	-1.474300e+002
3800186000	-4.536537e+000	1.779410e+002	-4.979758e+000	-5.663265e+001	-2.080144e+001	-3.851423e+001	-2.555616e+000	-1.478309e+002
3810185700	-4.512611e+000	1.775917e+002	-5.025498e+000	-5.719914e+001	-2.086062e+001	-3.918608e+001	-2.540871e+000	-1.482040e+002
3820185400	-4.485777e+000	1.772498e+002	-5.081433e+000	-5.760674e+001	-2.094540e+001	-3.956103e+001	-2.526892e+000	-1.485675e+002
3830185100	-4.466877e+000	1.768795e+002	-5.139545e+000	-5.801886e+001	-2.100661e+001	-3.990298e+001	-2.511203e+000	-1.489983e+002
3840184800	-4.452846e+000	1.764790e+002	-5.192370e+000	-5.843235e+001	-2.102560e+001	-4.011014e+001	-2.495941e+000	-1.494154e+002
3850184500	-4.452032e+000	1.761725e+002	-5.258249e+000	-5.882951e+001	-2.105741e+001	-3.997494e+001	-2.478655e+000	-1.498219e+002
3860184200	-4.447085e+000	1.757724e+002	-5.304332e+000	-5.921462e+001	-2.107701e+001	-3.982288e+001	-2.459606e+000	-1.502343e+002
3870183900	-4.446807e+000	1.753707e+002	-5.369316e+000	-5.969540e+001	-2.111600e+001	-3.977757e+001	-2.455066e+000	-1.506295e+002
3880183600	-4.447069e+000	1.750219e+002	-5.418259e+000	-6.004068e+001	-2.117520e+001	-3.997852e+001	-2.455047e+000	-1.509586e+002
3890183300	-4.443640e+000	1.745595e+002	-5.474518e+000	-6.039369e+001	-2.121822e+001	-4.006988e+001	-2.472772e+000	-1.513049e+002
3900183000	-4.440507e+000	1.741835e+002	-5.528366e+000	-6.075207e+001	-2.123255e+001	-4.002125e+001	-2.479429e+000	-1.516273e+002
3910182700	-4.447709e+000	1.738032e+002	-5.583556e+000	-6.108202e+001	-2.126522e+001	-3.977286e+001	-2.488233e+000	-1.519888e+002
3920182400	-4.433402e+000	1.734352e+002	-5.626702e+000	-6.129564e+001	-2.126862e+001	-3.979278e+001	-2.502751e+000	-1.523549e+002
3930182100	-4.428862e+000	1.731021e+002	-5.688850e+000	-6.167498e+001	-2.129831e+001	-3.972360e+001	-2.500695e+000	-1.527661e+002
3940181800	-4.417958e+000	1.727135e+002	-5.727037e+000	-6.197567e+001	-2.127642e+001	-3.964854e+001	-2.504748e+000	-1.531639e+002
3950181500	-4.406834e+000	1.723607e+002	-5.764366e+000	-6.234493e+001	-2.121673e+001	-3.956030e+001	-2.512708e+000	-1.535502e+002
3960181200	-4.410269e+000	1.721298e+002	-5.800801e+000	-6.253511e+001	-2.112691e+001	-3.967028e+001	-2.517172e+000	-1.539449e+002
3970180900	-4.406889e+000	1.718620e+002	-5.827131e+000	-6.286692e+001	-2.100986e+001	-4.025491e+001	-2.529959e+000	-1.542318e+002
3980180600	-4.393647e+000	1.716924e+002	-5.845771e+000	-6.329043e+001	-2.090710e+001	-4.098847e+001	-2.516062e+000	-1.545349e+002
3990180300	-4.369893e+000	1.715526e+002	-5.881209e+000	-6.369676e+001	-2.086846e+001	-4.201548e+001	-2.512273e+000	-1.548160e+002
4000180000	-4.352683e+000	1.713196e+002	-5.920785e+000	-6.420346e+001	-2.084555e+001	-4.309216e+001	-2.494581e+000	-1.551306e+002
4010179700	-4.338757e+000	1.710980e+002	-5.964238e+000	-6.471626e+001	-2.087209e+001	-4.362886e+001	-2.469734e+000	-1.554595e+002
4020179400	-4.320062e+000	1.708563e+002	-5.997607e+000	-6.521998e+001	-2.086636e+001	-4.444063e+001	-2.450206e+000	-1.557894e+002
4030179100	-4.290889e+000	1.706122e+002	-6.047989e+000	-6.569758e+001	-2.093182e+001	-4.487072e+001	-2.432973e+000	-1.561157e+002
4040178800	-4.275251e+000	1.702417e+002	-6.105401e+000	-6.627544e+001	-2.105664e+001	-4.563426e+001	-2.419000e+000	-1.564502e+002
4050178500	-4.256177e+000	1.698700e+002	-6.170418e+000	-6.675126e+001	-2.117541e+001	-4.572569e+001	-2.407193e+000	-1.567467e+002
4060178200	-4.231774e+000	1.694096e+002	-6.236162e+000	-6.712791e+001	-2.129502e+001	-4.611090e+001	-2.401601e+000	-1.571146e+002
4070177900	-4.227427e+000	1.689823e+002	-6.291495e+000	-6.760763e+001	-2.141133e+001	-4.604477e+001	-2.407757e+000	-1.575080e+002
4080177600	-4.210844e+000	1.686026e+002	-6.370527e+000	-6.797174e+001	-2.153873e+001	-4.603971e+001	-2.408834e+000	-1.578601e+002
4090177300	-4.197415e+000	1.681636e+002	-6.431610e+000	-6.831805e+001	-2.154704e+001	-4.600152e+001	-2.411531e+000	-1.583102e+002
4100177000	-4.189879e+000	1.676929e+002	-6.483899e+000	-6.864276e+001	-2.164021e+001	-4.577932e+001	-2.412825e+000	-1.587677e+002
4110176700	-4.182240e+000	1.672582e+002	-6.558344e+000	-6.905389e+001	-2.167960e+001	-4.555935e+001	-2.410131e+000	-1.591320e+002
4120176400	-4.173934e+000	1.668533e+002	-6.617565e+000	-6.931475e+001	-2.171629e+001	-4.531479e+001	-2.415046e+000	-1.595553e+002
4130176100	-4.173609e+000	1.664887e+002	-6.684029e+000	-6.948229e+001	-2.171774e+001	-4.505607e+001	-2.410698e+000	-1.599386e+002
4140175800	-4.175868e+000	1.661428e+002	-6.731289e+000	-6.961947e+001	-2.165791e+001	-4.435043e+001	-2.406749e+000	-1.603782e+002
4150175500	-4.190066e+000	1.657984e+002	-6.781506e+000	-6.989856e+001	-2.159101e+001	-4.424112e+001	-2.415811e+000	-1.607849e+002
4160175200	-4.193073e+000	1.655908e+002	-6.824396e+000	-6.997758e+001	-2.147839e+001	-4.396309e+001	-2.418407e+000	-1.611012e+002
4170174900	-4.203113e+000	1.654197e+002	-6.851173e+000	-7.024397e+001	-2.129497e+001	-4.413896e+001	-2.423987e+000	-1.614238e+002
4180174600	-4.202847e+000	1.652912e+002	-6.851524e+000	-7.037630e+001	-2.111091e+001	-4.447689e+001	-2.428417e+000	-1.616604e+002
4190174300	-4.211836e+000	1.652521e+002	-6.868873e+000	-7.075786e+001	-2.095519e+001	-4.535426e+001	-2.418526e+000	-1.618362e+002
4200174000	-4.184870e+000	1.651825e+002	-6.873727e+000	-7.124503e+001	-2.089792e+001	-4.650108e+001	-2.405566e+000	-1.620052e+002
4210173700	-4.156094e+000	1.650631e+002	-6.898056e+000	-7.184545e+001	-2.091655e+001	-4.772715e+001	-2.391015e+000	-1.622032e+002
4220173400	-4.126038e+000	1.646997e+002	-6.935751e+000	-7.242191e+001	-2.101383e+001	-4.912315e+001	-2.377911e+000	-1.624635e+002
4230173100	-4.100736e+000	1.644130e+002	-7.006783e+000	-7.296774e+001	-2.116613e+001	-4.967571e+001	-2.367049e+000	-1.627370e+002
4240172800	-4.072380e+000	1.640232e+002	-7.053644e+000	-7.342017e+001	-2.124014e+001	-5.023418e+001	-2.362127e+000	-1.631253e+002
4250172500	-4.054829e+000	1.637254e+002	-7.100585e+000	-7.390913e+001	-2.133629e+001	-5.070707e+001	-2.360497e+000	-1.634228e+002
4260172200	-4.018905e+000	1.633737e+002	-7.144812e+000	-7.443486e+001	-2.138884e+001	-5.167230e+001	-2.364349e+000	-1.637748e+002
4270171900	-3.993321e+000	1.629976e+002	-7.209609e+000	-7.500250e+001	-2.151031e+001	-5.180827e+001	-2.351668e+000	-1.641266e+002
4280171600	-3.961974e+000	1.626189e+002	-7.272110e+000	-7.549011e+001	-2.161870e+001	-5.258368e+001	-2.340341e+000	-1.645095e+002
4290171300	-3.947833e+000	1.621902e+002	-7.356235e+000	-7.591370e+001	-2.177349e+001	-5.295252e+001	-2.331857e+000	-1.648863e+002
4300171000	-3.922221e+000	1.618087e+002	-7.420068e+000	-7.626066e+001	-2.185360e+001	-5.272703e+001	-2.316736e+000	-1.653196e+002
4310170700	-3.918857e+000	1.614553e+002	-7.503414e+000	-7.662707e+001	-2.195828e+001	-5.250637e+001	-2.295478e+000	-1.657154e+002
4320170400	-3.904931e+000	1.610717e+002	-7.591006e+000	-7.690708e+001	-2.200473e+001	-5.219624e+001	-2.287252e+000	-1.661206e+002
4330170100	-3.891419e+000	1.607172e+002	-7.665329e+000	-7.710359e+001	-2.205468e+001	-5.172004e+001	-2.274038e+000	-1.665469e+002
4340169800	-3.885989e+000	1.603182e+002	-7.741229e+000	-7.731524e+001	-2.210033e+001	-5.101490e+001	-2.257666e+000	-1.669287e+002
4350169500	-3.895602e+000	1.599275e+002	-7.799202e+000	-7.753228e+001	-2.206971e+001	-4.998302e+001	-2.257082e+000	-1.672565e+002
4360169200	-3.917076e+000	1.595446e+002	-7.876984e+000	-7.759104e+001	-2.205379e+001	-4.918355e+001	-2.263230e+000	-1.675508e+002
4370168900	-3.940796e+000	1.592506e+002	-7.932587e+000	-7.756661e+001	-2.194133e+001	-4.800644e+001	-2.280429e+000	-1.678643e+002
4380168600	-3.979354e+000	1.590454e+002	-7.946692e+000	-7.761325e+001	-2.173226e+001	-4.775965e+001	-2.305739e+000	-1.680893e+002
4390168300	-3.999028e+000	1.589269e+002	-7.942085e+000	-7.758661e+001	-2.152719e+001	-4.836396e+001	-2.329058e+000	-1.682688e+002
4400168000	-3.998268e+000	1.589259e+002	-7.929267e+000	-7.790804e+001	-2.133044e+001	-4.949697e+001	-2.337972e+000	-1.683948e+002
4410167700	-3.974068e+000	1.588556e+002	-7.894917e+000	-7.838223e+001	-2.124395e+001	-5.119297e+001	-2.343872e+000	-1.685056e+002
4420167400	-3.937840e+000	1.587256e+002	-7.912708e+000	-7.902980e+001	-2.125808e+001	-5.298956e+001	-2.326163e+000	-1.687451e+002
4430167100	-3.888927e+000	1.585185e+002	-7.945487e+000	-7.975467e+001	-2.136769e+001	-5.436762e+001	-2.308590e+000	-1.690291e+002
4440166800	-3.852742e+000	1.581964e+002	-8.006370e+000	-8.034215e+001	-2.147530e+001	-5.531167e+001	-2.286073e+000	-1.693643e+002
4450166500	-3.821862e+000	1.579086e+002	-8.076746e+000	-8.083832e+001	-2.157532e+001	-5.605520e+001	-2.272001e+000	-1.697949e+002
4460166200	-3.795633e+000	1.575566e+002	-8.146565e+000	-8.133119e+001	-2.166577e+001	-5.612560e+001	-2.261581e+000	-1.701739e+002
4470165900	-3.767558e+000	1.573070e+002	-8.199313e+000	-8.163223e+001	-2.173400e+001	-5.666275e+001	-2.251516e+000	-1.704831e+002
4480165600	-3.744883e+000	1.570309e+002	-8.250471e+000	-8.212175e+001	-2.175667e+001	-5.717236e+001	-2.234549e+000	-1.708066e+002
4490165300	-3.720326e+000	1.567397e+002	-8.314535e+000	-8.257341e+001	-2.181699e+001	-5.777430e+001	-2.205642e+000	-1.710536e+002
4500165000	-3.693496e+000	1.564548e+002	-8.374618e+000	-8.308349e+001	-2.189507e+001	-5.811884e+001	-2.179740e+000	-1.713537e+002
4510164700	-3.674983e+000	1.561155e+002	-8.450839e+000	-8.354492e+001	-2.201215e+001	-5.816307e+001	-2.160162e+000	-1.716306e+002
4520164400	-3.664596e+000	1.557033e+002	-8.530004e+000	-8.393959e+001	-2.212353e+001	-5.825497e+001	-2.156812e+000	-1.719129e+002
4530164100	-3.659578e+000	1.553756e+002	-8.610383e+000	-8.434256e+001	-2.230869e+001	-5.862786e+001	-2.151133e+000	-1.721718e+002
4540163800	-3.649640e+000	1.550727e+002	-8.696944e+000	-8.465034e+001	-2.246524e+001	-5.812729e+001	-2.149016e+000	-1.725015e+002
4550163500	-3.646541e+000	1.547216e+002	-8.801575e+000	-8.482764e+001	-2.255890e+001	-5.746155e+001	-2.152332e+000	-1.728522e+002
4560163200	-3.649582e+000	1.543234e+002	-8.872685e+000	-8.497609e+001	-2.265121e+001	-5.659496e+001	-2.152873e+000	-1.732146e+002
4570162900	-3.652871e+000	1.539757e+002	-8.956180e+000	-8.502873e+001	-2.265089e+001	-5.563685e+001	-2.167316e+000	-1.735692e+002
4580162600	-3.667932e+000	1.536287e+002	-9.021064e+000	-8.491492e+001	-2.257034e+001	-5.457092e+001	-2.190063e+000	-1.739918e+002
4590162300	-3.687062e+000	1.532887e+002	-9.049105e+000	-8.479649e+001	-2.237970e+001	-5.393219e+001	-2.210077e+000	-1.742610e+002
4600162000	-3.699265e+000	1.531620e+002	-9.045986e+000	-8.470025e+001	-2.210803e+001	-5.404742e+001	-2.233406e+000	-1.744857e+002
4610161700	-3.700718e+000	1.530834e+002	-9.021118e+000	-8.500726e+001	-2.190794e+001	-5.509247e+001	-2.242025e+000	-1.746636e+002
4620161400	-3.685170e+000	1.530358e+002	-9.003846e+000	-8.544859e+001	-2.178958e+001	-5.651297e+001	-2.234784e+000	-1.747946e+002
4630161100	-3.648803e+000	1.529328e+002	-9.015184e+000	-8.598362e+001	-2.176639e+001	-5.812109e+001	-2.194976e+000	-1.749193e+002
4640160800	-3.617899e+000	1.528165e+002	-9.045809e+000	-8.657334e+001	-2.182493e+001	-5.927563e+001	-2.161621e+000	-1.750846e+002
4650160500	-3.580375e+000	1.526374e+002	-9.099108e+000	-8.727296e+001	-2.191535e+001	-6.025359e+001	-2.127728e+000	-1.753502e+002
4660160200	-3.547850e+000	1.524212e+002	-9.159268e+000	-8.784638e+001	-2.206349e+001	-6.084238e+001	-2.106749e+000	-1.756166e+002
4670159900	-3.519064e+000	1.521492e+002	-9.226164e+000	-8.821512e+001	-2.216274e+001	-6.116344e+001	-2.085685e+000	-1.759091e+002
4680159600	-3.509276e+000	1.518657e+002	-9.300363e+000	-8.867949e+001	-2.227618e+001	-6.149510e+001	-2.076759e+000	-1.762076e+002
4690159300	-3.488078e+000	1.515817e+002	-9.384813e+000	-8.899016e+001	-2.236859e+001	-6.146632e+001	-2.076213e+000	-1.765002e+002
4700159000	-3.478098e+000	1.513101e+002	-9.432710e+000	-8.925840e+001	-2.241346e+001	-6.170822e+001	-2.082062e+000	-1.767594e+002
4710158700	-3.468747e+000	1.510694e+002	-9.483513e+000	-8.963235e+001	-2.240426e+001	-6.189252e+001	-2.080892e+000	-1.770339e+002
4720158400	-3.450664e+000	1.507681e+002	-9.518825e+000	-9.009187e+001	-2.247018e+001	-6.265913e+001	-2.083396e+000	-1.772517e+002
4730158100	-3.430132e+000	1.504932e+002	-9.588081e+000	-9.047322e+001	-2.256103e+001	-6.318925e+001	-2.073665e+000	-1.775291e+002
4740157800	-3.414213e+000	1.501305e+002	-9.659583e+000	-9.103146e+001	-2.269604e+001	-6.349040e+001	-2.067011e+000	-1.778485e+002
4750157500	-3.400455e+000	1.498316e+002	-9.746878e+000	-9.134728e+001	-2.280386e+001	-6.363965e+001	-2.063977e+000	-1.781503e+002
4760157200	-3.384629e+000	1.494811e+002	-9.832985e+000	-9.170340e+001	-2.295547e+001	-6.361649e+001	-2.072428e+000	-1.784565e+002
4770156900	-3.383784e+000	1.491213e+002	-9.931706e+000	-9.191370e+001	-2.307852e+001	-6.333924e+001	-2.074681e+000	-1.788076e+002
4780156600	-3.381168e+000	1.487748e+002	-1.003681e+001	-9.203932e+001	-2.320099e+001	-6.257980e+001	-2.066580e+000	-1.790653e+002
4790156300	-3.373411e+000	1.484718e+002	-1.012320e+001	-9.188557e+001	-2.323063e+001	-6.093403e+001	-2.059392e+000	-1.793366e+002
4800156000	-3.383588e+000	1.482136e+002	-1.019981e+001	-9.172493e+001	-2.313390e+001	-5.949917e+001	-2.054463e+000	-1.795635e+002
4810155700	-3.400996e+000	1.480371e+002	-1.023110e+001	-9.149967e+001	-2.289054e+001	-5.843835e+001	-2.059993e+000	-1.797158e+002
4820155400	-3.404515e+000	1.479345e+002	-1.018068e+001	-9.141625e+001	-2.264281e+001	-5.887241e+001	-2.069979e+000	-1.797908e+002
4830155100	-3.398545e+000	1.479460e+002	-1.017059e+001	-9.182191e+001	-2.249174e+001	-6.022379e+001	-2.059893e+000	-1.799210e+002
4840154800	-3.374725e+000	1.478255e+002	-1.016797e+001	-9.235669e+001	-2.244631e+001	-6.189832e+001	-2.046601e+000	1.799633e+002
4850154500	-3.359155e+000	1.476795e+002	-1.020742e+001	-9.289669e+001	-2.251189e+001	-6.276911e+001	-2.033657e+000	1.797803e+002
4860154200	-3.343758e+000	1.474977e+002	-1.024764e+001	-9.329784e+001	-2.253354e+001	-6.357912e+001	-2.018512e+000	1.796195e+002
4870153900	-3.327104e+000	1.473463e+002	-1.028351e+001	-9.381398e+001	-2.259383e+001	-6.467642e+001	-2.008618e+000	1.794068e+002
4880153600	-3.309689e+000	1.471751e+002	-1.032807e+001	-9.440671e+001	-2.267646e+001	-6.556156e+001	-1.991428e+000	1.792012e+002
4890153300	-3.283395e+000	1.469215e+002	-1.038405e+001	-9.485820e+001	-2.281640e+001	-6.629126e+001	-1.973717e+000	1.789784e+002
4900153000	-3.265452e+000	1.466145e+002	-1.047307e+001	-9.531722e+001	-2.295251e+001	-6.663891e+001	-1.958223e+000	1.786292e+002
4910152700	-3.248499e+000	1.463869e+002	-1.055250e+001	-9.568268e+001	-2.306133e+001	-6.669837e+001	-1.956969e+000	1.783297e+002
4920152400	-3.226593e+000	1.460591e+002	-1.061589e+001	-9.590468e+001	-2.314710e+001	-6.668367e+001	-1.941421e+000	1.779989e+002
4930152100	-3.220326e+000	1.457882e+002	-1.070023e+001	-9.615751e+001	-2.316774e+001	-6.675698e+001	-1.941617e+000	1.776866e+002
4940151800	-3.208567e+000	1.455477e+002	-1.074776e+001	-9.650045e+001	-2.318821e+001	-6.662282e+001	-1.937738e+000	1.774166e+002
4950151500	-3.188735e+000	1.453606e+002	-1.080378e+001	-9.675470e+001	-2.320172e+001	-6.704683e+001	-1.931018e+000	1.772224e+002
4960151200	-3.168162e+000	1.451211e+002	-1.086531e+001	-9.718914e+001	-2.330396e+001	-6.710328e+001	-1.926524e+000	1.770568e+002
4970150900	-3.145768e+000	1.448664e+002	-1.093503e+001	-9.747814e+001	-2.343108e+001	-6.709204e+001	-1.928540e+000	1.768266e+002
4980150600	-3.130773e+000	1.446267e+002	-1.102106e+001	-9.779573e+001	-2.351843e+001	-6.710880e+001	-1.935424e+000	1.766319e+002
4990150300	-3.121331e+000	1.443638e+002	-1.111615e+001	-9.798034e+001	-2.361992e+001	-6.695107e+001	-1.940336e+000	1.764833e+002
5000150000	-3.114451e+000	1.440718e+002	-1.120103e+001	-9.822354e+001	-2.374272e+001	-6.665432e+001	-1.936476e+000	1.764239e+002
5010149700	-3.117858e+000	1.438079e+002	-1.129117e+001	-9.824726e+001	-2.382034e+001	-6.561241e+001	-1.924826e+000	1.762611e+002
5020149400	-3.123331e+000	1.435526e+002	-1.137162e+001	-9.815204e+001	-2.383687e+001	-6.469334e+001	-1.917476e+000	1.760918e+002
5030149100	-3.140065e+000	1.433893e+002	-1.142392e+001	-9.799708e+001	-2.371967e+001	-6.379345e+001	-1.918467e+000	1.758511e+002
5040148800	-3.156888e+000	1.432506e+002	-1.141249e+001	-9.777794e+001	-2.350594e+001	-6.358983e+001	-1.933802e+000	1.757119e+002
5050148500	-3.160095e+000	1.432320e+002	-1.138251e+001	-9.800900e+001	-2.332517e+001	-6.496423e+001	-1.922024e+000	1.755656e+002
5060148200	-3.136758e+000	1.431405e+002	-1.138704e+001	-9.854985e+001	-2.334353e+001	-6.623603e+001	-1.900212e+000	1.754339e+002
5070147900	-3.118935e+000	1.430037e+002	-1.143993e+001	-9.905374e+001	-2.344555e+001	-6.740777e+001	-1.882287e+000	1.751709e+002
5080147600	-3.101566e+000	1.427101e+002	-1.149458e+001	-9.955102e+001	-2.349231e+001	-6.754341e+001	-1.868976e+000	1.749634e+002
5090147300	-3.089843e+000	1.425063e+002	-1.156496e+001	-9.983138e+001	-2.355258e+001	-6.761869e+001	-1.854318e+000	1.747199e+002
5100147000	-3.081779e+000	1.422933e+002	-1.159851e+001	-1.001214e+002	-2.353914e+001	-6.807175e+001	-1.842039e+000	1.744756e+002
5110146700	-3.060272e+000	1.421604e+002	-1.164128e+001	-1.004170e+002	-2.354918e+001	-6.843750e+001	-1.843767e+000	1.742931e+002
5120146400	-3.035719e+000	1.419998e+002	-1.169054e+001	-1.007764e+002	-2.366097e+001	-6.883565e+001	-1.821400e+000	1.742221e+002
5130146100	-3.017415e+000	1.417638e+002	-1.176966e+001	-1.012918e+002	-2.372733e+001	-6.921816e+001	-1.799028e+000	1.740587e+002
5140145800	-2.997978e+000	1.415895e+002	-1.184377e+001	-1.016852e+002	-2.387086e+001	-6.938613e+001	-1.793607e+000	1.739076e+002
5150145500	-2.976039e+000	1.413249e+002	-1.192648e+001	-1.019973e+002	-2.402640e+001	-6.940162e+001	-1.779026e+000	1.736418e+002
5160145200	-2.966639e+000	1.410893e+002	-1.202301e+001	-1.022366e+002	-2.412940e+001	-6.921595e+001	-1.775390e+000	1.733490e+002
5170144900	-2.960459e+000	1.409294e+002	-1.209718e+001	-1.023951e+002	-2.421523e+001	-6.874531e+001	-1.774610e+000	1.731050e+002
5180144600	-2.953814e+000	1.407209e+002	-1.217788e+001	-1.025368e+002	-2.423785e+001	-6.856907e+001	-1.784770e+000	1.728062e+002
5190144300	-2.938996e+000	1.405421e+002	-1.223237e+001	-1.026327e+002	-2.427512e+001	-6.804417e+001	-1.807796e+000	1.725931e+002
5200144000	-2.936467e+000	1.403720e+002	-1.231278e+001	-1.026348e+002	-2.424846e+001	-6.801396e+001	-1.836044e+000	1.724031e+002
5210143700	-2.925096e+000	1.401227e+002	-1.233289e+001	-1.026994e+002	-2.423565e+001	-6.796826e+001	-1.856378e+000	1.724173e+002
5220143400	-2.926459e+000	1.398774e+002	-1.238232e+001	-1.029792e+002	-2.430295e+001	-6.852264e+001	-1.842776e+000	1.725069e+002
5230143100	-2.914772e+000	1.396245e+002	-1.242650e+001	-1.033333e+002	-2.436394e+001	-6.882624e+001	-1.819085e+000	1.724200e+002
5240142800	-2.919564e+000	1.393523e+002	-1.251834e+001	-1.036155e+002	-2.447628e+001	-6.843794e+001	-1.783337e+000	1.722887e+002
5250142500	-2.907471e+000	1.391266e+002	-1.260825e+001	-1.036841e+002	-2.455119e+001	-6.791049e+001	-1.759646e+000	1.719674e+002
5260142200	-2.919973e+000	1.388898e+002	-1.267077e+001	-1.036028e+002	-2.448356e+001	-6.693333e+001	-1.756433e+000	1.717601e+002
5270141900	-2.934648e+000	1.387395e+002	-1.271350e+001	-1.034485e+002	-2.437802e+001	-6.635319e+001	-1.750387e+000	1.715825e+002
5280141600	-2.939023e+000	1.386707e+002	-1.269938e+001	-1.034449e+002	-2.420295e+001	-6.645825e+001	-1.749638e+000	1.715827e+002
5290141300	-2.918348e+000	1.386175e+002	-1.268975e+001	-1.038240e+002	-2.413889e+001	-6.770623e+001	-1.734869e+000	1.715050e+002
5300141000	-2.892218e+000	1.385331e+002	-1.274113e+001	-1.044167e+002	-2.422466e+001	-6.843463e+001	-1.713937e+000	1.714587e+002
5310140700	-2.868526e+000	1.383280e+002	-1.280975e+001	-1.048353e+002	-2.442862e+001	-6.913170e+001	-1.702692e+000	1.712620e+002
5320140400	-2.855375e+000	1.381297e+002	-1.288844e+001	-1.051771e+002	-2.449446e+001	-6.875891e+001	-1.692618e+000	1.710401e+002
5330140100	-2.851188e+000	1.380029e+002	-1.298130e+001	-1.052791e+002	-2.455903e+001	-6.878942e+001	-1.696637e+000	1.707608e+002
5340139800	-2.837406e+000	1.378544e+002	-1.302790e+001	-1.053893e+002	-2.457155e+001	-6.825801e+001	-1.693380e+000	1.705508e+002
5350139500	-2.834964e+000	1.377564e+002	-1.307638e+001	-1.056364e+002	-2.456450e+001	-6.887288e+001	-1.696098e+000	1.704260e+002
5360139200	-2.818195e+000	1.375875e+002	-1.315667e+001	-1.059081e+002	-2.471471e+001	-6.937973e+001	-1.694154e+000	1.702438e+002
5370138900	-2.806041e+000	1.374030e+002	-1.323029e+001	-1.061792e+002	-2.479240e+001	-6.934381e+001	-1.699829e+000	1.700484e+002
5380138600	-2.795443e+000	1.371958e+002	-1.328542e+001	-1.063177e+002	-2.483355e+001	-6.879211e+001	-1.704955e+000	1.698734e+002
5390138300	-2.789620e+000	1.370319e+002	-1.336318e+001	-1.064568e+002	-2.496287e+001	-6.892617e+001	-1.708067e+000	1.697198e+002
5400138000	-2.784111e+000	1.367906e+002	-1.344506e+001	-1.066810e+002	-2.503750e+001	-6.916311e+001	-1.694723e+000	1.694912e+002
5410137700	-2.773221e+000	1.365701e+002	-1.354394e+001	-1.068473e+002	-2.517534e+001	-6.835483e+001	-1.684292e+000	1.693071e+002
5420137400	-2.779075e+000	1.363123e+002	-1.363231e+001	-1.067993e+002	-2.520865e+001	-6.712490e+001	-1.676618e+000	1.691190e+002
5430137100	-2.770170e+000	1.361249e+002	-1.369900e+001	-1.065856e+002	-2.518910e+001	-6.593890e+001	-1.695804e+000	1.689461e+002
5440136800	-2.777536e+000	1.358930e+002	-1.375482e+001	-1.062637e+002	-2.501582e+001	-6.474999e+001	-1.712467e+000	1.687873e+002
5450136500	-2.780562e+000	1.357848e+002	-1.375929e+001	-1.059024e+002	-2.477704e+001	-6.441259e+001	-1.753109e+000	1.689428e+002
5460136200	-2.772541e+000	1.356869e+002	-1.370674e+001	-1.063091e+002	-2.463915e+001	-6.565900e+001	-1.756365e+000	1.692682e+002
5470135900	-2.765627e+000	1.355565e+002	-1.371351e+001	-1.069433e+002	-2.471516e+001	-6.714774e+001	-1.716344e+000	1.694599e+002
5480135600	-2.749812e+000	1.353282e+002	-1.382721e+001	-1.074702e+002	-2.495674e+001	-6.754724e+001	-1.673331e+000	1.692140e+002
5490135300	-2.750550e+000	1.350968e+002	-1.393379e+001	-1.076733e+002	-2.511344e+001	-6.665193e+001	-1.656829e+000	1.690046e+002
5500135000	-2.757693e+000	1.349356e+002	-1.403964e+001	-1.075250e+002	-2.515707e+001	-6.565304e+001	-1.658232e+000	1.687026e+002
5510134700	-2.769316e+000	1.348921e+002	-1.408765e+001	-1.072481e+002	-2.500243e+001	-6.494864e+001	-1.659181e+000	1.685150e+002
5520134400	-2.774927e+000	1.348317e+002	-1.408029e+001	-1.071216e+002	-2.488305e+001	-6.520114e+001	-1.670952e+000	1.684162e+002
5530134100	-2.763594e+000	1.348303e+002	-1.408007e+001	-1.073136e+002	-2.483015e+001	-6.603952e+001	-1.677473e+000	1.683573e+002
5540133800	-2.743726e+000	1.347238e+002	-1.412829e+001	-1.078250e+002	-2.489372e+001	-6.699116e+001	-1.661585e+000	1.682509e+002
5550133500	-2.732692e+000	1.345614e+002	-1.419809e+001	-1.083800e+002	-2.509136e+001	-6.750977e+001	-1.640576e+000	1.680687e+002
5560133200	-2.723912e+000	1.343105e+002	-1.430851e+001	-1.085353e+002	-2.522792e+001	-6.714706e+001	-1.629626e+000	1.678155e+002
5570132900	-2.724596e+000	1.341332e+002	-1.440461e+001	-1.085330e+002	-2.529727e+001	-6.626309e+001	-1.630224e+000	1.675469e+002
5580132600	-2.726524e+000	1.339547e+002	-1.445153e+001	-1.085005e+002	-2.529548e+001	-6.545927e+001	-1.631138e+000	1.674253e+002
5590132300	-2.714303e+000	1.338368e+002	-1.452891e+001	-1.085860e+002	-2.530140e+001	-6.509597e+001	-1.619879e+000	1.672197e+002
5600132000	-2.702808e+000	1.336113e+002	-1.461659e+001	-1.085940e+002	-2.538776e+001	-6.451262e+001	-1.622691e+000	1.670921e+002
5610131700	-2.697024e+000	1.333867e+002	-1.473461e+001	-1.084312e+002	-2.546281e+001	-6.282517e+001	-1.631296e+000	1.669353e+002
5620131400	-2.698609e+000	1.332200e+002	-1.482293e+001	-1.079976e+002	-2.541686e+001	-6.107334e+001	-1.660402e+000	1.668464e+002
5630131100	-2.702354e+000	1.330042e+002	-1.488873e+001	-1.074890e+002	-2.522933e+001	-5.954250e+001	-1.686009e+000	1.667984e+002
5640130800	-2.711392e+000	1.328773e+002	-1.487864e+001	-1.068676e+002	-2.498308e+001	-5.918151e+001	-1.727196e+000	1.668344e+002
5650130500	-2.710751e+000	1.328696e+002	-1.481543e+001	-1.067272e+002	-2.471305e+001	-5.964684e+001	-1.738816e+000	1.669364e+002
5660130200	-2.706637e+000	1.328351e+002	-1.482812e+001	-1.071265e+002	-2.474651e+001	-6.114199e+001	-1.735471e+000	1.669530e+002
5670129900	-2.701005e+000	1.326329e+002	-1.492148e+001	-1.072494e+002	-2.478225e+001	-6.040651e+001	-1.723055e+000	1.667315e+002
5680129600	-2.717504e+000	1.324878e+002	-1.496792e+001	-1.068191e+002	-2.463688e+001	-5.940103e+001	-1.746189e+000	1.665621e+002
5690129300	-2.728365e+000	1.323473e+002	-1.493981e+001	-1.060731e+002	-2.435675e+001	-5.890468e+001	-1.786995e+000	1.665558e+002
5700129000	-2.739612e+000	1.324645e+002	-1.481615e+001	-1.059970e+002	-2.397435e+001	-6.049365e+001	-1.819785e+000	1.668165e+002
5710128700	-2.724349e+000	1.324702e+002	-1.468640e+001	-1.067984e+002	-2.390595e+001	-6.348342e+001	-1.784548e+000	1.671441e+002
5720128400	-2.702455e+000	1.323519e+002	-1.473010e+001	-1.081934e+002	-2.418824e+001	-6.597610e+001	-1.721896e+000	1.671611e+002
5730128100	-2.693400e+000	1.320699e+002	-1.490127e+001	-1.090027e+002	-2.457623e+001	-6.604620e+001	-1.668569e+000	1.669511e+002
5740127800	-2.696748e+000	1.318042e+002	-1.506780e+001	-1.089584e+002	-2.475618e+001	-6.411584e+001	-1.647240e+000	1.666461e+002
5750127500	-2.720166e+000	1.316752e+002	-1.517440e+001	-1.084183e+002	-2.470341e+001	-6.231999e+001	-1.644135e+000	1.663950e+002
5760127200	-2.727800e+000	1.316252e+002	-1.521082e+001	-1.078925e+002	-2.457421e+001	-6.157947e+001	-1.648119e+000	1.662837e+002
5770126900	-2.726545e+000	1.315842e+002	-1.521742e+001	-1.078163e+002	-2.449031e+001	-6.159011e+001	-1.659048e+000	1.663037e+002
5780126600	-2.713026e+000	1.315006e+002	-1.526089e+001	-1.079175e+002	-2.452030e+001	-6.131124e+001	-1.674445e+000	1.662647e+002
5790126300	-2.707171e+000	1.313532e+002	-1.532855e+001	-1.078434e+002	-2.450887e+001	-6.076845e+001	-1.680736e+000	1.661599e+002
5800126000	-2.703792e+000	1.311994e+002	-1.540308e+001	-1.075336e+002	-2.447758e+001	-5.981876e+001	-1.695351e+000	1.660148e+002
5810125700	-2.716692e+000	1.311038e+002	-1.545762e+001	-1.069713e+002	-2.431514e+001	-5.875299e+001	-1.727242e+000	1.658719e+002
5820125400	-2.721802e+000	1.310874e+002	-1.542748e+001	-1.063688e+002	-2.403869e+001	-5.830211e+001	-1.757066e+000	1.657212e+002
5830125100	-2.720080e+000	1.310059e+002	-1.542715e+001	-1.062313e+002	-2.392946e+001	-5.856776e+001	-1.770218e+000	1.657123e+002
5840124800	-2.728498e+000	1.308828e+002	-1.544688e+001	-1.058495e+002	-2.381076e+001	-5.826936e+001	-1.788750e+000	1.656432e+002
5850124500	-2.741729e+000	1.308269e+002	-1.544327e+001	-1.051089e+002	-2.354983e+001	-5.713167e+001	-1.834703e+000	1.655266e+002
5860124200	-2.769513e+000	1.308253e+002	-1.533355e+001	-1.043267e+002	-2.308246e+001	-5.736021e+001	-1.884239e+000	1.656518e+002
5870123900	-2.777392e+000	1.309090e+002	-1.512966e+001	-1.039680e+002	-2.270416e+001	-5.899299e+001	-1.920952e+000	1.659698e+002
5880123600	-2.780586e+000	1.310475e+002	-1.493644e+001	-1.043439e+002	-2.235803e+001	-6.155933e+001	-1.918866e+000	1.663391e+002
5890123300	-2.767091e+000	1.311677e+002	-1.476918e+001	-1.053355e+002	-2.228045e+001	-6.495062e+001	-1.887367e+000	1.667270e+002
5900123000	-2.738751e+000	1.312207e+002	-1.471513e+001	-1.067477e+002	-2.231198e+001	-6.737163e+001	-1.836408e+000	1.669548e+002
5910122700	-2.709476e+000	1.311418e+002	-1.475449e+001	-1.079695e+002	-2.256360e+001	-6.901936e+001	-1.778235e+000	1.670540e+002
5920122400	-2.696815e+000	1.310029e+002	-1.483761e+001	-1.086811e+002	-2.276671e+001	-6.947150e+001	-1.735811e+000	1.670613e+002
5930122100	-2.694098e+000	1.308504e+002	-1.490363e+001	-1.089194e+002	-2.284570e+001	-6.960705e+001	-1.735727e+000	1.671118e+002
5940121800	-2.681847e+000	1.307996e+002	-1.490910e+001	-1.092619e+002	-2.286761e+001	-7.039757e+001	-1.722462e+000	1.672040e+002
5950121500	-2.669607e+000	1.307837e+002	-1.494239e+001	-1.098980e+002	-2.291955e+001	-7.155735e+001	-1.706619e+000	1.672736e+002
5960121200	-2.648947e+000	1.305950e+002	-1.499415e+001	-1.108024e+002	-2.311966e+001	-7.262477e+001	-1.679468e+000	1.672997e+002
5970120900	-2.643678e+000	1.304085e+002	-1.514115e+001	-1.113340e+002	-2.339751e+001	-7.306146e+001	-1.646347e+000	1.670367e+002
5980120600	-2.640256e+000	1.301844e+002	-1.531451e+001	-1.112123e+002	-2.360865e+001	-7.176178e+001	-1.635979e+000	1.667336e+002
5990120300	-2.661978e+000	1.300263e+002	-1.542953e+001	-1.105968e+002	-2.354330e+001	-6.998735e+001	-1.646015e+000	1.664276e+002
6000120000	-2.679409e+000	1.300492e+002	-1.542343e+001	-1.098392e+002	-2.336411e+001	-6.867276e+001	-1.675872e+000	1.662721e+002
6010119700	-2.691907e+000	1.301055e+002	-1.536078e+001	-1.094749e+002	-2.309739e+001	-6.900249e+001	-1.703635e+000	1.663001e+002
6020119400	-2.683589e+000	1.301491e+002	-1.527430e+001	-1.094524e+002	-2.291307e+001	-6.953953e+001	-1.724250e+000	1.663942e+002
6030119100	-2.677373e+000	1.301970e+002	-1.520058e+001	-1.096923e+002	-2.271760e+001	-7.079357e+001	-1.717508e+000	1.665250e+002
6040118800	-2.659681e+000	1.301879e+002	-1.517971e+001	-1.103817e+002	-2.272200e+001	-7.207423e+001	-1.703376e+000	1.665665e+002
6050118500	-2.658520e+000	1.301546e+002	-1.517708e+001	-1.106275e+002	-2.275662e+001	-7.302891e+001	-1.692040e+000	1.666230e+002
6060118200	-2.650149e+000	1.300414e+002	-1.516625e+001	-1.109896e+002	-2.268880e+001	-7.326103e+001	-1.677760e+000	1.665885e+002
6070117900	-2.644083e+000	1.300064e+002	-1.517278e+001	-1.111639e+002	-2.268455e+001	-7.392608e+001	-1.661779e+000	1.667031e+002
6080117600	-2.636054e+000	1.299438e+002	-1.515733e+001	-1.113167e+002	-2.260981e+001	-7.430853e+001	-1.663740e+000	1.668952e+002
6090117300	-2.634810e+000	1.299723e+002	-1.508961e+001	-1.116498e+002	-2.251294e+001	-7.523648e+001	-1.666420e+000	1.671883e+002
6100117000	-2.615786e+000	1.299850e+002	-1.503041e+001	-1.122366e+002	-2.246277e+001	-7.691759e+001	-1.656718e+000	1.674407e+002
6110116700	-2.603563e+000	1.299423e+002	-1.500968e+001	-1.130313e+002	-2.246938e+001	-7.827272e+001	-1.628669e+000	1.675860e+002
6120116400	-2.577628e+000	1.298837e+002	-1.502804e+001	-1.139224e+002	-2.258000e+001	-8.001864e+001	-1.602865e+000	1.676153e+002
6130116100	-2.556303e+000	1.298353e+002	-1.507366e+001	-1.147439e+002	-2.269492e+001	-8.117809e+001	-1.579687e+000	1.676076e+002
6140115800	-2.539391e+000	1.296879e+002	-1.513822e+001	-1.154317e+002	-2.286173e+001	-8.199191e+001	-1.550652e+000	1.674758e+002
6150115500	-2.532001e+000	1.295609e+002	-1.522754e+001	-1.160908e+002	-2.298185e+001	-8.273794e+001	-1.533651e+000	1.672980e+002
6160115200	-2.520515e+000	1.294601e+002	-1.531113e+001	-1.165185e+002	-2.309723e+001	-8.308211e+001	-1.517622e+000	1.672170e+002
6170114900	-2.512297e+000	1.293400e+002	-1.536650e+001	-1.167813e+002	-2.318391e+001	-8.341836e+001	-1.509036e+000	1.671727e+002
6180114600	-2.502191e+000	1.292513e+002	-1.540710e+001	-1.172568e+002	-2.326584e+001	-8.435628e+001	-1.495281e+000	1.670929e+002
6190114300	-2.499417e+000	1.291122e+002	-1.549645e+001	-1.177081e+002	-2.339341e+001	-8.485011e+001	-1.476700e+000	1.670303e+002
6200114000	-2.482949e+000	1.289723e+002	-1.558630e+001	-1.181763e+002	-2.354555e+001	-8.521834e+001	-1.456486e+000	1.669420e+002
6210113700	-2.490103e+000	1.287565e+002	-1.565883e+001	-1.185855e+002	-2.372337e+001	-8.548975e+001	-1.443587e+000	1.667850e+002
6220113400	-2.486051e+000	1.286138e+002	-1.579093e+001	-1.187758e+002	-2.392188e+001	-8.489701e+001	-1.429435e+000	1.666803e+002
6230113100	-2.491868e+000	1.284083e+002	-1.590400e+001	-1.187404e+002	-2.405909e+001	-8.405904e+001	-1.405269e+000	1.665915e+002
6240112800	-2.510471e+000	1.283582e+002	-1.598977e+001	-1.182959e+002	-2.412706e+001	-8.251660e+001	-1.413343e+000	1.665779e+002
6250112500	-2.530870e+000	1.282567e+002	-1.602510e+001	-1.176722e+002	-2.400488e+001	-8.129885e+001	-1.432962e+000	1.666728e+002
6260112200	-2.534727e+000	1.283155e+002	-1.595923e+001	-1.173621e+002	-2.379624e+001	-8.103140e+001	-1.456654e+000	1.667765e+002
6270111900	-2.523992e+000	1.283805e+002	-1.589290e+001	-1.174900e+002	-2.366585e+001	-8.195107e+001	-1.460102e+000	1.669152e+002
6280111600	-2.503758e+000	1.283438e+002	-1.586022e+001	-1.180080e+002	-2.361113e+001	-8.290904e+001	-1.448841e+000	1.670017e+002
6290111300	-2.498525e+000	1.283188e+002	-1.588696e+001	-1.183214e+002	-2.362099e+001	-8.356975e+001	-1.441473e+000	1.669751e+002
6300111000	-2.481852e+000	1.282993e+002	-1.591214e+001	-1.187565e+002	-2.361734e+001	-8.447825e+001	-1.443244e+000	1.669638e+002
6310110700	-2.475427e+000	1.282178e+002	-1.593475e+001	-1.191651e+002	-2.361843e+001	-8.493988e+001	-1.432344e+000	1.668946e+002
6320110400	-2.472071e+000	1.281369e+002	-1.596861e+001	-1.194844e+002	-2.368976e+001	-8.557318e+001	-1.420307e+000	1.669227e+002
6330110100	-2.469665e+000	1.280783e+002	-1.598045e+001	-1.198255e+002	-2.370701e+001	-8.603632e+001	-1.415233e+000	1.668955e+002
6340109800	-2.458675e+000	1.279847e+002	-1.600888e+001	-1.202369e+002	-2.374199e+001	-8.686621e+001	-1.402559e+000	1.668985e+002
6350109500	-2.448608e+000	1.279211e+002	-1.605762e+001	-1.206611e+002	-2.373695e+001	-8.752493e+001	-1.395298e+000	1.668708e+002
6360109200	-2.445154e+000	1.278377e+002	-1.609077e+001	-1.210238e+002	-2.384665e+001	-8.828860e+001	-1.380433e+000	1.668705e+002
6370108900	-2.444355e+000	1.277303e+002	-1.614358e+001	-1.215004e+002	-2.393500e+001	-8.875962e+001	-1.364678e+000	1.668217e+002
6380108600	-2.444304e+000	1.276768e+002	-1.620443e+001	-1.217218e+002	-2.400604e+001	-8.903498e+001	-1.355201e+000	1.667864e+002
6390108300	-2.435531e+000	1.275111e+002	-1.624301e+001	-1.221117e+002	-2.410113e+001	-8.936274e+001	-1.334458e+000	1.668825e+002
6400108000	-2.428360e+000	1.274237e+002	-1.630671e+001	-1.223261e+002	-2.423749e+001	-8.959548e+001	-1.323496e+000	1.669067e+002
6410107700	-2.429790e+000	1.272715e+002	-1.635366e+001	-1.226785e+002	-2.427090e+001	-8.978533e+001	-1.320358e+000	1.669482e+002
6420107400	-2.423771e+000	1.271798e+002	-1.641129e+001	-1.229287e+002	-2.438306e+001	-9.018980e+001	-1.314345e+000	1.669537e+002
6430107100	-2.414582e+000	1.270447e+002	-1.646607e+001	-1.232638e+002	-2.446056e+001	-9.033825e+001	-1.309322e+000	1.669663e+002
6440106800	-2.418357e+000	1.268864e+002	-1.652219e+001	-1.235943e+002	-2.458791e+001	-9.033852e+001	-1.300944e+000	1.669075e+002
6450106500	-2.423692e+000	1.267291e+002	-1.659865e+001	-1.236988e+002	-2.468543e+001	-9.052080e+001	-1.295968e+000	1.668629e+002
6460106200	-2.422967e+000	1.266780e+002	-1.667831e+001	-1.239506e+002	-2.483425e+001	-9.041506e+001	-1.291896e+000	1.667783e+002
6470105900	-2.435144e+000	1.265691e+002	-1.678002e+001	-1.240281e+002	-2.495694e+001	-8.992064e+001	-1.292526e+000	1.667075e+002
6480105600	-2.442047e+000	1.264732e+002	-1.685358e+001	-1.239268e+002	-2.496781e+001	-8.922422e+001	-1.286909e+000	1.666577e+002
6490105300	-2.452745e+000	1.263986e+002	-1.693251e+001	-1.236617e+002	-2.502942e+001	-8.845270e+001	-1.293931e+000	1.665816e+002
6500105000	-2.462732e+000	1.264579e+002	-1.697193e+001	-1.233063e+002	-2.492226e+001	-8.746200e+001	-1.302864e+000	1.665790e+002
6510104700	-2.471987e+000	1.264171e+002	-1.696011e+001	-1.232378e+002	-2.478977e+001	-8.752673e+001	-1.310022e+000	1.666037e+002
6520104400	-2.467209e+000	1.263842e+002	-1.693081e+001	-1.232987e+002	-2.469239e+001	-8.774942e+001	-1.306614e+000	1.665993e+002
6530104100	-2.471893e+000	1.263693e+002	-1.691492e+001	-1.235210e+002	-2.462754e+001	-8.819549e+001	-1.299976e+000	1.666446e+002
6540103800	-2.464742e+000	1.263071e+002	-1.692982e+001	-1.237332e+002	-2.460446e+001	-8.881966e+001	-1.296512e+000	1.666356e+002
6550103500	-2.459930e+000	1.262645e+002	-1.693888e+001	-1.241104e+002	-2.462511e+001	-8.902294e+001	-1.285485e+000	1.667281e+002
6560103200	-2.452649e+000	1.262009e+002	-1.693196e+001	-1.244894e+002	-2.466563e+001	-8.985668e+001	-1.282052e+000	1.668696e+002
6570102900	-2.450124e+000	1.260986e+002	-1.695157e+001	-1.247667e+002	-2.468745e+001	-9.046216e+001	-1.274546e+000	1.669017e+002
6580102600	-2.442008e+000	1.260105e+002	-1.698429e+001	-1.250572e+002	-2.477788e+001	-9.100085e+001	-1.269846e+000	1.669654e+002
6590102300	-2.439217e+000	1.258859e+002	-1.701844e+001	-1.254015e+002	-2.482515e+001	-9.139258e+001	-1.265902e+000	1.669497e+002
6600102000	-2.440983e+000	1.257569e+002	-1.707277e+001	-1.257409e+002	-2.489321e+001	-9.184852e+001	-1.258288e+000	1.669596e+002
6610101700	-2.433154e+000	1.257015e+002	-1.712180e+001	-1.260914e+002	-2.495897e+001	-9.215274e+001	-1.250004e+000	1.669082e+002
6620101400	-2.439850e+000	1.255539e+002	-1.718784e+001	-1.263157e+002	-2.500060e+001	-9.252359e+001	-1.244142e+000	1.669065e+002
6630101100	-2.444070e+000	1.254194e+002	-1.724978e+001	-1.264646e+002	-2.514809e+001	-9.248134e+001	-1.240382e+000	1.668710e+002
6640100800	-2.450509e+000	1.253085e+002	-1.730079e+001	-1.267045e+002	-2.523497e+001	-9.247952e+001	-1.237577e+000	1.668577e+002
6650100500	-2.460328e+000	1.252132e+002	-1.737178e+001	-1.267979e+002	-2.528170e+001	-9.260909e+001	-1.234914e+000	1.668479e+002
6660100200	-2.480240e+000	1.251320e+002	-1.743228e+001	-1.269918e+002	-2.541754e+001	-9.254151e+001	-1.223874e+000	1.668663e+002
6670099900	-2.486607e+000	1.250694e+002	-1.748647e+001	-1.270176e+002	-2.546545e+001	-9.238014e+001	-1.225947e+000	1.668356e+002
6680099600	-2.508767e+000	1.250569e+002	-1.755484e+001	-1.269845e+002	-2.551858e+001	-9.202110e+001	-1.222987e+000	1.668427e+002
6690099300	-2.510013e+000	1.250058e+002	-1.759904e+001	-1.270154e+002	-2.555842e+001	-9.146300e+001	-1.217112e+000	1.668244e+002
6700099000	-2.524961e+000	1.249951e+002	-1.762887e+001	-1.270192e+002	-2.560083e+001	-9.089747e+001	-1.213690e+000	1.668385e+002
6710098700	-2.531428e+000	1.249323e+002	-1.767019e+001	-1.270872e+002	-2.562958e+001	-9.076514e+001	-1.211902e+000	1.669131e+002
6720098400	-2.527827e+000	1.248975e+002	-1.769339e+001	-1.271575e+002	-2.558272e+001	-9.068787e+001	-1.211428e+000	1.669297e+002
6730098100	-2.529826e+000	1.248401e+002	-1.772478e+001	-1.271959e+002	-2.564822e+001	-9.039570e+001	-1.214598e+000	1.669749e+002
6740097800	-2.528855e+000	1.247797e+002	-1.777787e+001	-1.272495e+002	-2.563250e+001	-9.022295e+001	-1.217539e+000	1.669558e+002
6750097500	-2.535101e+000	1.246738e+002	-1.780376e+001	-1.271769e+002	-2.562178e+001	-8.987676e+001	-1.217947e+000	1.669392e+002
6760097200	-2.541247e+000	1.246248e+002	-1.781470e+001	-1.269978e+002	-2.553896e+001	-8.938344e+001	-1.224370e+000	1.669352e+002
6770096900	-2.551047e+000	1.245853e+002	-1.783399e+001	-1.268581e+002	-2.549423e+001	-8.930395e+001	-1.226794e+000	1.669567e+002
6780096600	-2.549368e+000	1.245854e+002	-1.780878e+001	-1.267283e+002	-2.537031e+001	-8.969750e+001	-1.232578e+000	1.669889e+002
6790096300	-2.547416e+000	1.245912e+002	-1.777152e+001	-1.270626e+002	-2.528689e+001	-9.012155e+001	-1.231590e+000	1.670156e+002
6800096000	-2.545951e+000	1.245853e+002	-1.776647e+001	-1.273826e+002	-2.527605e+001	-9.087362e+001	-1.225661e+000	1.670472e+002
6810095700	-2.536299e+000	1.245228e+002	-1.778625e+001	-1.277270e+002	-2.528495e+001	-9.167951e+001	-1.219230e+000	1.671089e+002
6820095400	-2.543207e+000	1.244291e+002	-1.780462e+001	-1.282789e+002	-2.535867e+001	-9.232521e+001	-1.214118e+000	1.671637e+002
6830095100	-2.546073e+000	1.243619e+002	-1.785250e+001	-1.285143e+002	-2.539599e+001	-9.281311e+001	-1.208099e+000	1.671683e+002
6840094800	-2.554714e+000	1.242666e+002	-1.790622e+001	-1.286874e+002	-2.550048e+001	-9.308426e+001	-1.203721e+000	1.671874e+002
6850094500	-2.569085e+000	1.242123e+002	-1.795391e+001	-1.289530e+002	-2.559019e+001	-9.305827e+001	-1.197976e+000	1.672074e+002
6860094200	-2.585641e+000	1.241577e+002	-1.801368e+001	-1.290105e+002	-2.562695e+001	-9.287887e+001	-1.188603e+000	1.672321e+002
6870093900	-2.595728e+000	1.241172e+002	-1.804728e+001	-1.291242e+002	-2.570885e+001	-9.241184e+001	-1.187411e+000	1.672750e+002
6880093600	-2.606807e+000	1.240676e+002	-1.806460e+001	-1.291407e+002	-2.574720e+001	-9.263353e+001	-1.187449e+000	1.672943e+002
6890093300	-2.613091e+000	1.240722e+002	-1.809632e+001	-1.292800e+002	-2.579645e+001	-9.239331e+001	-1.187293e+000	1.673285e+002
6900093000	-2.624188e+000	1.239852e+002	-1.812670e+001	-1.293600e+002	-2.577443e+001	-9.255133e+001	-1.187680e+000	1.673557e+002
6910092700	-2.625491e+000	1.239140e+002	-1.814452e+001	-1.296095e+002	-2.578555e+001	-9.242293e+001	-1.185712e+000	1.673302e+002
6920092400	-2.631140e+000	1.238841e+002	-1.817345e+001	-1.296826e+002	-2.581392e+001	-9.257180e+001	-1.183519e+000	1.673279e+002
6930092100	-2.629215e+000	1.238541e+002	-1.820188e+001	-1.297755e+002	-2.576124e+001	-9.224662e+001	-1.185195e+000	1.673695e+002
6940091800	-2.631121e+000	1.237981e+002	-1.822822e+001	-1.299773e+002	-2.581212e+001	-9.257403e+001	-1.187431e+000	1.673632e+002
6950091500	-2.634567e+000	1.237475e+002	-1.824731e+001	-1.301575e+002	-2.579865e+001	-9.253010e+001	-1.189839e+000	1.673616e+002
6960091200	-2.633516e+000	1.237069e+002	-1.829977e+001	-1.302363e+002	-2.582291e+001	-9.250364e+001	-1.182697e+000	1.673728e+002
6970090900	-2.638078e+000	1.236610e+002	-1.832784e+001	-1.303930e+002	-2.583140e+001	-9.230770e+001	-1.183164e+000	1.673967e+002
6980090600	-2.641874e+000	1.236019e+002	-1.836459e+001	-1.304748e+002	-2.582300e+001	-9.252168e+001	-1.188580e+000	1.674017e+002
6990090300	-2.646413e+000	1.235329e+002	-1.837904e+001	-1.303483e+002	-2.582443e+001	-9.252191e+001	-1.186569e+000	1.674427e+002
7000090000	-2.648303e+000	1.234349e+002	-1.839587e+001	-1.305439e+002	-2.581351e+001	-9.249426e+001	-1.184069e+000	1.674878e+002
7010089700	-2.662780e+000	1.234249e+002	-1.841280e+001	-1.304990e+002	-2.576336e+001	-9.242291e+001	-1.185013e+000	1.675359e+002
7020089400	-2.677535e+000	1.233806e+002	-1.842403e+001	-1.305753e+002	-2.577700e+001	-9.218068e+001	-1.186029e+000	1.675891e+002
7030089100	-2.689299e+000	1.233265e+002	-1.842507e+001	-1.306484e+002	-2.574694e+001	-9.212412e+001	-1.184446e+000	1.676016e+002
7040088800	-2.700281e+000	1.232969e+002	-1.842646e+001	-1.307102e+002	-2.567151e+001	-9.289762e+001	-1.182783e+000	1.676599e+002
7050088500	-2.704938e+000	1.233118e+002	-1.842605e+001	-1.309414e+002	-2.569349e+001	-9.356667e+001	-1.183362e+000	1.677320e+002
7060088200	-2.712081e+000	1.232280e+002	-1.845420e+001	-1.314357e+002	-2.570889e+001	-9.376617e+001	-1.180280e+000	1.677560e+002
7070087900	-2.715213e+000	1.231565e+002	-1.846436e+001	-1.317181e+002	-2.573829e+001	-9.416899e+001	-1.182931e+000	1.677500e+002
7080087600	-2.727224e+000	1.230623e+002	-1.849482e+001	-1.318258e+002	-2.579737e+001	-9.445956e+001	-1.186801e+000	1.677899e+002
7090087300	-2.736179e+000	1.230435e+002	-1.852027e+001	-1.321001e+002	-2.582398e+001	-9.463568e+001	-1.181048e+000	1.678157e+002
7100087000	-2.740561e+000	1.230090e+002	-1.853114e+001	-1.322067e+002	-2.587873e+001	-9.469574e+001	-1.181912e+000	1.678396e+002
7110086700	-2.750583e+000	1.229421e+002	-1.858184e+001	-1.325168e+002	-2.586401e+001	-9.451749e+001	-1.179670e+000	1.678604e+002
7120086400	-2.756110e+000	1.228881e+002	-1.860328e+001	-1.326055e+002	-2.592716e+001	-9.457446e+001	-1.177740e+000	1.678877e+002
7130086100	-2.767021e+000	1.228771e+002	-1.863083e+001	-1.327296e+002	-2.594325e+001	-9.459494e+001	-1.175308e+000	1.679125e+002
7140085800	-2.771576e+000	1.228434e+002	-1.867666e+001	-1.329358e+002	-2.593819e+001	-9.475066e+001	-1.173508e+000	1.679573e+002
7150085500	-2.773981e+000	1.228023e+002	-1.869567e+001	-1.330210e+002	-2.596766e+001	-9.472609e+001	-1.171826e+000	1.679754e+002
7160085200	-2.786196e+000	1.227599e+002	-1.871517e+001	-1.332473e+002	-2.593605e+001	-9.481819e+001	-1.168374e+000	1.680026e+002
7170084900	-2.797708e+000	1.226855e+002	-1.874948e+001	-1.333398e+002	-2.593832e+001	-9.490072e+001	-1.172249e+000	1.680618e+002
7180084600	-2.807423e+000	1.226604e+002	-1.878270e+001	-1.334755e+002	-2.594972e+001	-9.468286e+001	-1.174829e+000	1.680914e+002
7190084300	-2.819326e+000	1.225929e+002	-1.878312e+001	-1.336205e+002	-2.596953e+001	-9.495553e+001	-1.174643e+000	1.681024e+002
7200084000	-2.833465e+000	1.225199e+002	-1.882545e+001	-1.336324e+002	-2.597620e+001	-9.475435e+001	-1.173024e+000	1.680988e+002
7210083700	-2.837091e+000	1.224513e+002	-1.883631e+001	-1.338429e+002	-2.597998e+001	-9.536634e+001	-1.169636e+000	1.681057e+002
7220083400	-2.847720e+000	1.223668e+002	-1.884561e+001	-1.338845e+002	-2.594398e+001	-9.537275e+001	-1.172081e+000	1.680885e+002
7230083100	-2.853708e+000	1.223039e+002	-1.885400e+001	-1.341641e+002	-2.595099e+001	-9.535983e+001	-1.175873e+000	1.681768e+002
7240082800	-2.863665e+000	1.222322e+002	-1.886731e+001	-1.342399e+002	-2.598851e+001	-9.557648e+001	-1.174369e+000	1.681987e+002
7250082500	-2.871604e+000	1.221774e+002	-1.888933e+001	-1.344444e+002	-2.597312e+001	-9.589982e+001	-1.176285e+000	1.682399e+002
7260082200	-2.887295e+000	1.221177e+002	-1.892849e+001	-1.346852e+002	-2.598589e+001	-9.623463e+001	-1.176944e+000	1.682526e+002
7270081900	-2.894692e+000	1.220778e+002	-1.894012e+001	-1.347906e+002	-2.599117e+001	-9.594469e+001	-1.176502e+000	1.683231e+002
7280081600	-2.904659e+000	1.220173e+002	-1.897068e+001	-1.348446e+002	-2.596610e+001	-9.608192e+001	-1.176924e+000	1.683712e+002
7290081300	-2.917945e+000	1.219622e+002	-1.898337e+001	-1.350785e+002	-2.602045e+001	-9.617674e+001	-1.179623e+000	1.684176e+002
7300081000	-2.930753e+000	1.219147e+002	-1.900964e+001	-1.352446e+002	-2.602456e+001	-9.655266e+001	-1.176319e+000	1.684791e+002
7310080700	-2.942298e+000	1.219316e+002	-1.900477e+001	-1.354278e+002	-2.607792e+001	-9.662569e+001	-1.172835e+000	1.685451e+002
7320080400	-2.961924e+000	1.218774e+002	-1.903120e+001	-1.354139e+002	-2.602282e+001	-9.651513e+001	-1.172526e+000	1.686265e+002
7330080100	-2.975706e+000	1.218915e+002	-1.906656e+001	-1.357987e+002	-2.602989e+001	-9.669849e+001	-1.174302e+000	1.686543e+002
7340079800	-2.986311e+000	1.218187e+002	-1.908428e+001	-1.358722e+002	-2.601598e+001	-9.655979e+001	-1.178148e+000	1.687155e+002
7350079500	-3.002212e+000	1.217680e+002	-1.910376e+001	-1.360706e+002	-2.602214e+001	-9.662496e+001	-1.185210e+000	1.687326e+002
7360079200	-3.018010e+000	1.216910e+002	-1.910634e+001	-1.362185e+002	-2.610137e+001	-9.674067e+001	-1.182414e+000	1.687280e+002
7370078900	-3.029875e+000	1.216265e+002	-1.912459e+001	-1.365343e+002	-2.605595e+001	-9.766614e+001	-1.175159e+000	1.686853e+002
7380078600	-3.048499e+000	1.215611e+002	-1.914073e+001	-1.366508e+002	-2.606634e+001	-9.775258e+001	-1.175900e+000	1.686618e+002
7390078300	-3.058480e+000	1.214358e+002	-1.915981e+001	-1.370237e+002	-2.606769e+001	-9.812743e+001	-1.177259e+000	1.687027e+002
7400078000	-3.071873e+000	1.213778e+002	-1.920777e+001	-1.371591e+002	-2.609064e+001	-9.791759e+001	-1.175106e+000	1.687121e+002
7410077700	-3.079974e+000	1.213274e+002	-1.920397e+001	-1.372580e+002	-2.611907e+001	-9.816127e+001	-1.180844e+000	1.687599e+002
7420077400	-3.089127e+000	1.212137e+002	-1.922806e+001	-1.375977e+002	-2.612341e+001	-9.797935e+001	-1.171940e+000	1.688110e+002
7430077100	-3.102079e+000	1.212021e+002	-1.923771e+001	-1.376503e+002	-2.614472e+001	-9.813803e+001	-1.177919e+000	1.688636e+002
7440076800	-3.109016e+000	1.211079e+002	-1.927418e+001	-1.376027e+002	-2.613421e+001	-9.812372e+001	-1.175939e+000	1.689124e+002
7450076500	-3.117655e+000	1.210894e+002	-1.929374e+001	-1.377802e+002	-2.615213e+001	-9.813448e+001	-1.175023e+000	1.689425e+002
7460076200	-3.131956e+000	1.210080e+002	-1.932373e+001	-1.380487e+002	-2.615958e+001	-9.837072e+001	-1.173565e+000	1.690072e+002
7470075900	-3.144452e+000	1.209812e+002	-1.933785e+001	-1.382154e+002	-2.617461e+001	-9.814166e+001	-1.171827e+000	1.690552e+002
7480075600	-3.158294e+000	1.209327e+002	-1.937567e+001	-1.384998e+002	-2.616414e+001	-9.861197e+001	-1.170022e+000	1.690904e+002
7490075300	-3.179986e+000	1.208760e+002	-1.938847e+001	-1.385830e+002	-2.615164e+001	-9.863007e+001	-1.180447e+000	1.691586e+002
7500075000	-3.197763e+000	1.208564e+002	-1.942736e+001	-1.387226e+002	-2.615449e+001	-9.870081e+001	-1.188597e+000	1.692042e+002
7510074700	-3.212079e+000	1.207912e+002	-1.943964e+001	-1.389058e+002	-2.622435e+001	-9.894956e+001	-1.189422e+000	1.692851e+002
7520074400	-3.240193e+000	1.207289e+002	-1.945249e+001	-1.390711e+002	-2.621011e+001	-9.890930e+001	-1.189629e+000	1.692010e+002
7530074100	-3.262287e+000	1.206891e+002	-1.945387e+001	-1.391477e+002	-2.626827e+001	-9.926461e+001	-1.181920e+000	1.691435e+002
7540073800	-3.280029e+000	1.206507e+002	-1.947934e+001	-1.393644e+002	-2.622526e+001	-9.931080e+001	-1.182411e+000	1.691285e+002
7550073500	-3.301423e+000	1.205759e+002	-1.948117e+001	-1.396242e+002	-2.625148e+001	-9.921264e+001	-1.190539e+000	1.691778e+002
7560073200	-3.318652e+000	1.204994e+002	-1.950167e+001	-1.395789e+002	-2.623082e+001	-9.920267e+001	-1.190228e+000	1.692211e+002
7570072900	-3.329622e+000	1.204775e+002	-1.950461e+001	-1.397123e+002	-2.624986e+001	-9.909555e+001	-1.187360e+000	1.693039e+002
7580072600	-3.347298e+000	1.204346e+002	-1.954337e+001	-1.399192e+002	-2.620432e+001	-9.953197e+001	-1.191878e+000	1.693320e+002
7590072300	-3.364532e+000	1.203721e+002	-1.954587e+001	-1.400964e+002	-2.619277e+001	-9.968197e+001	-1.191683e+000	1.693979e+002
7600072000	-3.380381e+000	1.203184e+002	-1.951977e+001	-1.400561e+002	-2.617407e+001	-9.971869e+001	-1.190674e+000	1.694615e+002
7610071700	-3.393621e+000	1.202376e+002	-1.954997e+001	-1.404285e+002	-2.614365e+001	-1.000979e+002	-1.188019e+000	1.694839e+002
7620071400	-3.406512e+000	1.202291e+002	-1.955648e+001	-1.407770e+002	-2.614041e+001	-1.000397e+002	-1.186262e+000	1.695465e+002
7630071100	-3.424694e+000	1.201921e+002	-1.957137e+001	-1.409444e+002	-2.616482e+001	-1.002206e+002	-1.184605e+000	1.695819e+002
7640070800	-3.441069e+000	1.201330e+002	-1.961329e+001	-1.411613e+002	-2.617255e+001	-1.005282e+002	-1.185563e+000	1.696318e+002
7650070500	-3.465048e+000	1.201105e+002	-1.961791e+001	-1.413788e+002	-2.618334e+001	-1.005525e+002	-1.186875e+000	1.697416e+002
7660070200	-3.483632e+000	1.201185e+002	-1.966407e+001	-1.413945e+002	-2.622386e+001	-1.006655e+002	-1.194778e+000	1.697724e+002
7670069900	-3.503926e+000	1.201094e+002	-1.967959e+001	-1.416307e+002	-2.623257e+001	-1.006760e+002	-1.202072e+000	1.697144e+002
7680069600	-3.526947e+000	1.201033e+002	-1.967810e+001	-1.419245e+002	-2.620632e+001	-1.010585e+002	-1.202862e+000	1.696926e+002
7690069300	-3.544665e+000	1.200203e+002	-1.969501e+001	-1.420197e+002	-2.620097e+001	-1.015181e+002	-1.202137e+000	1.696123e+002
7700069000	-3.564592e+000	1.199477e+002	-1.973861e+001	-1.422927e+002	-2.617092e+001	-1.016425e+002	-1.201219e+000	1.696061e+002
7710068700	-3.586392e+000	1.198634e+002	-1.972872e+001	-1.425123e+002	-2.621608e+001	-1.018658e+002	-1.211655e+000	1.696624e+002
7720068400	-3.604468e+000	1.197350e+002	-1.974984e+001	-1.426777e+002	-2.623268e+001	-1.018496e+002	-1.217928e+000	1.697675e+002
7730068100	-3.625184e+000	1.196086e+002	-1.975509e+001	-1.429776e+002	-2.620965e+001	-1.019700e+002	-1.222282e+000	1.698037e+002
7740067800	-3.646921e+000	1.195309e+002	-1.977709e+001	-1.430100e+002	-2.625180e+001	-1.017683e+002	-1.220170e+000	1.698690e+002
7750067500	-3.668015e+000	1.194407e+002	-1.978317e+001	-1.431155e+002	-2.621262e+001	-1.019232e+002	-1.228633e+000	1.698662e+002
7760067200	-3.695383e+000	1.193316e+002	-1.978581e+001	-1.433238e+002	-2.618582e+001	-1.023170e+002	-1.223020e+000	1.699478e+002
7770066900	-3.715232e+000	1.192842e+002	-1.978826e+001	-1.435576e+002	-2.615519e+001	-1.022597e+002	-1.222057e+000	1.699669e+002
7780066600	-3.738368e+000	1.192210e+002	-1.980937e+001	-1.436933e+002	-2.613496e+001	-1.026694e+002	-1.219489e+000	1.699936e+002
7790066300	-3.759502e+000	1.192082e+002	-1.980189e+001	-1.439754e+002	-2.615432e+001	-1.029658e+002	-1.224099e+000	1.700093e+002
7800066000	-3.790673e+000	1.191736e+002	-1.981613e+001	-1.443520e+002	-2.618852e+001	-1.029121e+002	-1.225451e+000	1.700856e+002
7810065700	-3.817682e+000	1.191788e+002	-1.985303e+001	-1.443871e+002	-2.622596e+001	-1.031475e+002	-1.226863e+000	1.701074e+002
7820065400	-3.851096e+000	1.192245e+002	-1.987522e+001	-1.447263e+002	-2.620976e+001	-1.032428e+002	-1.238829e+000	1.701282e+002
7830065100	-3.882704e+000	1.192334e+002	-1.989240e+001	-1.448203e+002	-2.620207e+001	-1.035872e+002	-1.246680e+000	1.700997e+002
7840064800	-3.910892e+000	1.192790e+002	-1.993444e+001	-1.449408e+002	-2.619025e+001	-1.035025e+002	-1.239552e+000	1.700589e+002
7850064500	-3.935115e+000	1.193346e+002	-1.993214e+001	-1.451005e+002	-2.619397e+001	-1.040800e+002	-1.238463e+000	1.699474e+002
7860064200	-3.958887e+000	1.193079e+002	-1.993514e+001	-1.451970e+002	-2.618300e+001	-1.038286e+002	-1.244783e+000	1.700022e+002
7870063900	-3.983869e+000	1.192302e+002	-1.991283e+001	-1.455652e+002	-2.614067e+001	-1.041419e+002	-1.253095e+000	1.700791e+002
7880063600	-4.003016e+000	1.191976e+002	-1.993084e+001	-1.459121e+002	-2.617052e+001	-1.044402e+002	-1.256090e+000	1.701287e+002
7890063300	-4.020921e+000	1.190793e+002	-1.994097e+001	-1.461175e+002	-2.614532e+001	-1.048180e+002	-1.258757e+000	1.702153e+002
7900063000	-4.038717e+000	1.189685e+002	-1.995430e+001	-1.462152e+002	-2.615882e+001	-1.049102e+002	-1.266066e+000	1.702465e+002
7910062700	-4.065171e+000	1.188756e+002	-1.996372e+001	-1.466262e+002	-2.613043e+001	-1.053684e+002	-1.267390e+000	1.703196e+002
7920062400	-4.082350e+000	1.187758e+002	-1.999539e+001	-1.468577e+002	-2.615619e+001	-1.054175e+002	-1.276769e+000	1.703123e+002
7930062100	-4.096347e+000	1.186676e+002	-2.000568e+001	-1.471550e+002	-2.616516e+001	-1.054808e+002	-1.277627e+000	1.703517e+002
7940061800	-4.118375e+000	1.185880e+002	-2.002541e+001	-1.473985e+002	-2.617773e+001	-1.060592e+002	-1.277972e+000	1.703408e+002
7950061500	-4.143876e+000	1.184863e+002	-2.003692e+001	-1.476528e+002	-2.615772e+001	-1.058145e+002	-1.279156e+000	1.703421e+002
7960061200	-4.162549e+000	1.184128e+002	-2.005722e+001	-1.478659e+002	-2.622051e+001	-1.060633e+002	-1.282017e+000	1.703623e+002
7970060900	-4.196814e+000	1.183284e+002	-2.008783e+001	-1.480729e+002	-2.624667e+001	-1.062988e+002	-1.286526e+000	1.704209e+002
7980060600	-4.232455e+000	1.183108e+002	-2.008397e+001	-1.480551e+002	-2.628407e+001	-1.064222e+002	-1.298898e+000	1.704618e+002
7990060300	-4.278904e+000	1.183078e+002	-2.011236e+001	-1.482644e+002	-2.626534e+001	-1.060934e+002	-1.306777e+000	1.704464e+002
8000060000	-4.321805e+000	1.183804e+002	-2.010477e+001	-1.483430e+002	-2.620728e+001	-1.066934e+002	-1.304778e+000	1.703517e+002
8010059700	-4.360162e+000	1.184424e+002	-2.009574e+001	-1.488020e+002	-2.621558e+001	-1.071541e+002	-1.295366e+000	1.702353e+002
8020059400	-4.390580e+000	1.184664e+002	-2.008499e+001	-1.489087e+002	-2.610495e+001	-1.070514e+002	-1.298019e+000	1.702752e+002
8030059100	-4.433175e+000	1.184623e+002	-2.010346e+001	-1.491807e+002	-2.620081e+001	-1.076341e+002	-1.301376e+000	1.703035e+002
8040058800	-4.463934e+000	1.183944e+002	-2.008955e+001	-1.494662e+002	-2.619222e+001	-1.080290e+002	-1.305778e+000	1.703228e+002
8050058500	-4.503532e+000	1.183805e+002	-2.008656e+001	-1.498800e+002	-2.619439e+001	-1.085362e+002	-1.313645e+000	1.703508e+002
8060058200	-4.537444e+000	1.183500e+002	-2.008144e+001	-1.502579e+002	-2.622342e+001	-1.086297e+002	-1.321283e+000	1.704040e+002
8070057900	-4.569510e+000	1.182826e+002	-2.010925e+001	-1.506954e+002	-2.618404e+001	-1.091613e+002	-1.330824e+000	1.703845e+002
8080057600	-4.598433e+000	1.182185e+002	-2.011350e+001	-1.511245e+002	-2.623936e+001	-1.093965e+002	-1.339788e+000	1.703664e+002
8090057300	-4.623540e+000	1.181568e+002	-2.014976e+001	-1.514705e+002	-2.627253e+001	-1.094639e+002	-1.347814e+000	1.703666e+002
8100057000	-4.647388e+000	1.180385e+002	-2.014941e+001	-1.517549e+002	-2.628665e+001	-1.101835e+002	-1.354856e+000	1.703454e+002
8110056700	-4.669402e+000	1.179686e+002	-2.016788e+001	-1.523353e+002	-2.627184e+001	-1.105646e+002	-1.370244e+000	1.703603e+002
8120056400	-4.695294e+000	1.179070e+002	-2.018650e+001	-1.526657e+002	-2.633187e+001	-1.107253e+002	-1.372161e+000	1.703891e+002
8130056100	-4.717297e+000	1.178336e+002	-2.021717e+001	-1.528324e+002	-2.641315e+001	-1.104519e+002	-1.381497e+000	1.704513e+002
8140055800	-4.747652e+000	1.178214e+002	-2.027412e+001	-1.533880e+002	-2.644976e+001	-1.110113e+002	-1.389382e+000	1.704734e+002
8150055500	-4.781405e+000	1.177697e+002	-2.029094e+001	-1.536050e+002	-2.652308e+001	-1.115569e+002	-1.398827e+000	1.704676e+002
8160055200	-4.812745e+000	1.177184e+002	-2.032761e+001	-1.539307e+002	-2.657207e+001	-1.114800e+002	-1.414728e+000	1.704719e+002
8170054900	-4.860813e+000	1.177159e+002	-2.035263e+001	-1.543526e+002	-2.654056e+001	-1.119334e+002	-1.408430e+000	1.704277e+002
8180054600	-4.916145e+000	1.176671e+002	-2.037099e+001	-1.546447e+002	-2.662356e+001	-1.121842e+002	-1.404082e+000	1.703120e+002
8190054300	-4.958392e+000	1.177029e+002	-2.040778e+001	-1.552201e+002	-2.669967e+001	-1.125263e+002	-1.402030e+000	1.704171e+002
8200054000	-5.014247e+000	1.176420e+002	-2.044842e+001	-1.555823e+002	-2.673877e+001	-1.127749e+002	-1.401016e+000	1.704864e+002
8210053700	-5.059034e+000	1.176335e+002	-2.053906e+001	-1.558006e+002	-2.688271e+001	-1.121226e+002	-1.413247e+000	1.704833e+002
8220053400	-5.112545e+000	1.176257e+002	-2.059765e+001	-1.560043e+002	-2.688263e+001	-1.117132e+002	-1.426463e+000	1.705499e+002
8230053100	-5.159077e+000	1.176496e+002	-2.062335e+001	-1.560972e+002	-2.687557e+001	-1.112597e+002	-1.434107e+000	1.705805e+002
8240052800	-5.200521e+000	1.176295e+002	-2.067549e+001	-1.561548e+002	-2.682463e+001	-1.116066e+002	-1.449404e+000	1.706008e+002
8250052500	-5.242500e+000	1.175880e+002	-2.066484e+001	-1.565067e+002	-2.683234e+001	-1.118215e+002	-1.451346e+000	1.706327e+002
8260052200	-5.279717e+000	1.175828e+002	-2.064747e+001	-1.568943e+002	-2.682171e+001	-1.120948e+002	-1.464121e+000	1.706367e+002
8270051900	-5.302729e+000	1.174909e+002	-2.068648e+001	-1.574256e+002	-2.685096e+001	-1.119315e+002	-1.468536e+000	1.706043e+002
8280051600	-5.328571e+000	1.175109e+002	-2.073485e+001	-1.577910e+002	-2.693967e+001	-1.127935e+002	-1.477564e+000	1.705746e+002
8290051300	-5.358310e+000	1.174760e+002	-2.078848e+001	-1.582677e+002	-2.706659e+001	-1.129263e+002	-1.488470e+000	1.705784e+002
8300051000	-5.382339e+000	1.174019e+002	-2.086954e+001	-1.588272e+002	-2.719026e+001	-1.129536e+002	-1.494064e+000	1.705584e+002
8310050700	-5.409116e+000	1.174075e+002	-2.093822e+001	-1.594705e+002	-2.736712e+001	-1.129697e+002	-1.514346e+000	1.705388e+002
8320050400	-5.442641e+000	1.174069e+002	-2.104854e+001	-1.598558e+002	-2.743590e+001	-1.122786e+002	-1.530876e+000	1.705157e+002
8330050100	-5.472309e+000	1.173053e+002	-2.119695e+001	-1.600702e+002	-2.753518e+001	-1.120799e+002	-1.543756e+000	1.704167e+002
8340049800	-5.512537e+000	1.172291e+002	-2.131979e+001	-1.604057e+002	-2.770304e+001	-1.110824e+002	-1.543062e+000	1.703589e+002
8350049500	-5.562632e+000	1.171309e+002	-2.145166e+001	-1.602231e+002	-2.774261e+001	-1.099544e+002	-1.555894e+000	1.703861e+002
8360049200	-5.613469e+000	1.170601e+002	-2.157391e+001	-1.600035e+002	-2.783458e+001	-1.084426e+002	-1.563963e+000	1.705186e+002
8370048900	-5.666506e+000	1.168943e+002	-2.170386e+001	-1.595415e+002	-2.777864e+001	-1.069776e+002	-1.577929e+000	1.706835e+002
8380048600	-5.727617e+000	1.167696e+002	-2.179425e+001	-1.590992e+002	-2.768262e+001	-1.053816e+002	-1.603924e+000	1.707741e+002
8390048300	-5.785931e+000	1.166012e+002	-2.185549e+001	-1.584635e+002	-2.761399e+001	-1.044718e+002	-1.629351e+000	1.709952e+002
8400048000	-5.860426e+000	1.163954e+002	-2.189248e+001	-1.577554e+002	-2.746577e+001	-1.034606e+002	-1.635751e+000	1.711568e+002
8410047700	-5.934597e+000	1.162589e+002	-2.188108e+001	-1.569115e+002	-2.724959e+001	-1.027958e+002	-1.646914e+000	1.713156e+002
8420047400	-6.005312e+000	1.161045e+002	-2.182773e+001	-1.563709e+002	-2.700016e+001	-1.025726e+002	-1.642810e+000	1.714269e+002
8430047100	-6.073201e+000	1.160723e+002	-2.176298e+001	-1.563614e+002	-2.681981e+001	-1.030767e+002	-1.641025e+000	1.714603e+002
8440046800	-6.129510e+000	1.161416e+002	-2.170945e+001	-1.565063e+002	-2.669980e+001	-1.037798e+002	-1.635241e+000	1.714677e+002
8450046500	-6.179719e+000	1.160826e+002	-2.172780e+001	-1.566105e+002	-2.670377e+001	-1.040101e+002	-1.633871e+000	1.714143e+002
8460046200	-6.235209e+000	1.160833e+002	-2.175740e+001	-1.568704e+002	-2.673082e+001	-1.038415e+002	-1.639837e+000	1.713929e+002
8470045900	-6.289304e+000	1.160186e+002	-2.180324e+001	-1.567271e+002	-2.668233e+001	-1.038214e+002	-1.644936e+000	1.713531e+002
8480045600	-6.344114e+000	1.160725e+002	-2.183118e+001	-1.564500e+002	-2.661199e+001	-1.039288e+002	-1.636100e+000	1.713599e+002
8490045300	-6.405442e+000	1.160195e+002	-2.185561e+001	-1.567052e+002	-2.664067e+001	-1.033431e+002	-1.644070e+000	1.713480e+002
8500045000	-6.489151e+000	1.162559e+002	-2.206889e+001	-1.564708e+002	-2.664249e+001	-1.025936e+002	-1.619209e+000	1.712910e+002
8510044700	-6.569711e+000	1.163401e+002	-2.207006e+001	-1.556612e+002	-2.642130e+001	-1.020352e+002	-1.624708e+000	1.711653e+002
8520044400	-6.642927e+000	1.162144e+002	-2.208597e+001	-1.549916e+002	-2.613661e+001	-1.007619e+002	-1.607489e+000	1.712870e+002
8530044100	-6.782817e+000	1.162091e+002	-2.208677e+001	-1.547856e+002	-2.610502e+001	-1.013007e+002	-1.608373e+000	1.713027e+002
8540043800	-6.854712e+000	1.162551e+002	-2.197369e+001	-1.540336e+002	-2.594991e+001	-1.010623e+002	-1.636259e+000	1.713358e+002
8550043500	-6.935126e+000	1.162808e+002	-2.206045e+001	-1.537370e+002	-2.588061e+001	-1.013103e+002	-1.659244e+000	1.715593e+002
8560043200	-7.052481e+000	1.162827e+002	-2.197508e+001	-1.528129e+002	-2.561871e+001	-1.006809e+002	-1.672511e+000	1.717803e+002
8570042900	-7.143688e+000	1.162221e+002	-2.184418e+001	-1.522612e+002	-2.526490e+001	-1.009922e+002	-1.681265e+000	1.719240e+002
8580042600	-7.240543e+000	1.162292e+002	-2.165635e+001	-1.518197e+002	-2.491125e+001	-1.013154e+002	-1.668402e+000	1.721853e+002
8590042300	-7.295709e+000	1.162441e+002	-2.151504e+001	-1.522168e+002	-2.479210e+001	-1.016878e+002	-1.697444e+000	1.724512e+002
8600042000	-7.380081e+000	1.163598e+002	-2.140006e+001	-1.526506e+002	-2.461066e+001	-1.037013e+002	-1.697442e+000	1.724252e+002
8610041700	-7.450862e+000	1.163591e+002	-2.120658e+001	-1.525512e+002	-2.454062e+001	-1.047710e+002	-1.681266e+000	1.725388e+002
8620041400	-7.520736e+000	1.163734e+002	-2.114356e+001	-1.530859e+002	-2.439377e+001	-1.058506e+002	-1.688199e+000	1.725467e+002
8630041100	-7.592205e+000	1.165694e+002	-2.103055e+001	-1.533168e+002	-2.441815e+001	-1.062443e+002	-1.683064e+000	1.725265e+002
8640040800	-7.693234e+000	1.166891e+002	-2.102943e+001	-1.538259e+002	-2.424946e+001	-1.075775e+002	-1.676714e+000	1.723569e+002
8650040500	-7.771296e+000	1.169790e+002	-2.095239e+001	-1.544412e+002	-2.420608e+001	-1.080157e+002	-1.647202e+000	1.722379e+002
8660040200	-7.835215e+000	1.173345e+002	-2.083804e+001	-1.551339e+002	-2.405913e+001	-1.099740e+002	-1.628869e+000	1.720991e+002
8670039900	-7.915530e+000	1.177644e+002	-2.080102e+001	-1.558524e+002	-2.412651e+001	-1.121249e+002	-1.623904e+000	1.719421e+002
8680039600	-8.017773e+000	1.180324e+002	-2.076649e+001	-1.566206e+002	-2.405566e+001	-1.125325e+002	-1.596787e+000	1.718169e+002
8690039300	-8.096678e+000	1.182779e+002	-2.071001e+001	-1.573166e+002	-2.403634e+001	-1.135285e+002	-1.602411e+000	1.718614e+002
8700039000	-8.189673e+000	1.186753e+002	-2.063365e+001	-1.579704e+002	-2.416638e+001	-1.144450e+002	-1.600332e+000	1.717600e+002
8710038700	-8.276619e+000	1.188531e+002	-2.070057e+001	-1.585465e+002	-2.418150e+001	-1.144548e+002	-1.607566e+000	1.717742e+002
8720038400	-8.381651e+000	1.189778e+002	-2.074868e+001	-1.590802e+002	-2.419949e+001	-1.154982e+002	-1.626489e+000	1.717767e+002
8730038100	-8.484579e+000	1.191793e+002	-2.076146e+001	-1.593830e+002	-2.426649e+001	-1.148021e+002	-1.659652e+000	1.718599e+002
8740037800	-8.565298e+000	1.194300e+002	-2.080701e+001	-1.594172e+002	-2.419470e+001	-1.150622e+002	-1.678791e+000	1.719805e+002
8750037500	-8.700803e+000	1.197266e+002	-2.079002e+001	-1.588111e+002	-2.409399e+001	-1.146564e+002	-1.702720e+000	1.720693e+002
8760037200	-8.767718e+000	1.198879e+002	-2.066869e+001	-1.589560e+002	-2.393149e+001	-1.146230e+002	-1.729943e+000	1.722401e+002
8770036900	-8.844519e+000	1.199989e+002	-2.063451e+001	-1.591102e+002	-2.389076e+001	-1.163764e+002	-1.728805e+000	1.722672e+002
8780036600	-8.943241e+000	1.203719e+002	-2.055082e+001	-1.599759e+002	-2.391534e+001	-1.172829e+002	-1.741675e+000	1.722947e+002
8790036300	-9.035780e+000	1.206550e+002	-2.056294e+001	-1.609140e+002	-2.382143e+001	-1.182137e+002	-1.741394e+000	1.720979e+002
8800036000	-9.113304e+000	1.207562e+002	-2.048120e+001	-1.614611e+002	-2.373244e+001	-1.197883e+002	-1.733751e+000	1.721327e+002
8810035700	-9.172346e+000	1.212714e+002	-2.048803e+001	-1.620781e+002	-2.374729e+001	-1.197892e+002	-1.717329e+000	1.719366e+002
8820035400	-9.255370e+000	1.218723e+002	-2.040182e+001	-1.625229e+002	-2.371958e+001	-1.199223e+002	-1.688974e+000	1.718704e+002
8830035100	-9.333421e+000	1.223841e+002	-2.042425e+001	-1.629988e+002	-2.366214e+001	-1.216173e+002	-1.690254e+000	1.716963e+002
8840034800	-9.455835e+000	1.226889e+002	-2.042798e+001	-1.634311e+002	-2.375134e+001	-1.218625e+002	-1.669409e+000	1.716652e+002
8850034500	-9.520829e+000	1.232014e+002	-2.040118e+001	-1.633929e+002	-2.361676e+001	-1.228385e+002	-1.688411e+000	1.715203e+002
8860034200	-9.611002e+000	1.239518e+002	-2.039519e+001	-1.641035e+002	-2.372730e+001	-1.229353e+002	-1.678447e+000	1.715132e+002
8870033900	-9.715569e+000	1.244418e+002	-2.034741e+001	-1.648558e+002	-2.364641e+001	-1.239885e+002	-1.686022e+000	1.715418e+002
8880033600	-9.813265e+000	1.248982e+002	-2.031412e+001	-1.653764e+002	-2.360612e+001	-1.243928e+002	-1.683997e+000	1.716100e+002
8890033300	-9.883198e+000	1.254081e+002	-2.032569e+001	-1.659567e+002	-2.358342e+001	-1.255380e+002	-1.706407e+000	1.715037e+002
8900033000	-9.984403e+000	1.258467e+002	-2.025036e+001	-1.663473e+002	-2.362766e+001	-1.263648e+002	-1.722580e+000	1.716291e+002
8910032700	-1.005833e+001	1.263545e+002	-2.026123e+001	-1.673965e+002	-2.360489e+001	-1.270156e+002	-1.733100e+000	1.716230e+002
8920032400	-1.013406e+001	1.269400e+002	-2.028187e+001	-1.677232e+002	-2.359940e+001	-1.275887e+002	-1.760887e+000	1.717056e+002
8930032100	-1.024608e+001	1.273527e+002	-2.023891e+001	-1.681804e+002	-2.379157e+001	-1.286820e+002	-1.791570e+000	1.716778e+002
8940031800	-1.028021e+001	1.278465e+002	-2.034759e+001	-1.687872e+002	-2.366235e+001	-1.291614e+002	-1.789328e+000	1.716592e+002
8950031500	-1.032294e+001	1.284035e+002	-2.028330e+001	-1.693647e+002	-2.371160e+001	-1.295866e+002	-1.815622e+000	1.715494e+002
8960031200	-1.038520e+001	1.289398e+002	-2.034044e+001	-1.698367e+002	-2.381968e+001	-1.310821e+002	-1.825010e+000	1.714740e+002
8970030900	-1.043837e+001	1.294769e+002	-2.035634e+001	-1.706417e+002	-2.372205e+001	-1.305410e+002	-1.840457e+000	1.713220e+002
8980030600	-1.050909e+001	1.299785e+002	-2.038565e+001	-1.709932e+002	-2.379512e+001	-1.308627e+002	-1.843332e+000	1.711845e+002
8990030300	-1.057822e+001	1.307055e+002	-2.044864e+001	-1.711626e+002	-2.379591e+001	-1.312715e+002	-1.843807e+000	1.710377e+002
9000030000	-1.062437e+001	1.315130e+002	-2.032964e+001	-1.718665e+002	-2.362468e+001	-1.318907e+002	-1.825441e+000	1.710261e+002
9010029700	-1.070232e+001	1.323254e+002	-2.043452e+001	-1.720897e+002	-2.356932e+001	-1.329877e+002	-1.850737e+000	1.707801e+002
9020029400	-1.075437e+001	1.331002e+002	-2.030847e+001	-1.724038e+002	-2.362389e+001	-1.334239e+002	-1.852384e+000	1.706856e+002
9030029100	-1.082051e+001	1.338841e+002	-2.026766e+001	-1.734313e+002	-2.355922e+001	-1.342208e+002	-1.852496e+000	1.706221e+002
9040028800	-1.089596e+001	1.346146e+002	-2.030983e+001	-1.738448e+002	-2.362587e+001	-1.342505e+002	-1.845294e+000	1.706648e+002
9050028500	-1.092010e+001	1.353711e+002	-2.034552e+001	-1.748145e+002	-2.373123e+001	-1.359046e+002	-1.856195e+000	1.706771e+002
9060028200	-1.104342e+001	1.361443e+002	-2.035444e+001	-1.750457e+002	-2.366527e+001	-1.358077e+002	-1.862144e+000	1.706049e+002
9070027900	-1.105830e+001	1.369422e+002	-2.039907e+001	-1.756557e+002	-2.374255e+001	-1.364326e+002	-1.882761e+000	1.707313e+002
9080027600	-1.112754e+001	1.374280e+002	-2.042394e+001	-1.763150e+002	-2.384941e+001	-1.379192e+002	-1.918122e+000	1.706658e+002
9090027300	-1.119326e+001	1.382641e+002	-2.041859e+001	-1.772799e+002	-2.374947e+001	-1.381039e+002	-1.940436e+000	1.708022e+002
9100027000	-1.122070e+001	1.390402e+002	-2.045435e+001	-1.775558e+002	-2.390203e+001	-1.385399e+002	-1.978331e+000	1.707104e+002
9110026700	-1.129211e+001	1.393915e+002	-2.046369e+001	-1.776127e+002	-2.389543e+001	-1.387516e+002	-1.989093e+000	1.707087e+002
9120026400	-1.131002e+001	1.399971e+002	-2.055469e+001	-1.780815e+002	-2.389452e+001	-1.396780e+002	-1.998020e+000	1.706006e+002
9130026100	-1.133994e+001	1.407432e+002	-2.051025e+001	-1.787737e+002	-2.389135e+001	-1.400930e+002	-2.010038e+000	1.705737e+002
9140025800	-1.135326e+001	1.414504e+002	-2.057553e+001	-1.795094e+002	-2.394756e+001	-1.407467e+002	-2.026891e+000	1.704057e+002
9150025500	-1.135391e+001	1.421708e+002	-2.067811e+001	-1.799354e+002	-2.405234e+001	-1.407315e+002	-2.047560e+000	1.701659e+002
9160025200	-1.139489e+001	1.431972e+002	-2.064450e+001	1.797987e+002	-2.400714e+001	-1.410770e+002	-2.047933e+000	1.700166e+002
9170024900	-1.141149e+001	1.439898e+002	-2.072654e+001	1.793804e+002	-2.402631e+001	-1.420375e+002	-2.070434e+000	1.698384e+002
9180024600	-1.139261e+001	1.448341e+002	-2.071449e+001	1.787239e+002	-2.409420e+001	-1.422685e+002	-2.071872e+000	1.697850e+002
9190024300	-1.140495e+001	1.458756e+002	-2.081660e+001	1.784461e+002	-2.417825e+001	-1.419409e+002	-2.067295e+000	1.696799e+002
9200024000	-1.146875e+001	1.467357e+002	-2.089893e+001	1.783171e+002	-2.413099e+001	-1.422902e+002	-2.101065e+000	1.696854e+002
9210023700	-1.148659e+001	1.477916e+002	-2.087673e+001	1.777513e+002	-2.430644e+001	-1.411892e+002	-2.124035e+000	1.697590e+002
9220023400	-1.148457e+001	1.486338e+002	-2.093411e+001	1.776065e+002	-2.423598e+001	-1.421475e+002	-2.123298e+000	1.697787e+002
9230023100	-1.154978e+001	1.494677e+002	-2.096646e+001	1.775792e+002	-2.421865e+001	-1.422231e+002	-2.145311e+000	1.699029e+002
9240022800	-1.156707e+001	1.504293e+002	-2.100243e+001	1.773590e+002	-2.417347e+001	-1.430131e+002	-2.166903e+000	1.701020e+002
9250022500	-1.158261e+001	1.513925e+002	-2.095710e+001	1.770265e+002	-2.405372e+001	-1.430767e+002	-2.162530e+000	1.701811e+002
9260022200	-1.158142e+001	1.521824e+002	-2.102238e+001	1.770397e+002	-2.417672e+001	-1.438095e+002	-2.188415e+000	1.702539e+002
9270021900	-1.158730e+001	1.530001e+002	-2.110820e+001	1.769559e+002	-2.403378e+001	-1.434705e+002	-2.213972e+000	1.703093e+002
9280021600	-1.156483e+001	1.536419e+002	-2.103794e+001	1.763641e+002	-2.399853e+001	-1.430743e+002	-2.204983e+000	1.705933e+002
9290021300	-1.152784e+001	1.545533e+002	-2.094937e+001	1.766718e+002	-2.397419e+001	-1.444982e+002	-2.218397e+000	1.705781e+002
9300021000	-1.151668e+001	1.552379e+002	-2.102932e+001	1.759616e+002	-2.383542e+001	-1.439976e+002	-2.230454e+000	1.706181e+002
9310020700	-1.144380e+001	1.559791e+002	-2.097398e+001	1.760081e+002	-2.373947e+001	-1.445547e+002	-2.234070e+000	1.704526e+002
9320020400	-1.138666e+001	1.566500e+002	-2.094857e+001	1.755073e+002	-2.369186e+001	-1.452296e+002	-2.271526e+000	1.703877e+002
9330020100	-1.132782e+001	1.574833e+002	-2.089808e+001	1.760170e+002	-2.365240e+001	-1.456517e+002	-2.253507e+000	1.701255e+002
9340019800	-1.128969e+001	1.582097e+002	-2.087739e+001	1.749435e+002	-2.362726e+001	-1.461626e+002	-2.258573e+000	1.700303e+002
9350019500	-1.122241e+001	1.588905e+002	-2.082074e+001	1.742070e+002	-2.360996e+001	-1.474954e+002	-2.255703e+000	1.699182e+002
9360019200	-1.114316e+001	1.595182e+002	-2.082287e+001	1.741023e+002	-2.354707e+001	-1.476888e+002	-2.280558e+000	1.698274e+002
9370018900	-1.109561e+001	1.602378e+002	-2.084277e+001	1.739966e+002	-2.352824e+001	-1.488431e+002	-2.266140e+000	1.698587e+002
9380018600	-1.102934e+001	1.610772e+002	-2.075080e+001	1.731756e+002	-2.361380e+001	-1.496569e+002	-2.264275e+000	1.698325e+002
9390018300	-1.093433e+001	1.616342e+002	-2.078892e+001	1.726558e+002	-2.344003e+001	-1.499760e+002	-2.260357e+000	1.697993e+002
9400018000	-1.087622e+001	1.623912e+002	-2.076709e+001	1.719332e+002	-2.338874e+001	-1.507584e+002	-2.276696e+000	1.698195e+002
9410017700	-1.083837e+001	1.629868e+002	-2.077157e+001	1.716322e+002	-2.348940e+001	-1.516551e+002	-2.284810e+000	1.698650e+002
9420017400	-1.075823e+001	1.635767e+002	-2.080169e+001	1.712973e+002	-2.348657e+001	-1.528141e+002	-2.286690e+000	1.698590e+002
9430017100	-1.070957e+001	1.641021e+002	-2.073911e+001	1.703260e+002	-2.341589e+001	-1.534822e+002	-2.309574e+000	1.699580e+002
9440016800	-1.067553e+001	1.644624e+002	-2.072977e+001	1.698576e+002	-2.342566e+001	-1.547704e+002	-2.314939e+000	1.701330e+002
9450016500	-1.058713e+001	1.649594e+002	-2.067747e+001	1.692136e+002	-2.347201e+001	-1.553401e+002	-2.308850e+000	1.701260e+002
9460016200	-1.050074e+001	1.653727e+002	-2.081579e+001	1.688788e+002	-2.342316e+001	-1.561586e+002	-2.325249e+000	1.701780e+002
9470015900	-1.048281e+001	1.656867e+002	-2.080069e+001	1.683646e+002	-2.336078e+001	-1.558912e+002	-2.353433e+000	1.700202e+002
9480015600	-1.037751e+001	1.658002e+002	-2.077237e+001	1.678440e+002	-2.340305e+001	-1.577494e+002	-2.350959e+000	1.699906e+002
9490015300	-1.030316e+001	1.660444e+002	-2.078748e+001	1.673961e+002	-2.339060e+001	-1.577206e+002	-2.365261e+000	1.697953e+002
9500015000	-1.023850e+001	1.663653e+002	-2.078225e+001	1.661973e+002	-2.343369e+001	-1.588617e+002	-2.396907e+000	1.695937e+002
9510014700	-1.014351e+001	1.666611e+002	-2.078302e+001	1.662171e+002	-2.338847e+001	-1.590657e+002	-2.411413e+000	1.694713e+002
9520014400	-1.007345e+001	1.670013e+002	-2.073961e+001	1.658718e+002	-2.347800e+001	-1.603993e+002	-2.413325e+000	1.691469e+002
9530014100	-1.000731e+001	1.673375e+002	-2.077959e+001	1.648881e+002	-2.339038e+001	-1.611928e+002	-2.423167e+000	1.691081e+002
9540013800	-9.927354e+000	1.673588e+002	-2.076025e+001	1.641430e+002	-2.336411e+001	-1.614083e+002	-2.420699e+000	1.690252e+002
9550013500	-9.815662e+000	1.678140e+002	-2.082038e+001	1.639660e+002	-2.338501e+001	-1.622434e+002	-2.413875e+000	1.687882e+002
9560013200	-9.784430e+000	1.681026e+002	-2.079048e+001	1.631005e+002	-2.334034e+001	-1.626774e+002	-2.434537e+000	1.687610e+002
9570012900	-9.704757e+000	1.684362e+002	-2.085578e+001	1.624593e+002	-2.343919e+001	-1.638124e+002	-2.427819e+000	1.688722e+002
9580012600	-9.634692e+000	1.685516e+002	-2.075326e+001	1.619368e+002	-2.340408e+001	-1.650021e+002	-2.453326e+000	1.688462e+002
9590012300	-9.577671e+000	1.686629e+002	-2.074874e+001	1.614497e+002	-2.346117e+001	-1.656622e+002	-2.454507e+000	1.688600e+002
9600012000	-9.544462e+000	1.687035e+002	-2.073430e+001	1.608886e+002	-2.349611e+001	-1.663838e+002	-2.459001e+000	1.688700e+002
9610011700	-9.478236e+000	1.690003e+002	-2.080689e+001	1.604616e+002	-2.343368e+001	-1.674117e+002	-2.464008e+000	1.690172e+002
9620011400	-9.410055e+000	1.686586e+002	-2.075414e+001	1.592113e+002	-2.341821e+001	-1.679023e+002	-2.487549e+000	1.691805e+002
9630011100	-9.360540e+000	1.688952e+002	-2.078924e+001	1.589492e+002	-2.353572e+001	-1.687299e+002	-2.487245e+000	1.690654e+002
9640010800	-9.302132e+000	1.688680e+002	-2.083653e+001	1.574601e+002	-2.346448e+001	-1.703556e+002	-2.524333e+000	1.689665e+002
9650010500	-9.210212e+000	1.689097e+002	-2.083223e+001	1.573594e+002	-2.348930e+001	-1.703572e+002	-2.540276e+000	1.689514e+002
9660010200	-9.177003e+000	1.688505e+002	-2.087403e+001	1.566804e+002	-2.359062e+001	-1.716567e+002	-2.570008e+000	1.687497e+002
9670009900	-9.093119e+000	1.687415e+002	-2.092613e+001	1.561981e+002	-2.360658e+001	-1.721055e+002	-2.579312e+000	1.686150e+002
9680009600	-9.058866e+000	1.685674e+002	-2.095643e+001	1.553049e+002	-2.361736e+001	-1.729233e+002	-2.603297e+000	1.683664e+002
9690009300	-8.988234e+000	1.685933e+002	-2.100200e+001	1.546607e+002	-2.365891e+001	-1.731936e+002	-2.618322e+000	1.682679e+002
9700009000	-8.939234e+000	1.685072e+002	-2.090940e+001	1.539327e+002	-2.371996e+001	-1.736431e+002	-2.617899e+000	1.681760e+002
9710008700	-8.867682e+000	1.684057e+002	-2.103180e+001	1.537564e+002	-2.388218e+001	-1.752919e+002	-2.630222e+000	1.680884e+002
9720008400	-8.854322e+000	1.684683e+002	-2.106455e+001	1.525907e+002	-2.375555e+001	-1.763619e+002	-2.640634e+000	1.679398e+002
9730008100	-8.790362e+000	1.683463e+002	-2.106281e+001	1.524721e+002	-2.376718e+001	-1.767727e+002	-2.660010e+000	1.679080e+002
9740007800	-8.763656e+000	1.683401e+002	-2.102409e+001	1.515417e+002	-2.381552e+001	-1.787371e+002	-2.660099e+000	1.679868e+002
9750007500	-8.702256e+000	1.682338e+002	-2.106365e+001	1.509235e+002	-2.374234e+001	-1.790785e+002	-2.668479e+000	1.680203e+002
9760007200	-8.654097e+000	1.679269e+002	-2.104743e+001	1.504164e+002	-2.387609e+001	1.799528e+002	-2.661261e+000	1.679680e+002
9770006900	-8.582069e+000	1.678370e+002	-2.102873e+001	1.494996e+002	-2.394395e+001	1.789230e+002	-2.662050e+000	1.680745e+002
9780006600	-8.593602e+000	1.675894e+002	-2.099396e+001	1.489072e+002	-2.388150e+001	1.789158e+002	-2.649626e+000	1.680623e+002
9790006300	-8.580685e+000	1.673389e+002	-2.110505e+001	1.484454e+002	-2.389531e+001	1.773422e+002	-2.671423e+000	1.681587e+002
9800006000	-8.542148e+000	1.671345e+002	-2.116040e+001	1.468493e+002	-2.401531e+001	1.760495e+002	-2.668472e+000	1.680336e+002
9810005700	-8.518924e+000	1.668919e+002	-2.117389e+001	1.466117e+002	-2.410221e+001	1.752385e+002	-2.680209e+000	1.679561e+002
9820005400	-8.474151e+000	1.663974e+002	-2.114557e+001	1.457032e+002	-2.406165e+001	1.742375e+002	-2.711401e+000	1.678890e+002
9830005100	-8.466818e+000	1.662388e+002	-2.115630e+001	1.451411e+002	-2.413588e+001	1.739608e+002	-2.736646e+000	1.676841e+002
9840004800	-8.446682e+000	1.657131e+002	-2.117019e+001	1.446941e+002	-2.414090e+001	1.725413e+002	-2.751632e+000	1.675661e+002
9850004500	-8.410059e+000	1.657621e+002	-2.116756e+001	1.436592e+002	-2.420755e+001	1.707762e+002	-2.755828e+000	1.674424e+002
9860004200	-8.375246e+000	1.655449e+002	-2.122934e+001	1.424833e+002	-2.411418e+001	1.698948e+002	-2.769015e+000	1.672447e+002
9870003900	-8.346461e+000	1.650379e+002	-2.118992e+001	1.415157e+002	-2.423793e+001	1.692742e+002	-2.749408e+000	1.670239e+002
9880003600	-8.334922e+000	1.647701e+002	-2.129464e+001	1.410566e+002	-2.441701e+001	1.673451e+002	-2.789792e+000	1.668420e+002
9890003300	-8.375593e+000	1.644889e+002	-2.130117e+001	1.393503e+002	-2.439399e+001	1.660433e+002	-2.791350e+000	1.668864e+002
9900003000	-8.367324e+000	1.641739e+002	-2.136367e+001	1.388690e+002	-2.462528e+001	1.645249e+002	-2.764483e+000	1.668669e+002
9910002700	-8.366005e+000	1.639053e+002	-2.146382e+001	1.377304e+002	-2.450757e+001	1.627803e+002	-2.783840e+000	1.669224e+002
9920002400	-8.355820e+000	1.633551e+002	-2.152304e+001	1.369411e+002	-2.470808e+001	1.618548e+002	-2.782056e+000	1.667724e+002
9930002100	-8.398388e+000	1.629148e+002	-2.157193e+001	1.353864e+002	-2.486910e+001	1.606151e+002	-2.775430e+000	1.666984e+002
9940001800	-8.430874e+000	1.628144e+002	-2.168622e+001	1.346889e+002	-2.490142e+001	1.586929e+002	-2.769503e+000	1.666057e+002
9950001500	-8.439703e+000	1.622483e+002	-2.161450e+001	1.334624e+002	-2.501164e+001	1.585544e+002	-2.761108e+000	1.664596e+002
9960001200	-8.504688e+000	1.621616e+002	-2.175797e+001	1.327749e+002	-2.529778e+001	1.572210e+002	-2.803062e+000	1.661986e+002
9970000900	-8.557342e+000	1.615863e+002	-2.183298e+001	1.315697e+002	-2.544629e+001	1.561612e+002	-2.809774e+000	1.661462e+002
9980000600	-8.582489e+000	1.614157e+002	-2.191354e+001	1.300017e+002	-2.550631e+001	1.543108e+002	-2.810734e+000	1.658809e+002
9990000300	-8.659707e+000	1.608008e+002	-2.202193e+001	1.289418e+002	-2.569901e+001	1.531710e+002	-2.837887e+000	1.658145e+002
10000000000	-8.709146e+000	1.606293e+002	-2.208110e+001	1.280693e+002	-2.600126e+001	1.515956e+002	-2.881504e+000	1.656029e+002

!Noise Parameters
!Freq  NFmin(dB)  Mag(GammaOpt)  Ang(GammaOpt)(deg)  rn(normalized)
6.5e+008 1.2191 0.49448 66.874 0.33012
7e+008   1.1475 0.51355 70.811 0.29586
7.5e+008 1.0948 0.50795 72.604 0.2429
8e+008   1.1102 0.50326 76.399 0.23796
8.5e+008 1.1302 0.46891 81.946 0.22055
9e+008   1.1584 0.4801  82.194 0.23259
9.5e+008 1.1722 0.48299 86.256 0.28113
1e+009   1.2066 0.40767 90.756 0.20572