!Agilent Technologies,E5071C,MY46316587,B.13.01
!Date: Thu Dec 07 14:07:35 2017
!Data & Calibration Information:
!Freq	S11:SOLT2(ON)	S21:SOLT2(ON)	S12:SOLT2(ON)	S22:SOLT2(ON)
!PortZ  Port1:50+j0    Port2:50+j0
!Above PortZ is port z conversion or system Z0 setting when saving the data.
!When reading, reference impedance value at option line is always used.
# Hz S dB R 50
300000	-7.318128e-002	-4.318529e-001	-5.546892e+001	9.829613e+001	-5.141619e+001	-1.752398e+002	-6.185695e-002	-8.197264e-002
10299700	-5.277679e-001	-2.235274e+000	-1.337014e+001	-1.013545e+002	-7.253439e+001	-1.752516e+002	-1.790765e-001	-2.482468e+000
20299400	-4.356529e-001	-3.114465e+000	-1.842015e+001	-1.105107e+002	-8.020642e+001	-1.684180e+002	-2.166931e-001	-4.211446e+000
30299100	-4.343078e-001	-4.536893e+000	-1.664868e+001	-1.095689e+002	-6.979536e+001	6.203979e+001	-2.350446e-001	-6.056701e+000
40298800	-4.443857e-001	-5.915484e+000	-1.508875e+001	-1.079302e+002	-6.851787e+001	7.522445e+001	-2.563408e-001	-7.853391e+000
50298500	-4.541539e-001	-7.300633e+000	-1.366681e+001	-1.057344e+002	-7.092780e+001	8.819455e+001	-2.761396e-001	-9.680943e+000
60298200	-4.598900e-001	-8.702515e+000	-1.228939e+001	-1.038914e+002	-6.736289e+001	1.028765e+002	-2.985152e-001	-1.151967e+001
70297900	-4.670546e-001	-1.007636e+001	-1.107613e+001	-1.021631e+002	-7.174767e+001	1.244613e+002	-3.205310e-001	-1.333558e+001
80297600	-4.727941e-001	-1.142364e+001	-9.925957e+000	-1.013568e+002	-6.831592e+001	1.045621e+002	-3.426883e-001	-1.515277e+001
90297300	-4.852465e-001	-1.280694e+001	-8.852431e+000	-1.011186e+002	-6.639047e+001	1.373871e+002	-3.717763e-001	-1.694625e+001
100297000	-4.906842e-001	-1.414558e+001	-7.872660e+000	-1.011862e+002	-6.487328e+001	1.484647e+002	-4.006242e-001	-1.877620e+001
110296700	-5.021237e-001	-1.550356e+001	-6.936302e+000	-1.014867e+002	-6.570490e+001	1.393680e+002	-4.333452e-001	-2.058456e+001
120296400	-5.054711e-001	-1.686754e+001	-6.065454e+000	-1.019581e+002	-6.172455e+001	1.326239e+002	-4.600846e-001	-2.235771e+001
130296100	-5.114125e-001	-1.822863e+001	-5.269790e+000	-1.026271e+002	-5.964710e+001	1.489664e+002	-4.931457e-001	-2.413507e+001
140295800	-5.218486e-001	-1.957235e+001	-4.510398e+000	-1.030518e+002	-6.062022e+001	1.471861e+002	-5.278938e-001	-2.593637e+001
150295500	-5.255638e-001	-2.094223e+001	-3.793131e+000	-1.036632e+002	-5.696963e+001	1.347163e+002	-5.628842e-001	-2.774320e+001
160295200	-5.379238e-001	-2.227902e+001	-3.110636e+000	-1.046347e+002	-5.825624e+001	1.485162e+002	-5.955957e-001	-2.953950e+001
170294900	-5.407139e-001	-2.361160e+001	-2.485333e+000	-1.057275e+002	-5.548173e+001	1.576295e+002	-6.391322e-001	-3.129946e+001
180294600	-5.536749e-001	-2.495638e+001	-1.905688e+000	-1.069642e+002	-5.499399e+001	1.480799e+002	-6.807909e-001	-3.311672e+001
190294300	-5.653860e-001	-2.630185e+001	-1.356478e+000	-1.081982e+002	-5.360277e+001	1.575529e+002	-7.244684e-001	-3.488084e+001
200294000	-5.737983e-001	-2.758981e+001	-8.302788e-001	-1.094673e+002	-5.307658e+001	1.577543e+002	-7.787187e-001	-3.667892e+001
210293700	-5.879689e-001	-2.897246e+001	-3.200355e-001	-1.108111e+002	-5.228946e+001	1.575263e+002	-8.240652e-001	-3.846690e+001
220293400	-6.019750e-001	-3.028762e+001	1.690630e-001	-1.122791e+002	-5.095232e+001	1.558152e+002	-8.830216e-001	-4.026390e+001
230293100	-6.062106e-001	-3.160672e+001	6.440059e-001	-1.135625e+002	-4.976975e+001	1.610161e+002	-9.367529e-001	-4.204333e+001
240292800	-6.239062e-001	-3.293367e+001	1.078800e+000	-1.148828e+002	-4.951943e+001	1.592333e+002	-9.933338e-001	-4.380909e+001
250292500	-6.257620e-001	-3.423642e+001	1.530810e+000	-1.160716e+002	-4.809058e+001	1.563137e+002	-1.052564e+000	-4.553547e+001
260292200	-6.450523e-001	-3.557724e+001	1.971107e+000	-1.175251e+002	-4.791048e+001	1.618271e+002	-1.120877e+000	-4.732206e+001
270291900	-6.645943e-001	-3.688155e+001	2.385960e+000	-1.191784e+002	-4.680761e+001	1.588567e+002	-1.181958e+000	-4.902408e+001
280291600	-6.801974e-001	-3.817023e+001	2.754306e+000	-1.207915e+002	-4.654179e+001	1.582953e+002	-1.255531e+000	-5.077420e+001
290291300	-6.948953e-001	-3.948882e+001	3.104134e+000	-1.225009e+002	-4.559393e+001	1.589254e+002	-1.325072e+000	-5.257373e+001
300291000	-7.075775e-001	-4.075463e+001	3.450384e+000	-1.240803e+002	-4.462695e+001	1.631264e+002	-1.408056e+000	-5.429969e+001
310290700	-7.298300e-001	-4.201109e+001	3.773041e+000	-1.256716e+002	-4.393735e+001	1.576523e+002	-1.484947e+000	-5.598754e+001
320290400	-7.438424e-001	-4.326265e+001	4.098120e+000	-1.273761e+002	-4.354065e+001	1.581470e+002	-1.568742e+000	-5.773448e+001
330290100	-7.626438e-001	-4.453211e+001	4.410405e+000	-1.290760e+002	-4.257044e+001	1.575692e+002	-1.651490e+000	-5.943532e+001
340289800	-7.766596e-001	-4.576498e+001	4.703806e+000	-1.306097e+002	-4.209052e+001	1.581789e+002	-1.741403e+000	-6.112144e+001
350289500	-8.027421e-001	-4.705665e+001	4.996615e+000	-1.323198e+002	-4.133001e+001	1.567270e+002	-1.834511e+000	-6.282617e+001
360289200	-8.198187e-001	-4.830628e+001	5.271771e+000	-1.340044e+002	-4.075070e+001	1.553612e+002	-1.931964e+000	-6.453416e+001
370288900	-8.472537e-001	-4.956740e+001	5.530937e+000	-1.357257e+002	-4.047289e+001	1.545627e+002	-2.029983e+000	-6.616165e+001
380288600	-8.676928e-001	-5.078522e+001	5.775206e+000	-1.375894e+002	-3.974039e+001	1.538844e+002	-2.129074e+000	-6.790181e+001
390288300	-8.963165e-001	-5.201265e+001	6.006872e+000	-1.393603e+002	-3.929306e+001	1.542549e+002	-2.242734e+000	-6.952713e+001
400288000	-9.196733e-001	-5.321277e+001	6.225125e+000	-1.411040e+002	-3.876502e+001	1.525569e+002	-2.351663e+000	-7.114717e+001
410287700	-9.440172e-001	-5.440869e+001	6.444895e+000	-1.429059e+002	-3.818806e+001	1.519771e+002	-2.463069e+000	-7.284731e+001
420287400	-9.687564e-001	-5.561071e+001	6.670656e+000	-1.446352e+002	-3.770996e+001	1.505505e+002	-2.579437e+000	-7.443282e+001
430287100	-9.993212e-001	-5.678019e+001	6.870004e+000	-1.463723e+002	-3.737209e+001	1.500865e+002	-2.694717e+000	-7.605933e+001
440286800	-1.021817e+000	-5.795224e+001	7.071778e+000	-1.481489e+002	-3.686600e+001	1.494062e+002	-2.821737e+000	-7.763382e+001
450286500	-1.056150e+000	-5.913339e+001	7.252585e+000	-1.498397e+002	-3.645943e+001	1.477163e+002	-2.943689e+000	-7.924615e+001
460286200	-1.085426e+000	-6.029880e+001	7.420976e+000	-1.515552e+002	-3.594654e+001	1.467955e+002	-3.066417e+000	-8.075079e+001
470285900	-1.112854e+000	-6.142194e+001	7.586681e+000	-1.533801e+002	-3.551130e+001	1.465841e+002	-3.206629e+000	-8.234968e+001
480285600	-1.140746e+000	-6.256091e+001	7.741380e+000	-1.549094e+002	-3.515048e+001	1.450429e+002	-3.338347e+000	-8.396535e+001
490285300	-1.173856e+000	-6.368017e+001	7.903835e+000	-1.567406e+002	-3.475696e+001	1.443572e+002	-3.481951e+000	-8.545104e+001
500285000	-1.208251e+000	-6.481282e+001	8.036781e+000	-1.585071e+002	-3.438414e+001	1.434223e+002	-3.632038e+000	-8.696587e+001
510284700	-1.240506e+000	-6.592365e+001	8.189388e+000	-1.601222e+002	-3.395471e+001	1.416675e+002	-3.779973e+000	-8.845726e+001
520284400	-1.272346e+000	-6.704453e+001	8.333150e+000	-1.619138e+002	-3.366017e+001	1.412561e+002	-3.941579e+000	-8.998269e+001
530284100	-1.308430e+000	-6.808772e+001	8.461177e+000	-1.636166e+002	-3.325367e+001	1.395578e+002	-4.089069e+000	-9.141007e+001
540283800	-1.344799e+000	-6.919867e+001	8.580062e+000	-1.652764e+002	-3.291616e+001	1.390913e+002	-4.256164e+000	-9.288936e+001
550283500	-1.383697e+000	-7.021867e+001	8.695609e+000	-1.669750e+002	-3.251132e+001	1.380539e+002	-4.409298e+000	-9.434029e+001
560283200	-1.415442e+000	-7.129968e+001	8.807481e+000	-1.685811e+002	-3.222972e+001	1.374058e+002	-4.581431e+000	-9.580232e+001
570282900	-1.452863e+000	-7.235435e+001	8.915723e+000	-1.702739e+002	-3.196325e+001	1.356148e+002	-4.756894e+000	-9.719500e+001
580282600	-1.491555e+000	-7.336163e+001	9.013233e+000	-1.719737e+002	-3.157858e+001	1.348809e+002	-4.929399e+000	-9.860060e+001
590282300	-1.529276e+000	-7.438761e+001	9.100977e+000	-1.736210e+002	-3.135240e+001	1.340308e+002	-5.105028e+000	-1.000051e+002
600282000	-1.568865e+000	-7.536672e+001	9.188720e+000	-1.752393e+002	-3.102366e+001	1.325647e+002	-5.294220e+000	-1.013835e+002
610281700	-1.605764e+000	-7.638735e+001	9.281666e+000	-1.768536e+002	-3.071424e+001	1.315535e+002	-5.488655e+000	-1.027401e+002
620281400	-1.652529e+000	-7.737330e+001	9.369080e+000	-1.784994e+002	-3.049099e+001	1.303638e+002	-5.685458e+000	-1.040251e+002
630281100	-1.693972e+000	-7.832282e+001	9.443033e+000	1.799088e+002	-3.012205e+001	1.295679e+002	-5.882934e+000	-1.054226e+002
640280800	-1.739229e+000	-7.928128e+001	9.517451e+000	1.783604e+002	-2.988702e+001	1.286477e+002	-6.093907e+000	-1.067051e+002
650280500	-1.781612e+000	-8.023625e+001	9.582680e+000	1.768269e+002	-2.957885e+001	1.274710e+002	-6.297505e+000	-1.080525e+002
660280200	-1.826814e+000	-8.114117e+001	9.645701e+000	1.752906e+002	-2.940779e+001	1.265487e+002	-6.510682e+000	-1.093503e+002
670279900	-1.866063e+000	-8.205480e+001	9.700618e+000	1.737797e+002	-2.911472e+001	1.251360e+002	-6.720368e+000	-1.106537e+002
680279600	-1.901822e+000	-8.299216e+001	9.755546e+000	1.724364e+002	-2.885119e+001	1.245770e+002	-6.938130e+000	-1.120520e+002
690279300	-1.946307e+000	-8.393392e+001	9.863806e+000	1.710177e+002	-2.854475e+001	1.235886e+002	-7.224998e+000	-1.136020e+002
700279000	-1.995528e+000	-8.486289e+001	9.915967e+000	1.694098e+002	-2.831920e+001	1.222440e+002	-7.468624e+000	-1.147533e+002
710278700	-2.043086e+000	-8.577349e+001	1.000050e+001	1.679293e+002	-2.806837e+001	1.211457e+002	-7.764836e+000	-1.162104e+002
720278400	-2.095660e+000	-8.664359e+001	1.004866e+001	1.662812e+002	-2.782675e+001	1.202060e+002	-8.034993e+000	-1.172918e+002
730278100	-2.144351e+000	-8.751407e+001	1.009077e+001	1.647544e+002	-2.766302e+001	1.191129e+002	-8.314932e+000	-1.184441e+002
740277800	-2.194523e+000	-8.838313e+001	1.012926e+001	1.633503e+002	-2.741071e+001	1.178660e+002	-8.595933e+000	-1.197067e+002
750277500	-2.242062e+000	-8.922908e+001	1.018365e+001	1.619357e+002	-2.716363e+001	1.166833e+002	-8.901961e+000	-1.210015e+002
760277200	-2.294593e+000	-9.009312e+001	1.023650e+001	1.604327e+002	-2.693217e+001	1.155326e+002	-9.225947e+000	-1.221885e+002
770276900	-2.343715e+000	-9.089895e+001	1.027936e+001	1.589660e+002	-2.674498e+001	1.146352e+002	-9.558131e+000	-1.233916e+002
780276600	-2.397934e+000	-9.171475e+001	1.032020e+001	1.575339e+002	-2.653953e+001	1.135869e+002	-9.908756e+000	-1.245213e+002
790276300	-2.453222e+000	-9.254667e+001	1.036943e+001	1.560331e+002	-2.630547e+001	1.125897e+002	-1.028829e+001	-1.256786e+002
800276000	-2.506096e+000	-9.330182e+001	1.040167e+001	1.545948e+002	-2.609748e+001	1.112959e+002	-1.067366e+001	-1.268397e+002
810275700	-2.564085e+000	-9.409130e+001	1.043945e+001	1.531876e+002	-2.585983e+001	1.104369e+002	-1.109103e+001	-1.279520e+002
820275400	-2.625129e+000	-9.482934e+001	1.047397e+001	1.517430e+002	-2.569650e+001	1.093680e+002	-1.153687e+001	-1.290268e+002
830275100	-2.686919e+000	-9.561872e+001	1.050986e+001	1.503412e+002	-2.551303e+001	1.080879e+002	-1.200914e+001	-1.300642e+002
840274800	-2.744474e+000	-9.635338e+001	1.054966e+001	1.489603e+002	-2.533054e+001	1.070379e+002	-1.250852e+001	-1.312727e+002
850274500	-2.801997e+000	-9.713848e+001	1.060365e+001	1.475813e+002	-2.513172e+001	1.059090e+002	-1.310502e+001	-1.324405e+002
860274200	-2.870088e+000	-9.786970e+001	1.064182e+001	1.459507e+002	-2.492332e+001	1.047466e+002	-1.375024e+001	-1.330001e+002
870273900	-2.933880e+000	-9.856517e+001	1.066971e+001	1.445163e+002	-2.474670e+001	1.033640e+002	-1.438882e+001	-1.335931e+002
880273600	-2.998214e+000	-9.924758e+001	1.070526e+001	1.430938e+002	-2.459453e+001	1.021303e+002	-1.510938e+001	-1.342135e+002
890273300	-3.075246e+000	-9.994924e+001	1.074348e+001	1.416502e+002	-2.439793e+001	1.010410e+002	-1.592973e+001	-1.346286e+002
900273000	-3.155315e+000	-1.005756e+002	1.078642e+001	1.400198e+002	-2.423031e+001	9.947492e+001	-1.691947e+001	-1.340993e+002
910272700	-3.230914e+000	-1.011422e+002	1.079211e+001	1.383361e+002	-2.410441e+001	9.821252e+001	-1.780100e+001	-1.323338e+002
920272400	-3.299339e+000	-1.017487e+002	1.079077e+001	1.368406e+002	-2.395900e+001	9.726766e+001	-1.869670e+001	-1.312100e+002
930272100	-3.369317e+000	-1.023163e+002	1.080753e+001	1.353983e+002	-2.381977e+001	9.596154e+001	-1.982618e+001	-1.295613e+002
940271800	-3.446098e+000	-1.028852e+002	1.082276e+001	1.339044e+002	-2.369414e+001	9.501085e+001	-2.107295e+001	-1.263206e+002
950271500	-3.525751e+000	-1.034185e+002	1.082442e+001	1.323695e+002	-2.355930e+001	9.363652e+001	-2.238249e+001	-1.214420e+002
960271200	-3.596567e+000	-1.039413e+002	1.082678e+001	1.308615e+002	-2.343271e+001	9.248643e+001	-2.378736e+001	-1.149828e+002
970270900	-3.675784e+000	-1.044393e+002	1.083303e+001	1.294067e+002	-2.328844e+001	9.122766e+001	-2.526285e+001	-1.045296e+002
980270600	-3.750562e+000	-1.049495e+002	1.082740e+001	1.279298e+002	-2.316558e+001	9.007553e+001	-2.649116e+001	-9.067264e+001
990270300	-3.831727e+000	-1.053961e+002	1.083282e+001	1.264202e+002	-2.302961e+001	8.855840e+001	-2.673780e+001	-7.231223e+001
1000270000	-3.908233e+000	-1.057801e+002	1.082829e+001	1.248841e+002	-2.292105e+001	8.756402e+001	-2.598381e+001	-5.531905e+001
1010269700	-3.983730e+000	-1.061647e+002	1.081108e+001	1.233341e+002	-2.284852e+001	8.628914e+001	-2.460247e+001	-4.385778e+001
1020269400	-4.061271e+000	-1.065221e+002	1.078924e+001	1.218170e+002	-2.273987e+001	8.480933e+001	-2.322989e+001	-3.564366e+001
1030269100	-4.137812e+000	-1.068827e+002	1.077168e+001	1.203605e+002	-2.262754e+001	8.377202e+001	-2.185716e+001	-3.001225e+001
1040268800	-4.211474e+000	-1.071687e+002	1.075082e+001	1.189105e+002	-2.252702e+001	8.248914e+001	-2.058228e+001	-2.624211e+001
1050268500	-4.293784e+000	-1.074757e+002	1.072584e+001	1.174445e+002	-2.244509e+001	8.149417e+001	-1.943854e+001	-2.362045e+001
1060268200	-4.366257e+000	-1.077573e+002	1.069987e+001	1.159377e+002	-2.236372e+001	8.015936e+001	-1.835179e+001	-2.195382e+001
1070267900	-4.439876e+000	-1.079498e+002	1.067411e+001	1.144703e+002	-2.228450e+001	7.900916e+001	-1.737911e+001	-2.096231e+001
1080267600	-4.515470e+000	-1.081554e+002	1.064992e+001	1.129894e+002	-2.222556e+001	7.768101e+001	-1.648203e+001	-2.073361e+001
1090267300	-4.590396e+000	-1.082699e+002	1.061055e+001	1.114288e+002	-2.217205e+001	7.665182e+001	-1.563400e+001	-2.113347e+001
1100267000	-4.642945e+000	-1.083884e+002	1.054333e+001	1.099603e+002	-2.213787e+001	7.576430e+001	-1.500685e+001	-2.223557e+001
1110266700	-4.701888e+000	-1.085866e+002	1.048326e+001	1.086512e+002	-2.206988e+001	7.481123e+001	-1.452674e+001	-2.242704e+001
1120266400	-4.765665e+000	-1.087104e+002	1.043827e+001	1.073012e+002	-2.200748e+001	7.363517e+001	-1.395852e+001	-2.248896e+001
1130266100	-4.824845e+000	-1.088460e+002	1.038582e+001	1.059412e+002	-2.194607e+001	7.249086e+001	-1.343011e+001	-2.300450e+001
1140265800	-4.883737e+000	-1.089660e+002	1.034060e+001	1.045952e+002	-2.188658e+001	7.123826e+001	-1.292069e+001	-2.353457e+001
1150265500	-4.941338e+000	-1.090358e+002	1.028318e+001	1.032371e+002	-2.184438e+001	7.039381e+001	-1.245092e+001	-2.425499e+001
1160265200	-4.996138e+000	-1.090883e+002	1.022399e+001	1.018874e+002	-2.178908e+001	6.916305e+001	-1.201060e+001	-2.511538e+001
1170264900	-5.047201e+000	-1.091224e+002	1.016510e+001	1.005957e+002	-2.178140e+001	6.818243e+001	-1.161768e+001	-2.599906e+001
1180264600	-5.091467e+000	-1.091962e+002	1.010434e+001	9.927688e+001	-2.173986e+001	6.736225e+001	-1.123802e+001	-2.690506e+001
1190264300	-5.139485e+000	-1.092102e+002	1.004357e+001	9.798924e+001	-2.168404e+001	6.622637e+001	-1.088963e+001	-2.778698e+001
1200264000	-5.181410e+000	-1.092652e+002	9.973991e+000	9.675262e+001	-2.165823e+001	6.538953e+001	-1.056060e+001	-2.864780e+001
1210263700	-5.212368e+000	-1.092683e+002	9.908619e+000	9.550268e+001	-2.161949e+001	6.442542e+001	-1.025125e+001	-2.959628e+001
1220263400	-5.256047e+000	-1.092725e+002	9.834550e+000	9.425146e+001	-2.159045e+001	6.344040e+001	-9.961544e+000	-3.062214e+001
1230263100	-5.285720e+000	-1.092890e+002	9.770831e+000	9.305032e+001	-2.157971e+001	6.256365e+001	-9.690105e+000	-3.163110e+001
1240262800	-5.315915e+000	-1.092305e+002	9.698071e+000	9.179698e+001	-2.156470e+001	6.179952e+001	-9.441948e+000	-3.258946e+001
1250262500	-5.344537e+000	-1.092636e+002	9.627930e+000	9.062658e+001	-2.153599e+001	6.079929e+001	-9.209672e+000	-3.352796e+001
1260262200	-5.371747e+000	-1.092661e+002	9.549250e+000	8.945960e+001	-2.152488e+001	6.002984e+001	-8.988337e+000	-3.437588e+001
1270261900	-5.397302e+000	-1.092082e+002	9.472247e+000	8.830817e+001	-2.149159e+001	5.907446e+001	-8.762669e+000	-3.534559e+001
1280261600	-5.420104e+000	-1.091579e+002	9.399159e+000	8.719073e+001	-2.148849e+001	5.825029e+001	-8.550949e+000	-3.626827e+001
1290261300	-5.442028e+000	-1.091333e+002	9.320194e+000	8.604893e+001	-2.148613e+001	5.752794e+001	-8.354659e+000	-3.719431e+001
1300261000	-5.451992e+000	-1.091104e+002	9.242793e+000	8.492649e+001	-2.145151e+001	5.684740e+001	-8.170691e+000	-3.817818e+001
1310260700	-5.472534e+000	-1.091159e+002	9.161248e+000	8.385266e+001	-2.144352e+001	5.598449e+001	-7.989339e+000	-3.907342e+001
1320260400	-5.491366e+000	-1.091053e+002	9.082530e+000	8.280724e+001	-2.143834e+001	5.526561e+001	-7.828363e+000	-3.994294e+001
1330260100	-5.492565e+000	-1.091082e+002	9.007182e+000	8.174412e+001	-2.140700e+001	5.454949e+001	-7.649345e+000	-4.076719e+001
1340259800	-5.513301e+000	-1.090828e+002	8.924116e+000	8.070554e+001	-2.137209e+001	5.380386e+001	-7.483211e+000	-4.160555e+001
1350259500	-5.526196e+000	-1.090757e+002	8.848305e+000	7.965747e+001	-2.136548e+001	5.306687e+001	-7.331669e+000	-4.244363e+001
1360259200	-5.527995e+000	-1.090291e+002	8.776330e+000	7.863138e+001	-2.137880e+001	5.228671e+001	-7.184084e+000	-4.330925e+001
1370258900	-5.537208e+000	-1.089857e+002	8.695059e+000	7.766168e+001	-2.136092e+001	5.156907e+001	-7.041723e+000	-4.416955e+001
1380258600	-5.542567e+000	-1.089919e+002	8.610102e+000	7.661946e+001	-2.137100e+001	5.098256e+001	-6.923667e+000	-4.500921e+001
1390258300	-5.541417e+000	-1.089617e+002	8.527426e+000	7.565499e+001	-2.133407e+001	5.021059e+001	-6.801212e+000	-4.580412e+001
1400258000	-5.542614e+000	-1.089700e+002	8.448061e+000	7.468300e+001	-2.133342e+001	4.957310e+001	-6.686122e+000	-4.662125e+001
1410257700	-5.546225e+000	-1.089833e+002	8.362114e+000	7.371534e+001	-2.131817e+001	4.908744e+001	-6.560367e+000	-4.738272e+001
1420257400	-5.546339e+000	-1.090057e+002	8.287943e+000	7.274903e+001	-2.130764e+001	4.835767e+001	-6.458736e+000	-4.813699e+001
1430257100	-5.535302e+000	-1.089641e+002	8.205478e+000	7.186461e+001	-2.132263e+001	4.762008e+001	-6.357301e+000	-4.888573e+001
1440256800	-5.532494e+000	-1.089790e+002	8.120784e+000	7.091137e+001	-2.132802e+001	4.705237e+001	-6.256502e+000	-4.966954e+001
1450256500	-5.535426e+000	-1.089653e+002	8.037135e+000	7.002059e+001	-2.132183e+001	4.654820e+001	-6.148946e+000	-5.043816e+001
1460256200	-5.525401e+000	-1.089688e+002	7.962859e+000	6.910399e+001	-2.132362e+001	4.576962e+001	-6.055525e+000	-5.114612e+001
1470255900	-5.522745e+000	-1.090582e+002	7.876334e+000	6.816694e+001	-2.130230e+001	4.532839e+001	-5.957431e+000	-5.194337e+001
1480255600	-5.510479e+000	-1.090837e+002	7.796869e+000	6.731759e+001	-2.130271e+001	4.462613e+001	-5.874688e+000	-5.261222e+001
1490255300	-5.507238e+000	-1.090397e+002	7.715860e+000	6.646132e+001	-2.127992e+001	4.412707e+001	-5.776139e+000	-5.332994e+001
1500255000	-5.502275e+000	-1.090952e+002	7.632421e+000	6.560576e+001	-2.128532e+001	4.342572e+001	-5.679513e+000	-5.402894e+001
1510254700	-5.493714e+000	-1.090892e+002	7.549404e+000	6.472581e+001	-2.124831e+001	4.297157e+001	-5.587105e+000	-5.471138e+001
1520254400	-5.484037e+000	-1.091181e+002	7.475528e+000	6.391192e+001	-2.127785e+001	4.245562e+001	-5.508762e+000	-5.540520e+001
1530254100	-5.469837e+000	-1.091572e+002	7.390349e+000	6.309095e+001	-2.127463e+001	4.197285e+001	-5.425238e+000	-5.609256e+001
1540253800	-5.456291e+000	-1.092031e+002	7.312094e+000	6.222825e+001	-2.128012e+001	4.135307e+001	-5.351794e+000	-5.672641e+001
1550253500	-5.447431e+000	-1.092103e+002	7.236445e+000	6.139143e+001	-2.126628e+001	4.073409e+001	-5.290727e+000	-5.740308e+001
1560253200	-5.435519e+000	-1.092769e+002	7.156391e+000	6.061647e+001	-2.128164e+001	4.025262e+001	-5.219642e+000	-5.812708e+001
1570252900	-5.428507e+000	-1.093056e+002	7.066593e+000	5.982933e+001	-2.126314e+001	3.955110e+001	-5.166012e+000	-5.873643e+001
1580252600	-5.414089e+000	-1.093384e+002	6.987704e+000	5.903937e+001	-2.126660e+001	3.909223e+001	-5.105244e+000	-5.936908e+001
1590252300	-5.398535e+000	-1.094150e+002	6.916655e+000	5.822858e+001	-2.127426e+001	3.875353e+001	-5.045066e+000	-5.998977e+001
1600252000	-5.386810e+000	-1.094747e+002	6.831404e+000	5.743982e+001	-2.126853e+001	3.836140e+001	-4.987779e+000	-6.064687e+001
1610251700	-5.372686e+000	-1.095895e+002	6.751580e+000	5.667991e+001	-2.126474e+001	3.783061e+001	-4.925444e+000	-6.120638e+001
1620251400	-5.355686e+000	-1.096163e+002	6.670016e+000	5.591132e+001	-2.127288e+001	3.719767e+001	-4.871848e+000	-6.184437e+001
1630251100	-5.350150e+000	-1.097452e+002	6.592915e+000	5.514977e+001	-2.127316e+001	3.666782e+001	-4.813158e+000	-6.247363e+001
1640250800	-5.329938e+000	-1.097548e+002	6.526520e+000	5.443498e+001	-2.126212e+001	3.628692e+001	-4.755865e+000	-6.301590e+001
1650250500	-5.321264e+000	-1.098546e+002	6.439649e+000	5.369995e+001	-2.127117e+001	3.572490e+001	-4.686308e+000	-6.359565e+001
1660250200	-5.300549e+000	-1.099314e+002	6.358725e+000	5.297466e+001	-2.127493e+001	3.546376e+001	-4.624268e+000	-6.415562e+001
1670249900	-5.287973e+000	-1.100194e+002	6.286198e+000	5.221279e+001	-2.124019e+001	3.482766e+001	-4.560610e+000	-6.471321e+001
1680249600	-5.273830e+000	-1.100775e+002	6.209499e+000	5.154849e+001	-2.125126e+001	3.437574e+001	-4.508776e+000	-6.533513e+001
1690249300	-5.259788e+000	-1.101911e+002	6.132570e+000	5.077584e+001	-2.122873e+001	3.410766e+001	-4.461763e+000	-6.589459e+001
1700249000	-5.241950e+000	-1.102549e+002	6.050168e+000	5.007719e+001	-2.123524e+001	3.376812e+001	-4.419050e+000	-6.648185e+001
1710248700	-5.223563e+000	-1.103873e+002	5.974908e+000	4.931764e+001	-2.124554e+001	3.321928e+001	-4.376084e+000	-6.702713e+001
1720248400	-5.207272e+000	-1.104167e+002	5.904401e+000	4.870955e+001	-2.126579e+001	3.270029e+001	-4.332927e+000	-6.751987e+001
1730248100	-5.195309e+000	-1.105144e+002	5.821020e+000	4.798644e+001	-2.126073e+001	3.237084e+001	-4.286835e+000	-6.808155e+001
1740247800	-5.177210e+000	-1.106146e+002	5.748946e+000	4.739550e+001	-2.125174e+001	3.201319e+001	-4.249363e+000	-6.859205e+001
1750247500	-5.161475e+000	-1.106924e+002	5.667345e+000	4.666547e+001	-2.128953e+001	3.145277e+001	-4.215916e+000	-6.915232e+001
1760247200	-5.147496e+000	-1.107987e+002	5.597486e+000	4.596396e+001	-2.128313e+001	3.104455e+001	-4.175230e+000	-6.972230e+001
1770246900	-5.130108e+000	-1.108966e+002	5.520943e+000	4.526379e+001	-2.127873e+001	3.052726e+001	-4.135394e+000	-7.022563e+001
1780246600	-5.120481e+000	-1.109764e+002	5.444252e+000	4.462987e+001	-2.129960e+001	3.016170e+001	-4.097719e+000	-7.076780e+001
1790246300	-5.100319e+000	-1.110648e+002	5.367881e+000	4.398813e+001	-2.128906e+001	2.996674e+001	-4.060607e+000	-7.121896e+001
1800246000	-5.088292e+000	-1.111330e+002	5.291701e+000	4.335201e+001	-2.130222e+001	2.943657e+001	-4.027079e+000	-7.180080e+001
1810245700	-5.065462e+000	-1.112992e+002	5.225824e+000	4.271793e+001	-2.126590e+001	2.906917e+001	-3.987654e+000	-7.227315e+001
1820245400	-5.042359e+000	-1.114212e+002	5.150386e+000	4.205198e+001	-2.125792e+001	2.873496e+001	-3.938838e+000	-7.276613e+001
1830245100	-5.031490e+000	-1.116044e+002	5.067014e+000	4.140841e+001	-2.124297e+001	2.832404e+001	-3.888376e+000	-7.321108e+001
1840244800	-5.019403e+000	-1.116871e+002	4.989451e+000	4.084310e+001	-2.123863e+001	2.798619e+001	-3.845948e+000	-7.365731e+001
1850244500	-5.007461e+000	-1.118298e+002	4.920913e+000	4.017827e+001	-2.126628e+001	2.737344e+001	-3.812339e+000	-7.419940e+001
1860244200	-4.984631e+000	-1.119597e+002	4.852837e+000	3.952867e+001	-2.125531e+001	2.710101e+001	-3.775006e+000	-7.461959e+001
1870243900	-4.975342e+000	-1.120519e+002	4.774301e+000	3.895997e+001	-2.126041e+001	2.679762e+001	-3.749626e+000	-7.511130e+001
1880243600	-4.958340e+000	-1.122020e+002	4.704807e+000	3.833724e+001	-2.128478e+001	2.634367e+001	-3.728813e+000	-7.561787e+001
1890243300	-4.942147e+000	-1.123214e+002	4.627854e+000	3.773175e+001	-2.130495e+001	2.615019e+001	-3.701655e+000	-7.600699e+001
1900243000	-4.919035e+000	-1.124729e+002	4.557034e+000	3.710505e+001	-2.130017e+001	2.580167e+001	-3.681932e+000	-7.649219e+001
1910242700	-4.901933e+000	-1.125441e+002	4.483925e+000	3.654110e+001	-2.131062e+001	2.537179e+001	-3.656620e+000	-7.690020e+001
1920242400	-4.889511e+000	-1.127388e+002	4.416206e+000	3.596153e+001	-2.130860e+001	2.498404e+001	-3.632289e+000	-7.739603e+001
1930242100	-4.871042e+000	-1.128189e+002	4.347442e+000	3.538929e+001	-2.130427e+001	2.462304e+001	-3.610079e+000	-7.788019e+001
1940241800	-4.853269e+000	-1.129594e+002	4.280602e+000	3.482331e+001	-2.130067e+001	2.414288e+001	-3.582232e+000	-7.827405e+001
1950241500	-4.839359e+000	-1.130752e+002	4.200480e+000	3.428888e+001	-2.132571e+001	2.380293e+001	-3.556504e+000	-7.879541e+001
1960241200	-4.824608e+000	-1.132035e+002	4.123428e+000	3.366256e+001	-2.133195e+001	2.351448e+001	-3.525812e+000	-7.924623e+001
1970240900	-4.814693e+000	-1.133324e+002	4.050963e+000	3.311220e+001	-2.133058e+001	2.321529e+001	-3.505269e+000	-7.975611e+001
1980240600	-4.794496e+000	-1.134967e+002	3.999754e+000	3.254589e+001	-2.133058e+001	2.271014e+001	-3.462670e+000	-8.021995e+001
1990240300	-4.775888e+000	-1.136231e+002	3.928135e+000	3.196259e+001	-2.127742e+001	2.247154e+001	-3.399671e+000	-8.068462e+001
2000240000	-4.756091e+000	-1.137821e+002	3.858462e+000	3.143326e+001	-2.128248e+001	2.226480e+001	-3.373090e+000	-8.104613e+001
2010239700	-4.749633e+000	-1.139070e+002	3.786141e+000	3.082451e+001	-2.128786e+001	2.201898e+001	-3.344203e+000	-8.142236e+001
2020239400	-4.729198e+000	-1.140760e+002	3.720330e+000	3.025197e+001	-2.127442e+001	2.181275e+001	-3.333926e+000	-8.183374e+001
2030239100	-4.712173e+000	-1.141952e+002	3.650612e+000	2.973866e+001	-2.127826e+001	2.143903e+001	-3.313222e+000	-8.217197e+001
2040238800	-4.695407e+000	-1.142925e+002	3.578836e+000	2.923213e+001	-2.129254e+001	2.096378e+001	-3.296780e+000	-8.255941e+001
2050238500	-4.679503e+000	-1.145301e+002	3.517103e+000	2.865930e+001	-2.129703e+001	2.054458e+001	-3.281400e+000	-8.300597e+001
2060238200	-4.668465e+000	-1.146837e+002	3.448449e+000	2.810132e+001	-2.130732e+001	2.048173e+001	-3.269948e+000	-8.338089e+001
2070237900	-4.652859e+000	-1.148282e+002	3.383470e+000	2.759676e+001	-2.132820e+001	2.007938e+001	-3.256491e+000	-8.369780e+001
2080237600	-4.642549e+000	-1.149825e+002	3.312315e+000	2.707939e+001	-2.130149e+001	1.966245e+001	-3.234281e+000	-8.414176e+001
2090237300	-4.624194e+000	-1.151821e+002	3.247198e+000	2.655806e+001	-2.133713e+001	1.947915e+001	-3.218911e+000	-8.451134e+001
2100237000	-4.614391e+000	-1.152987e+002	3.179122e+000	2.602833e+001	-2.135783e+001	1.927459e+001	-3.203167e+000	-8.493512e+001
2110236700	-4.594563e+000	-1.155114e+002	3.118478e+000	2.549807e+001	-2.135796e+001	1.874566e+001	-3.191847e+000	-8.533628e+001
2120236400	-4.585532e+000	-1.156153e+002	3.041899e+000	2.501765e+001	-2.137893e+001	1.852204e+001	-3.182218e+000	-8.576356e+001
2130236100	-4.566959e+000	-1.157866e+002	2.979340e+000	2.449998e+001	-2.138902e+001	1.819069e+001	-3.172417e+000	-8.615071e+001
2140235800	-4.553284e+000	-1.159769e+002	2.912550e+000	2.394523e+001	-2.139604e+001	1.795284e+001	-3.141864e+000	-8.658864e+001
2150235500	-4.546756e+000	-1.161466e+002	2.848318e+000	2.341939e+001	-2.137839e+001	1.756062e+001	-3.122874e+000	-8.702906e+001
2160235200	-4.526733e+000	-1.162623e+002	2.775512e+000	2.299100e+001	-2.134156e+001	1.714667e+001	-3.078116e+000	-8.744312e+001
2170234900	-4.518303e+000	-1.164488e+002	2.716972e+000	2.241528e+001	-2.134233e+001	1.696860e+001	-3.034085e+000	-8.777284e+001
2180234600	-4.495504e+000	-1.165707e+002	2.659365e+000	2.200898e+001	-2.134572e+001	1.679725e+001	-3.004890e+000	-8.813265e+001
2190234300	-4.480102e+000	-1.167281e+002	2.587593e+000	2.151661e+001	-2.134912e+001	1.644924e+001	-2.999200e+000	-8.847449e+001
2200234000	-4.467376e+000	-1.169650e+002	2.534874e+000	2.095920e+001	-2.136519e+001	1.658229e+001	-2.987554e+000	-8.879709e+001
2210233700	-4.457717e+000	-1.171122e+002	2.459322e+000	2.049477e+001	-2.134837e+001	1.635706e+001	-2.976589e+000	-8.912338e+001
2220233400	-4.445047e+000	-1.172265e+002	2.395824e+000	2.001287e+001	-2.135609e+001	1.622873e+001	-2.963075e+000	-8.947630e+001
2230233100	-4.431781e+000	-1.174008e+002	2.340268e+000	1.952756e+001	-2.133509e+001	1.604753e+001	-2.959518e+000	-8.987355e+001
2240232800	-4.416285e+000	-1.175269e+002	2.286297e+000	1.909275e+001	-2.129691e+001	1.556374e+001	-2.949467e+000	-9.019321e+001
2250232500	-4.404641e+000	-1.177398e+002	2.220412e+000	1.854177e+001	-2.130281e+001	1.512481e+001	-2.942836e+000	-9.051783e+001
2260232200	-4.388848e+000	-1.178843e+002	2.157084e+000	1.808034e+001	-2.132730e+001	1.465470e+001	-2.936522e+000	-9.080877e+001
2270231900	-4.379136e+000	-1.180635e+002	2.092477e+000	1.761118e+001	-2.132753e+001	1.423638e+001	-2.919292e+000	-9.121992e+001
2280231600	-4.372018e+000	-1.182091e+002	2.029971e+000	1.714084e+001	-2.136249e+001	1.390574e+001	-2.908875e+000	-9.150856e+001
2290231300	-4.355342e+000	-1.184678e+002	1.970719e+000	1.669843e+001	-2.137958e+001	1.367770e+001	-2.901690e+000	-9.196438e+001
2300231000	-4.350309e+000	-1.186243e+002	1.908458e+000	1.617646e+001	-2.139640e+001	1.332849e+001	-2.888347e+000	-9.231204e+001
2310230700	-4.342831e+000	-1.188774e+002	1.851495e+000	1.577226e+001	-2.143174e+001	1.306677e+001	-2.878361e+000	-9.267770e+001
2320230400	-4.326378e+000	-1.189912e+002	1.790580e+000	1.528652e+001	-2.139807e+001	1.294973e+001	-2.849615e+000	-9.302262e+001
2330230100	-4.312609e+000	-1.191670e+002	1.729848e+000	1.489040e+001	-2.139814e+001	1.299744e+001	-2.840528e+000	-9.338140e+001
2340229800	-4.300777e+000	-1.193397e+002	1.671896e+000	1.443636e+001	-2.138156e+001	1.269303e+001	-2.815556e+000	-9.372517e+001
2350229500	-4.297299e+000	-1.195192e+002	1.607877e+000	1.390812e+001	-2.132509e+001	1.239403e+001	-2.791356e+000	-9.409742e+001
2360229200	-4.278676e+000	-1.196828e+002	1.563029e+000	1.346900e+001	-2.132242e+001	1.232935e+001	-2.784704e+000	-9.443264e+001
2370228900	-4.268251e+000	-1.198769e+002	1.494268e+000	1.299347e+001	-2.130669e+001	1.205329e+001	-2.776210e+000	-9.473938e+001
2380228600	-4.252184e+000	-1.200463e+002	1.427634e+000	1.248531e+001	-2.134061e+001	1.144337e+001	-2.767572e+000	-9.501305e+001
2390228300	-4.237666e+000	-1.202057e+002	1.368210e+000	1.207239e+001	-2.135301e+001	1.105466e+001	-2.749528e+000	-9.527339e+001
2400228000	-4.224994e+000	-1.204388e+002	1.321059e+000	1.160294e+001	-2.139744e+001	1.085135e+001	-2.748817e+000	-9.566998e+001
2410227700	-4.219433e+000	-1.206296e+002	1.256328e+000	1.117638e+001	-2.137896e+001	1.045579e+001	-2.731296e+000	-9.597149e+001
2420227400	-4.193898e+000	-1.208146e+002	1.188247e+000	1.084238e+001	-2.140196e+001	1.031155e+001	-2.729522e+000	-9.636361e+001
2430227100	-4.191254e+000	-1.209195e+002	1.138738e+000	1.035993e+001	-2.137751e+001	1.028098e+001	-2.723733e+000	-9.663981e+001
2440226800	-4.184894e+000	-1.211262e+002	1.077157e+000	9.896899e+000	-2.143007e+001	9.966959e+000	-2.720493e+000	-9.698770e+001
2450226500	-4.171979e+000	-1.212543e+002	1.022519e+000	9.546252e+000	-2.138681e+001	9.751675e+000	-2.718969e+000	-9.732307e+001
2460226200	-4.167297e+000	-1.214604e+002	9.630957e-001	9.114063e+000	-2.137651e+001	9.530351e+000	-2.712973e+000	-9.760544e+001
2470225900	-4.153206e+000	-1.216833e+002	9.131742e-001	8.624991e+000	-2.135772e+001	9.120852e+000	-2.698817e+000	-9.791000e+001
2480225600	-4.150164e+000	-1.218633e+002	8.523695e-001	8.167593e+000	-2.137879e+001	8.915811e+000	-2.689986e+000	-9.819561e+001
2490225300	-4.141895e+000	-1.220205e+002	7.967402e-001	7.759073e+000	-2.137551e+001	8.520573e+000	-2.668795e+000	-9.849435e+001
2500225000	-4.126066e+000	-1.223001e+002	7.590908e-001	7.384254e+000	-2.141320e+001	8.273704e+000	-2.647610e+000	-9.883676e+001
2510224700	-4.125590e+000	-1.225112e+002	6.837714e-001	6.822097e+000	-2.143792e+001	8.035126e+000	-2.636394e+000	-9.919688e+001
2520224400	-4.120387e+000	-1.226870e+002	6.349972e-001	6.459477e+000	-2.144693e+001	7.807645e+000	-2.623473e+000	-9.953453e+001
2530224100	-4.104805e+000	-1.228615e+002	5.688782e-001	6.110063e+000	-2.143970e+001	7.825909e+000	-2.619112e+000	-9.989075e+001
2540223800	-4.104990e+000	-1.230403e+002	5.128707e-001	5.631941e+000	-2.142421e+001	7.820410e+000	-2.614224e+000	-1.002029e+002
2550223500	-4.102217e+000	-1.232712e+002	4.652407e-001	5.095327e+000	-2.143304e+001	7.426941e+000	-2.608364e+000	-1.005191e+002
2560223200	-4.082772e+000	-1.234034e+002	4.105782e-001	4.859275e+000	-2.140462e+001	7.234756e+000	-2.608787e+000	-1.008288e+002
2570222900	-4.071640e+000	-1.235859e+002	3.588141e-001	4.420898e+000	-2.136184e+001	7.277128e+000	-2.612450e+000	-1.010987e+002
2580222600	-4.068195e+000	-1.238103e+002	3.156709e-001	3.979741e+000	-2.134098e+001	6.827713e+000	-2.606200e+000	-1.013857e+002
2590222300	-4.052398e+000	-1.239285e+002	2.582171e-001	3.587135e+000	-2.129881e+001	6.263230e+000	-2.601893e+000	-1.016210e+002
2600222000	-4.044105e+000	-1.241787e+002	2.054606e-001	3.130224e+000	-2.129591e+001	5.946496e+000	-2.588536e+000	-1.018326e+002
2610221700	-4.045791e+000	-1.242690e+002	1.366428e-001	2.665138e+000	-2.131679e+001	5.318738e+000	-2.577677e+000	-1.021512e+002
2620221400	-4.022447e+000	-1.245712e+002	1.037023e-001	2.306127e+000	-2.135193e+001	4.866978e+000	-2.571355e+000	-1.024476e+002
2630221100	-4.019168e+000	-1.247375e+002	3.970910e-002	1.867461e+000	-2.141047e+001	4.597350e+000	-2.562220e+000	-1.027815e+002
2640220800	-4.006550e+000	-1.249342e+002	-1.388729e-002	1.483521e+000	-2.142314e+001	4.346183e+000	-2.548241e+000	-1.030983e+002
2650220500	-4.006907e+000	-1.251707e+002	-6.997092e-002	9.826329e-001	-2.144811e+001	3.990873e+000	-2.538226e+000	-1.034700e+002
2660220200	-4.002513e+000	-1.252716e+002	-1.208177e-001	6.191563e-001	-2.149108e+001	4.017491e+000	-2.539014e+000	-1.037347e+002
2670219900	-3.980387e+000	-1.255002e+002	-1.630307e-001	2.722806e-001	-2.146315e+001	3.849061e+000	-2.526736e+000	-1.041015e+002
2680219600	-3.977775e+000	-1.257360e+002	-2.136112e-001	-1.836950e-001	-2.148170e+001	3.731153e+000	-2.510119e+000	-1.044308e+002
2690219300	-3.969634e+000	-1.259183e+002	-2.718832e-001	-5.495862e-001	-2.149405e+001	3.444877e+000	-2.507586e+000	-1.047631e+002
2700219000	-3.960444e+000	-1.261472e+002	-3.221762e-001	-9.960482e-001	-2.149070e+001	3.392578e+000	-2.505242e+000	-1.050554e+002
2710218700	-3.950958e+000	-1.263440e+002	-3.782509e-001	-1.390799e+000	-2.149825e+001	3.269873e+000	-2.502256e+000	-1.052808e+002
2720218400	-3.944289e+000	-1.265707e+002	-4.211423e-001	-1.750236e+000	-2.148398e+001	2.938342e+000	-2.496550e+000	-1.056008e+002
2730218100	-3.941916e+000	-1.268060e+002	-4.893851e-001	-2.183308e+000	-2.149034e+001	2.735364e+000	-2.485452e+000	-1.059680e+002
2740217800	-3.935316e+000	-1.270330e+002	-5.315420e-001	-2.528181e+000	-2.150783e+001	2.530113e+000	-2.483684e+000	-1.062469e+002
2750217500	-3.932526e+000	-1.272309e+002	-5.808113e-001	-2.973495e+000	-2.152976e+001	2.556783e+000	-2.486004e+000	-1.065406e+002
2760217200	-3.930135e+000	-1.274140e+002	-6.310779e-001	-3.328136e+000	-2.151282e+001	2.220949e+000	-2.491811e+000	-1.068261e+002
2770216900	-3.922357e+000	-1.276811e+002	-6.682360e-001	-3.689838e+000	-2.148693e+001	2.009248e+000	-2.484223e+000	-1.071372e+002
2780216600	-3.924952e+000	-1.278810e+002	-7.242029e-001	-4.175473e+000	-2.143156e+001	1.943748e+000	-2.489654e+000	-1.074777e+002
2790216300	-3.910091e+000	-1.280150e+002	-7.756693e-001	-4.428044e+000	-2.142337e+001	1.779946e+000	-2.483943e+000	-1.078080e+002
2800216000	-3.907536e+000	-1.282597e+002	-8.144461e-001	-4.910813e+000	-2.138349e+001	1.570673e+000	-2.494709e+000	-1.079888e+002
2810215700	-3.895506e+000	-1.284891e+002	-8.503397e-001	-5.253527e+000	-2.136718e+001	8.065957e-001	-2.484561e+000	-1.082408e+002
2820215400	-3.902815e+000	-1.287076e+002	-9.042302e-001	-5.720755e+000	-2.136420e+001	3.974725e-001	-2.481598e+000	-1.084471e+002
2830215100	-3.884693e+000	-1.289198e+002	-9.556799e-001	-6.051188e+000	-2.139600e+001	-3.982435e-002	-2.459281e+000	-1.087838e+002
2840214800	-3.866898e+000	-1.291792e+002	-1.004473e+000	-6.491190e+000	-2.140268e+001	-4.480950e-001	-2.451478e+000	-1.090624e+002
2850214500	-3.858948e+000	-1.294363e+002	-1.042138e+000	-6.885629e+000	-2.144464e+001	-7.325017e-001	-2.449579e+000	-1.093724e+002
2860214200	-3.856962e+000	-1.295937e+002	-1.103590e+000	-7.276785e+000	-2.147017e+001	-9.825149e-001	-2.436662e+000	-1.096891e+002
2870213900	-3.851819e+000	-1.298709e+002	-1.149746e+000	-7.723677e+000	-2.149061e+001	-1.004633e+000	-2.422949e+000	-1.099749e+002
2880213600	-3.845692e+000	-1.300834e+002	-1.194237e+000	-8.105304e+000	-2.150474e+001	-1.231542e+000	-2.418965e+000	-1.102938e+002
2890213300	-3.835918e+000	-1.302711e+002	-1.256512e+000	-8.436394e+000	-2.154389e+001	-1.577728e+000	-2.408600e+000	-1.106559e+002
2900213000	-3.838258e+000	-1.304575e+002	-1.307220e+000	-8.807105e+000	-2.152472e+001	-1.624304e+000	-2.400273e+000	-1.109417e+002
2910212700	-3.830161e+000	-1.306727e+002	-1.353469e+000	-9.222259e+000	-2.153860e+001	-1.811720e+000	-2.403580e+000	-1.112417e+002
2920212400	-3.822382e+000	-1.308659e+002	-1.399957e+000	-9.609164e+000	-2.155465e+001	-2.104483e+000	-2.402155e+000	-1.116164e+002
2930212100	-3.819750e+000	-1.311440e+002	-1.442864e+000	-1.004923e+001	-2.160416e+001	-2.357520e+000	-2.402422e+000	-1.119019e+002
2940211800	-3.815873e+000	-1.313758e+002	-1.499577e+000	-1.040365e+001	-2.161191e+001	-2.471841e+000	-2.396926e+000	-1.122105e+002
2950211500	-3.802586e+000	-1.315977e+002	-1.551066e+000	-1.072019e+001	-2.159741e+001	-2.521798e+000	-2.405764e+000	-1.124910e+002
2960211200	-3.794249e+000	-1.318366e+002	-1.592842e+000	-1.102928e+001	-2.160472e+001	-2.825758e+000	-2.408321e+000	-1.127835e+002
2970210900	-3.800474e+000	-1.320565e+002	-1.641601e+000	-1.148667e+001	-2.158286e+001	-3.015979e+000	-2.411686e+000	-1.131329e+002
2980210600	-3.789571e+000	-1.323874e+002	-1.673377e+000	-1.186738e+001	-2.160225e+001	-2.841520e+000	-2.405848e+000	-1.134689e+002
2990210300	-3.794998e+000	-1.325607e+002	-1.729910e+000	-1.221059e+001	-2.157405e+001	-3.032992e+000	-2.418759e+000	-1.137691e+002
3000210000	-3.790128e+000	-1.328593e+002	-1.769650e+000	-1.262247e+001	-2.154602e+001	-3.454333e+000	-2.414725e+000	-1.140277e+002
3010209700	-3.780993e+000	-1.330742e+002	-1.818686e+000	-1.300156e+001	-2.155108e+001	-3.659242e+000	-2.423774e+000	-1.142896e+002
3020209400	-3.777716e+000	-1.333305e+002	-1.854781e+000	-1.337010e+001	-2.156248e+001	-3.825039e+000	-2.418831e+000	-1.146456e+002
3030209100	-3.775854e+000	-1.335642e+002	-1.906612e+000	-1.373259e+001	-2.152397e+001	-3.963142e+000	-2.413054e+000	-1.148787e+002
3040208800	-3.770553e+000	-1.337440e+002	-1.955796e+000	-1.408432e+001	-2.147433e+001	-4.417535e+000	-2.410434e+000	-1.150818e+002
3050208500	-3.759251e+000	-1.339319e+002	-2.006664e+000	-1.441295e+001	-2.147373e+001	-4.800423e+000	-2.394494e+000	-1.152827e+002
3060208200	-3.751478e+000	-1.342257e+002	-2.041203e+000	-1.490626e+001	-2.148655e+001	-5.373299e+000	-2.382925e+000	-1.156325e+002
3070207900	-3.746568e+000	-1.345080e+002	-2.091293e+000	-1.532594e+001	-2.155267e+001	-5.665314e+000	-2.368431e+000	-1.159056e+002
3080207600	-3.735323e+000	-1.347370e+002	-2.138380e+000	-1.564737e+001	-2.155554e+001	-6.020221e+000	-2.360946e+000	-1.162567e+002
3090207300	-3.735062e+000	-1.349878e+002	-2.173698e+000	-1.606094e+001	-2.161626e+001	-6.313340e+000	-2.359376e+000	-1.165503e+002
3100207000	-3.734634e+000	-1.351936e+002	-2.233406e+000	-1.640674e+001	-2.162707e+001	-6.414874e+000	-2.368486e+000	-1.168398e+002
3110206700	-3.729172e+000	-1.354335e+002	-2.273800e+000	-1.684390e+001	-2.162836e+001	-6.476255e+000	-2.363733e+000	-1.171858e+002
3120206400	-3.736061e+000	-1.356590e+002	-2.324776e+000	-1.716261e+001	-2.166822e+001	-6.856293e+000	-2.365096e+000	-1.175054e+002
3130206100	-3.725489e+000	-1.358747e+002	-2.373313e+000	-1.750921e+001	-2.169176e+001	-6.854427e+000	-2.365673e+000	-1.178189e+002
3140205800	-3.719572e+000	-1.361271e+002	-2.409538e+000	-1.786736e+001	-2.171043e+001	-7.277685e+000	-2.374599e+000	-1.181612e+002
3150205500	-3.719935e+000	-1.363749e+002	-2.449789e+000	-1.833069e+001	-2.167846e+001	-7.314060e+000	-2.374963e+000	-1.185292e+002
3160205200	-3.718442e+000	-1.365946e+002	-2.497576e+000	-1.871486e+001	-2.167093e+001	-7.450276e+000	-2.377496e+000	-1.187956e+002
3170204900	-3.703108e+000	-1.368397e+002	-2.540725e+000	-1.903780e+001	-2.167817e+001	-7.768026e+000	-2.374736e+000	-1.191668e+002
3180204600	-3.697116e+000	-1.371033e+002	-2.578064e+000	-1.939431e+001	-2.167392e+001	-8.049568e+000	-2.377861e+000	-1.194821e+002
3190204300	-3.694676e+000	-1.373918e+002	-2.632956e+000	-1.981527e+001	-2.172180e+001	-8.188127e+000	-2.374611e+000	-1.197311e+002
3200204000	-3.692013e+000	-1.376317e+002	-2.682416e+000	-2.013954e+001	-2.172134e+001	-8.452628e+000	-2.368257e+000	-1.200549e+002
3210203700	-3.688031e+000	-1.379092e+002	-2.714033e+000	-2.057575e+001	-2.171835e+001	-8.475789e+000	-2.357481e+000	-1.204092e+002
3220203400	-3.677900e+000	-1.381704e+002	-2.755085e+000	-2.088777e+001	-2.170761e+001	-8.670622e+000	-2.353739e+000	-1.206972e+002
3230203100	-3.674746e+000	-1.384587e+002	-2.799844e+000	-2.128687e+001	-2.171960e+001	-8.754551e+000	-2.351257e+000	-1.210457e+002
3240202800	-3.665240e+000	-1.387498e+002	-2.850887e+000	-2.161875e+001	-2.173207e+001	-9.082279e+000	-2.358211e+000	-1.213702e+002
3250202500	-3.673481e+000	-1.389564e+002	-2.902376e+000	-2.199692e+001	-2.175286e+001	-9.191248e+000	-2.354474e+000	-1.216462e+002
3260202200	-3.661191e+000	-1.391840e+002	-2.947305e+000	-2.234618e+001	-2.174327e+001	-9.249260e+000	-2.370854e+000	-1.218805e+002
3270201900	-3.656420e+000	-1.395005e+002	-2.978200e+000	-2.261623e+001	-2.170759e+001	-9.514101e+000	-2.371047e+000	-1.221575e+002
3280201600	-3.663776e+000	-1.397533e+002	-3.022059e+000	-2.314902e+001	-2.171167e+001	-1.008397e+001	-2.367199e+000	-1.224009e+002
3290201300	-3.660163e+000	-1.399553e+002	-3.062006e+000	-2.349572e+001	-2.174020e+001	-1.022144e+001	-2.364713e+000	-1.226877e+002
3300201000	-3.658212e+000	-1.402401e+002	-3.109915e+000	-2.388614e+001	-2.175470e+001	-1.060103e+001	-2.362853e+000	-1.230217e+002
3310200700	-3.649096e+000	-1.405096e+002	-3.141135e+000	-2.425321e+001	-2.178733e+001	-1.082944e+001	-2.358740e+000	-1.233831e+002
3320200400	-3.650384e+000	-1.407598e+002	-3.190826e+000	-2.460226e+001	-2.177830e+001	-1.108387e+001	-2.363630e+000	-1.236965e+002
3330200100	-3.649228e+000	-1.410043e+002	-3.232023e+000	-2.500280e+001	-2.179838e+001	-1.133248e+001	-2.363363e+000	-1.240599e+002
3340199800	-3.633657e+000	-1.412694e+002	-3.267298e+000	-2.530755e+001	-2.179647e+001	-1.136913e+001	-2.369531e+000	-1.243654e+002
3350199500	-3.629728e+000	-1.415140e+002	-3.309336e+000	-2.571072e+001	-2.180032e+001	-1.190866e+001	-2.367501e+000	-1.247304e+002
3360199200	-3.623070e+000	-1.418034e+002	-3.365383e+000	-2.606014e+001	-2.182576e+001	-1.197290e+001	-2.360730e+000	-1.250139e+002
3370198900	-3.616917e+000	-1.420355e+002	-3.412662e+000	-2.641610e+001	-2.179562e+001	-1.212939e+001	-2.342827e+000	-1.253452e+002
3380198600	-3.612718e+000	-1.422745e+002	-3.460784e+000	-2.670844e+001	-2.183774e+001	-1.227550e+001	-2.335234e+000	-1.256698e+002
3390198300	-3.611982e+000	-1.425585e+002	-3.501309e+000	-2.717502e+001	-2.182052e+001	-1.228485e+001	-2.333106e+000	-1.259859e+002
3400198000	-3.606536e+000	-1.428112e+002	-3.535888e+000	-2.751868e+001	-2.182487e+001	-1.266154e+001	-2.328963e+000	-1.263694e+002
3410197700	-3.604768e+000	-1.430325e+002	-3.582328e+000	-2.793232e+001	-2.183831e+001	-1.281081e+001	-2.336991e+000	-1.266864e+002
3420197400	-3.587511e+000	-1.433040e+002	-3.614050e+000	-2.827394e+001	-2.188947e+001	-1.329488e+001	-2.341725e+000	-1.270000e+002
3430197100	-3.590291e+000	-1.435886e+002	-3.666857e+000	-2.869720e+001	-2.190935e+001	-1.323924e+001	-2.344668e+000	-1.273085e+002
3440196800	-3.586263e+000	-1.438934e+002	-3.707038e+000	-2.910728e+001	-2.196051e+001	-1.351363e+001	-2.354038e+000	-1.276578e+002
3450196500	-3.587217e+000	-1.441603e+002	-3.756793e+000	-2.949578e+001	-2.193413e+001	-1.376359e+001	-2.357066e+000	-1.279982e+002
3460196200	-3.581626e+000	-1.444489e+002	-3.806760e+000	-2.980100e+001	-2.198079e+001	-1.391671e+001	-2.368179e+000	-1.283104e+002
3470195900	-3.583941e+000	-1.447600e+002	-3.849914e+000	-3.017527e+001	-2.197701e+001	-1.410781e+001	-2.374484e+000	-1.286456e+002
3480195600	-3.576914e+000	-1.450304e+002	-3.889629e+000	-3.046149e+001	-2.195642e+001	-1.410829e+001	-2.381180e+000	-1.290022e+002
3490195300	-3.574923e+000	-1.453686e+002	-3.943902e+000	-3.086150e+001	-2.199071e+001	-1.443680e+001	-2.392195e+000	-1.293447e+002
3500195000	-3.573373e+000	-1.456496e+002	-3.976488e+000	-3.114358e+001	-2.196160e+001	-1.455123e+001	-2.394577e+000	-1.296981e+002
3510194700	-3.574121e+000	-1.459609e+002	-4.009087e+000	-3.150667e+001	-2.193105e+001	-1.461375e+001	-2.395631e+000	-1.299678e+002
3520194400	-3.563391e+000	-1.461998e+002	-4.059015e+000	-3.183726e+001	-2.191375e+001	-1.468125e+001	-2.378939e+000	-1.303252e+002
3530194100	-3.566883e+000	-1.464895e+002	-4.100174e+000	-3.220075e+001	-2.186988e+001	-1.467588e+001	-2.360624e+000	-1.306620e+002
3540193800	-3.560779e+000	-1.466945e+002	-4.134486e+000	-3.256609e+001	-2.184422e+001	-1.493394e+001	-2.356319e+000	-1.309402e+002
3550193500	-3.562066e+000	-1.469112e+002	-4.176753e+000	-3.286858e+001	-2.184246e+001	-1.532612e+001	-2.346188e+000	-1.311468e+002
3560193200	-3.551360e+000	-1.471803e+002	-4.211040e+000	-3.332700e+001	-2.186127e+001	-1.578964e+001	-2.355833e+000	-1.314740e+002
3570192900	-3.548403e+000	-1.474440e+002	-4.254343e+000	-3.374046e+001	-2.189932e+001	-1.646694e+001	-2.351913e+000	-1.317766e+002
3580192600	-3.540040e+000	-1.477112e+002	-4.292792e+000	-3.414841e+001	-2.190130e+001	-1.666699e+001	-2.349232e+000	-1.320900e+002
3590192300	-3.531517e+000	-1.480378e+002	-4.345852e+000	-3.451496e+001	-2.198405e+001	-1.693828e+001	-2.353990e+000	-1.324186e+002
3600192000	-3.517818e+000	-1.482680e+002	-4.381906e+000	-3.484942e+001	-2.200971e+001	-1.731074e+001	-2.347987e+000	-1.328013e+002
3610191700	-3.524234e+000	-1.485700e+002	-4.437356e+000	-3.527527e+001	-2.206002e+001	-1.739058e+001	-2.359595e+000	-1.331069e+002
3620191400	-3.516884e+000	-1.488322e+002	-4.477581e+000	-3.562219e+001	-2.206487e+001	-1.731539e+001	-2.363200e+000	-1.334800e+002
3630191100	-3.520921e+000	-1.490887e+002	-4.513198e+000	-3.601225e+001	-2.209447e+001	-1.772018e+001	-2.368678e+000	-1.339287e+002
3640190800	-3.512018e+000	-1.493885e+002	-4.552527e+000	-3.632842e+001	-2.206899e+001	-1.784326e+001	-2.374971e+000	-1.342645e+002
3650190500	-3.503481e+000	-1.497174e+002	-4.608986e+000	-3.667671e+001	-2.207634e+001	-1.806133e+001	-2.375740e+000	-1.346904e+002
3660190200	-3.504457e+000	-1.500000e+002	-4.652987e+000	-3.709421e+001	-2.213289e+001	-1.828025e+001	-2.389802e+000	-1.350303e+002
3670189900	-3.504691e+000	-1.503209e+002	-4.691123e+000	-3.748391e+001	-2.210570e+001	-1.845813e+001	-2.388692e+000	-1.354161e+002
3680189600	-3.501742e+000	-1.506182e+002	-4.741278e+000	-3.784302e+001	-2.208931e+001	-1.828655e+001	-2.386417e+000	-1.358420e+002
3690189300	-3.495578e+000	-1.509333e+002	-4.790416e+000	-3.813363e+001	-2.209603e+001	-1.858271e+001	-2.383707e+000	-1.361900e+002
3700189000	-3.492642e+000	-1.512446e+002	-4.843130e+000	-3.848316e+001	-2.209693e+001	-1.822321e+001	-2.367561e+000	-1.364978e+002
3710188700	-3.488539e+000	-1.515568e+002	-4.880391e+000	-3.882358e+001	-2.214437e+001	-1.845632e+001	-2.368666e+000	-1.367579e+002
3720188400	-3.486372e+000	-1.518519e+002	-4.918971e+000	-3.908778e+001	-2.211618e+001	-1.827168e+001	-2.367866e+000	-1.370953e+002
3730188100	-3.483457e+000	-1.521294e+002	-4.946516e+000	-3.942179e+001	-2.214421e+001	-1.844612e+001	-2.385099e+000	-1.374019e+002
3740187800	-3.485199e+000	-1.524117e+002	-4.988669e+000	-3.980053e+001	-2.209965e+001	-1.865409e+001	-2.387091e+000	-1.376940e+002
3750187500	-3.473897e+000	-1.526617e+002	-5.026226e+000	-3.999671e+001	-2.207020e+001	-1.922442e+001	-2.391508e+000	-1.379473e+002
3760187200	-3.473369e+000	-1.528990e+002	-5.071347e+000	-4.047639e+001	-2.203146e+001	-1.955761e+001	-2.394398e+000	-1.382813e+002
3770186900	-3.466472e+000	-1.531494e+002	-5.101969e+000	-4.086899e+001	-2.205330e+001	-1.985128e+001	-2.403258e+000	-1.385381e+002
3780186600	-3.458619e+000	-1.534524e+002	-5.132714e+000	-4.128706e+001	-2.206840e+001	-2.033688e+001	-2.405978e+000	-1.388836e+002
3790186300	-3.456370e+000	-1.536843e+002	-5.186585e+000	-4.174564e+001	-2.206339e+001	-2.092108e+001	-2.406134e+000	-1.392355e+002
3800186000	-3.445310e+000	-1.539598e+002	-5.223200e+000	-4.211059e+001	-2.209202e+001	-2.160009e+001	-2.401134e+000	-1.396047e+002
3810185700	-3.435791e+000	-1.542957e+002	-5.265446e+000	-4.261662e+001	-2.215749e+001	-2.230492e+001	-2.401685e+000	-1.399840e+002
3820185400	-3.429865e+000	-1.545790e+002	-5.317030e+000	-4.294009e+001	-2.218747e+001	-2.249692e+001	-2.391894e+000	-1.403734e+002
3830185100	-3.420568e+000	-1.548951e+002	-5.368004e+000	-4.327745e+001	-2.223393e+001	-2.248840e+001	-2.390392e+000	-1.407991e+002
3840184800	-3.408425e+000	-1.552596e+002	-5.416948e+000	-4.365580e+001	-2.227883e+001	-2.289157e+001	-2.378780e+000	-1.412075e+002
3850184500	-3.413138e+000	-1.555437e+002	-5.477986e+000	-4.405022e+001	-2.228362e+001	-2.246622e+001	-2.375006e+000	-1.416232e+002
3860184200	-3.412837e+000	-1.558645e+002	-5.520026e+000	-4.434413e+001	-2.231496e+001	-2.247444e+001	-2.364255e+000	-1.420616e+002
3870183900	-3.407871e+000	-1.561893e+002	-5.577541e+000	-4.476468e+001	-2.234098e+001	-2.217221e+001	-2.361537e+000	-1.424438e+002
3880183600	-3.406333e+000	-1.564848e+002	-5.614574e+000	-4.513351e+001	-2.237776e+001	-2.220442e+001	-2.362819e+000	-1.427775e+002
3890183300	-3.396455e+000	-1.568107e+002	-5.664164e+000	-4.536691e+001	-2.242500e+001	-2.206724e+001	-2.376345e+000	-1.431154e+002
3900183000	-3.392648e+000	-1.571060e+002	-5.712276e+000	-4.568401e+001	-2.244539e+001	-2.208814e+001	-2.391785e+000	-1.434353e+002
3910182700	-3.399010e+000	-1.574007e+002	-5.758440e+000	-4.601621e+001	-2.241906e+001	-2.220660e+001	-2.397587e+000	-1.437510e+002
3920182400	-3.395093e+000	-1.576632e+002	-5.794298e+000	-4.624014e+001	-2.242180e+001	-2.227317e+001	-2.411674e+000	-1.440832e+002
3930182100	-3.388013e+000	-1.579534e+002	-5.845008e+000	-4.660626e+001	-2.239629e+001	-2.230564e+001	-2.409837e+000	-1.444275e+002
3940181800	-3.387076e+000	-1.583088e+002	-5.889070e+000	-4.689886e+001	-2.239786e+001	-2.216506e+001	-2.415006e+000	-1.447866e+002
3950181500	-3.383375e+000	-1.585880e+002	-5.920804e+000	-4.726874e+001	-2.234472e+001	-2.225906e+001	-2.429503e+000	-1.451343e+002
3960181200	-3.384739e+000	-1.588165e+002	-5.956651e+000	-4.748863e+001	-2.229287e+001	-2.238915e+001	-2.440646e+000	-1.454876e+002
3970180900	-3.388422e+000	-1.591268e+002	-5.985994e+000	-4.779706e+001	-2.223301e+001	-2.280517e+001	-2.459249e+000	-1.458171e+002
3980180600	-3.384066e+000	-1.593755e+002	-6.016333e+000	-4.818457e+001	-2.214863e+001	-2.344003e+001	-2.456582e+000	-1.460911e+002
3990180300	-3.373518e+000	-1.595884e+002	-6.056973e+000	-4.855524e+001	-2.208606e+001	-2.412597e+001	-2.456552e+000	-1.463974e+002
4000180000	-3.367751e+000	-1.598429e+002	-6.096201e+000	-4.894967e+001	-2.208270e+001	-2.485783e+001	-2.453997e+000	-1.467378e+002
4010179700	-3.353623e+000	-1.600868e+002	-6.133191e+000	-4.947663e+001	-2.208217e+001	-2.567935e+001	-2.434625e+000	-1.470728e+002
4020179400	-3.339191e+000	-1.603841e+002	-6.166928e+000	-4.992529e+001	-2.209410e+001	-2.610483e+001	-2.420864e+000	-1.474455e+002
4030179100	-3.319890e+000	-1.606455e+002	-6.218087e+000	-5.034252e+001	-2.223168e+001	-2.657280e+001	-2.404636e+000	-1.477708e+002
4040178800	-3.311959e+000	-1.610076e+002	-6.277281e+000	-5.083446e+001	-2.229520e+001	-2.680157e+001	-2.391087e+000	-1.481482e+002
4050178500	-3.303253e+000	-1.613498e+002	-6.329471e+000	-5.125178e+001	-2.242446e+001	-2.686357e+001	-2.381950e+000	-1.485071e+002
4060178200	-3.288477e+000	-1.617159e+002	-6.385873e+000	-5.153790e+001	-2.248288e+001	-2.703708e+001	-2.377032e+000	-1.489074e+002
4070177900	-3.285822e+000	-1.620253e+002	-6.435385e+000	-5.197020e+001	-2.259100e+001	-2.708451e+001	-2.376450e+000	-1.493379e+002
4080177600	-3.283689e+000	-1.623261e+002	-6.506527e+000	-5.227266e+001	-2.266349e+001	-2.709714e+001	-2.389744e+000	-1.497174e+002
4090177300	-3.278405e+000	-1.626464e+002	-6.559655e+000	-5.258299e+001	-2.265899e+001	-2.687903e+001	-2.399328e+000	-1.501381e+002
4100177000	-3.284070e+000	-1.629447e+002	-6.603997e+000	-5.283379e+001	-2.270135e+001	-2.692090e+001	-2.410865e+000	-1.504939e+002
4110176700	-3.283433e+000	-1.632878e+002	-6.647476e+000	-5.320268e+001	-2.270869e+001	-2.668884e+001	-2.410350e+000	-1.508636e+002
4120176400	-3.283331e+000	-1.635844e+002	-6.703367e+000	-5.353908e+001	-2.272586e+001	-2.673898e+001	-2.420563e+000	-1.512044e+002
4130176100	-3.283912e+000	-1.638589e+002	-6.752885e+000	-5.376306e+001	-2.273890e+001	-2.674412e+001	-2.418050e+000	-1.515679e+002
4140175800	-3.281004e+000	-1.641552e+002	-6.791107e+000	-5.400250e+001	-2.271032e+001	-2.655275e+001	-2.420994e+000	-1.519845e+002
4150175500	-3.283058e+000	-1.644485e+002	-6.835936e+000	-5.432784e+001	-2.267465e+001	-2.642800e+001	-2.433235e+000	-1.523921e+002
4160175200	-3.276364e+000	-1.647115e+002	-6.889444e+000	-5.453067e+001	-2.261165e+001	-2.645381e+001	-2.440457e+000	-1.527506e+002
4170174900	-3.276076e+000	-1.649866e+002	-6.923620e+000	-5.488412e+001	-2.251861e+001	-2.642917e+001	-2.447830e+000	-1.531290e+002
4180174600	-3.267880e+000	-1.652622e+002	-6.949579e+000	-5.503237e+001	-2.242079e+001	-2.678504e+001	-2.457302e+000	-1.534325e+002
4190174300	-3.271949e+000	-1.654803e+002	-6.980896e+000	-5.547782e+001	-2.232051e+001	-2.697338e+001	-2.456909e+000	-1.537114e+002
4200174000	-3.260547e+000	-1.657309e+002	-7.004399e+000	-5.580053e+001	-2.227877e+001	-2.764359e+001	-2.450362e+000	-1.539489e+002
4210173700	-3.245099e+000	-1.659373e+002	-7.037455e+000	-5.629074e+001	-2.226212e+001	-2.848683e+001	-2.439310e+000	-1.542057e+002
4220173400	-3.233678e+000	-1.662740e+002	-7.073453e+000	-5.670686e+001	-2.232868e+001	-2.957443e+001	-2.427884e+000	-1.545600e+002
4230173100	-3.221007e+000	-1.664867e+002	-7.131088e+000	-5.712659e+001	-2.243950e+001	-3.017913e+001	-2.425810e+000	-1.548427e+002
4240172800	-3.205894e+000	-1.667738e+002	-7.162238e+000	-5.757922e+001	-2.247465e+001	-3.067661e+001	-2.418157e+000	-1.552339e+002
4250172500	-3.187873e+000	-1.670385e+002	-7.214289e+000	-5.806431e+001	-2.254370e+001	-3.139002e+001	-2.421948e+000	-1.555311e+002
4260172200	-3.170917e+000	-1.673656e+002	-7.267157e+000	-5.852489e+001	-2.265432e+001	-3.189359e+001	-2.422737e+000	-1.559201e+002
4270171900	-3.156664e+000	-1.676695e+002	-7.325339e+000	-5.895065e+001	-2.275504e+001	-3.239061e+001	-2.415432e+000	-1.562692e+002
4280171600	-3.147113e+000	-1.680083e+002	-7.380721e+000	-5.934399e+001	-2.283989e+001	-3.232782e+001	-2.408408e+000	-1.566838e+002
4290171300	-3.145818e+000	-1.683542e+002	-7.448710e+000	-5.966206e+001	-2.294711e+001	-3.245614e+001	-2.407504e+000	-1.570373e+002
4300171000	-3.137476e+000	-1.686749e+002	-7.508600e+000	-5.994418e+001	-2.303098e+001	-3.228009e+001	-2.398649e+000	-1.574532e+002
4310170700	-3.143245e+000	-1.690543e+002	-7.577797e+000	-6.033933e+001	-2.305502e+001	-3.181264e+001	-2.394564e+000	-1.579068e+002
4320170400	-3.138814e+000	-1.693786e+002	-7.640320e+000	-6.052001e+001	-2.305470e+001	-3.147534e+001	-2.402459e+000	-1.583740e+002
4330170100	-3.137228e+000	-1.696506e+002	-7.701644e+000	-6.070043e+001	-2.301633e+001	-3.103262e+001	-2.399730e+000	-1.587609e+002
4340169800	-3.138563e+000	-1.699610e+002	-7.742269e+000	-6.091877e+001	-2.295817e+001	-3.064478e+001	-2.395037e+000	-1.591409e+002
4350169500	-3.135860e+000	-1.702395e+002	-7.780432e+000	-6.128177e+001	-2.293099e+001	-3.066103e+001	-2.399731e+000	-1.594485e+002
4360169200	-3.139499e+000	-1.705301e+002	-7.832494e+000	-6.151288e+001	-2.291085e+001	-3.047733e+001	-2.395978e+000	-1.597704e+002
4370168900	-3.140204e+000	-1.707980e+002	-7.887852e+000	-6.176354e+001	-2.288250e+001	-3.022466e+001	-2.404451e+000	-1.601418e+002
4380168600	-3.145245e+000	-1.710294e+002	-7.921408e+000	-6.201129e+001	-2.283488e+001	-3.035318e+001	-2.422435e+000	-1.605035e+002
4390168300	-3.145790e+000	-1.713349e+002	-7.952444e+000	-6.220884e+001	-2.276200e+001	-3.065589e+001	-2.433332e+000	-1.608439e+002
4400168000	-3.132467e+000	-1.714950e+002	-7.972064e+000	-6.248115e+001	-2.266564e+001	-3.122258e+001	-2.443703e+000	-1.610557e+002
4410167700	-3.119869e+000	-1.716906e+002	-7.983732e+000	-6.274817e+001	-2.256090e+001	-3.217925e+001	-2.453061e+000	-1.612424e+002
4420167400	-3.106341e+000	-1.718721e+002	-8.002902e+000	-6.325277e+001	-2.255784e+001	-3.365464e+001	-2.443475e+000	-1.615180e+002
4430167100	-3.082208e+000	-1.721149e+002	-8.043479e+000	-6.386094e+001	-2.268618e+001	-3.470694e+001	-2.436865e+000	-1.618078e+002
4440166800	-3.065464e+000	-1.724115e+002	-8.096367e+000	-6.432979e+001	-2.278517e+001	-3.516828e+001	-2.413580e+000	-1.621685e+002
4450166500	-3.052739e+000	-1.727039e+002	-8.158517e+000	-6.474419e+001	-2.283809e+001	-3.588639e+001	-2.408547e+000	-1.626113e+002
4460166200	-3.043148e+000	-1.730054e+002	-8.216384e+000	-6.520479e+001	-2.289122e+001	-3.603950e+001	-2.400609e+000	-1.629573e+002
4470165900	-3.032720e+000	-1.732586e+002	-8.269921e+000	-6.555725e+001	-2.294601e+001	-3.647366e+001	-2.394456e+000	-1.632844e+002
4480165600	-3.016668e+000	-1.735203e+002	-8.327412e+000	-6.599464e+001	-2.299268e+001	-3.711209e+001	-2.381181e+000	-1.636709e+002
4490165300	-2.999539e+000	-1.738574e+002	-8.389172e+000	-6.646046e+001	-2.307429e+001	-3.733224e+001	-2.358569e+000	-1.639899e+002
4500165000	-2.987420e+000	-1.741382e+002	-8.444280e+000	-6.688760e+001	-2.318362e+001	-3.734211e+001	-2.347424e+000	-1.643398e+002
4510164700	-2.974191e+000	-1.745203e+002	-8.523003e+000	-6.722697e+001	-2.334834e+001	-3.730379e+001	-2.335572e+000	-1.647307e+002
4520164400	-2.968467e+000	-1.748359e+002	-8.595632e+000	-6.760556e+001	-2.342120e+001	-3.702297e+001	-2.338326e+000	-1.651199e+002
4530164100	-2.961631e+000	-1.751870e+002	-8.665966e+000	-6.798244e+001	-2.355805e+001	-3.681683e+001	-2.337914e+000	-1.654786e+002
4540163800	-2.956507e+000	-1.754766e+002	-8.747845e+000	-6.819838e+001	-2.365864e+001	-3.676109e+001	-2.335231e+000	-1.659052e+002
4550163500	-2.947618e+000	-1.757979e+002	-8.832745e+000	-6.839899e+001	-2.373914e+001	-3.604791e+001	-2.336932e+000	-1.663474e+002
4560163200	-2.948302e+000	-1.761537e+002	-8.889227e+000	-6.864307e+001	-2.375698e+001	-3.523847e+001	-2.347964e+000	-1.667980e+002
4570162900	-2.955114e+000	-1.764582e+002	-8.968798e+000	-6.872703e+001	-2.374390e+001	-3.439676e+001	-2.355198e+000	-1.672239e+002
4580162600	-2.965553e+000	-1.767029e+002	-9.028225e+000	-6.872641e+001	-2.361196e+001	-3.376862e+001	-2.378455e+000	-1.676987e+002
4590162300	-2.969040e+000	-1.769637e+002	-9.060121e+000	-6.870946e+001	-2.351619e+001	-3.329924e+001	-2.403842e+000	-1.680091e+002
4600162000	-2.971842e+000	-1.771642e+002	-9.068269e+000	-6.870782e+001	-2.328024e+001	-3.311467e+001	-2.429025e+000	-1.682654e+002
4610161700	-2.972539e+000	-1.773172e+002	-9.064711e+000	-6.894995e+001	-2.309522e+001	-3.405250e+001	-2.449089e+000	-1.684323e+002
4620161400	-2.970101e+000	-1.774570e+002	-9.051866e+000	-6.931062e+001	-2.293251e+001	-3.561071e+001	-2.451696e+000	-1.685377e+002
4630161100	-2.952396e+000	-1.776016e+002	-9.067887e+000	-6.973369e+001	-2.287850e+001	-3.710817e+001	-2.415484e+000	-1.686654e+002
4640160800	-2.927473e+000	-1.778406e+002	-9.097519e+000	-7.038339e+001	-2.295831e+001	-3.845952e+001	-2.385340e+000	-1.688193e+002
4650160500	-2.912228e+000	-1.780494e+002	-9.154911e+000	-7.104543e+001	-2.307258e+001	-3.903485e+001	-2.350609e+000	-1.691387e+002
4660160200	-2.889488e+000	-1.783412e+002	-9.215684e+000	-7.156672e+001	-2.323935e+001	-3.990141e+001	-2.335264e+000	-1.694960e+002
4670159900	-2.872154e+000	-1.786105e+002	-9.284454e+000	-7.194343e+001	-2.339802e+001	-4.003615e+001	-2.320862e+000	-1.698956e+002
4680159600	-2.862100e+000	-1.789305e+002	-9.348829e+000	-7.236580e+001	-2.345586e+001	-3.999625e+001	-2.315597e+000	-1.703249e+002
4690159300	-2.852207e+000	-1.792014e+002	-9.432472e+000	-7.264621e+001	-2.356529e+001	-4.027097e+001	-2.324398e+000	-1.707165e+002
4700159000	-2.837967e+000	-1.794603e+002	-9.472136e+000	-7.294116e+001	-2.356595e+001	-4.012151e+001	-2.329673e+000	-1.710392e+002
4710158700	-2.824929e+000	-1.797262e+002	-9.531776e+000	-7.337014e+001	-2.360224e+001	-4.084218e+001	-2.324414e+000	-1.713791e+002
4720158400	-2.807705e+000	-1.799961e+002	-9.579702e+000	-7.378441e+001	-2.372067e+001	-4.137970e+001	-2.316684e+000	-1.717163e+002
4730158100	-2.795718e+000	1.797141e+002	-9.652421e+000	-7.416673e+001	-2.387271e+001	-4.155117e+001	-2.306363e+000	-1.720816e+002
4740157800	-2.780024e+000	1.794224e+002	-9.726695e+000	-7.452869e+001	-2.399388e+001	-4.149322e+001	-2.299632e+000	-1.724939e+002
4750157500	-2.771879e+000	1.791579e+002	-9.808548e+000	-7.488031e+001	-2.406937e+001	-4.124632e+001	-2.295300e+000	-1.728579e+002
4760157200	-2.764775e+000	1.788846e+002	-9.886193e+000	-7.512011e+001	-2.418742e+001	-4.103682e+001	-2.299942e+000	-1.732182e+002
4770156900	-2.763553e+000	1.785410e+002	-9.971344e+000	-7.537484e+001	-2.421960e+001	-4.044869e+001	-2.295558e+000	-1.735912e+002
4780156600	-2.761866e+000	1.782306e+002	-1.005337e+001	-7.549648e+001	-2.426404e+001	-3.977673e+001	-2.286534e+000	-1.739272e+002
4790156300	-2.759958e+000	1.779889e+002	-1.012776e+001	-7.546341e+001	-2.426194e+001	-3.846387e+001	-2.287117e+000	-1.742616e+002
4800156000	-2.771004e+000	1.777378e+002	-1.020450e+001	-7.544034e+001	-2.417668e+001	-3.740264e+001	-2.294617e+000	-1.745270e+002
4810155700	-2.779719e+000	1.775327e+002	-1.023584e+001	-7.532745e+001	-2.395350e+001	-3.688388e+001	-2.312129e+000	-1.747436e+002
4820155400	-2.777399e+000	1.773476e+002	-1.022467e+001	-7.547063e+001	-2.382058e+001	-3.759409e+001	-2.327484e+000	-1.749188e+002
4830155100	-2.773120e+000	1.772117e+002	-1.024052e+001	-7.578709e+001	-2.372319e+001	-3.900888e+001	-2.327749e+000	-1.751668e+002
4840154800	-2.754700e+000	1.770135e+002	-1.026621e+001	-7.627725e+001	-2.373355e+001	-3.984206e+001	-2.327026e+000	-1.754469e+002
4850154500	-2.749939e+000	1.767648e+002	-1.032782e+001	-7.667988e+001	-2.372617e+001	-4.024718e+001	-2.329269e+000	-1.757157e+002
4860154200	-2.735875e+000	1.765597e+002	-1.034010e+001	-7.691387e+001	-2.369411e+001	-4.098316e+001	-2.331110e+000	-1.759313e+002
4870153900	-2.719140e+000	1.763912e+002	-1.035667e+001	-7.739982e+001	-2.373613e+001	-4.240591e+001	-2.318237e+000	-1.760833e+002
4880153600	-2.700268e+000	1.761496e+002	-1.040781e+001	-7.804093e+001	-2.384513e+001	-4.369543e+001	-2.293573e+000	-1.763476e+002
4890153300	-2.680198e+000	1.758987e+002	-1.047192e+001	-7.852162e+001	-2.399312e+001	-4.406580e+001	-2.258238e+000	-1.766743e+002
4900153000	-2.661870e+000	1.756406e+002	-1.054244e+001	-7.895142e+001	-2.415210e+001	-4.409713e+001	-2.238537e+000	-1.771315e+002
4910152700	-2.646197e+000	1.754073e+002	-1.062750e+001	-7.927592e+001	-2.429370e+001	-4.421918e+001	-2.226024e+000	-1.774961e+002
4920152400	-2.632839e+000	1.751814e+002	-1.068678e+001	-7.949952e+001	-2.431727e+001	-4.413380e+001	-2.209806e+000	-1.778869e+002
4930152100	-2.623150e+000	1.749333e+002	-1.076374e+001	-7.982386e+001	-2.435932e+001	-4.405487e+001	-2.203749e+000	-1.782179e+002
4940151800	-2.611733e+000	1.746535e+002	-1.082533e+001	-8.025597e+001	-2.442925e+001	-4.400113e+001	-2.193271e+000	-1.785778e+002
4950151500	-2.601961e+000	1.744300e+002	-1.090472e+001	-8.053151e+001	-2.452747e+001	-4.408682e+001	-2.187493e+000	-1.788485e+002
4960151200	-2.591052e+000	1.742186e+002	-1.098554e+001	-8.083035e+001	-2.467096e+001	-4.347626e+001	-2.191238e+000	-1.791134e+002
4970150900	-2.581826e+000	1.739264e+002	-1.106789e+001	-8.095883e+001	-2.468808e+001	-4.331810e+001	-2.201322e+000	-1.793842e+002
4980150600	-2.577852e+000	1.737038e+002	-1.114375e+001	-8.116888e+001	-2.475639e+001	-4.267558e+001	-2.220426e+000	-1.796517e+002
4990150300	-2.573870e+000	1.734381e+002	-1.121623e+001	-8.134309e+001	-2.480578e+001	-4.244182e+001	-2.235292e+000	-1.799322e+002
5000150000	-2.568876e+000	1.731615e+002	-1.129062e+001	-8.145377e+001	-2.481040e+001	-4.187904e+001	-2.236139e+000	1.799245e+002
5010149700	-2.568629e+000	1.728959e+002	-1.135917e+001	-8.155431e+001	-2.477432e+001	-4.166026e+001	-2.236667e+000	1.796770e+002
5020149400	-2.568121e+000	1.726658e+002	-1.141030e+001	-8.157114e+001	-2.478047e+001	-4.109311e+001	-2.235537e+000	1.794187e+002
5030149100	-2.577137e+000	1.724822e+002	-1.146367e+001	-8.154872e+001	-2.463671e+001	-4.099736e+001	-2.240693e+000	1.791256e+002
5040148800	-2.581745e+000	1.723595e+002	-1.145786e+001	-8.148411e+001	-2.447145e+001	-4.117106e+001	-2.248674e+000	1.789058e+002
5050148500	-2.574927e+000	1.722221e+002	-1.144814e+001	-8.185247e+001	-2.439193e+001	-4.254857e+001	-2.233206e+000	1.787270e+002
5060148200	-2.558343e+000	1.720766e+002	-1.147668e+001	-8.245558e+001	-2.446690e+001	-4.409625e+001	-2.197915e+000	1.784899e+002
5070147900	-2.536111e+000	1.719120e+002	-1.153697e+001	-8.295761e+001	-2.458107e+001	-4.505372e+001	-2.174911e+000	1.781532e+002
5080147600	-2.520779e+000	1.716345e+002	-1.160709e+001	-8.349459e+001	-2.472098e+001	-4.508561e+001	-2.152362e+000	1.778319e+002
5090147300	-2.506375e+000	1.714549e+002	-1.167892e+001	-8.379074e+001	-2.481133e+001	-4.508292e+001	-2.138676e+000	1.774787e+002
5100147000	-2.495198e+000	1.712065e+002	-1.172819e+001	-8.401467e+001	-2.483814e+001	-4.485205e+001	-2.127625e+000	1.772019e+002
5110146700	-2.481728e+000	1.710857e+002	-1.179530e+001	-8.424299e+001	-2.482570e+001	-4.504008e+001	-2.130278e+000	1.770086e+002
5120146400	-2.471757e+000	1.708776e+002	-1.184250e+001	-8.455370e+001	-2.493733e+001	-4.533625e+001	-2.113138e+000	1.769159e+002
5130146100	-2.464562e+000	1.706285e+002	-1.193164e+001	-8.504957e+001	-2.506273e+001	-4.550679e+001	-2.090590e+000	1.767051e+002
5140145800	-2.449992e+000	1.704450e+002	-1.201777e+001	-8.541297e+001	-2.522095e+001	-4.553343e+001	-2.084984e+000	1.764482e+002
5150145500	-2.435035e+000	1.702013e+002	-1.211709e+001	-8.561694e+001	-2.537009e+001	-4.489057e+001	-2.076337e+000	1.760860e+002
5160145200	-2.423072e+000	1.699300e+002	-1.221138e+001	-8.586253e+001	-2.546710e+001	-4.422633e+001	-2.081836e+000	1.756777e+002
5170144900	-2.420298e+000	1.697500e+002	-1.230066e+001	-8.590886e+001	-2.546306e+001	-4.360728e+001	-2.090670e+000	1.753285e+002
5180144600	-2.413413e+000	1.694921e+002	-1.236237e+001	-8.605447e+001	-2.546606e+001	-4.317126e+001	-2.106074e+000	1.749216e+002
5190144300	-2.404685e+000	1.692829e+002	-1.243791e+001	-8.599849e+001	-2.543612e+001	-4.272248e+001	-2.138121e+000	1.746010e+002
5200144000	-2.402106e+000	1.691101e+002	-1.250279e+001	-8.593080e+001	-2.536935e+001	-4.202058e+001	-2.170363e+000	1.743853e+002
5210143700	-2.394647e+000	1.689168e+002	-1.250129e+001	-8.593643e+001	-2.523849e+001	-4.261215e+001	-2.187092e+000	1.743885e+002
5220143400	-2.391026e+000	1.686854e+002	-1.253000e+001	-8.633664e+001	-2.526863e+001	-4.350835e+001	-2.161670e+000	1.743326e+002
5230143100	-2.377395e+000	1.684632e+002	-1.258802e+001	-8.673881e+001	-2.539849e+001	-4.419482e+001	-2.131211e+000	1.741673e+002
5240142800	-2.376233e+000	1.682853e+002	-1.267395e+001	-8.704991e+001	-2.551288e+001	-4.374792e+001	-2.086303e+000	1.738826e+002
5250142500	-2.364935e+000	1.680791e+002	-1.275418e+001	-8.716288e+001	-2.557514e+001	-4.282200e+001	-2.068697e+000	1.735607e+002
5260142200	-2.369429e+000	1.679052e+002	-1.281770e+001	-8.708541e+001	-2.547435e+001	-4.218915e+001	-2.060482e+000	1.732506e+002
5270141900	-2.381059e+000	1.677561e+002	-1.285773e+001	-8.706393e+001	-2.532269e+001	-4.212410e+001	-2.057748e+000	1.730749e+002
5280141600	-2.374199e+000	1.676786e+002	-1.285748e+001	-8.722709e+001	-2.525265e+001	-4.272852e+001	-2.052437e+000	1.730289e+002
5290141300	-2.359769e+000	1.675858e+002	-1.286935e+001	-8.767413e+001	-2.525795e+001	-4.363003e+001	-2.034081e+000	1.729296e+002
5300141000	-2.337741e+000	1.674289e+002	-1.293953e+001	-8.824873e+001	-2.545359e+001	-4.463397e+001	-2.009838e+000	1.728431e+002
5310140700	-2.328140e+000	1.672371e+002	-1.302088e+001	-8.861724e+001	-2.561988e+001	-4.470430e+001	-2.002509e+000	1.725608e+002
5320140400	-2.316836e+000	1.669766e+002	-1.310044e+001	-8.889134e+001	-2.575122e+001	-4.461671e+001	-1.993575e+000	1.722453e+002
5330140100	-2.315083e+000	1.668190e+002	-1.320962e+001	-8.902234e+001	-2.582190e+001	-4.392351e+001	-2.003061e+000	1.718895e+002
5340139800	-2.295629e+000	1.666303e+002	-1.326042e+001	-8.913704e+001	-2.582862e+001	-4.372786e+001	-2.003343e+000	1.715615e+002
5350139500	-2.293533e+000	1.664767e+002	-1.335199e+001	-8.944710e+001	-2.591469e+001	-4.371937e+001	-2.004264e+000	1.713142e+002
5360139200	-2.279000e+000	1.662605e+002	-1.342764e+001	-8.960341e+001	-2.596127e+001	-4.339094e+001	-2.006986e+000	1.710212e+002
5370138900	-2.268655e+000	1.660717e+002	-1.350843e+001	-8.977746e+001	-2.610565e+001	-4.346443e+001	-2.021332e+000	1.707552e+002
5380138600	-2.261684e+000	1.658542e+002	-1.359126e+001	-9.000152e+001	-2.611920e+001	-4.259361e+001	-2.007996e+000	1.704680e+002
5390138300	-2.250261e+000	1.657036e+002	-1.368220e+001	-9.006691e+001	-2.624162e+001	-4.271084e+001	-2.004449e+000	1.701984e+002
5400138000	-2.249729e+000	1.654978e+002	-1.378159e+001	-9.011827e+001	-2.633120e+001	-4.139779e+001	-1.988344e+000	1.697898e+002
5410137700	-2.240519e+000	1.653051e+002	-1.390438e+001	-9.007621e+001	-2.628614e+001	-4.022974e+001	-1.989239e+000	1.694845e+002
5420137400	-2.242626e+000	1.650863e+002	-1.397264e+001	-8.981362e+001	-2.621621e+001	-3.842373e+001	-1.996536e+000	1.692176e+002
5430137100	-2.243540e+000	1.649846e+002	-1.403135e+001	-8.942266e+001	-2.601144e+001	-3.745460e+001	-2.026444e+000	1.689875e+002
5440136800	-2.244841e+000	1.648002e+002	-1.403998e+001	-8.893333e+001	-2.570669e+001	-3.652445e+001	-2.056881e+000	1.689045e+002
5450136500	-2.251700e+000	1.647448e+002	-1.399242e+001	-8.879961e+001	-2.541234e+001	-3.814353e+001	-2.091766e+000	1.691523e+002
5460136200	-2.240488e+000	1.646919e+002	-1.393196e+001	-8.943000e+001	-2.538230e+001	-4.016625e+001	-2.083917e+000	1.695111e+002
5470135900	-2.227132e+000	1.645462e+002	-1.397790e+001	-9.020724e+001	-2.562478e+001	-4.167793e+001	-2.031469e+000	1.696216e+002
5480135600	-2.214841e+000	1.643177e+002	-1.409285e+001	-9.078893e+001	-2.590280e+001	-4.187407e+001	-1.986723e+000	1.692860e+002
5490135300	-2.217371e+000	1.641028e+002	-1.422183e+001	-9.087141e+001	-2.601592e+001	-4.052388e+001	-1.973732e+000	1.689421e+002
5500135000	-2.218629e+000	1.639705e+002	-1.430887e+001	-9.071605e+001	-2.600933e+001	-3.948331e+001	-1.976325e+000	1.685490e+002
5510134700	-2.220287e+000	1.638612e+002	-1.435891e+001	-9.052488e+001	-2.584924e+001	-3.884483e+001	-1.986440e+000	1.683032e+002
5520134400	-2.218042e+000	1.637773e+002	-1.436984e+001	-9.061710e+001	-2.572783e+001	-3.956790e+001	-1.994755e+000	1.681236e+002
5530134100	-2.197889e+000	1.636949e+002	-1.439860e+001	-9.079109e+001	-2.581300e+001	-4.057987e+001	-1.990951e+000	1.680148e+002
5540133800	-2.184590e+000	1.635109e+002	-1.447422e+001	-9.141640e+001	-2.596328e+001	-4.079296e+001	-1.970089e+000	1.677455e+002
5550133500	-2.174145e+000	1.633702e+002	-1.459068e+001	-9.177447e+001	-2.617462e+001	-4.003081e+001	-1.951739e+000	1.674049e+002
5560133200	-2.165628e+000	1.631294e+002	-1.472391e+001	-9.170293e+001	-2.624883e+001	-3.952821e+001	-1.943937e+000	1.670291e+002
5570132900	-2.168360e+000	1.629562e+002	-1.479800e+001	-9.148411e+001	-2.615850e+001	-3.805317e+001	-1.948890e+000	1.666632e+002
5580132600	-2.164858e+000	1.628340e+002	-1.486198e+001	-9.128995e+001	-2.603710e+001	-3.702757e+001	-1.957950e+000	1.664797e+002
5590132300	-2.157797e+000	1.627096e+002	-1.493705e+001	-9.134610e+001	-2.601827e+001	-3.667151e+001	-1.942533e+000	1.662523e+002
5600132000	-2.149133e+000	1.625643e+002	-1.501726e+001	-9.122520e+001	-2.604335e+001	-3.569281e+001	-1.953623e+000	1.660681e+002
5610131700	-2.151600e+000	1.623829e+002	-1.510047e+001	-9.075230e+001	-2.590777e+001	-3.402039e+001	-1.974180e+000	1.658993e+002
5620131400	-2.156619e+000	1.623116e+002	-1.513434e+001	-9.015435e+001	-2.568309e+001	-3.355523e+001	-2.013999e+000	1.658536e+002
5630131100	-2.157245e+000	1.621522e+002	-1.512209e+001	-8.994170e+001	-2.543503e+001	-3.369204e+001	-2.043979e+000	1.659658e+002
5640130800	-2.151331e+000	1.620448e+002	-1.512187e+001	-9.003910e+001	-2.536709e+001	-3.497324e+001	-2.052745e+000	1.660516e+002
5650130500	-2.149844e+000	1.619288e+002	-1.518178e+001	-9.029248e+001	-2.539954e+001	-3.454638e+001	-2.043827e+000	1.659261e+002
5660130200	-2.152383e+000	1.618234e+002	-1.529057e+001	-8.989060e+001	-2.532010e+001	-3.380903e+001	-2.057036e+000	1.656124e+002
5670129900	-2.160863e+000	1.616916e+002	-1.530265e+001	-8.913304e+001	-2.503126e+001	-3.327857e+001	-2.091406e+000	1.653690e+002
5680129600	-2.174484e+000	1.616538e+002	-1.523939e+001	-8.867254e+001	-2.467640e+001	-3.359808e+001	-2.136957e+000	1.653182e+002
5690129300	-2.173018e+000	1.616015e+002	-1.509178e+001	-8.857644e+001	-2.439067e+001	-3.574866e+001	-2.176590e+000	1.655146e+002
5700129000	-2.160216e+000	1.617099e+002	-1.498485e+001	-8.925944e+001	-2.430719e+001	-3.890168e+001	-2.173104e+000	1.658604e+002
5710128700	-2.135631e+000	1.616274e+002	-1.496835e+001	-9.073573e+001	-2.458650e+001	-4.152604e+001	-2.102403e+000	1.660105e+002
5720128400	-2.117107e+000	1.614266e+002	-1.513105e+001	-9.174591e+001	-2.498100e+001	-4.202405e+001	-2.028853e+000	1.657319e+002
5730128100	-2.112735e+000	1.612047e+002	-1.530997e+001	-9.190171e+001	-2.524659e+001	-4.016780e+001	-1.987576e+000	1.652938e+002
5740127800	-2.115700e+000	1.610137e+002	-1.542928e+001	-9.134691e+001	-2.518889e+001	-3.839532e+001	-1.983729e+000	1.649467e+002
5750127500	-2.123745e+000	1.609737e+002	-1.545916e+001	-9.082838e+001	-2.501640e+001	-3.773718e+001	-1.991086e+000	1.646996e+002
5760127200	-2.122692e+000	1.609380e+002	-1.547383e+001	-9.065923e+001	-2.485917e+001	-3.787120e+001	-1.992290e+000	1.646652e+002
5770126900	-2.112830e+000	1.609092e+002	-1.546996e+001	-9.075540e+001	-2.483766e+001	-3.820848e+001	-1.994862e+000	1.646811e+002
5780126600	-2.101417e+000	1.608148e+002	-1.552967e+001	-9.082729e+001	-2.484400e+001	-3.837173e+001	-2.006319e+000	1.646592e+002
5790126300	-2.096961e+000	1.606832e+002	-1.561004e+001	-9.080044e+001	-2.482343e+001	-3.751515e+001	-2.008334e+000	1.645119e+002
5800126000	-2.095905e+000	1.605555e+002	-1.567783e+001	-9.043193e+001	-2.477259e+001	-3.667306e+001	-2.030394e+000	1.643164e+002
5810125700	-2.104988e+000	1.604781e+002	-1.570327e+001	-8.988177e+001	-2.451841e+001	-3.634330e+001	-2.071459e+000	1.641667e+002
5820125400	-2.111107e+000	1.604664e+002	-1.564735e+001	-8.943852e+001	-2.426679e+001	-3.668202e+001	-2.106554e+000	1.640825e+002
5830125100	-2.107795e+000	1.603798e+002	-1.560890e+001	-8.923270e+001	-2.411942e+001	-3.742633e+001	-2.126933e+000	1.640498e+002
5840124800	-2.111524e+000	1.602914e+002	-1.559336e+001	-8.897812e+001	-2.388263e+001	-3.766825e+001	-2.161104e+000	1.640358e+002
5850124500	-2.118289e+000	1.603322e+002	-1.550180e+001	-8.856174e+001	-2.354228e+001	-3.862063e+001	-2.201716e+000	1.640888e+002
5860124200	-2.114748e+000	1.604009e+002	-1.534216e+001	-8.866884e+001	-2.326957e+001	-4.082698e+001	-2.234461e+000	1.643261e+002
5870123900	-2.099230e+000	1.604708e+002	-1.518128e+001	-8.935420e+001	-2.315973e+001	-4.355400e+001	-2.225611e+000	1.647123e+002
5880123600	-2.078769e+000	1.605112e+002	-1.510509e+001	-9.056362e+001	-2.318083e+001	-4.648138e+001	-2.181399e+000	1.649923e+002
5890123300	-2.049693e+000	1.604656e+002	-1.508697e+001	-9.190123e+001	-2.339132e+001	-4.932049e+001	-2.120928e+000	1.651376e+002
5900123000	-2.018272e+000	1.603933e+002	-1.516714e+001	-9.304400e+001	-2.366380e+001	-5.030557e+001	-2.049043e+000	1.651156e+002
5910122700	-1.998647e+000	1.602575e+002	-1.530567e+001	-9.377101e+001	-2.399224e+001	-5.069135e+001	-1.990641e+000	1.649802e+002
5920122400	-1.997057e+000	1.601223e+002	-1.540557e+001	-9.394144e+001	-2.414341e+001	-4.988571e+001	-1.962485e+000	1.648409e+002
5930122100	-2.001084e+000	1.600162e+002	-1.545493e+001	-9.395652e+001	-2.412260e+001	-4.992199e+001	-1.968798e+000	1.648689e+002
5940121800	-1.989244e+000	1.600178e+002	-1.546029e+001	-9.429633e+001	-2.411083e+001	-5.085719e+001	-1.957347e+000	1.649380e+002
5950121500	-1.976761e+000	1.600111e+002	-1.549929e+001	-9.483085e+001	-2.423497e+001	-5.203291e+001	-1.931904e+000	1.649507e+002
5960121200	-1.959706e+000	1.598254e+002	-1.558812e+001	-9.566095e+001	-2.450597e+001	-5.253890e+001	-1.904562e+000	1.649159e+002
5970120900	-1.959144e+000	1.596848e+002	-1.576512e+001	-9.587828e+001	-2.470881e+001	-5.176142e+001	-1.872174e+000	1.645849e+002
5980120600	-1.959394e+000	1.595270e+002	-1.591188e+001	-9.557958e+001	-2.480541e+001	-5.007967e+001	-1.875723e+000	1.642240e+002
5990120300	-1.973867e+000	1.594682e+002	-1.594505e+001	-9.490039e+001	-2.461781e+001	-4.870628e+001	-1.896386e+000	1.639485e+002
6000120000	-1.971627e+000	1.594940e+002	-1.591657e+001	-9.456116e+001	-2.444092e+001	-4.884098e+001	-1.920770e+000	1.638572e+002
6010119700	-1.969534e+000	1.594563e+002	-1.587860e+001	-9.452731e+001	-2.424151e+001	-4.959700e+001	-1.947472e+000	1.638564e+002
6020119400	-1.955288e+000	1.594661e+002	-1.581942e+001	-9.464210e+001	-2.415454e+001	-5.082617e+001	-1.957216e+000	1.639444e+002
6030119100	-1.943289e+000	1.594612e+002	-1.577760e+001	-9.517874e+001	-2.407133e+001	-5.209683e+001	-1.945335e+000	1.639933e+002
6040118800	-1.928768e+000	1.594257e+002	-1.580168e+001	-9.564869e+001	-2.410304e+001	-5.316972e+001	-1.926285e+000	1.639549e+002
6050118500	-1.925713e+000	1.593828e+002	-1.581416e+001	-9.596568e+001	-2.412843e+001	-5.394900e+001	-1.917397e+000	1.639602e+002
6060118200	-1.912369e+000	1.593102e+002	-1.579330e+001	-9.640726e+001	-2.412760e+001	-5.489990e+001	-1.890149e+000	1.639467e+002
6070117900	-1.897237e+000	1.592605e+002	-1.583485e+001	-9.688885e+001	-2.418959e+001	-5.550922e+001	-1.864099e+000	1.639890e+002
6080117600	-1.883457e+000	1.591951e+002	-1.583348e+001	-9.716303e+001	-2.420387e+001	-5.619932e+001	-1.852951e+000	1.641205e+002
6090117300	-1.873507e+000	1.592108e+002	-1.582412e+001	-9.767093e+001	-2.422272e+001	-5.772990e+001	-1.837431e+000	1.643170e+002
6100117000	-1.853128e+000	1.591741e+002	-1.582577e+001	-9.837943e+001	-2.430690e+001	-5.897499e+001	-1.822403e+000	1.644724e+002
6110116700	-1.845074e+000	1.591081e+002	-1.586464e+001	-9.914835e+001	-2.445434e+001	-6.013882e+001	-1.788211e+000	1.645203e+002
6120116400	-1.828400e+000	1.590044e+002	-1.593533e+001	-9.974388e+001	-2.457458e+001	-6.120040e+001	-1.759077e+000	1.644479e+002
6130116100	-1.813865e+000	1.589604e+002	-1.603910e+001	-1.004238e+002	-2.480001e+001	-6.177976e+001	-1.739069e+000	1.643500e+002
6140115800	-1.802401e+000	1.588320e+002	-1.612493e+001	-1.009301e+002	-2.494730e+001	-6.219456e+001	-1.716181e+000	1.641762e+002
6150115500	-1.797746e+000	1.587193e+002	-1.622237e+001	-1.013632e+002	-2.512232e+001	-6.254234e+001	-1.702487e+000	1.639686e+002
6160115200	-1.792689e+000	1.586578e+002	-1.633078e+001	-1.015717e+002	-2.529996e+001	-6.246876e+001	-1.682341e+000	1.638703e+002
6170114900	-1.780729e+000	1.585282e+002	-1.640735e+001	-1.018859e+002	-2.542599e+001	-6.253889e+001	-1.675388e+000	1.637597e+002
6180114600	-1.777034e+000	1.584473e+002	-1.649461e+001	-1.021645e+002	-2.556447e+001	-6.231791e+001	-1.667310e+000	1.635761e+002
6190114300	-1.774861e+000	1.583282e+002	-1.659117e+001	-1.023438e+002	-2.569352e+001	-6.210275e+001	-1.649792e+000	1.634259e+002
6200114000	-1.769220e+000	1.582618e+002	-1.666241e+001	-1.023009e+002	-2.577696e+001	-6.179798e+001	-1.642077e+000	1.632700e+002
6210113700	-1.774308e+000	1.581643e+002	-1.671629e+001	-1.023554e+002	-2.583161e+001	-6.125036e+001	-1.634009e+000	1.631212e+002
6220113400	-1.767433e+000	1.581037e+002	-1.680986e+001	-1.025513e+002	-2.586016e+001	-6.104781e+001	-1.619411e+000	1.629966e+002
6230113100	-1.763504e+000	1.580077e+002	-1.688395e+001	-1.024374e+002	-2.595896e+001	-6.023925e+001	-1.598737e+000	1.629027e+002
6240112800	-1.765091e+000	1.580068e+002	-1.693213e+001	-1.021605e+002	-2.590440e+001	-5.964624e+001	-1.604505e+000	1.629174e+002
6250112500	-1.762939e+000	1.579829e+002	-1.691604e+001	-1.020888e+002	-2.579653e+001	-5.962783e+001	-1.618000e+000	1.630461e+002
6260112200	-1.752272e+000	1.579735e+002	-1.689661e+001	-1.022347e+002	-2.572885e+001	-6.060970e+001	-1.622322e+000	1.631389e+002
6270111900	-1.739543e+000	1.579492e+002	-1.691390e+001	-1.026189e+002	-2.575412e+001	-6.136662e+001	-1.617352e+000	1.631640e+002
6280111600	-1.724821e+000	1.578699e+002	-1.695644e+001	-1.029555e+002	-2.579522e+001	-6.185752e+001	-1.599220e+000	1.631707e+002
6290111300	-1.724164e+000	1.578330e+002	-1.700658e+001	-1.031966e+002	-2.584435e+001	-6.212897e+001	-1.593509e+000	1.631030e+002
6300111000	-1.711246e+000	1.578722e+002	-1.704602e+001	-1.035663e+002	-2.588972e+001	-6.299445e+001	-1.594125e+000	1.630372e+002
6310110700	-1.708917e+000	1.577830e+002	-1.708727e+001	-1.037963e+002	-2.598032e+001	-6.324110e+001	-1.584778e+000	1.629232e+002
6320110400	-1.698964e+000	1.577165e+002	-1.714873e+001	-1.041288e+002	-2.599114e+001	-6.330117e+001	-1.571668e+000	1.629111e+002
6330110100	-1.698259e+000	1.576819e+002	-1.718380e+001	-1.044057e+002	-2.607753e+001	-6.368315e+001	-1.564372e+000	1.628418e+002
6340109800	-1.687403e+000	1.576083e+002	-1.721201e+001	-1.047327e+002	-2.617339e+001	-6.450421e+001	-1.556035e+000	1.627976e+002
6350109500	-1.681366e+000	1.575685e+002	-1.729181e+001	-1.051742e+002	-2.620315e+001	-6.509019e+001	-1.547056e+000	1.627289e+002
6360109200	-1.672248e+000	1.575113e+002	-1.734455e+001	-1.053742e+002	-2.636650e+001	-6.565544e+001	-1.532185e+000	1.626765e+002
6370108900	-1.667094e+000	1.574463e+002	-1.742267e+001	-1.058125e+002	-2.647717e+001	-6.583409e+001	-1.513726e+000	1.625883e+002
6380108600	-1.664335e+000	1.573998e+002	-1.749632e+001	-1.060558e+002	-2.659600e+001	-6.602223e+001	-1.504092e+000	1.625494e+002
6390108300	-1.658155e+000	1.573064e+002	-1.755848e+001	-1.063362e+002	-2.668000e+001	-6.583771e+001	-1.479463e+000	1.625559e+002
6400108000	-1.649263e+000	1.572387e+002	-1.763999e+001	-1.065853e+002	-2.682045e+001	-6.589796e+001	-1.463188e+000	1.625930e+002
6410107700	-1.651243e+000	1.571611e+002	-1.772275e+001	-1.067970e+002	-2.701000e+001	-6.576870e+001	-1.456969e+000	1.625825e+002
6420107400	-1.644651e+000	1.571120e+002	-1.779788e+001	-1.070441e+002	-2.712926e+001	-6.579555e+001	-1.452828e+000	1.625476e+002
6430107100	-1.639626e+000	1.570505e+002	-1.786937e+001	-1.070850e+002	-2.725140e+001	-6.524251e+001	-1.444185e+000	1.625136e+002
6440106800	-1.641788e+000	1.569472e+002	-1.796177e+001	-1.071896e+002	-2.737163e+001	-6.494397e+001	-1.436498e+000	1.624040e+002
6450106500	-1.648311e+000	1.568950e+002	-1.804156e+001	-1.071073e+002	-2.743724e+001	-6.411454e+001	-1.431140e+000	1.623078e+002
6460106200	-1.646946e+000	1.569082e+002	-1.811772e+001	-1.069775e+002	-2.747944e+001	-6.351770e+001	-1.430232e+000	1.621967e+002
6470105900	-1.653919e+000	1.568951e+002	-1.816158e+001	-1.069146e+002	-2.741108e+001	-6.270782e+001	-1.436662e+000	1.621204e+002
6480105600	-1.647931e+000	1.568570e+002	-1.821580e+001	-1.066954e+002	-2.738007e+001	-6.227116e+001	-1.434320e+000	1.620554e+002
6490105300	-1.645932e+000	1.568681e+002	-1.824022e+001	-1.067463e+002	-2.729111e+001	-6.217026e+001	-1.439944e+000	1.620145e+002
6500105000	-1.636856e+000	1.568920e+002	-1.825925e+001	-1.067088e+002	-2.723886e+001	-6.233764e+001	-1.445315e+000	1.619799e+002
6510104700	-1.636789e+000	1.568447e+002	-1.827701e+001	-1.068809e+002	-2.719587e+001	-6.263097e+001	-1.445995e+000	1.620188e+002
6520104400	-1.626852e+000	1.568056e+002	-1.830385e+001	-1.071840e+002	-2.720782e+001	-6.335758e+001	-1.436766e+000	1.619825e+002
6530104100	-1.618839e+000	1.567871e+002	-1.832456e+001	-1.073781e+002	-2.724162e+001	-6.395193e+001	-1.426256e+000	1.619685e+002
6540103800	-1.614407e+000	1.567430e+002	-1.838024e+001	-1.077206e+002	-2.730805e+001	-6.397518e+001	-1.420215e+000	1.619248e+002
6550103500	-1.605895e+000	1.566992e+002	-1.841980e+001	-1.079234e+002	-2.736289e+001	-6.435603e+001	-1.402448e+000	1.619911e+002
6560103200	-1.599360e+000	1.566715e+002	-1.844130e+001	-1.081737e+002	-2.747457e+001	-6.476340e+001	-1.397632e+000	1.620672e+002
6570102900	-1.599044e+000	1.565995e+002	-1.849252e+001	-1.084235e+002	-2.752366e+001	-6.517205e+001	-1.392709e+000	1.620881e+002
6580102600	-1.593354e+000	1.565894e+002	-1.854022e+001	-1.087305e+002	-2.762511e+001	-6.582452e+001	-1.382548e+000	1.621222e+002
6590102300	-1.595214e+000	1.565236e+002	-1.859893e+001	-1.088860e+002	-2.772828e+001	-6.555455e+001	-1.375481e+000	1.620923e+002
6600102000	-1.591925e+000	1.564552e+002	-1.866104e+001	-1.091837e+002	-2.785513e+001	-6.585775e+001	-1.368934e+000	1.620564e+002
6610101700	-1.591175e+000	1.564805e+002	-1.873588e+001	-1.093263e+002	-2.800589e+001	-6.593314e+001	-1.361798e+000	1.619631e+002
6620101400	-1.592756e+000	1.564139e+002	-1.881506e+001	-1.094680e+002	-2.811192e+001	-6.555536e+001	-1.354658e+000	1.619433e+002
6630101100	-1.594063e+000	1.563567e+002	-1.888557e+001	-1.094931e+002	-2.823246e+001	-6.511518e+001	-1.351039e+000	1.619052e+002
6640100800	-1.595506e+000	1.563018e+002	-1.894502e+001	-1.096869e+002	-2.827536e+001	-6.460871e+001	-1.347752e+000	1.618483e+002
6650100500	-1.600006e+000	1.563101e+002	-1.903930e+001	-1.097206e+002	-2.838231e+001	-6.398384e+001	-1.341829e+000	1.618140e+002
6660100200	-1.605180e+000	1.562830e+002	-1.909645e+001	-1.096688e+002	-2.843506e+001	-6.343022e+001	-1.334845e+000	1.617701e+002
6670099900	-1.604202e+000	1.562786e+002	-1.917381e+001	-1.096722e+002	-2.845862e+001	-6.308498e+001	-1.335972e+000	1.617104e+002
6680099600	-1.609608e+000	1.563044e+002	-1.921879e+001	-1.095309e+002	-2.846572e+001	-6.252649e+001	-1.333043e+000	1.616638e+002
6690099300	-1.603373e+000	1.563094e+002	-1.924630e+001	-1.094723e+002	-2.838836e+001	-6.227127e+001	-1.324179e+000	1.616362e+002
6700099000	-1.603104e+000	1.562707e+002	-1.929532e+001	-1.094709e+002	-2.843949e+001	-6.159248e+001	-1.316775e+000	1.616048e+002
6710098700	-1.598942e+000	1.562714e+002	-1.935057e+001	-1.095148e+002	-2.839684e+001	-6.192093e+001	-1.320052e+000	1.616654e+002
6720098400	-1.590938e+000	1.562520e+002	-1.937500e+001	-1.095728e+002	-2.843005e+001	-6.159078e+001	-1.313425e+000	1.616956e+002
6730098100	-1.586020e+000	1.562464e+002	-1.940822e+001	-1.096495e+002	-2.832842e+001	-6.145166e+001	-1.320092e+000	1.617295e+002
6740097800	-1.587310e+000	1.562222e+002	-1.944746e+001	-1.096490e+002	-2.837402e+001	-6.165480e+001	-1.317424e+000	1.617260e+002
6750097500	-1.585222e+000	1.561979e+002	-1.949501e+001	-1.097310e+002	-2.840574e+001	-6.201448e+001	-1.315031e+000	1.617249e+002
6760097200	-1.578114e+000	1.562067e+002	-1.951814e+001	-1.099111e+002	-2.838735e+001	-6.175463e+001	-1.316281e+000	1.617262e+002
6770096900	-1.577516e+000	1.561548e+002	-1.951102e+001	-1.098887e+002	-2.838153e+001	-6.210181e+001	-1.314721e+000	1.617518e+002
6780096600	-1.575433e+000	1.561482e+002	-1.954195e+001	-1.099948e+002	-2.835634e+001	-6.237630e+001	-1.314256e+000	1.617425e+002
6790096300	-1.575332e+000	1.561482e+002	-1.959099e+001	-1.102081e+002	-2.839087e+001	-6.258765e+001	-1.311475e+000	1.617476e+002
6800096000	-1.575149e+000	1.561563e+002	-1.963007e+001	-1.104340e+002	-2.852518e+001	-6.308318e+001	-1.306873e+000	1.617404e+002
6810095700	-1.570918e+000	1.561553e+002	-1.967260e+001	-1.106039e+002	-2.852586e+001	-6.328791e+001	-1.299832e+000	1.617732e+002
6820095400	-1.573710e+000	1.561436e+002	-1.971229e+001	-1.108211e+002	-2.865433e+001	-6.303927e+001	-1.294051e+000	1.617686e+002
6830095100	-1.573863e+000	1.561350e+002	-1.978185e+001	-1.109794e+002	-2.866538e+001	-6.284720e+001	-1.288668e+000	1.617385e+002
6840094800	-1.571937e+000	1.561254e+002	-1.984847e+001	-1.110930e+002	-2.874978e+001	-6.254257e+001	-1.286521e+000	1.617445e+002
6850094500	-1.574996e+000	1.561673e+002	-1.989399e+001	-1.111531e+002	-2.878444e+001	-6.239338e+001	-1.277383e+000	1.617016e+002
6860094200	-1.574870e+000	1.561696e+002	-1.995045e+001	-1.110758e+002	-2.880676e+001	-6.215571e+001	-1.267529e+000	1.617114e+002
6870093900	-1.570220e+000	1.561691e+002	-1.999472e+001	-1.113782e+002	-2.882887e+001	-6.167402e+001	-1.262117e+000	1.617340e+002
6880093600	-1.567144e+000	1.561813e+002	-2.003465e+001	-1.112901e+002	-2.880240e+001	-6.167681e+001	-1.263574e+000	1.617686e+002
6890093300	-1.566302e+000	1.561989e+002	-2.004927e+001	-1.113959e+002	-2.887384e+001	-6.165929e+001	-1.262836e+000	1.617897e+002
6900093000	-1.568114e+000	1.561774e+002	-2.010653e+001	-1.116305e+002	-2.889792e+001	-6.183975e+001	-1.257176e+000	1.618051e+002
6910092700	-1.561862e+000	1.561828e+002	-2.011446e+001	-1.116207e+002	-2.889983e+001	-6.196980e+001	-1.255010e+000	1.617782e+002
6920092400	-1.560298e+000	1.561788e+002	-2.015752e+001	-1.116605e+002	-2.894094e+001	-6.165342e+001	-1.253857e+000	1.618125e+002
6930092100	-1.553781e+000	1.561701e+002	-2.020789e+001	-1.120309e+002	-2.891288e+001	-6.204225e+001	-1.254644e+000	1.617988e+002
6940091800	-1.554546e+000	1.561695e+002	-2.026518e+001	-1.120061e+002	-2.895481e+001	-6.169356e+001	-1.251444e+000	1.617997e+002
6950091500	-1.553513e+000	1.561286e+002	-2.030328e+001	-1.121865e+002	-2.902436e+001	-6.169469e+001	-1.251067e+000	1.618018e+002
6960091200	-1.552812e+000	1.561130e+002	-2.036270e+001	-1.123237e+002	-2.905480e+001	-6.148584e+001	-1.245752e+000	1.617967e+002
6970090900	-1.552620e+000	1.561004e+002	-2.042553e+001	-1.123020e+002	-2.905598e+001	-6.133197e+001	-1.245546e+000	1.617981e+002
6980090600	-1.552148e+000	1.560798e+002	-2.045973e+001	-1.125418e+002	-2.910427e+001	-6.092287e+001	-1.245261e+000	1.617975e+002
6990090300	-1.553095e+000	1.560889e+002	-2.050701e+001	-1.123046e+002	-2.909500e+001	-6.071711e+001	-1.245102e+000	1.618040e+002
7000090000	-1.547544e+000	1.560753e+002	-2.055290e+001	-1.123297e+002	-2.904638e+001	-6.107536e+001	-1.244731e+000	1.618254e+002
7010089700	-1.553838e+000	1.560747e+002	-2.055623e+001	-1.122655e+002	-2.902833e+001	-6.095067e+001	-1.244145e+000	1.618305e+002
7020089400	-1.556701e+000	1.560860e+002	-2.055005e+001	-1.123759e+002	-2.901100e+001	-6.091130e+001	-1.242938e+000	1.618759e+002
7030089100	-1.550221e+000	1.561133e+002	-2.060836e+001	-1.125522e+002	-2.906584e+001	-6.163203e+001	-1.240644e+000	1.618560e+002
7040088800	-1.546844e+000	1.561345e+002	-2.060908e+001	-1.128232e+002	-2.909842e+001	-6.188180e+001	-1.237777e+000	1.619223e+002
7050088500	-1.547051e+000	1.561416e+002	-2.063873e+001	-1.128480e+002	-2.910472e+001	-6.230528e+001	-1.237169e+000	1.619605e+002
7060088200	-1.544725e+000	1.561533e+002	-2.069193e+001	-1.131079e+002	-2.919953e+001	-6.190437e+001	-1.233362e+000	1.619876e+002
7070087900	-1.541083e+000	1.561680e+002	-2.073947e+001	-1.134297e+002	-2.926259e+001	-6.248300e+001	-1.229957e+000	1.619934e+002
7080087600	-1.542844e+000	1.561568e+002	-2.076565e+001	-1.137128e+002	-2.933402e+001	-6.226658e+001	-1.228871e+000	1.620317e+002
7090087300	-1.544273e+000	1.561518e+002	-2.081812e+001	-1.138116e+002	-2.935430e+001	-6.252303e+001	-1.221412e+000	1.620585e+002
7100087000	-1.547668e+000	1.561748e+002	-2.086679e+001	-1.139739e+002	-2.943038e+001	-6.209924e+001	-1.218668e+000	1.620677e+002
7110086700	-1.544044e+000	1.561763e+002	-2.090916e+001	-1.141424e+002	-2.947275e+001	-6.174402e+001	-1.215483e+000	1.620840e+002
7120086400	-1.544533e+000	1.561827e+002	-2.098786e+001	-1.140995e+002	-2.945652e+001	-6.162491e+001	-1.213360e+000	1.621057e+002
7130086100	-1.546909e+000	1.561988e+002	-2.101708e+001	-1.141515e+002	-2.952961e+001	-6.122875e+001	-1.209777e+000	1.620959e+002
7140085800	-1.547644e+000	1.562008e+002	-2.104391e+001	-1.140947e+002	-2.948542e+001	-6.125748e+001	-1.209132e+000	1.621331e+002
7150085500	-1.544522e+000	1.562103e+002	-2.109622e+001	-1.144357e+002	-2.950862e+001	-6.113352e+001	-1.209847e+000	1.621173e+002
7160085200	-1.549532e+000	1.562000e+002	-2.116788e+001	-1.144907e+002	-2.956880e+001	-6.120639e+001	-1.204346e+000	1.621501e+002
7170084900	-1.546304e+000	1.561842e+002	-2.118271e+001	-1.144958e+002	-2.954458e+001	-6.084982e+001	-1.208208e+000	1.621930e+002
7180084600	-1.551605e+000	1.561931e+002	-2.125098e+001	-1.146449e+002	-2.955316e+001	-6.105993e+001	-1.210793e+000	1.622013e+002
7190084300	-1.549654e+000	1.561724e+002	-2.128547e+001	-1.146207e+002	-2.959359e+001	-6.076646e+001	-1.203688e+000	1.621749e+002
7200084000	-1.547603e+000	1.561912e+002	-2.130836e+001	-1.148170e+002	-2.957194e+001	-6.125868e+001	-1.204664e+000	1.622145e+002
7210083700	-1.547992e+000	1.561708e+002	-2.133051e+001	-1.149268e+002	-2.960904e+001	-6.120703e+001	-1.197102e+000	1.621987e+002
7220083400	-1.547001e+000	1.561918e+002	-2.136326e+001	-1.151373e+002	-2.962516e+001	-6.131767e+001	-1.197078e+000	1.621901e+002
7230083100	-1.546433e+000	1.561566e+002	-2.139313e+001	-1.150599e+002	-2.971416e+001	-6.144048e+001	-1.196469e+000	1.622464e+002
7240082800	-1.545983e+000	1.561991e+002	-2.143181e+001	-1.154434e+002	-2.971836e+001	-6.096679e+001	-1.195208e+000	1.622518e+002
7250082500	-1.548487e+000	1.562226e+002	-2.147128e+001	-1.154166e+002	-2.979178e+001	-6.133571e+001	-1.192741e+000	1.622793e+002
7260082200	-1.554260e+000	1.562300e+002	-2.154382e+001	-1.155738e+002	-2.979861e+001	-6.080162e+001	-1.194384e+000	1.623095e+002
7270081900	-1.558993e+000	1.562600e+002	-2.156937e+001	-1.155388e+002	-2.984404e+001	-6.110780e+001	-1.193217e+000	1.623513e+002
7280081600	-1.554895e+000	1.562435e+002	-2.162237e+001	-1.156344e+002	-2.981646e+001	-6.084873e+001	-1.190184e+000	1.623893e+002
7290081300	-1.559913e+000	1.562738e+002	-2.165192e+001	-1.156086e+002	-2.985194e+001	-6.129596e+001	-1.193590e+000	1.624182e+002
7300081000	-1.562625e+000	1.562950e+002	-2.169461e+001	-1.159489e+002	-2.980498e+001	-6.079731e+001	-1.190153e+000	1.624662e+002
7310080700	-1.562187e+000	1.563237e+002	-2.172255e+001	-1.159767e+002	-2.996559e+001	-6.050189e+001	-1.190598e+000	1.625012e+002
7320080400	-1.567955e+000	1.563231e+002	-2.178547e+001	-1.159652e+002	-2.985721e+001	-6.045761e+001	-1.189025e+000	1.625691e+002
7330080100	-1.569307e+000	1.563520e+002	-2.180282e+001	-1.163307e+002	-2.990302e+001	-6.080631e+001	-1.191170e+000	1.625937e+002
7340079800	-1.565940e+000	1.563436e+002	-2.182798e+001	-1.165206e+002	-2.994689e+001	-6.064988e+001	-1.193374e+000	1.626133e+002
7350079500	-1.566389e+000	1.563231e+002	-2.186267e+001	-1.164244e+002	-2.988236e+001	-6.108640e+001	-1.194954e+000	1.626390e+002
7360079200	-1.568598e+000	1.563475e+002	-2.188811e+001	-1.168035e+002	-3.005687e+001	-6.090222e+001	-1.192772e+000	1.626317e+002
7370078900	-1.571049e+000	1.563284e+002	-2.194724e+001	-1.169596e+002	-2.997686e+001	-6.074996e+001	-1.182455e+000	1.625499e+002
7380078600	-1.570502e+000	1.563651e+002	-2.197944e+001	-1.170758e+002	-3.003823e+001	-6.079770e+001	-1.181915e+000	1.625374e+002
7390078300	-1.568649e+000	1.563721e+002	-2.203090e+001	-1.171368e+002	-3.007861e+001	-6.118917e+001	-1.181808e+000	1.625642e+002
7400078000	-1.571699e+000	1.563584e+002	-2.203929e+001	-1.173014e+002	-3.013914e+001	-6.057620e+001	-1.175453e+000	1.625743e+002
7410077700	-1.575571e+000	1.563802e+002	-2.208343e+001	-1.175232e+002	-3.016367e+001	-6.085952e+001	-1.179634e+000	1.626049e+002
7420077400	-1.577987e+000	1.563704e+002	-2.212986e+001	-1.176617e+002	-3.019231e+001	-6.071981e+001	-1.171712e+000	1.626455e+002
7430077100	-1.577658e+000	1.564010e+002	-2.218094e+001	-1.177146e+002	-3.021314e+001	-6.064216e+001	-1.175054e+000	1.626860e+002
7440076800	-1.579857e+000	1.563965e+002	-2.222745e+001	-1.177829e+002	-3.027385e+001	-6.014439e+001	-1.174423e+000	1.627212e+002
7450076500	-1.583872e+000	1.563725e+002	-2.226496e+001	-1.177470e+002	-3.026055e+001	-6.028493e+001	-1.175251e+000	1.627665e+002
7460076200	-1.589406e+000	1.563960e+002	-2.230988e+001	-1.180594e+002	-3.028982e+001	-5.979441e+001	-1.177129e+000	1.628189e+002
7470075900	-1.592256e+000	1.564158e+002	-2.236866e+001	-1.180360e+002	-3.026007e+001	-5.976359e+001	-1.178319e+000	1.628472e+002
7480075600	-1.596810e+000	1.564131e+002	-2.243610e+001	-1.181739e+002	-3.028599e+001	-5.991884e+001	-1.176867e+000	1.628778e+002
7490075300	-1.599457e+000	1.564243e+002	-2.248670e+001	-1.181605e+002	-3.031304e+001	-5.924651e+001	-1.179641e+000	1.629675e+002
7500075000	-1.602136e+000	1.564328e+002	-2.250988e+001	-1.182970e+002	-3.034044e+001	-5.910073e+001	-1.190498e+000	1.629631e+002
7510074700	-1.603857e+000	1.564676e+002	-2.253130e+001	-1.183388e+002	-3.039887e+001	-5.951157e+001	-1.194797e+000	1.629888e+002
7520074400	-1.608072e+000	1.564676e+002	-2.256540e+001	-1.185888e+002	-3.033632e+001	-5.919158e+001	-1.190408e+000	1.629164e+002
7530074100	-1.606321e+000	1.564766e+002	-2.260381e+001	-1.184824e+002	-3.029863e+001	-5.853920e+001	-1.184605e+000	1.628332e+002
7540073800	-1.607348e+000	1.565198e+002	-2.261261e+001	-1.187455e+002	-3.038505e+001	-5.944412e+001	-1.181662e+000	1.628075e+002
7550073500	-1.616112e+000	1.565065e+002	-2.262596e+001	-1.188530e+002	-3.033145e+001	-5.914013e+001	-1.184078e+000	1.628257e+002
7560073200	-1.617158e+000	1.565356e+002	-2.265766e+001	-1.188734e+002	-3.034874e+001	-5.964236e+001	-1.180576e+000	1.628650e+002
7570072900	-1.618602e+000	1.565376e+002	-2.265165e+001	-1.191861e+002	-3.032660e+001	-5.925943e+001	-1.179090e+000	1.629318e+002
7580072600	-1.621549e+000	1.565554e+002	-2.270138e+001	-1.190676e+002	-3.041068e+001	-5.977093e+001	-1.181068e+000	1.629691e+002
7590072300	-1.630711e+000	1.566104e+002	-2.274974e+001	-1.193051e+002	-3.039770e+001	-5.925465e+001	-1.180087e+000	1.630411e+002
7600072000	-1.629882e+000	1.566130e+002	-2.280368e+001	-1.193819e+002	-3.041244e+001	-5.958886e+001	-1.185786e+000	1.631086e+002
7610071700	-1.634245e+000	1.566427e+002	-2.280853e+001	-1.196069e+002	-3.042222e+001	-5.956974e+001	-1.180280e+000	1.631556e+002
7620071400	-1.638620e+000	1.566236e+002	-2.284742e+001	-1.198736e+002	-3.045558e+001	-5.989119e+001	-1.185223e+000	1.632179e+002
7630071100	-1.641591e+000	1.566592e+002	-2.291264e+001	-1.200813e+002	-3.050080e+001	-5.960098e+001	-1.186633e+000	1.632610e+002
7640070800	-1.645012e+000	1.566548e+002	-2.296034e+001	-1.202448e+002	-3.057134e+001	-5.952106e+001	-1.189256e+000	1.632835e+002
7650070500	-1.652763e+000	1.566872e+002	-2.302362e+001	-1.202511e+002	-3.051314e+001	-5.863131e+001	-1.194377e+000	1.633501e+002
7660070200	-1.652613e+000	1.566745e+002	-2.303286e+001	-1.203531e+002	-3.053905e+001	-5.843766e+001	-1.197358e+000	1.633685e+002
7670069900	-1.659211e+000	1.567022e+002	-2.310605e+001	-1.206766e+002	-3.055085e+001	-5.951074e+001	-1.207551e+000	1.633135e+002
7680069600	-1.660716e+000	1.566652e+002	-2.311502e+001	-1.205625e+002	-3.058540e+001	-5.907677e+001	-1.206935e+000	1.632414e+002
7690069300	-1.659788e+000	1.566814e+002	-2.315045e+001	-1.206872e+002	-3.054309e+001	-5.917616e+001	-1.202990e+000	1.631455e+002
7700069000	-1.663897e+000	1.567000e+002	-2.316977e+001	-1.207919e+002	-3.062686e+001	-5.925289e+001	-1.201440e+000	1.631111e+002
7710068700	-1.667534e+000	1.566857e+002	-2.324063e+001	-1.210493e+002	-3.062626e+001	-5.860336e+001	-1.207349e+000	1.631337e+002
7720068400	-1.666766e+000	1.566803e+002	-2.325540e+001	-1.212949e+002	-3.066757e+001	-5.901770e+001	-1.208414e+000	1.631985e+002
7730068100	-1.670436e+000	1.566846e+002	-2.329862e+001	-1.211753e+002	-3.069187e+001	-5.911670e+001	-1.209579e+000	1.632464e+002
7740067800	-1.683847e+000	1.567290e+002	-2.333770e+001	-1.214522e+002	-3.078624e+001	-5.834649e+001	-1.208907e+000	1.633039e+002
7750067500	-1.688578e+000	1.567620e+002	-2.337360e+001	-1.215212e+002	-3.075280e+001	-5.834508e+001	-1.213125e+000	1.633201e+002
7760067200	-1.699885e+000	1.568266e+002	-2.338626e+001	-1.217187e+002	-3.073800e+001	-5.832050e+001	-1.213365e+000	1.633860e+002
7770066900	-1.705790e+000	1.568680e+002	-2.342162e+001	-1.215464e+002	-3.072304e+001	-5.764308e+001	-1.209147e+000	1.634782e+002
7780066600	-1.708282e+000	1.569232e+002	-2.347286e+001	-1.217484e+002	-3.073708e+001	-5.796636e+001	-1.212694e+000	1.634901e+002
7790066300	-1.710946e+000	1.569371e+002	-2.353372e+001	-1.218706e+002	-3.069038e+001	-5.799290e+001	-1.218362e+000	1.635136e+002
7800066000	-1.716779e+000	1.570162e+002	-2.356420e+001	-1.217901e+002	-3.077108e+001	-5.751067e+001	-1.223431e+000	1.635692e+002
7810065700	-1.722580e+000	1.570359e+002	-2.357500e+001	-1.219454e+002	-3.072294e+001	-5.849052e+001	-1.227820e+000	1.635872e+002
7820065400	-1.726766e+000	1.570746e+002	-2.358096e+001	-1.222493e+002	-3.070765e+001	-5.751513e+001	-1.248379e+000	1.636134e+002
7830065100	-1.729079e+000	1.570597e+002	-2.362224e+001	-1.224093e+002	-3.067477e+001	-5.835034e+001	-1.255860e+000	1.635655e+002
7840064800	-1.733143e+000	1.570589e+002	-2.363774e+001	-1.224540e+002	-3.070763e+001	-5.844636e+001	-1.252599e+000	1.634706e+002
7850064500	-1.732081e+000	1.570870e+002	-2.363901e+001	-1.228919e+002	-3.069188e+001	-5.812385e+001	-1.252510e+000	1.633318e+002
7860064200	-1.739455e+000	1.570945e+002	-2.368278e+001	-1.231714e+002	-3.075126e+001	-5.890868e+001	-1.257512e+000	1.633668e+002
7870063900	-1.743163e+000	1.570361e+002	-2.369782e+001	-1.232187e+002	-3.076192e+001	-5.868513e+001	-1.258030e+000	1.633953e+002
7880063600	-1.746146e+000	1.570775e+002	-2.378663e+001	-1.234539e+002	-3.073848e+001	-5.845620e+001	-1.262328e+000	1.634097e+002
7890063300	-1.745598e+000	1.570904e+002	-2.381782e+001	-1.237694e+002	-3.089837e+001	-5.820439e+001	-1.258856e+000	1.634698e+002
7900063000	-1.749911e+000	1.570864e+002	-2.388474e+001	-1.238503e+002	-3.086573e+001	-5.890863e+001	-1.265648e+000	1.635150e+002
7910062700	-1.760442e+000	1.571125e+002	-2.389441e+001	-1.241878e+002	-3.100788e+001	-5.866416e+001	-1.270587e+000	1.635770e+002
7920062400	-1.762009e+000	1.571328e+002	-2.393208e+001	-1.245244e+002	-3.107085e+001	-5.871801e+001	-1.273661e+000	1.635705e+002
7930062100	-1.766571e+000	1.571296e+002	-2.400662e+001	-1.248211e+002	-3.112870e+001	-5.817107e+001	-1.277246e+000	1.636172e+002
7940061800	-1.779136e+000	1.571652e+002	-2.407765e+001	-1.249084e+002	-3.118417e+001	-5.803737e+001	-1.283469e+000	1.636359e+002
7950061500	-1.794878e+000	1.571804e+002	-2.413842e+001	-1.250107e+002	-3.125318e+001	-5.670845e+001	-1.290155e+000	1.636928e+002
7960061200	-1.793452e+000	1.572061e+002	-2.418812e+001	-1.251352e+002	-3.124206e+001	-5.622823e+001	-1.297737e+000	1.637213e+002
7970060900	-1.801883e+000	1.572515e+002	-2.426158e+001	-1.252541e+002	-3.121978e+001	-5.531827e+001	-1.307346e+000	1.637826e+002
7980060600	-1.815756e+000	1.572807e+002	-2.430524e+001	-1.250767e+002	-3.114147e+001	-5.510659e+001	-1.323746e+000	1.638395e+002
7990060300	-1.825254e+000	1.573188e+002	-2.433505e+001	-1.250460e+002	-3.115030e+001	-5.537337e+001	-1.337607e+000	1.638091e+002
8000060000	-1.828102e+000	1.573746e+002	-2.440603e+001	-1.252426e+002	-3.106524e+001	-5.522482e+001	-1.340728e+000	1.636853e+002
8010059700	-1.830956e+000	1.574104e+002	-2.440969e+001	-1.252226e+002	-3.099006e+001	-5.556365e+001	-1.336542e+000	1.635244e+002
8020059400	-1.839843e+000	1.574583e+002	-2.447265e+001	-1.257275e+002	-3.099960e+001	-5.508661e+001	-1.337577e+000	1.635145e+002
8030059100	-1.839514e+000	1.574653e+002	-2.450870e+001	-1.257536e+002	-3.103413e+001	-5.549921e+001	-1.342713e+000	1.635084e+002
8040058800	-1.848155e+000	1.574502e+002	-2.449892e+001	-1.261886e+002	-3.111324e+001	-5.523846e+001	-1.347724e+000	1.635229e+002
8050058500	-1.852558e+000	1.574619e+002	-2.458294e+001	-1.264100e+002	-3.110866e+001	-5.551134e+001	-1.352489e+000	1.634961e+002
8060058200	-1.858886e+000	1.575051e+002	-2.460594e+001	-1.264586e+002	-3.113779e+001	-5.476743e+001	-1.357210e+000	1.635459e+002
8070057900	-1.860287e+000	1.575483e+002	-2.466542e+001	-1.268195e+002	-3.114015e+001	-5.488967e+001	-1.365682e+000	1.635128e+002
8080057600	-1.861772e+000	1.575367e+002	-2.474291e+001	-1.270279e+002	-3.112417e+001	-5.450477e+001	-1.371101e+000	1.635484e+002
8090057300	-1.872409e+000	1.575386e+002	-2.479191e+001	-1.269725e+002	-3.109236e+001	-5.403748e+001	-1.378089e+000	1.635788e+002
8100057000	-1.876089e+000	1.575531e+002	-2.486317e+001	-1.271811e+002	-3.117599e+001	-5.372161e+001	-1.384279e+000	1.636207e+002
8110056700	-1.883561e+000	1.575451e+002	-2.492866e+001	-1.270712e+002	-3.114973e+001	-5.325165e+001	-1.397310e+000	1.636771e+002
8120056400	-1.891870e+000	1.575660e+002	-2.502625e+001	-1.274378e+002	-3.116655e+001	-5.276553e+001	-1.404008e+000	1.637097e+002
8130056100	-1.903703e+000	1.575590e+002	-2.509543e+001	-1.271390e+002	-3.126071e+001	-5.223841e+001	-1.420555e+000	1.637643e+002
8140055800	-1.913848e+000	1.575587e+002	-2.518715e+001	-1.273116e+002	-3.117068e+001	-5.166737e+001	-1.434185e+000	1.638046e+002
8150055500	-1.924485e+000	1.575875e+002	-2.528759e+001	-1.273692e+002	-3.108695e+001	-5.161132e+001	-1.457674e+000	1.637865e+002
8160055200	-1.932374e+000	1.575630e+002	-2.528904e+001	-1.271971e+002	-3.114278e+001	-5.087747e+001	-1.478848e+000	1.637938e+002
8170054900	-1.943604e+000	1.575819e+002	-2.540908e+001	-1.272654e+002	-3.105256e+001	-5.067621e+001	-1.472666e+000	1.636919e+002
8180054600	-1.956674e+000	1.575801e+002	-2.546281e+001	-1.273257e+002	-3.100954e+001	-4.970415e+001	-1.476245e+000	1.635119e+002
8190054300	-1.963909e+000	1.575909e+002	-2.557107e+001	-1.268860e+002	-3.095188e+001	-4.909528e+001	-1.479924e+000	1.635319e+002
8200054000	-1.976374e+000	1.575578e+002	-2.560017e+001	-1.265288e+002	-3.083221e+001	-4.863323e+001	-1.487840e+000	1.635201e+002
8210053700	-1.983617e+000	1.576184e+002	-2.568826e+001	-1.260607e+002	-3.065595e+001	-4.800980e+001	-1.504698e+000	1.635388e+002
8220053400	-2.002689e+000	1.576107e+002	-2.568949e+001	-1.254631e+002	-3.048884e+001	-4.802165e+001	-1.518852e+000	1.636132e+002
8230053100	-2.012224e+000	1.576691e+002	-2.567723e+001	-1.252462e+002	-3.035298e+001	-4.832657e+001	-1.518472e+000	1.636621e+002
8240052800	-2.021001e+000	1.577385e+002	-2.569773e+001	-1.252427e+002	-3.027162e+001	-4.905957e+001	-1.533358e+000	1.636738e+002
8250052500	-2.027872e+000	1.577479e+002	-2.572524e+001	-1.254398e+002	-3.029947e+001	-4.923348e+001	-1.532295e+000	1.637169e+002
8260052200	-2.041166e+000	1.578071e+002	-2.576949e+001	-1.256211e+002	-3.029295e+001	-4.936151e+001	-1.543165e+000	1.637358e+002
8270051900	-2.043101e+000	1.577789e+002	-2.581181e+001	-1.256346e+002	-3.028713e+001	-4.876209e+001	-1.553847e+000	1.637628e+002
8280051600	-2.057950e+000	1.578312e+002	-2.595211e+001	-1.253958e+002	-3.025100e+001	-4.759757e+001	-1.571520e+000	1.637595e+002
8290051300	-2.070048e+000	1.578136e+002	-2.605318e+001	-1.250887e+002	-3.015925e+001	-4.669605e+001	-1.593964e+000	1.637795e+002
8300051000	-2.089635e+000	1.577830e+002	-2.610911e+001	-1.242112e+002	-3.001736e+001	-4.587517e+001	-1.612221e+000	1.638364e+002
8310050700	-2.100024e+000	1.578125e+002	-2.620572e+001	-1.233354e+002	-2.975890e+001	-4.550569e+001	-1.647971e+000	1.638951e+002
8320050400	-2.122746e+000	1.578539e+002	-2.615064e+001	-1.225422e+002	-2.951497e+001	-4.564285e+001	-1.676505e+000	1.639205e+002
8330050100	-2.137218e+000	1.578731e+002	-2.615897e+001	-1.214808e+002	-2.928734e+001	-4.603976e+001	-1.696767e+000	1.638963e+002
8340049800	-2.155680e+000	1.578636e+002	-2.605225e+001	-1.204404e+002	-2.904223e+001	-4.666206e+001	-1.706564e+000	1.638592e+002
8350049500	-2.171149e+000	1.578970e+002	-2.595581e+001	-1.201435e+002	-2.880659e+001	-4.727650e+001	-1.714612e+000	1.639211e+002
8360049200	-2.186805e+000	1.579976e+002	-2.581911e+001	-1.197216e+002	-2.865738e+001	-4.831319e+001	-1.717614e+000	1.640701e+002
8370048900	-2.202900e+000	1.579950e+002	-2.564884e+001	-1.195893e+002	-2.850362e+001	-4.966981e+001	-1.715691e+000	1.641536e+002
8380048600	-2.226557e+000	1.580857e+002	-2.558254e+001	-1.193908e+002	-2.837382e+001	-5.029197e+001	-1.725253e+000	1.642190e+002
8390048300	-2.245019e+000	1.581658e+002	-2.543693e+001	-1.191705e+002	-2.821529e+001	-5.139093e+001	-1.738235e+000	1.643561e+002
8400048000	-2.258226e+000	1.582286e+002	-2.527460e+001	-1.194438e+002	-2.806682e+001	-5.263002e+001	-1.728182e+000	1.644394e+002
8410047700	-2.267970e+000	1.583288e+002	-2.513690e+001	-1.195852e+002	-2.803457e+001	-5.426243e+001	-1.732501e+000	1.645706e+002
8420047400	-2.275191e+000	1.584380e+002	-2.504036e+001	-1.202974e+002	-2.796541e+001	-5.607602e+001	-1.727421e+000	1.646370e+002
8430047100	-2.292448e+000	1.584601e+002	-2.499944e+001	-1.213349e+002	-2.807846e+001	-5.714732e+001	-1.720185e+000	1.646869e+002
8440046800	-2.296778e+000	1.585653e+002	-2.496821e+001	-1.219603e+002	-2.812815e+001	-5.741697e+001	-1.724561e+000	1.647215e+002
8450046500	-2.317205e+000	1.586415e+002	-2.502811e+001	-1.223099e+002	-2.806541e+001	-5.833814e+001	-1.732171e+000	1.647526e+002
8460046200	-2.332203e+000	1.587349e+002	-2.495085e+001	-1.222523e+002	-2.815170e+001	-5.854658e+001	-1.739069e+000	1.647722e+002
8470045900	-2.339894e+000	1.588030e+002	-2.491317e+001	-1.228832e+002	-2.813403e+001	-5.943584e+001	-1.749486e+000	1.648076e+002
8480045600	-2.352348e+000	1.588624e+002	-2.489011e+001	-1.234111e+002	-2.810756e+001	-6.034726e+001	-1.758921e+000	1.647936e+002
8490045300	-2.368791e+000	1.589397e+002	-2.484885e+001	-1.234964e+002	-2.810506e+001	-6.092179e+001	-1.774433e+000	1.647496e+002
8500045000	-2.377754e+000	1.590881e+002	-2.493017e+001	-1.236237e+002	-2.783076e+001	-6.183606e+001	-1.762304e+000	1.645684e+002
8510044700	-2.402110e+000	1.591528e+002	-2.490709e+001	-1.239074e+002	-2.784327e+001	-6.152692e+001	-1.772121e+000	1.644124e+002
8520044400	-2.396467e+000	1.592733e+002	-2.486714e+001	-1.234519e+002	-2.789333e+001	-6.223794e+001	-1.767505e+000	1.645205e+002
8530044100	-2.420237e+000	1.593029e+002	-2.470846e+001	-1.237717e+002	-2.765212e+001	-6.452393e+001	-1.785549e+000	1.645292e+002
8540043800	-2.443461e+000	1.594025e+002	-2.470504e+001	-1.250954e+002	-2.762332e+001	-6.478514e+001	-1.781566e+000	1.645073e+002
8550043500	-2.436621e+000	1.594976e+002	-2.456790e+001	-1.259070e+002	-2.771177e+001	-6.572930e+001	-1.784130e+000	1.646500e+002
8560043200	-2.447086e+000	1.596204e+002	-2.454887e+001	-1.266491e+002	-2.769617e+001	-6.745717e+001	-1.781751e+000	1.647754e+002
8570042900	-2.468103e+000	1.595421e+002	-2.450195e+001	-1.270457e+002	-2.779021e+001	-6.801547e+001	-1.786661e+000	1.647849e+002
8580042600	-2.477171e+000	1.597022e+002	-2.443517e+001	-1.277247e+002	-2.785251e+001	-7.037023e+001	-1.756132e+000	1.648993e+002
8590042300	-2.482733e+000	1.597686e+002	-2.442237e+001	-1.291621e+002	-2.789493e+001	-7.125654e+001	-1.777664e+000	1.650020e+002
8600042000	-2.499369e+000	1.598765e+002	-2.445043e+001	-1.299021e+002	-2.791654e+001	-7.133452e+001	-1.786107e+000	1.649927e+002
8610041700	-2.514932e+000	1.599429e+002	-2.449032e+001	-1.302311e+002	-2.795299e+001	-7.264766e+001	-1.782371e+000	1.650899e+002
8620041400	-2.521919e+000	1.600897e+002	-2.445568e+001	-1.308909e+002	-2.814552e+001	-7.211853e+001	-1.797721e+000	1.651286e+002
8630041100	-2.515826e+000	1.600734e+002	-2.442746e+001	-1.315573e+002	-2.819456e+001	-7.351116e+001	-1.809444e+000	1.652204e+002
8640040800	-2.560034e+000	1.602183e+002	-2.445958e+001	-1.323971e+002	-2.809179e+001	-7.657569e+001	-1.822338e+000	1.650476e+002
8650040500	-2.545398e+000	1.602809e+002	-2.452521e+001	-1.332792e+002	-2.838720e+001	-7.471735e+001	-1.824882e+000	1.649727e+002
8660040200	-2.554819e+000	1.603741e+002	-2.449296e+001	-1.335796e+002	-2.836376e+001	-7.610818e+001	-1.813423e+000	1.647723e+002
8670039900	-2.565394e+000	1.604168e+002	-2.460638e+001	-1.355877e+002	-2.846478e+001	-7.701942e+001	-1.829073e+000	1.645442e+002
8680039600	-2.570428e+000	1.604568e+002	-2.460389e+001	-1.347757e+002	-2.849559e+001	-7.728416e+001	-1.838998e+000	1.644413e+002
8690039300	-2.578787e+000	1.605283e+002	-2.466496e+001	-1.359106e+002	-2.868575e+001	-7.636717e+001	-1.852022e+000	1.644177e+002
8700039000	-2.600241e+000	1.606980e+002	-2.468972e+001	-1.369164e+002	-2.862871e+001	-7.709971e+001	-1.868486e+000	1.642846e+002
8710038700	-2.606748e+000	1.608066e+002	-2.462809e+001	-1.372843e+002	-2.868282e+001	-7.831239e+001	-1.875592e+000	1.642108e+002
8720038400	-2.622191e+000	1.608015e+002	-2.468785e+001	-1.371331e+002	-2.850738e+001	-7.826422e+001	-1.902624e+000	1.642977e+002
8730038100	-2.617082e+000	1.609208e+002	-2.475297e+001	-1.377790e+002	-2.863103e+001	-7.925231e+001	-1.920420e+000	1.642607e+002
8740037800	-2.625726e+000	1.611004e+002	-2.469756e+001	-1.379052e+002	-2.873120e+001	-7.921471e+001	-1.933881e+000	1.643397e+002
8750037500	-2.654892e+000	1.611851e+002	-2.469190e+001	-1.389512e+002	-2.884572e+001	-8.085702e+001	-1.936459e+000	1.643713e+002
8760037200	-2.653943e+000	1.611727e+002	-2.472315e+001	-1.393839e+002	-2.892859e+001	-8.171118e+001	-1.963688e+000	1.644560e+002
8770036900	-2.669716e+000	1.613991e+002	-2.485400e+001	-1.399746e+002	-2.881652e+001	-8.114555e+001	-1.966636e+000	1.645066e+002
8780036600	-2.671643e+000	1.614092e+002	-2.483478e+001	-1.408804e+002	-2.901139e+001	-8.194565e+001	-1.965495e+000	1.644677e+002
8790036300	-2.700078e+000	1.614644e+002	-2.486400e+001	-1.413267e+002	-2.914270e+001	-8.281707e+001	-1.980203e+000	1.644203e+002
8800036000	-2.709168e+000	1.616624e+002	-2.488959e+001	-1.419727e+002	-2.913932e+001	-8.301334e+001	-1.977728e+000	1.644556e+002
8810035700	-2.711015e+000	1.617936e+002	-2.475847e+001	-1.433799e+002	-2.918912e+001	-8.521601e+001	-1.996533e+000	1.643175e+002
8820035400	-2.713396e+000	1.617820e+002	-2.495306e+001	-1.441045e+002	-2.930304e+001	-8.486501e+001	-1.990592e+000	1.641862e+002
8830035100	-2.731714e+000	1.618924e+002	-2.486113e+001	-1.436529e+002	-2.922831e+001	-8.651659e+001	-2.017363e+000	1.640481e+002
8840034800	-2.732005e+000	1.619694e+002	-2.501426e+001	-1.446929e+002	-2.925970e+001	-8.607003e+001	-2.026739e+000	1.639690e+002
8850034500	-2.747730e+000	1.621147e+002	-2.495777e+001	-1.456896e+002	-2.935605e+001	-8.587895e+001	-2.063023e+000	1.638408e+002
8860034200	-2.753200e+000	1.622086e+002	-2.498959e+001	-1.463057e+002	-2.947478e+001	-8.880115e+001	-2.070481e+000	1.638212e+002
8870033900	-2.757792e+000	1.623003e+002	-2.514314e+001	-1.463365e+002	-2.938209e+001	-8.857104e+001	-2.091299e+000	1.637466e+002
8880033600	-2.772302e+000	1.622827e+002	-2.509440e+001	-1.466340e+002	-2.956631e+001	-8.837164e+001	-2.110461e+000	1.636935e+002
8890033300	-2.781462e+000	1.624921e+002	-2.516141e+001	-1.475137e+002	-2.952825e+001	-8.962627e+001	-2.138226e+000	1.635593e+002
8900033000	-2.792720e+000	1.625878e+002	-2.509784e+001	-1.481756e+002	-2.971346e+001	-8.876324e+001	-2.164654e+000	1.636323e+002
8910032700	-2.777940e+000	1.625660e+002	-2.517634e+001	-1.486776e+002	-2.954883e+001	-9.039959e+001	-2.177379e+000	1.635100e+002
8920032400	-2.800754e+000	1.627911e+002	-2.528626e+001	-1.493227e+002	-2.977830e+001	-9.103268e+001	-2.201975e+000	1.636356e+002
8930032100	-2.807653e+000	1.627634e+002	-2.525858e+001	-1.499307e+002	-2.985193e+001	-9.124697e+001	-2.216645e+000	1.635932e+002
8940031800	-2.798524e+000	1.630770e+002	-2.527200e+001	-1.514852e+002	-2.996706e+001	-9.225100e+001	-2.224811e+000	1.635725e+002
8950031500	-2.809314e+000	1.630833e+002	-2.538054e+001	-1.515080e+002	-3.001737e+001	-9.319035e+001	-2.244898e+000	1.635242e+002
8960031200	-2.811844e+000	1.631895e+002	-2.558044e+001	-1.522586e+002	-3.019346e+001	-9.355884e+001	-2.265716e+000	1.634947e+002
8970030900	-2.819788e+000	1.633016e+002	-2.557923e+001	-1.535109e+002	-3.054569e+001	-9.634942e+001	-2.281109e+000	1.634333e+002
8980030600	-2.813661e+000	1.634575e+002	-2.546783e+001	-1.530635e+002	-3.009627e+001	-9.240666e+001	-2.294452e+000	1.632816e+002
8990030300	-2.823922e+000	1.635734e+002	-2.540245e+001	-1.539107e+002	-3.008273e+001	-9.513751e+001	-2.322242e+000	1.631588e+002
9000030000	-2.841309e+000	1.636928e+002	-2.575288e+001	-1.545232e+002	-3.045477e+001	-9.371310e+001	-2.331219e+000	1.631511e+002
9010029700	-2.858741e+000	1.638252e+002	-2.568098e+001	-1.558779e+002	-3.048357e+001	-9.475033e+001	-2.362476e+000	1.630037e+002
9020029400	-2.846233e+000	1.639263e+002	-2.568928e+001	-1.560991e+002	-3.069435e+001	-9.591858e+001	-2.407878e+000	1.628302e+002
9030029100	-2.856956e+000	1.641132e+002	-2.575917e+001	-1.565551e+002	-3.062020e+001	-9.530251e+001	-2.430842e+000	1.628773e+002
9040028800	-2.859693e+000	1.640641e+002	-2.591326e+001	-1.575195e+002	-3.074984e+001	-9.785875e+001	-2.459784e+000	1.627887e+002
9050028500	-2.874954e+000	1.641249e+002	-2.600673e+001	-1.581083e+002	-3.094976e+001	-9.724449e+001	-2.476251e+000	1.627056e+002
9060028200	-2.881766e+000	1.643287e+002	-2.608154e+001	-1.588279e+002	-3.103363e+001	-9.739567e+001	-2.495542e+000	1.625578e+002
9070027900	-2.884457e+000	1.645348e+002	-2.608472e+001	-1.597514e+002	-3.092560e+001	-9.624744e+001	-2.530392e+000	1.625695e+002
9080027600	-2.890360e+000	1.644874e+002	-2.618339e+001	-1.604243e+002	-3.106913e+001	-9.812731e+001	-2.561998e+000	1.624928e+002
9090027300	-2.905486e+000	1.646048e+002	-2.628091e+001	-1.610378e+002	-3.135859e+001	-9.857891e+001	-2.585645e+000	1.625477e+002
9100027000	-2.885717e+000	1.648013e+002	-2.625013e+001	-1.613043e+002	-3.149030e+001	-9.881629e+001	-2.621983e+000	1.624027e+002
9110026700	-2.903692e+000	1.648067e+002	-2.648111e+001	-1.621983e+002	-3.180010e+001	-9.894162e+001	-2.639657e+000	1.624289e+002
9120026400	-2.888449e+000	1.649665e+002	-2.643748e+001	-1.631294e+002	-3.174412e+001	-9.919871e+001	-2.654852e+000	1.624028e+002
9130026100	-2.892296e+000	1.650537e+002	-2.657690e+001	-1.639873e+002	-3.192120e+001	-9.916224e+001	-2.668685e+000	1.624074e+002
9140025800	-2.932882e+000	1.650348e+002	-2.679008e+001	-1.641562e+002	-3.195122e+001	-1.012753e+002	-2.699160e+000	1.623311e+002
9150025500	-2.911085e+000	1.652098e+002	-2.673326e+001	-1.646325e+002	-3.222767e+001	-9.952282e+001	-2.725293e+000	1.620898e+002
9160025200	-2.914782e+000	1.653641e+002	-2.681779e+001	-1.650299e+002	-3.215352e+001	-9.787103e+001	-2.762053e+000	1.620975e+002
9170024900	-2.904126e+000	1.655414e+002	-2.703452e+001	-1.661741e+002	-3.231575e+001	-1.005512e+002	-2.789737e+000	1.619420e+002
9180024600	-2.924398e+000	1.656364e+002	-2.720006e+001	-1.657674e+002	-3.230369e+001	-9.783893e+001	-2.837546e+000	1.619391e+002
9190024300	-2.882138e+000	1.657023e+002	-2.710592e+001	-1.667370e+002	-3.255213e+001	-9.857902e+001	-2.849884e+000	1.618026e+002
9200024000	-2.933146e+000	1.658885e+002	-2.737640e+001	-1.670275e+002	-3.247100e+001	-9.603246e+001	-2.911782e+000	1.619016e+002
9210023700	-2.908937e+000	1.660259e+002	-2.744854e+001	-1.666494e+002	-3.237895e+001	-9.790413e+001	-2.965700e+000	1.618671e+002
9220023400	-2.926123e+000	1.660595e+002	-2.740331e+001	-1.674401e+002	-3.261428e+001	-9.860910e+001	-3.005048e+000	1.619077e+002
9230023100	-2.954650e+000	1.661198e+002	-2.755888e+001	-1.674510e+002	-3.222064e+001	-9.637934e+001	-3.034254e+000	1.619210e+002
9240022800	-2.932086e+000	1.663478e+002	-2.766527e+001	-1.673925e+002	-3.257604e+001	-9.711819e+001	-3.074275e+000	1.619943e+002
9250022500	-2.932609e+000	1.664187e+002	-2.773055e+001	-1.679737e+002	-3.234183e+001	-9.719401e+001	-3.076456e+000	1.620190e+002
9260022200	-2.944625e+000	1.665660e+002	-2.787621e+001	-1.669023e+002	-3.241918e+001	-9.796734e+001	-3.130740e+000	1.620250e+002
9270021900	-2.924673e+000	1.667165e+002	-2.776903e+001	-1.671019e+002	-3.237821e+001	-9.820865e+001	-3.146296e+000	1.620347e+002
9280021600	-2.930483e+000	1.669155e+002	-2.789617e+001	-1.676520e+002	-3.203409e+001	-1.003119e+002	-3.145828e+000	1.622658e+002
9290021300	-2.933343e+000	1.669840e+002	-2.789963e+001	-1.673023e+002	-3.216525e+001	-1.003792e+002	-3.181267e+000	1.623611e+002
9300021000	-2.942382e+000	1.671649e+002	-2.790835e+001	-1.682522e+002	-3.183245e+001	-9.917172e+001	-3.179932e+000	1.623124e+002
9310020700	-2.891644e+000	1.672391e+002	-2.791973e+001	-1.685122e+002	-3.201749e+001	-9.941015e+001	-3.222780e+000	1.622958e+002
9320020400	-2.916468e+000	1.673892e+002	-2.788927e+001	-1.680607e+002	-3.189928e+001	-1.011960e+002	-3.256738e+000	1.623400e+002
9330020100	-2.912189e+000	1.675167e+002	-2.782972e+001	-1.699808e+002	-3.198592e+001	-1.039382e+002	-3.264875e+000	1.622966e+002
9340019800	-2.900462e+000	1.676944e+002	-2.780291e+001	-1.689854e+002	-3.184640e+001	-1.015588e+002	-3.300238e+000	1.623616e+002
9350019500	-2.897588e+000	1.676997e+002	-2.796256e+001	-1.698007e+002	-3.158423e+001	-1.053501e+002	-3.308715e+000	1.622974e+002
9360019200	-2.891166e+000	1.677715e+002	-2.782550e+001	-1.701705e+002	-3.184128e+001	-1.060388e+002	-3.369330e+000	1.622619e+002
9370018900	-2.888191e+000	1.678734e+002	-2.770168e+001	-1.704949e+002	-3.201717e+001	-1.075814e+002	-3.380524e+000	1.623700e+002
9380018600	-2.883227e+000	1.681310e+002	-2.784715e+001	-1.723201e+002	-3.214677e+001	-1.068889e+002	-3.414711e+000	1.623657e+002
9390018300	-2.867625e+000	1.681121e+002	-2.788350e+001	-1.727063e+002	-3.212116e+001	-1.099655e+002	-3.442506e+000	1.622857e+002
9400018000	-2.858340e+000	1.680112e+002	-2.777421e+001	-1.735342e+002	-3.194533e+001	-1.100209e+002	-3.474773e+000	1.623809e+002
9410017700	-2.858571e+000	1.681682e+002	-2.799433e+001	-1.739488e+002	-3.224154e+001	-1.135542e+002	-3.500998e+000	1.622534e+002
9420017400	-2.840487e+000	1.682970e+002	-2.796151e+001	-1.741153e+002	-3.242239e+001	-1.131886e+002	-3.538936e+000	1.622243e+002
9430017100	-2.806793e+000	1.684088e+002	-2.795041e+001	-1.756333e+002	-3.248217e+001	-1.159589e+002	-3.561094e+000	1.621611e+002
9440016800	-2.837243e+000	1.682954e+002	-2.792733e+001	-1.769050e+002	-3.248790e+001	-1.184793e+002	-3.579105e+000	1.623172e+002
9450016500	-2.828724e+000	1.684861e+002	-2.813141e+001	-1.773069e+002	-3.243233e+001	-1.190962e+002	-3.591015e+000	1.622853e+002
9460016200	-2.798587e+000	1.686111e+002	-2.812662e+001	-1.779923e+002	-3.272517e+001	-1.194479e+002	-3.620201e+000	1.623906e+002
9470015900	-2.793293e+000	1.687754e+002	-2.822491e+001	-1.791029e+002	-3.308399e+001	-1.189465e+002	-3.672939e+000	1.623290e+002
9480015600	-2.781892e+000	1.685942e+002	-2.835376e+001	1.796995e+002	-3.283938e+001	-1.199294e+002	-3.670983e+000	1.623623e+002
9490015300	-2.772458e+000	1.686040e+002	-2.827922e+001	1.782455e+002	-3.337893e+001	-1.219744e+002	-3.706230e+000	1.623105e+002
9500015000	-2.764616e+000	1.688476e+002	-2.824111e+001	1.780947e+002	-3.339428e+001	-1.242580e+002	-3.744705e+000	1.622624e+002
9510014700	-2.759740e+000	1.688149e+002	-2.858358e+001	1.771879e+002	-3.327165e+001	-1.236236e+002	-3.788738e+000	1.621853e+002
9520014400	-2.757915e+000	1.689134e+002	-2.845317e+001	1.770013e+002	-3.360489e+001	-1.251974e+002	-3.823444e+000	1.621676e+002
9530014100	-2.750009e+000	1.690356e+002	-2.847828e+001	1.756380e+002	-3.381837e+001	-1.264434e+002	-3.846030e+000	1.622002e+002
9540013800	-2.747592e+000	1.689176e+002	-2.856980e+001	1.751776e+002	-3.406095e+001	-1.258206e+002	-3.887098e+000	1.622336e+002
9550013500	-2.698899e+000	1.690280e+002	-2.876458e+001	1.745445e+002	-3.415099e+001	-1.290339e+002	-3.922927e+000	1.621474e+002
9560013200	-2.725606e+000	1.691354e+002	-2.872459e+001	1.734475e+002	-3.459695e+001	-1.287034e+002	-3.967595e+000	1.620485e+002
9570012900	-2.697708e+000	1.692219e+002	-2.883836e+001	1.729839e+002	-3.450964e+001	-1.288634e+002	-3.989526e+000	1.621316e+002
9580012600	-2.691407e+000	1.690710e+002	-2.878430e+001	1.719590e+002	-3.463758e+001	-1.297012e+002	-4.035847e+000	1.621951e+002
9590012300	-2.699263e+000	1.690719e+002	-2.906909e+001	1.715133e+002	-3.483138e+001	-1.307940e+002	-4.066856e+000	1.620960e+002
9600012000	-2.699021e+000	1.690080e+002	-2.897132e+001	1.710729e+002	-3.445833e+001	-1.310651e+002	-4.101496e+000	1.621654e+002
9610011700	-2.681118e+000	1.691470e+002	-2.927801e+001	1.692799e+002	-3.502783e+001	-1.325440e+002	-4.123125e+000	1.623178e+002
9620011400	-2.671472e+000	1.690609e+002	-2.930152e+001	1.695344e+002	-3.510604e+001	-1.337039e+002	-4.156924e+000	1.623961e+002
9630011100	-2.656341e+000	1.692986e+002	-2.935437e+001	1.685880e+002	-3.548204e+001	-1.350667e+002	-4.183637e+000	1.625173e+002
9640010800	-2.649612e+000	1.692433e+002	-2.929484e+001	1.671316e+002	-3.546694e+001	-1.332189e+002	-4.224173e+000	1.624287e+002
9650010500	-2.611114e+000	1.691138e+002	-2.950071e+001	1.677879e+002	-3.576234e+001	-1.336062e+002	-4.268975e+000	1.625746e+002
9660010200	-2.628202e+000	1.692199e+002	-2.940793e+001	1.674521e+002	-3.637481e+001	-1.382731e+002	-4.309041e+000	1.623823e+002
9670009900	-2.605846e+000	1.691496e+002	-2.970380e+001	1.659947e+002	-3.630543e+001	-1.394401e+002	-4.339666e+000	1.624911e+002
9680009600	-2.618728e+000	1.691920e+002	-2.964431e+001	1.647082e+002	-3.603018e+001	-1.413900e+002	-4.379221e+000	1.624318e+002
9690009300	-2.587689e+000	1.691977e+002	-2.980346e+001	1.650192e+002	-3.651655e+001	-1.380172e+002	-4.418964e+000	1.625641e+002
9700009000	-2.596541e+000	1.691606e+002	-2.985325e+001	1.643385e+002	-3.678031e+001	-1.371001e+002	-4.448147e+000	1.625833e+002
9710008700	-2.592548e+000	1.689698e+002	-3.000474e+001	1.637650e+002	-3.683838e+001	-1.384389e+002	-4.482692e+000	1.627745e+002
9720008400	-2.579962e+000	1.691975e+002	-3.005796e+001	1.622107e+002	-3.662377e+001	-1.422408e+002	-4.496813e+000	1.627935e+002
9730008100	-2.570872e+000	1.691348e+002	-2.990809e+001	1.619982e+002	-3.648512e+001	-1.422690e+002	-4.554145e+000	1.628911e+002
9740007800	-2.582197e+000	1.692146e+002	-3.021985e+001	1.624441e+002	-3.689329e+001	-1.442675e+002	-4.583551e+000	1.629765e+002
9750007500	-2.556979e+000	1.689853e+002	-3.003575e+001	1.620401e+002	-3.678324e+001	-1.470035e+002	-4.620451e+000	1.631704e+002
9760007200	-2.555034e+000	1.689624e+002	-3.021809e+001	1.607491e+002	-3.729152e+001	-1.473564e+002	-4.642405e+000	1.631334e+002
9770006900	-2.532596e+000	1.689646e+002	-3.027567e+001	1.590760e+002	-3.705550e+001	-1.466146e+002	-4.666595e+000	1.632993e+002
9780006600	-2.528362e+000	1.689349e+002	-3.034606e+001	1.597351e+002	-3.749698e+001	-1.487100e+002	-4.683221e+000	1.633627e+002
9790006300	-2.540215e+000	1.688844e+002	-3.023327e+001	1.593147e+002	-3.765013e+001	-1.479509e+002	-4.724988e+000	1.634932e+002
9800006000	-2.523181e+000	1.689001e+002	-3.028926e+001	1.579896e+002	-3.728526e+001	-1.541360e+002	-4.720709e+000	1.635568e+002
9810005700	-2.527687e+000	1.689304e+002	-3.018019e+001	1.582727e+002	-3.754603e+001	-1.576084e+002	-4.750089e+000	1.635142e+002
9820005400	-2.491313e+000	1.687361e+002	-3.021298e+001	1.581516e+002	-3.764057e+001	-1.563750e+002	-4.784262e+000	1.636180e+002
9830005100	-2.505163e+000	1.686404e+002	-3.038488e+001	1.561721e+002	-3.780631e+001	-1.606309e+002	-4.836900e+000	1.635114e+002
9840004800	-2.505421e+000	1.684577e+002	-3.046171e+001	1.560613e+002	-3.794345e+001	-1.601275e+002	-4.844790e+000	1.634884e+002
9850004500	-2.496229e+000	1.686402e+002	-3.036529e+001	1.532350e+002	-3.839848e+001	-1.664545e+002	-4.852830e+000	1.635906e+002
9860004200	-2.482867e+000	1.686007e+002	-3.026402e+001	1.520408e+002	-3.873359e+001	-1.714358e+002	-4.892736e+000	1.636024e+002
9870003900	-2.490884e+000	1.683987e+002	-3.037492e+001	1.513515e+002	-3.834602e+001	-1.711771e+002	-4.890186e+000	1.635165e+002
9880003600	-2.486770e+000	1.684393e+002	-3.038730e+001	1.503765e+002	-3.892358e+001	-1.723675e+002	-4.962541e+000	1.636338e+002
9890003300	-2.519887e+000	1.683882e+002	-3.053865e+001	1.492085e+002	-3.892499e+001	-1.769490e+002	-4.997302e+000	1.637445e+002
9900003000	-2.501627e+000	1.682710e+002	-3.056858e+001	1.479896e+002	-3.982956e+001	1.770885e+002	-4.990625e+000	1.637534e+002
9910002700	-2.496685e+000	1.683274e+002	-3.057555e+001	1.457870e+002	-3.946091e+001	1.760417e+002	-5.030273e+000	1.640102e+002
9920002400	-2.481711e+000	1.680691e+002	-3.050248e+001	1.454239e+002	-4.034152e+001	1.670454e+002	-5.058096e+000	1.640399e+002
9930002100	-2.525425e+000	1.679016e+002	-3.081895e+001	1.422646e+002	-4.098731e+001	1.658601e+002	-5.066657e+000	1.640116e+002
9940001800	-2.507675e+000	1.679469e+002	-3.092680e+001	1.417610e+002	-4.013803e+001	1.638773e+002	-5.099933e+000	1.641177e+002
9950001500	-2.500262e+000	1.677498e+002	-3.094887e+001	1.402142e+002	-4.107930e+001	1.586660e+002	-5.107158e+000	1.640115e+002
9960001200	-2.514385e+000	1.678436e+002	-3.109930e+001	1.390588e+002	-4.079286e+001	1.591637e+002	-5.154601e+000	1.639518e+002
9970000900	-2.530908e+000	1.676133e+002	-3.126964e+001	1.376883e+002	-4.136909e+001	1.532375e+002	-5.161274e+000	1.640553e+002
9980000600	-2.534346e+000	1.677193e+002	-3.136468e+001	1.378334e+002	-4.157558e+001	1.491288e+002	-5.185297e+000	1.640901e+002
9990000300	-2.562064e+000	1.674132e+002	-3.141439e+001	1.354470e+002	-4.206189e+001	1.445896e+002	-5.219354e+000	1.641604e+002
10000000000	-2.573649e+000	1.675133e+002	-3.150486e+001	1.342305e+002	-4.168315e+001	1.372286e+002	-5.253825e+000	1.640949e+002

!Noise Parameters
!Freq  NFmin(dB)  Mag(GammaOpt)  Ang(GammaOpt)(deg)  rn(normalized)
6.5e+008 1.1865 0.48739 62.584 0.33003
7e+008   1.0847 0.51267 67.798 0.27173
7.5e+008 1.0725 0.52075 69.958 0.23077
8e+008   1.0996 0.53606 73.467 0.23072
8.5e+008 1.1069 0.51577 79.61  0.21871
9e+008   1.1298 0.52193 79.869 0.22223
9.5e+008 1.1647 0.55583 80.129 0.24462
1e+009   1.1831 0.47199 82.636 0.20655