!Agilent Technologies,E5071C,MY46316587,B.13.01
!Date: Fri Dec 08 11:17:06 2017
!Data & Calibration Information:
!Freq	S11:SOLT2(ON)	S21:SOLT2(ON)	S12:SOLT2(ON)	S22:SOLT2(ON)
!PortZ  Port1:50+j0    Port2:50+j0
!Above PortZ is port z conversion or system Z0 setting when saving the data.
!When reading, reference impedance value at option line is always used.
# Hz S dB R 50
300000	-7.754688e-002	-3.512820e-001	-5.551210e+001	-1.648074e+002	-6.202511e+001	-6.052013e+001	-6.477686e-002	-9.521384e-002
10299700	-5.067036e-001	-2.541522e+000	-1.746672e+001	-8.592318e+001	-7.646060e+001	3.430431e+001	-1.829581e-001	-2.705099e+000
20299400	-4.918087e-001	-3.408452e+000	-1.930004e+001	-1.013028e+002	-6.757654e+001	1.369886e+002	-2.552494e-001	-4.389231e+000
30299100	-4.989898e-001	-4.851528e+000	-1.688563e+001	-1.007057e+002	-8.012174e+001	1.584085e+002	-2.889926e-001	-6.086216e+000
40298800	-5.093929e-001	-6.257737e+000	-1.481337e+001	-1.002737e+002	-7.109922e+001	1.020801e+002	-3.147947e-001	-7.773848e+000
50298500	-5.190632e-001	-7.718421e+000	-1.305086e+001	-1.001407e+002	-6.556173e+001	1.311200e+002	-3.381573e-001	-9.531292e+000
60298200	-5.344681e-001	-9.165298e+000	-1.149384e+001	-1.005155e+002	-6.900023e+001	1.304960e+002	-3.574798e-001	-1.128700e+001
70297900	-5.464982e-001	-1.057014e+001	-1.022513e+001	-1.008271e+002	-6.179778e+001	1.257596e+002	-3.746959e-001	-1.302250e+001
80297600	-5.548236e-001	-1.197348e+001	-9.094263e+000	-1.017128e+002	-6.437414e+001	1.412626e+002	-4.017413e-001	-1.477671e+001
90297300	-5.708310e-001	-1.338401e+001	-8.094125e+000	-1.027781e+002	-6.257295e+001	1.302097e+002	-4.264660e-001	-1.652887e+001
100297000	-5.819491e-001	-1.476423e+001	-7.190716e+000	-1.038858e+002	-6.146978e+001	1.334169e+002	-4.486853e-001	-1.828652e+001
110296700	-5.943556e-001	-1.618529e+001	-6.325262e+000	-1.051175e+002	-6.044747e+001	1.216809e+002	-4.773063e-001	-2.005239e+001
120296400	-6.038844e-001	-1.761748e+001	-5.538040e+000	-1.063096e+002	-6.094403e+001	1.405809e+002	-5.088741e-001	-2.180741e+001
130296100	-6.180167e-001	-1.898783e+001	-4.824841e+000	-1.075437e+002	-5.926694e+001	1.313060e+002	-5.396310e-001	-2.353004e+001
140295800	-6.285298e-001	-2.049062e+001	-4.158701e+000	-1.084905e+002	-5.750731e+001	1.435838e+002	-5.690144e-001	-2.531335e+001
150295500	-6.413674e-001	-2.188022e+001	-3.521850e+000	-1.095076e+002	-5.603989e+001	1.418222e+002	-6.092410e-001	-2.708747e+001
160295200	-6.648575e-001	-2.326682e+001	-2.937658e+000	-1.108216e+002	-5.528238e+001	1.417950e+002	-6.432023e-001	-2.883718e+001
170294900	-6.730892e-001	-2.467471e+001	-2.394728e+000	-1.122230e+002	-5.334936e+001	1.485492e+002	-6.806918e-001	-3.053640e+001
180294600	-6.927623e-001	-2.607153e+001	-1.900563e+000	-1.136709e+002	-5.302416e+001	1.465205e+002	-7.241171e-001	-3.225778e+001
190294300	-7.126440e-001	-2.745032e+001	-1.443487e+000	-1.150781e+002	-5.200037e+001	1.507576e+002	-7.739295e-001	-3.399303e+001
200294000	-7.275693e-001	-2.879304e+001	-1.002341e+000	-1.164333e+002	-5.081228e+001	1.500172e+002	-8.233730e-001	-3.571173e+001
210293700	-7.517347e-001	-3.021503e+001	-5.831381e-001	-1.178995e+002	-5.019183e+001	1.485914e+002	-8.691642e-001	-3.743229e+001
220293400	-7.743361e-001	-3.156318e+001	-2.029515e-001	-1.192610e+002	-4.930823e+001	1.491454e+002	-9.239836e-001	-3.915827e+001
230293100	-7.778765e-001	-3.291685e+001	2.089864e-001	-1.196032e+002	-4.860817e+001	1.514659e+002	-9.761903e-001	-4.090220e+001
240292800	-7.985439e-001	-3.437058e+001	7.151451e-001	-1.206105e+002	-4.749590e+001	1.519567e+002	-1.037150e+000	-4.265561e+001
250292500	-8.219140e-001	-3.574450e+001	1.099049e+000	-1.227927e+002	-4.739339e+001	1.510681e+002	-1.102296e+000	-4.426871e+001
260292200	-8.420669e-001	-3.715758e+001	1.595540e+000	-1.240622e+002	-4.567080e+001	1.545369e+002	-1.174245e+000	-4.598878e+001
270291900	-8.818585e-001	-3.853298e+001	1.881425e+000	-1.262143e+002	-4.533500e+001	1.511082e+002	-1.233252e+000	-4.755453e+001
280291600	-9.101133e-001	-3.986923e+001	2.120631e+000	-1.276117e+002	-4.494005e+001	1.514929e+002	-1.299776e+000	-4.923997e+001
290291300	-9.266138e-001	-4.125297e+001	2.511543e+000	-1.293492e+002	-4.408594e+001	1.511010e+002	-1.379359e+000	-5.096772e+001
300291000	-9.547777e-001	-4.254763e+001	2.767684e+000	-1.309197e+002	-4.340405e+001	1.492159e+002	-1.453968e+000	-5.254043e+001
310290700	-9.870674e-001	-4.382384e+001	3.025987e+000	-1.323640e+002	-4.289944e+001	1.500623e+002	-1.527030e+000	-5.415399e+001
320290400	-1.016937e+000	-4.516305e+001	3.293168e+000	-1.339248e+002	-4.243278e+001	1.480385e+002	-1.603703e+000	-5.582456e+001
330290100	-1.045915e+000	-4.647894e+001	3.556383e+000	-1.354436e+002	-4.171239e+001	1.491168e+002	-1.675168e+000	-5.745809e+001
340289800	-1.066223e+000	-4.776580e+001	3.810903e+000	-1.367686e+002	-4.092488e+001	1.487528e+002	-1.757286e+000	-5.902882e+001
350289500	-1.103044e+000	-4.908600e+001	4.059786e+000	-1.382632e+002	-4.048435e+001	1.473315e+002	-1.843004e+000	-6.066677e+001
360289200	-1.128426e+000	-5.038753e+001	4.298618e+000	-1.397440e+002	-4.022657e+001	1.463059e+002	-1.932006e+000	-6.226012e+001
370288900	-1.163562e+000	-5.173378e+001	4.520300e+000	-1.412622e+002	-3.952880e+001	1.469261e+002	-2.021824e+000	-6.380450e+001
380288600	-1.194629e+000	-5.305020e+001	4.732642e+000	-1.429181e+002	-3.911660e+001	1.459008e+002	-2.109062e+000	-6.544095e+001
390288300	-1.232200e+000	-5.426827e+001	4.926941e+000	-1.443892e+002	-3.863887e+001	1.459666e+002	-2.208679e+000	-6.699518e+001
400288000	-1.265936e+000	-5.551582e+001	5.117446e+000	-1.458721e+002	-3.822018e+001	1.447368e+002	-2.303648e+000	-6.855788e+001
410287700	-1.298235e+000	-5.679191e+001	5.311525e+000	-1.474019e+002	-3.765424e+001	1.441183e+002	-2.401289e+000	-7.017060e+001
420287400	-1.330385e+000	-5.806193e+001	5.514844e+000	-1.488109e+002	-3.733922e+001	1.429252e+002	-2.502981e+000	-7.170642e+001
430287100	-1.367580e+000	-5.923983e+001	5.696657e+000	-1.501835e+002	-3.682616e+001	1.418729e+002	-2.600622e+000	-7.326944e+001
440286800	-1.395595e+000	-6.045629e+001	5.879797e+000	-1.515496e+002	-3.642018e+001	1.423391e+002	-2.702263e+000	-7.481541e+001
450286500	-1.430653e+000	-6.169716e+001	6.053347e+000	-1.527256e+002	-3.613557e+001	1.410575e+002	-2.807853e+000	-7.644374e+001
460286200	-1.448771e+000	-6.304754e+001	6.310232e+000	-1.538178e+002	-3.564299e+001	1.413270e+002	-2.929384e+000	-7.813320e+001
470285900	-1.491160e+000	-6.424516e+001	6.462492e+000	-1.555052e+002	-3.514813e+001	1.404729e+002	-3.053157e+000	-7.967323e+001
480285600	-1.534252e+000	-6.565625e+001	6.759887e+000	-1.575461e+002	-3.463861e+001	1.384253e+002	-3.234795e+000	-8.117417e+001
490285300	-1.588038e+000	-6.677126e+001	6.804035e+000	-1.593661e+002	-3.430646e+001	1.369646e+002	-3.327089e+000	-8.243846e+001
500285000	-1.615851e+000	-6.799388e+001	6.943714e+000	-1.604297e+002	-3.397056e+001	1.368959e+002	-3.448968e+000	-8.409753e+001
510284700	-1.673107e+000	-6.921764e+001	7.135630e+000	-1.623790e+002	-3.355481e+001	1.350063e+002	-3.612330e+000	-8.542624e+001
520284400	-1.709620e+000	-7.037693e+001	7.242730e+000	-1.639203e+002	-3.321402e+001	1.348853e+002	-3.732719e+000	-8.687935e+001
530284100	-1.751905e+000	-7.152388e+001	7.367809e+000	-1.653107e+002	-3.295969e+001	1.341848e+002	-3.858598e+000	-8.836698e+001
540283800	-1.793308e+000	-7.269847e+001	7.494753e+000	-1.666215e+002	-3.263269e+001	1.331399e+002	-4.000279e+000	-8.984906e+001
550283500	-1.839215e+000	-7.385062e+001	7.632865e+000	-1.680230e+002	-3.218393e+001	1.317110e+002	-4.132363e+000	-9.134181e+001
560283200	-1.877424e+000	-7.495839e+001	7.786489e+000	-1.694201e+002	-3.202182e+001	1.313987e+002	-4.303236e+000	-9.289619e+001
570282900	-1.912538e+000	-7.614835e+001	7.917912e+000	-1.710018e+002	-3.159306e+001	1.306239e+002	-4.463482e+000	-9.431807e+001
580282600	-1.959497e+000	-7.728927e+001	8.035905e+000	-1.724925e+002	-3.125578e+001	1.299502e+002	-4.618422e+000	-9.579934e+001
590282300	-1.995495e+000	-7.847963e+001	8.168396e+000	-1.739410e+002	-3.096473e+001	1.289992e+002	-4.787665e+000	-9.730415e+001
600282000	-2.043516e+000	-7.965581e+001	8.287477e+000	-1.755584e+002	-3.061237e+001	1.278999e+002	-4.974584e+000	-9.868792e+001
610281700	-2.093622e+000	-8.080183e+001	8.400422e+000	-1.770182e+002	-3.029484e+001	1.269475e+002	-5.153705e+000	-1.001012e+002
620281400	-2.144913e+000	-8.193065e+001	8.519673e+000	-1.784813e+002	-3.002258e+001	1.258348e+002	-5.341971e+000	-1.015653e+002
630281100	-2.193953e+000	-8.304601e+001	8.631598e+000	-1.799398e+002	-2.976286e+001	1.250854e+002	-5.525007e+000	-1.030858e+002
640280800	-2.243846e+000	-8.413485e+001	8.749317e+000	1.786363e+002	-2.946796e+001	1.242299e+002	-5.737794e+000	-1.045273e+002
650280500	-2.289201e+000	-8.526547e+001	8.859650e+000	1.771899e+002	-2.907157e+001	1.232580e+002	-5.941845e+000	-1.059892e+002
660280200	-2.332577e+000	-8.639547e+001	8.976177e+000	1.757668e+002	-2.886729e+001	1.221774e+002	-6.163945e+000	-1.075285e+002
670279900	-2.376487e+000	-8.755893e+001	9.106946e+000	1.743242e+002	-2.854314e+001	1.211569e+002	-6.409071e+000	-1.091001e+002
680279600	-2.424054e+000	-8.883284e+001	9.278286e+000	1.726851e+002	-2.822978e+001	1.203764e+002	-6.722239e+000	-1.106583e+002
690279300	-2.520542e+000	-8.994587e+001	9.353172e+000	1.704284e+002	-2.795694e+001	1.182762e+002	-7.021463e+000	-1.113029e+002
700279000	-2.573066e+000	-9.097305e+001	9.425030e+000	1.690781e+002	-2.772250e+001	1.175825e+002	-7.262210e+000	-1.127356e+002
710278700	-2.652136e+000	-9.202599e+001	9.503024e+000	1.671946e+002	-2.747088e+001	1.157426e+002	-7.559695e+000	-1.137231e+002
720278400	-2.714944e+000	-9.295943e+001	9.545468e+000	1.657443e+002	-2.725316e+001	1.151226e+002	-7.786023e+000	-1.149457e+002
730278100	-2.769738e+000	-9.398735e+001	9.625982e+000	1.643171e+002	-2.704271e+001	1.137476e+002	-8.084284e+000	-1.163347e+002
740277800	-2.829393e+000	-9.508049e+001	9.717082e+000	1.628886e+002	-2.677331e+001	1.129502e+002	-8.409179e+000	-1.177643e+002
750277500	-2.905134e+000	-9.612769e+001	9.817533e+000	1.611862e+002	-2.661299e+001	1.115069e+002	-8.783785e+000	-1.189084e+002
760277200	-2.975263e+000	-9.710360e+001	9.873837e+000	1.595297e+002	-2.639387e+001	1.104118e+002	-9.118585e+000	-1.199245e+002
770276900	-3.037730e+000	-9.812308e+001	9.943857e+000	1.579955e+002	-2.613272e+001	1.095047e+002	-9.481129e+000	-1.210775e+002
780276600	-3.105113e+000	-9.911986e+001	1.001504e+001	1.564097e+002	-2.589100e+001	1.083217e+002	-9.885092e+000	-1.222167e+002
790276300	-3.176642e+000	-1.001288e+002	1.008394e+001	1.547217e+002	-2.568586e+001	1.069609e+002	-1.031607e+001	-1.231862e+002
800276000	-3.246607e+000	-1.011101e+002	1.013665e+001	1.531015e+002	-2.549297e+001	1.058788e+002	-1.075414e+001	-1.240428e+002
810275700	-3.327837e+000	-1.020775e+002	1.020182e+001	1.515193e+002	-2.526698e+001	1.047965e+002	-1.123005e+001	-1.249459e+002
820275400	-3.408184e+000	-1.030010e+002	1.026013e+001	1.498662e+002	-2.511479e+001	1.035205e+002	-1.174734e+001	-1.256274e+002
830275100	-3.486861e+000	-1.039722e+002	1.031773e+001	1.482196e+002	-2.489301e+001	1.021606e+002	-1.231174e+001	-1.261439e+002
840274800	-3.572052e+000	-1.048855e+002	1.037834e+001	1.465438e+002	-2.468186e+001	1.009983e+002	-1.293220e+001	-1.265994e+002
850274500	-3.655006e+000	-1.058286e+002	1.043547e+001	1.447246e+002	-2.450343e+001	9.978329e+001	-1.361646e+001	-1.262194e+002
860274200	-3.748569e+000	-1.067191e+002	1.043914e+001	1.428788e+002	-2.433654e+001	9.845053e+001	-1.420227e+001	-1.254216e+002
870273900	-3.840142e+000	-1.075500e+002	1.046761e+001	1.413433e+002	-2.416725e+001	9.731852e+001	-1.488831e+001	-1.249580e+002
880273600	-3.932635e+000	-1.083925e+002	1.050942e+001	1.396789e+002	-2.396324e+001	9.573160e+001	-1.564644e+001	-1.239191e+002
890273300	-4.037947e+000	-1.092286e+002	1.053298e+001	1.379216e+002	-2.382311e+001	9.429440e+001	-1.645139e+001	-1.217470e+002
900273000	-4.150542e+000	-1.098962e+002	1.052643e+001	1.361428e+002	-2.367072e+001	9.294015e+001	-1.715770e+001	-1.187855e+002
910272700	-4.240765e+000	-1.105106e+002	1.051939e+001	1.345957e+002	-2.359173e+001	9.161503e+001	-1.781618e+001	-1.163782e+002
920272400	-4.329207e+000	-1.112540e+002	1.053557e+001	1.330417e+002	-2.344097e+001	9.042046e+001	-1.866694e+001	-1.132406e+002
930272100	-4.421584e+000	-1.119454e+002	1.055341e+001	1.314232e+002	-2.331322e+001	8.937911e+001	-1.953689e+001	-1.084747e+002
940271800	-4.511031e+000	-1.126580e+002	1.056351e+001	1.297614e+002	-2.319381e+001	8.801958e+001	-2.028833e+001	-1.020286e+002
950271500	-4.612273e+000	-1.132900e+002	1.055301e+001	1.281355e+002	-2.306950e+001	8.678163e+001	-2.082464e+001	-9.509682e+001
960271200	-4.699195e+000	-1.139380e+002	1.055061e+001	1.265311e+002	-2.292146e+001	8.576950e+001	-2.129989e+001	-8.700235e+001
970270900	-4.794189e+000	-1.145817e+002	1.055432e+001	1.249282e+002	-2.282107e+001	8.442991e+001	-2.147811e+001	-7.772195e+001
980270600	-4.892363e+000	-1.151815e+002	1.054074e+001	1.233091e+002	-2.269380e+001	8.337194e+001	-2.129524e+001	-6.849087e+001
990270300	-4.998755e+000	-1.157471e+002	1.053134e+001	1.216605e+002	-2.259759e+001	8.213190e+001	-2.075893e+001	-6.037607e+001
1000270000	-5.095221e+000	-1.161730e+002	1.050794e+001	1.200247e+002	-2.251774e+001	8.084184e+001	-2.006031e+001	-5.377235e+001
1010269700	-5.187393e+000	-1.166815e+002	1.047332e+001	1.184284e+002	-2.242525e+001	7.961338e+001	-1.931265e+001	-4.893391e+001
1020269400	-5.281366e+000	-1.171445e+002	1.044010e+001	1.168878e+002	-2.233130e+001	7.850154e+001	-1.863782e+001	-4.501262e+001
1030269100	-5.374265e+000	-1.175923e+002	1.041305e+001	1.153943e+002	-2.222662e+001	7.727109e+001	-1.790500e+001	-4.152002e+001
1040268800	-5.463254e+000	-1.180052e+002	1.038738e+001	1.138688e+002	-2.215198e+001	7.592987e+001	-1.715571e+001	-3.896453e+001
1050268500	-5.558686e+000	-1.184096e+002	1.035180e+001	1.123432e+002	-2.207599e+001	7.473695e+001	-1.646819e+001	-3.701291e+001
1060268200	-5.657198e+000	-1.187751e+002	1.031094e+001	1.107959e+002	-2.200602e+001	7.370357e+001	-1.575740e+001	-3.562081e+001
1070267900	-5.750286e+000	-1.191462e+002	1.027250e+001	1.092747e+002	-2.191765e+001	7.263820e+001	-1.513674e+001	-3.475354e+001
1080267600	-5.849415e+000	-1.194714e+002	1.023020e+001	1.077672e+002	-2.187164e+001	7.140484e+001	-1.454097e+001	-3.431915e+001
1090267300	-5.937369e+000	-1.197303e+002	1.016986e+001	1.062467e+002	-2.178882e+001	7.029333e+001	-1.399989e+001	-3.432031e+001
1100267000	-6.021086e+000	-1.199279e+002	1.010264e+001	1.048868e+002	-2.176708e+001	6.929359e+001	-1.357979e+001	-3.446979e+001
1110266700	-6.093011e+000	-1.201293e+002	1.004673e+001	1.035440e+002	-2.171957e+001	6.834531e+001	-1.321307e+001	-3.423370e+001
1120266400	-6.167361e+000	-1.203950e+002	1.000063e+001	1.022064e+002	-2.163710e+001	6.730202e+001	-1.277371e+001	-3.388703e+001
1130266100	-6.240967e+000	-1.206493e+002	9.946605e+000	1.008046e+002	-2.160954e+001	6.627259e+001	-1.234170e+001	-3.405886e+001
1140265800	-6.319520e+000	-1.208959e+002	9.896145e+000	9.943187e+001	-2.154257e+001	6.531709e+001	-1.193728e+001	-3.429201e+001
1150265500	-6.388120e+000	-1.210679e+002	9.835871e+000	9.805080e+001	-2.150395e+001	6.438261e+001	-1.156267e+001	-3.470068e+001
1160265200	-6.450442e+000	-1.212074e+002	9.773176e+000	9.671985e+001	-2.144582e+001	6.347927e+001	-1.122052e+001	-3.530494e+001
1170264900	-6.523777e+000	-1.213602e+002	9.710092e+000	9.543630e+001	-2.141661e+001	6.235135e+001	-1.089106e+001	-3.581682e+001
1180264600	-6.585573e+000	-1.215456e+002	9.649923e+000	9.411907e+001	-2.138142e+001	6.129423e+001	-1.057979e+001	-3.629785e+001
1190264300	-6.650713e+000	-1.217027e+002	9.587574e+000	9.282066e+001	-2.133039e+001	6.049889e+001	-1.028471e+001	-3.695943e+001
1200264000	-6.707391e+000	-1.218140e+002	9.516377e+000	9.156862e+001	-2.127386e+001	5.963819e+001	-1.000699e+001	-3.764053e+001
1210263700	-6.769033e+000	-1.219230e+002	9.451875e+000	9.031216e+001	-2.124810e+001	5.853310e+001	-9.746608e+000	-3.830295e+001
1220263400	-6.824254e+000	-1.220016e+002	9.375080e+000	8.907582e+001	-2.123273e+001	5.764540e+001	-9.505427e+000	-3.906940e+001
1230263100	-6.868140e+000	-1.221067e+002	9.312288e+000	8.787448e+001	-2.120119e+001	5.689653e+001	-9.278948e+000	-3.978301e+001
1240262800	-6.919412e+000	-1.222524e+002	9.240026e+000	8.660542e+001	-2.115197e+001	5.598162e+001	-9.067926e+000	-4.048594e+001
1250262500	-6.968312e+000	-1.223601e+002	9.170777e+000	8.543800e+001	-2.114601e+001	5.516102e+001	-8.872418e+000	-4.124224e+001
1260262200	-7.013606e+000	-1.224155e+002	9.092396e+000	8.428847e+001	-2.113353e+001	5.447639e+001	-8.691329e+000	-4.184625e+001
1270261900	-7.054119e+000	-1.224251e+002	9.019062e+000	8.313216e+001	-2.109207e+001	5.350270e+001	-8.493100e+000	-4.257661e+001
1280261600	-7.093236e+000	-1.225463e+002	8.949462e+000	8.200017e+001	-2.105771e+001	5.273902e+001	-8.299784e+000	-4.335152e+001
1290261300	-7.129802e+000	-1.225956e+002	8.872930e+000	8.087942e+001	-2.103306e+001	5.169934e+001	-8.128266e+000	-4.407525e+001
1300261000	-7.162705e+000	-1.226480e+002	8.798959e+000	7.974265e+001	-2.102173e+001	5.106472e+001	-7.969837e+000	-4.482488e+001
1310260700	-7.195213e+000	-1.226993e+002	8.721412e+000	7.865650e+001	-2.101349e+001	5.026404e+001	-7.812645e+000	-4.553350e+001
1320260400	-7.223166e+000	-1.227906e+002	8.645082e+000	7.759864e+001	-2.098337e+001	4.954925e+001	-7.655859e+000	-4.625040e+001
1330260100	-7.252033e+000	-1.228155e+002	8.574275e+000	7.651788e+001	-2.097177e+001	4.881732e+001	-7.489670e+000	-4.696540e+001
1340259800	-7.276563e+000	-1.228912e+002	8.496189e+000	7.546374e+001	-2.095451e+001	4.820732e+001	-7.341355e+000	-4.767840e+001
1350259500	-7.298698e+000	-1.229197e+002	8.423036e+000	7.439782e+001	-2.094028e+001	4.732768e+001	-7.209307e+000	-4.836688e+001
1360259200	-7.325888e+000	-1.229521e+002	8.352628e+000	7.336794e+001	-2.090239e+001	4.658022e+001	-7.073357e+000	-4.909048e+001
1370258900	-7.340564e+000	-1.229654e+002	8.275123e+000	7.236961e+001	-2.089896e+001	4.585430e+001	-6.952052e+000	-4.981782e+001
1380258600	-7.359427e+000	-1.230326e+002	8.195558e+000	7.134547e+001	-2.088278e+001	4.521279e+001	-6.847282e+000	-5.052488e+001
1390258300	-7.377465e+000	-1.231424e+002	8.121206e+000	7.033800e+001	-2.084878e+001	4.474135e+001	-6.734497e+000	-5.120332e+001
1400258000	-7.391118e+000	-1.231490e+002	8.047506e+000	6.938281e+001	-2.083268e+001	4.387546e+001	-6.624496e+000	-5.186018e+001
1410257700	-7.405431e+000	-1.232452e+002	7.968525e+000	6.838293e+001	-2.081979e+001	4.308884e+001	-6.513292e+000	-5.255256e+001
1420257400	-7.427438e+000	-1.233295e+002	7.894963e+000	6.739475e+001	-2.080899e+001	4.264144e+001	-6.421421e+000	-5.323728e+001
1430257100	-7.424464e+000	-1.233513e+002	7.815533e+000	6.648972e+001	-2.081897e+001	4.185740e+001	-6.325501e+000	-5.391862e+001
1440256800	-7.432754e+000	-1.234354e+002	7.740140e+000	6.551896e+001	-2.080552e+001	4.121869e+001	-6.240558e+000	-5.463669e+001
1450256500	-7.435412e+000	-1.235268e+002	7.665811e+000	6.460915e+001	-2.078073e+001	4.049383e+001	-6.140886e+000	-5.527570e+001
1460256200	-7.450766e+000	-1.236204e+002	7.592670e+000	6.366825e+001	-2.079336e+001	4.005528e+001	-6.062543e+000	-5.593023e+001
1470255900	-7.450453e+000	-1.237290e+002	7.512847e+000	6.272471e+001	-2.074429e+001	3.942181e+001	-5.963712e+000	-5.665017e+001
1480255600	-7.454337e+000	-1.237967e+002	7.439092e+000	6.183707e+001	-2.074203e+001	3.869188e+001	-5.884026e+000	-5.728958e+001
1490255300	-7.463996e+000	-1.238382e+002	7.362313e+000	6.093712e+001	-2.071573e+001	3.807141e+001	-5.787761e+000	-5.795261e+001
1500255000	-7.462731e+000	-1.239537e+002	7.285639e+000	6.007418e+001	-2.072789e+001	3.740693e+001	-5.708078e+000	-5.857737e+001
1510254700	-7.466071e+000	-1.239418e+002	7.209161e+000	5.915044e+001	-2.069135e+001	3.700311e+001	-5.618003e+000	-5.916606e+001
1520254400	-7.464583e+000	-1.239786e+002	7.140459e+000	5.830212e+001	-2.067453e+001	3.628013e+001	-5.544673e+000	-5.977977e+001
1530254100	-7.463537e+000	-1.240603e+002	7.062395e+000	5.744470e+001	-2.068891e+001	3.571942e+001	-5.466039e+000	-6.044394e+001
1540253800	-7.449272e+000	-1.241320e+002	6.987012e+000	5.658592e+001	-2.069657e+001	3.517990e+001	-5.403028e+000	-6.102282e+001
1550253500	-7.441918e+000	-1.242608e+002	6.917873e+000	5.572442e+001	-2.070771e+001	3.485942e+001	-5.348499e+000	-6.164083e+001
1560253200	-7.434553e+000	-1.243716e+002	6.843930e+000	5.492407e+001	-2.067593e+001	3.421893e+001	-5.281900e+000	-6.228073e+001
1570252900	-7.436497e+000	-1.244954e+002	6.762678e+000	5.410010e+001	-2.069089e+001	3.354585e+001	-5.233026e+000	-6.286523e+001
1580252600	-7.427895e+000	-1.245971e+002	6.690061e+000	5.324869e+001	-2.062903e+001	3.306425e+001	-5.176504e+000	-6.344080e+001
1590252300	-7.415668e+000	-1.247142e+002	6.624676e+000	5.243146e+001	-2.065270e+001	3.263560e+001	-5.124743e+000	-6.402078e+001
1600252000	-7.407651e+000	-1.248405e+002	6.547154e+000	5.161908e+001	-2.061504e+001	3.211072e+001	-5.070380e+000	-6.460142e+001
1610251700	-7.402451e+000	-1.250584e+002	6.475289e+000	5.081361e+001	-2.062445e+001	3.150032e+001	-5.021388e+000	-6.515303e+001
1620251400	-7.395419e+000	-1.251774e+002	6.397835e+000	4.999256e+001	-2.062395e+001	3.097502e+001	-4.958807e+000	-6.573089e+001
1630251100	-7.391664e+000	-1.253332e+002	6.326715e+000	4.921274e+001	-2.062488e+001	3.032290e+001	-4.910474e+000	-6.630387e+001
1640250800	-7.375792e+000	-1.254289e+002	6.265997e+000	4.845342e+001	-2.061035e+001	2.973780e+001	-4.853949e+000	-6.686060e+001
1650250500	-7.368068e+000	-1.255589e+002	6.184647e+000	4.767916e+001	-2.062293e+001	2.955098e+001	-4.797324e+000	-6.736226e+001
1660250200	-7.353654e+000	-1.256653e+002	6.112077e+000	4.693372e+001	-2.060519e+001	2.890426e+001	-4.733414e+000	-6.788818e+001
1670249900	-7.335047e+000	-1.258470e+002	6.050478e+000	4.612536e+001	-2.058637e+001	2.856738e+001	-4.675881e+000	-6.839369e+001
1680249600	-7.328547e+000	-1.259869e+002	5.978659e+000	4.541795e+001	-2.054955e+001	2.813853e+001	-4.622549e+000	-6.901642e+001
1690249300	-7.321918e+000	-1.261417e+002	5.910296e+000	4.460410e+001	-2.056712e+001	2.763429e+001	-4.577148e+000	-6.953341e+001
1700249000	-7.308019e+000	-1.263067e+002	5.836664e+000	4.386351e+001	-2.055149e+001	2.708998e+001	-4.535691e+000	-7.006977e+001
1710248700	-7.295309e+000	-1.264680e+002	5.768840e+000	4.308118e+001	-2.053643e+001	2.667751e+001	-4.502538e+000	-7.059756e+001
1720248400	-7.287055e+000	-1.266119e+002	5.702800e+000	4.238657e+001	-2.052052e+001	2.605847e+001	-4.459041e+000	-7.110229e+001
1730248100	-7.273458e+000	-1.267862e+002	5.627013e+000	4.162382e+001	-2.054485e+001	2.564826e+001	-4.418100e+000	-7.162096e+001
1740247800	-7.260007e+000	-1.269536e+002	5.564369e+000	4.097323e+001	-2.054343e+001	2.520565e+001	-4.384381e+000	-7.211616e+001
1750247500	-7.245673e+000	-1.271182e+002	5.487074e+000	4.021087e+001	-2.053883e+001	2.476492e+001	-4.355081e+000	-7.263422e+001
1760247200	-7.238151e+000	-1.272844e+002	5.425709e+000	3.946708e+001	-2.051729e+001	2.429672e+001	-4.318680e+000	-7.320176e+001
1770246900	-7.222411e+000	-1.274737e+002	5.356403e+000	3.870164e+001	-2.051006e+001	2.383975e+001	-4.283764e+000	-7.368827e+001
1780246600	-7.208512e+000	-1.276224e+002	5.285132e+000	3.802552e+001	-2.050634e+001	2.343408e+001	-4.247514e+000	-7.419988e+001
1790246300	-7.193119e+000	-1.277579e+002	5.212465e+000	3.734171e+001	-2.049490e+001	2.287027e+001	-4.210834e+000	-7.465842e+001
1800246000	-7.174670e+000	-1.278853e+002	5.144886e+000	3.667439e+001	-2.051590e+001	2.232843e+001	-4.183232e+000	-7.521103e+001
1810245700	-7.145976e+000	-1.281052e+002	5.085335e+000	3.600579e+001	-2.049936e+001	2.183104e+001	-4.147971e+000	-7.566850e+001
1820245400	-7.117330e+000	-1.283443e+002	5.022620e+000	3.527418e+001	-2.049718e+001	2.147791e+001	-4.103580e+000	-7.612082e+001
1830245100	-7.112053e+000	-1.285855e+002	4.947305e+000	3.458787e+001	-2.043249e+001	2.111900e+001	-4.056114e+000	-7.655221e+001
1840244800	-7.105328e+000	-1.288007e+002	4.879086e+000	3.394877e+001	-2.046021e+001	2.056281e+001	-4.022640e+000	-7.696034e+001
1850244500	-7.100105e+000	-1.290343e+002	4.814825e+000	3.324346e+001	-2.047268e+001	1.995024e+001	-3.994798e+000	-7.746313e+001
1860244200	-7.087841e+000	-1.292464e+002	4.748504e+000	3.252481e+001	-2.047091e+001	1.971973e+001	-3.961117e+000	-7.783913e+001
1870243900	-7.070914e+000	-1.294121e+002	4.677377e+000	3.191414e+001	-2.047984e+001	1.938091e+001	-3.936825e+000	-7.829914e+001
1880243600	-7.057462e+000	-1.296028e+002	4.614811e+000	3.126029e+001	-2.051203e+001	1.916809e+001	-3.916342e+000	-7.875294e+001
1890243300	-7.035979e+000	-1.298007e+002	4.544640e+000	3.061940e+001	-2.047479e+001	1.883582e+001	-3.886200e+000	-7.913233e+001
1900243000	-7.012538e+000	-1.300466e+002	4.485644e+000	2.994703e+001	-2.045756e+001	1.836067e+001	-3.867951e+000	-7.963272e+001
1910242700	-6.995543e+000	-1.302957e+002	4.424036e+000	2.932292e+001	-2.045798e+001	1.800151e+001	-3.845279e+000	-8.007737e+001
1920242400	-6.978493e+000	-1.305426e+002	4.363432e+000	2.866849e+001	-2.045483e+001	1.749991e+001	-3.820081e+000	-8.056144e+001
1930242100	-6.959966e+000	-1.308041e+002	4.301669e+000	2.800883e+001	-2.042645e+001	1.713197e+001	-3.810781e+000	-8.098475e+001
1940241800	-6.936144e+000	-1.310811e+002	4.241371e+000	2.736905e+001	-2.042008e+001	1.648297e+001	-3.787407e+000	-8.145635e+001
1950241500	-6.920751e+000	-1.312840e+002	4.169934e+000	2.678126e+001	-2.044920e+001	1.620909e+001	-3.758006e+000	-8.192715e+001
1960241200	-6.910467e+000	-1.315542e+002	4.102031e+000	2.609905e+001	-2.045274e+001	1.586124e+001	-3.731416e+000	-8.237382e+001
1970240900	-6.895466e+000	-1.318095e+002	4.032046e+000	2.547994e+001	-2.044916e+001	1.525758e+001	-3.709882e+000	-8.286328e+001
1980240600	-6.882852e+000	-1.319990e+002	3.987181e+000	2.486913e+001	-2.042252e+001	1.495792e+001	-3.672459e+000	-8.329486e+001
1990240300	-6.873814e+000	-1.322408e+002	3.924650e+000	2.421285e+001	-2.040244e+001	1.473660e+001	-3.607419e+000	-8.375384e+001
2000240000	-6.866151e+000	-1.324776e+002	3.859710e+000	2.361970e+001	-2.037906e+001	1.462481e+001	-3.583792e+000	-8.408517e+001
2010239700	-6.862181e+000	-1.327046e+002	3.794071e+000	2.296173e+001	-2.036257e+001	1.412166e+001	-3.561864e+000	-8.444826e+001
2020239400	-6.843436e+000	-1.328958e+002	3.736155e+000	2.232737e+001	-2.033492e+001	1.372672e+001	-3.553904e+000	-8.485705e+001
2030239100	-6.824401e+000	-1.330292e+002	3.674347e+000	2.175634e+001	-2.030752e+001	1.332153e+001	-3.534423e+000	-8.521463e+001
2040238800	-6.799766e+000	-1.332842e+002	3.611264e+000	2.118050e+001	-2.031456e+001	1.258637e+001	-3.528042e+000	-8.563454e+001
2050238500	-6.760276e+000	-1.336759e+002	3.559493e+000	2.052032e+001	-2.034387e+001	1.216442e+001	-3.519885e+000	-8.604905e+001
2060238200	-6.760550e+000	-1.340688e+002	3.494989e+000	1.990814e+001	-2.035595e+001	1.190334e+001	-3.513876e+000	-8.638375e+001
2070237900	-6.755549e+000	-1.344076e+002	3.436149e+000	1.929642e+001	-2.035467e+001	1.153783e+001	-3.502204e+000	-8.669247e+001
2080237600	-6.752296e+000	-1.347585e+002	3.369590e+000	1.871090e+001	-2.038325e+001	1.117217e+001	-3.489808e+000	-8.709327e+001
2090237300	-6.746146e+000	-1.350184e+002	3.306968e+000	1.811976e+001	-2.041534e+001	1.068910e+001	-3.475220e+000	-8.746447e+001
2100237000	-6.741507e+000	-1.352184e+002	3.242874e+000	1.754731e+001	-2.044115e+001	1.066173e+001	-3.457911e+000	-8.788244e+001
2110236700	-6.718326e+000	-1.355958e+002	3.194085e+000	1.694159e+001	-2.040890e+001	1.043355e+001	-3.442314e+000	-8.827171e+001
2120236400	-6.725637e+000	-1.358385e+002	3.122342e+000	1.638210e+001	-2.040545e+001	1.018361e+001	-3.428560e+000	-8.869735e+001
2130236100	-6.728618e+000	-1.360274e+002	3.061165e+000	1.581127e+001	-2.038733e+001	9.845263e+000	-3.420029e+000	-8.913311e+001
2140235800	-6.717442e+000	-1.361023e+002	2.997916e+000	1.519808e+001	-2.034974e+001	9.627212e+000	-3.393638e+000	-8.954050e+001
2150235500	-6.684880e+000	-1.361767e+002	2.942286e+000	1.465926e+001	-2.030551e+001	9.090929e+000	-3.375979e+000	-8.999819e+001
2160235200	-6.638416e+000	-1.363278e+002	2.881636e+000	1.417471e+001	-2.026488e+001	8.416311e+000	-3.330864e+000	-9.037729e+001
2170234900	-6.606601e+000	-1.366773e+002	2.833936e+000	1.354352e+001	-2.026723e+001	8.067314e+000	-3.293369e+000	-9.072784e+001
2180234600	-6.572106e+000	-1.370359e+002	2.784932e+000	1.302757e+001	-2.026820e+001	7.665868e+000	-3.266178e+000	-9.103198e+001
2190234300	-6.552637e+000	-1.373635e+002	2.719614e+000	1.247044e+001	-2.029668e+001	7.261439e+000	-3.258257e+000	-9.138711e+001
2200234000	-6.535104e+000	-1.378172e+002	2.674150e+000	1.184620e+001	-2.032592e+001	6.999443e+000	-3.251398e+000	-9.171799e+001
2210233700	-6.530917e+000	-1.382264e+002	2.609277e+000	1.128552e+001	-2.033472e+001	7.081030e+000	-3.241026e+000	-9.204222e+001
2220233400	-6.529518e+000	-1.385763e+002	2.552288e+000	1.073257e+001	-2.033002e+001	6.785475e+000	-3.223436e+000	-9.241895e+001
2230233100	-6.530142e+000	-1.389702e+002	2.502091e+000	1.015051e+001	-2.030162e+001	6.544146e+000	-3.228002e+000	-9.281846e+001
2240232800	-6.532668e+000	-1.391900e+002	2.449210e+000	9.648521e+000	-2.025967e+001	6.303419e+000	-3.215115e+000	-9.321630e+001
2250232500	-6.522298e+000	-1.394611e+002	2.393805e+000	9.028165e+000	-2.019232e+001	5.849142e+000	-3.214883e+000	-9.353097e+001
2260232200	-6.489982e+000	-1.396885e+002	2.336867e+000	8.488128e+000	-2.019834e+001	5.054148e+000	-3.222425e+000	-9.386007e+001
2270231900	-6.461051e+000	-1.400671e+002	2.284914e+000	7.914123e+000	-2.019402e+001	4.211208e+000	-3.210066e+000	-9.426499e+001
2280231600	-6.450022e+000	-1.404856e+002	2.227889e+000	7.331359e+000	-2.028074e+001	3.933715e+000	-3.200300e+000	-9.454620e+001
2290231300	-6.438083e+000	-1.409886e+002	2.171466e+000	6.786104e+000	-2.031084e+001	3.615824e+000	-3.190332e+000	-9.498060e+001
2300231000	-6.449868e+000	-1.413432e+002	2.113094e+000	6.139049e+000	-2.034091e+001	3.604063e+000	-3.180661e+000	-9.530999e+001
2310230700	-6.461504e+000	-1.417724e+002	2.056509e+000	5.649709e+000	-2.036252e+001	3.501444e+000	-3.164708e+000	-9.560211e+001
2320230400	-6.477266e+000	-1.419566e+002	1.990854e+000	5.132397e+000	-2.034532e+001	3.501209e+000	-3.131796e+000	-9.592350e+001
2330230100	-6.477045e+000	-1.420824e+002	1.933907e+000	4.659038e+000	-2.030629e+001	3.349621e+000	-3.114727e+000	-9.631821e+001
2340229800	-6.464248e+000	-1.423085e+002	1.881967e+000	4.175422e+000	-2.024804e+001	3.139409e+000	-3.091868e+000	-9.671288e+001
2350229500	-6.470955e+000	-1.426919e+002	1.823489e+000	3.569308e+000	-2.019572e+001	3.352032e+000	-3.069896e+000	-9.712496e+001
2360229200	-6.488751e+000	-1.429057e+002	1.783613e+000	3.087584e+000	-2.011119e+001	2.887466e+000	-3.068588e+000	-9.749724e+001
2370228900	-6.499901e+000	-1.429721e+002	1.721640e+000	2.554445e+000	-1.998050e+001	2.318741e+000	-3.068994e+000	-9.784391e+001
2380228600	-6.475739e+000	-1.430368e+002	1.667576e+000	1.992576e+000	-1.991983e+001	1.304428e+000	-3.074637e+000	-9.814118e+001
2390228300	-6.455374e+000	-1.432164e+002	1.612584e+000	1.465754e+000	-1.995105e+001	4.274310e-001	-3.066746e+000	-9.836659e+001
2400228000	-6.421816e+000	-1.433093e+002	1.565006e+000	9.807713e-001	-1.999856e+001	-1.591940e-001	-3.058770e+000	-9.875766e+001
2410227700	-6.359803e+000	-1.435643e+002	1.516499e+000	5.226993e-001	-2.004031e+001	-5.788975e-001	-3.053234e+000	-9.907385e+001
2420227400	-6.297973e+000	-1.438944e+002	1.466960e+000	4.489304e-002	-2.002046e+001	-1.133028e+000	-3.048122e+000	-9.941016e+001
2430227100	-6.250583e+000	-1.444219e+002	1.429317e+000	-5.062515e-001	-2.003797e+001	-1.729155e+000	-3.040723e+000	-9.971983e+001
2440226800	-6.221182e+000	-1.449119e+002	1.376818e+000	-1.090797e+000	-2.013044e+001	-1.969445e+000	-3.038127e+000	-1.000712e+002
2450226500	-6.201428e+000	-1.453684e+002	1.327235e+000	-1.585277e+000	-2.016853e+001	-2.416336e+000	-3.030709e+000	-1.004125e+002
2460226200	-6.187080e+000	-1.459115e+002	1.277340e+000	-2.123798e+000	-2.020247e+001	-2.738876e+000	-3.019797e+000	-1.007606e+002
2470225900	-6.175458e+000	-1.463955e+002	1.224310e+000	-2.721436e+000	-2.023545e+001	-2.965447e+000	-3.007589e+000	-1.010819e+002
2480225600	-6.176991e+000	-1.468543e+002	1.168699e+000	-3.256753e+000	-2.021912e+001	-2.802403e+000	-3.002733e+000	-1.014163e+002
2490225300	-6.176887e+000	-1.472162e+002	1.117485e+000	-3.778073e+000	-2.019631e+001	-3.205742e+000	-2.986098e+000	-1.017084e+002
2500225000	-6.171681e+000	-1.476669e+002	1.083327e+000	-4.267521e+000	-2.019080e+001	-3.648366e+000	-2.972544e+000	-1.020265e+002
2510224700	-6.182351e+000	-1.481376e+002	1.008937e+000	-4.920827e+000	-2.024617e+001	-3.947536e+000	-2.963197e+000	-1.023537e+002
2520224400	-6.186099e+000	-1.485966e+002	9.610558e-001	-5.412129e+000	-2.026145e+001	-4.040744e+000	-2.945374e+000	-1.026983e+002
2530224100	-6.207194e+000	-1.489170e+002	8.948405e-001	-5.829612e+000	-2.028885e+001	-3.937439e+000	-2.950375e+000	-1.030412e+002
2540223800	-6.245020e+000	-1.493105e+002	8.371033e-001	-6.373111e+000	-2.026288e+001	-3.877650e+000	-2.941629e+000	-1.033580e+002
2550223500	-6.273663e+000	-1.496036e+002	7.878356e-001	-6.918220e+000	-2.019732e+001	-3.693943e+000	-2.935308e+000	-1.036765e+002
2560223200	-6.271127e+000	-1.497777e+002	7.401802e-001	-7.219381e+000	-2.015231e+001	-3.802244e+000	-2.931179e+000	-1.040469e+002
2570222900	-6.263675e+000	-1.500128e+002	6.928248e-001	-7.692185e+000	-2.004269e+001	-3.929163e+000	-2.940871e+000	-1.043864e+002
2580222600	-6.262781e+000	-1.502532e+002	6.612305e-001	-8.186273e+000	-1.992000e+001	-4.466177e+000	-2.937561e+000	-1.047311e+002
2590222300	-6.238939e+000	-1.504031e+002	6.188165e-001	-8.681885e+000	-1.983422e+001	-5.466212e+000	-2.939521e+000	-1.050242e+002
2600222000	-6.210552e+000	-1.506814e+002	5.755778e-001	-9.192267e+000	-1.981003e+001	-6.281681e+000	-2.929988e+000	-1.052899e+002
2610221700	-6.186703e+000	-1.509183e+002	5.228734e-001	-9.785049e+000	-1.982042e+001	-7.419685e+000	-2.928070e+000	-1.056080e+002
2620221400	-6.141059e+000	-1.513961e+002	4.902244e-001	-1.031830e+001	-1.986265e+001	-8.406794e+000	-2.926910e+000	-1.059083e+002
2630221100	-6.123110e+000	-1.517823e+002	4.357700e-001	-1.091244e+001	-1.993042e+001	-9.103367e+000	-2.918904e+000	-1.061894e+002
2640220800	-6.120718e+000	-1.521054e+002	3.743233e-001	-1.141964e+001	-1.998849e+001	-9.488340e+000	-2.902633e+000	-1.065139e+002
2650220500	-6.119863e+000	-1.524300e+002	3.192631e-001	-1.196361e+001	-2.005776e+001	-9.655384e+000	-2.887028e+000	-1.068209e+002
2660220200	-6.102711e+000	-1.526157e+002	2.711331e-001	-1.236315e+001	-2.011528e+001	-9.957760e+000	-2.884105e+000	-1.071156e+002
2670219900	-6.064792e+000	-1.529979e+002	2.395390e-001	-1.279967e+001	-2.010195e+001	-1.036399e+001	-2.870533e+000	-1.074766e+002
2680219600	-6.042564e+000	-1.534950e+002	1.959800e-001	-1.335375e+001	-2.011307e+001	-1.057004e+001	-2.863101e+000	-1.077700e+002
2690219300	-6.028419e+000	-1.539630e+002	1.495531e-001	-1.385998e+001	-2.013512e+001	-1.085077e+001	-2.861302e+000	-1.080959e+002
2700219000	-6.021291e+000	-1.545114e+002	1.013363e-001	-1.443969e+001	-2.016815e+001	-1.102931e+001	-2.855802e+000	-1.084073e+002
2710218700	-6.018073e+000	-1.549909e+002	4.790482e-002	-1.495712e+001	-2.018966e+001	-1.128645e+001	-2.857544e+000	-1.086661e+002
2720218400	-6.009338e+000	-1.555466e+002	5.642323e-003	-1.543585e+001	-2.022311e+001	-1.135840e+001	-2.856651e+000	-1.090077e+002
2730218100	-6.021896e+000	-1.560952e+002	-6.545752e-002	-1.595743e+001	-2.024687e+001	-1.154375e+001	-2.851843e+000	-1.093756e+002
2740217800	-6.024268e+000	-1.565616e+002	-1.008831e-001	-1.642728e+001	-2.026223e+001	-1.163123e+001	-2.852902e+000	-1.096746e+002
2750217500	-6.030352e+000	-1.570897e+002	-1.567361e-001	-1.697354e+001	-2.026853e+001	-1.170422e+001	-2.845829e+000	-1.100345e+002
2760217200	-6.036507e+000	-1.574823e+002	-2.091668e-001	-1.739080e+001	-2.027193e+001	-1.166785e+001	-2.845742e+000	-1.103819e+002
2770216900	-6.036765e+000	-1.579484e+002	-2.483399e-001	-1.781842e+001	-2.023393e+001	-1.140605e+001	-2.840406e+000	-1.107389e+002
2780216600	-6.060807e+000	-1.583226e+002	-2.988852e-001	-1.836029e+001	-2.016610e+001	-1.156161e+001	-2.838767e+000	-1.111143e+002
2790216300	-6.053106e+000	-1.585086e+002	-3.473333e-001	-1.866281e+001	-2.008996e+001	-1.190319e+001	-2.838384e+000	-1.115162e+002
2800216000	-6.051194e+000	-1.588919e+002	-3.827463e-001	-1.919141e+001	-2.000785e+001	-1.203690e+001	-2.853785e+000	-1.117794e+002
2810215700	-6.040739e+000	-1.591845e+002	-4.079286e-001	-1.958795e+001	-1.989713e+001	-1.268270e+001	-2.857091e+000	-1.120092e+002
2820215400	-6.033729e+000	-1.594060e+002	-4.421916e-001	-2.016136e+001	-1.984088e+001	-1.388820e+001	-2.849743e+000	-1.121817e+002
2830215100	-6.003480e+000	-1.597908e+002	-4.803306e-001	-2.065381e+001	-1.985527e+001	-1.493617e+001	-2.835938e+000	-1.124700e+002
2840214800	-5.973681e+000	-1.602560e+002	-5.223526e-001	-2.125976e+001	-1.990862e+001	-1.563454e+001	-2.826839e+000	-1.126967e+002
2850214500	-5.972115e+000	-1.607462e+002	-5.586778e-001	-2.180245e+001	-1.994629e+001	-1.636156e+001	-2.826179e+000	-1.129627e+002
2860214200	-5.976016e+000	-1.611992e+002	-6.230269e-001	-2.236989e+001	-1.999229e+001	-1.671005e+001	-2.809339e+000	-1.133001e+002
2870213900	-5.980906e+000	-1.616763e+002	-6.727670e-001	-2.292193e+001	-2.007077e+001	-1.698310e+001	-2.798170e+000	-1.135925e+002
2880213600	-5.965702e+000	-1.621208e+002	-7.129619e-001	-2.341726e+001	-2.009803e+001	-1.729533e+001	-2.791027e+000	-1.139253e+002
2890213300	-5.972569e+000	-1.626623e+002	-7.776145e-001	-2.389336e+001	-2.011109e+001	-1.773809e+001	-2.781305e+000	-1.143078e+002
2900213000	-5.986629e+000	-1.631925e+002	-8.298139e-001	-2.437175e+001	-2.013215e+001	-1.792487e+001	-2.779809e+000	-1.146469e+002
2910212700	-6.009092e+000	-1.635965e+002	-8.870067e-001	-2.485295e+001	-2.016606e+001	-1.809523e+001	-2.781670e+000	-1.150031e+002
2920212400	-5.999952e+000	-1.638574e+002	-9.297057e-001	-2.531022e+001	-2.015647e+001	-1.843690e+001	-2.785199e+000	-1.154294e+002
2930212100	-5.978121e+000	-1.643122e+002	-9.639880e-001	-2.585510e+001	-2.017020e+001	-1.895696e+001	-2.788400e+000	-1.157606e+002
2940211800	-5.970708e+000	-1.647684e+002	-1.023277e+000	-2.634689e+001	-2.019332e+001	-1.915667e+001	-2.777910e+000	-1.161096e+002
2950211500	-5.964232e+000	-1.651881e+002	-1.078807e+000	-2.677577e+001	-2.023856e+001	-1.932940e+001	-2.788897e+000	-1.163405e+002
2960211200	-5.952099e+000	-1.654864e+002	-1.121557e+000	-2.713433e+001	-2.025873e+001	-1.930594e+001	-2.781933e+000	-1.167170e+002
2970210900	-5.937779e+000	-1.657910e+002	-1.167570e+000	-2.764349e+001	-2.024319e+001	-1.945832e+001	-2.776980e+000	-1.170569e+002
2980210600	-5.912821e+000	-1.663080e+002	-1.194302e+000	-2.806471e+001	-2.022806e+001	-1.965768e+001	-2.767981e+000	-1.173793e+002
2990210300	-5.897549e+000	-1.666382e+002	-1.236930e+000	-2.854717e+001	-2.022783e+001	-1.990603e+001	-2.772128e+000	-1.176462e+002
3000210000	-5.879816e+000	-1.672215e+002	-1.280025e+000	-2.905811e+001	-2.020656e+001	-2.024339e+001	-2.769403e+000	-1.179753e+002
3010209700	-5.871913e+000	-1.676608e+002	-1.323355e+000	-2.957252e+001	-2.021203e+001	-2.056551e+001	-2.779883e+000	-1.182422e+002
3020209400	-5.860145e+000	-1.682343e+002	-1.358027e+000	-3.005134e+001	-2.019573e+001	-2.092146e+001	-2.780936e+000	-1.185911e+002
3030209100	-5.868601e+000	-1.688117e+002	-1.411539e+000	-3.056467e+001	-2.018323e+001	-2.114413e+001	-2.784534e+000	-1.188432e+002
3040208800	-5.865573e+000	-1.692905e+002	-1.451349e+000	-3.096266e+001	-2.012046e+001	-2.137993e+001	-2.794000e+000	-1.190833e+002
3050208500	-5.871271e+000	-1.697435e+002	-1.493060e+000	-3.143832e+001	-2.007495e+001	-2.221697e+001	-2.787170e+000	-1.192255e+002
3060208200	-5.865016e+000	-1.703649e+002	-1.533232e+000	-3.205066e+001	-2.010775e+001	-2.295658e+001	-2.773529e+000	-1.195365e+002
3070207900	-5.860830e+000	-1.709537e+002	-1.582239e+000	-3.261925e+001	-2.015594e+001	-2.357439e+001	-2.760991e+000	-1.198507e+002
3080207600	-5.856173e+000	-1.715340e+002	-1.628479e+000	-3.310633e+001	-2.019698e+001	-2.390984e+001	-2.751129e+000	-1.202559e+002
3090207300	-5.865289e+000	-1.721326e+002	-1.663823e+000	-3.365743e+001	-2.022603e+001	-2.419883e+001	-2.748919e+000	-1.205785e+002
3100207000	-5.865679e+000	-1.726201e+002	-1.733505e+000	-3.413320e+001	-2.028268e+001	-2.452026e+001	-2.751008e+000	-1.209558e+002
3110206700	-5.871581e+000	-1.731387e+002	-1.777368e+000	-3.466858e+001	-2.027236e+001	-2.463706e+001	-2.741828e+000	-1.213032e+002
3120206400	-5.887206e+000	-1.736658e+002	-1.835033e+000	-3.514019e+001	-2.028937e+001	-2.484249e+001	-2.744927e+000	-1.216816e+002
3130206100	-5.901720e+000	-1.741021e+002	-1.886056e+000	-3.559469e+001	-2.033936e+001	-2.509700e+001	-2.737705e+000	-1.220185e+002
3140205800	-5.920805e+000	-1.745254e+002	-1.931134e+000	-3.605098e+001	-2.035354e+001	-2.530715e+001	-2.739762e+000	-1.223586e+002
3150205500	-5.956447e+000	-1.748223e+002	-1.982433e+000	-3.655353e+001	-2.031867e+001	-2.547784e+001	-2.738107e+000	-1.227514e+002
3160205200	-5.976506e+000	-1.749429e+002	-2.032314e+000	-3.696840e+001	-2.031386e+001	-2.586299e+001	-2.739624e+000	-1.230303e+002
3170204900	-5.956101e+000	-1.749956e+002	-2.077603e+000	-3.732573e+001	-2.030903e+001	-2.630038e+001	-2.736193e+000	-1.233680e+002
3180204600	-5.914792e+000	-1.752516e+002	-2.110683e+000	-3.778140e+001	-2.032399e+001	-2.699222e+001	-2.742690e+000	-1.236711e+002
3190204300	-5.864628e+000	-1.757318e+002	-2.152668e+000	-3.828172e+001	-2.034379e+001	-2.726705e+001	-2.743505e+000	-1.239033e+002
3200204000	-5.836380e+000	-1.762814e+002	-2.193040e+000	-3.874646e+001	-2.037412e+001	-2.768548e+001	-2.738367e+000	-1.242453e+002
3210203700	-5.815027e+000	-1.769718e+002	-2.222705e+000	-3.929324e+001	-2.035631e+001	-2.791803e+001	-2.729881e+000	-1.245871e+002
3220203400	-5.790052e+000	-1.775926e+002	-2.266266e+000	-3.978186e+001	-2.039890e+001	-2.800603e+001	-2.730906e+000	-1.249309e+002
3230203100	-5.777701e+000	-1.782346e+002	-2.313806e+000	-4.033424e+001	-2.039594e+001	-2.830399e+001	-2.733106e+000	-1.252851e+002
3240202800	-5.770387e+000	-1.789587e+002	-2.364649e+000	-4.078415e+001	-2.043795e+001	-2.875424e+001	-2.745597e+000	-1.256511e+002
3250202500	-5.776474e+000	-1.795730e+002	-2.414535e+000	-4.132162e+001	-2.044749e+001	-2.893621e+001	-2.748096e+000	-1.259412e+002
3260202200	-5.754833e+000	1.798136e+002	-2.467273e+000	-4.174449e+001	-2.050280e+001	-2.903205e+001	-2.761563e+000	-1.262401e+002
3270201900	-5.746955e+000	1.791683e+002	-2.503620e+000	-4.217479e+001	-2.047560e+001	-2.926154e+001	-2.760016e+000	-1.265289e+002
3280201600	-5.758342e+000	1.785346e+002	-2.551830e+000	-4.278956e+001	-2.049139e+001	-2.940741e+001	-2.756298e+000	-1.268141e+002
3290201300	-5.758438e+000	1.780050e+002	-2.592487e+000	-4.326121e+001	-2.049764e+001	-2.991099e+001	-2.737411e+000	-1.271039e+002
3300201000	-5.778510e+000	1.774478e+002	-2.652216e+000	-4.376636e+001	-2.051164e+001	-3.024275e+001	-2.726460e+000	-1.274765e+002
3310200700	-5.783051e+000	1.768832e+002	-2.691566e+000	-4.426399e+001	-2.052663e+001	-3.042448e+001	-2.714183e+000	-1.278823e+002
3320200400	-5.803149e+000	1.764385e+002	-2.749864e+000	-4.469798e+001	-2.054323e+001	-3.064962e+001	-2.710150e+000	-1.282252e+002
3330200100	-5.835927e+000	1.760061e+002	-2.798493e+000	-4.515003e+001	-2.051305e+001	-3.078889e+001	-2.710475e+000	-1.285437e+002
3340199800	-5.841564e+000	1.757052e+002	-2.831205e+000	-4.555185e+001	-2.047546e+001	-3.094730e+001	-2.715350e+000	-1.288528e+002
3350199500	-5.847509e+000	1.754189e+002	-2.874163e+000	-4.599425e+001	-2.042803e+001	-3.158447e+001	-2.714129e+000	-1.292087e+002
3360199200	-5.832562e+000	1.750288e+002	-2.919903e+000	-4.646944e+001	-2.043389e+001	-3.232258e+001	-2.711235e+000	-1.295096e+002
3370198900	-5.807651e+000	1.745601e+002	-2.962958e+000	-4.698142e+001	-2.043380e+001	-3.269079e+001	-2.701229e+000	-1.298119e+002
3380198600	-5.797624e+000	1.739720e+002	-3.011830e+000	-4.743244e+001	-2.049150e+001	-3.309826e+001	-2.696450e+000	-1.301267e+002
3390198300	-5.796706e+000	1.733403e+002	-3.056992e+000	-4.802973e+001	-2.049617e+001	-3.327499e+001	-2.699991e+000	-1.304815e+002
3400198000	-5.809275e+000	1.727918e+002	-3.109053e+000	-4.847337e+001	-2.054026e+001	-3.368961e+001	-2.698153e+000	-1.308657e+002
3410197700	-5.821589e+000	1.723882e+002	-3.159949e+000	-4.898988e+001	-2.055712e+001	-3.406682e+001	-2.706552e+000	-1.312518e+002
3420197400	-5.797064e+000	1.719857e+002	-3.194824e+000	-4.941871e+001	-2.059031e+001	-3.426643e+001	-2.715426e+000	-1.315815e+002
3430197100	-5.772928e+000	1.715487e+002	-3.250521e+000	-4.993897e+001	-2.062303e+001	-3.468430e+001	-2.714444e+000	-1.319414e+002
3440196800	-5.735010e+000	1.709269e+002	-3.292504e+000	-5.045963e+001	-2.065997e+001	-3.517589e+001	-2.724364e+000	-1.323496e+002
3450196500	-5.700352e+000	1.703180e+002	-3.340962e+000	-5.102545e+001	-2.069787e+001	-3.552072e+001	-2.717816e+000	-1.327660e+002
3460196200	-5.678243e+000	1.696319e+002	-3.400467e+000	-5.145446e+001	-2.074030e+001	-3.585716e+001	-2.721466e+000	-1.331017e+002
3470195900	-5.678358e+000	1.689939e+002	-3.449658e+000	-5.199361e+001	-2.078406e+001	-3.597709e+001	-2.723549e+000	-1.334986e+002
3480195600	-5.670662e+000	1.683258e+002	-3.506406e+000	-5.243562e+001	-2.083867e+001	-3.631848e+001	-2.733183e+000	-1.338347e+002
3490195300	-5.678610e+000	1.676958e+002	-3.577613e+000	-5.290676e+001	-2.089074e+001	-3.637978e+001	-2.734056e+000	-1.340982e+002
3500195000	-5.699193e+000	1.670854e+002	-3.623151e+000	-5.330841e+001	-2.094054e+001	-3.626889e+001	-2.732615e+000	-1.344283e+002
3510194700	-5.729788e+000	1.664949e+002	-3.670728e+000	-5.368302e+001	-2.089344e+001	-3.612969e+001	-2.718400e+000	-1.347080e+002
3520194400	-5.751305e+000	1.660170e+002	-3.731150e+000	-5.403873e+001	-2.079955e+001	-3.600070e+001	-2.700612e+000	-1.350979e+002
3530194100	-5.788519e+000	1.655997e+002	-3.772365e+000	-5.444115e+001	-2.072722e+001	-3.617703e+001	-2.685681e+000	-1.354430e+002
3540193800	-5.813065e+000	1.653168e+002	-3.808839e+000	-5.492296e+001	-2.067242e+001	-3.651521e+001	-2.685643e+000	-1.357452e+002
3550193500	-5.811895e+000	1.649545e+002	-3.842065e+000	-5.530952e+001	-2.062657e+001	-3.709476e+001	-2.679502e+000	-1.359799e+002
3560193200	-5.805178e+000	1.646388e+002	-3.890224e+000	-5.584167e+001	-2.061956e+001	-3.771284e+001	-2.692112e+000	-1.363251e+002
3570192900	-5.772661e+000	1.643204e+002	-3.915598e+000	-5.631866e+001	-2.062218e+001	-3.852067e+001	-2.696977e+000	-1.366079e+002
3580192600	-5.725573e+000	1.638343e+002	-3.953597e+000	-5.686972e+001	-2.070681e+001	-3.923301e+001	-2.697773e+000	-1.369806e+002
3590192300	-5.678858e+000	1.631678e+002	-4.003959e+000	-5.744274e+001	-2.075245e+001	-3.981097e+001	-2.699110e+000	-1.373275e+002
3600192000	-5.633435e+000	1.624784e+002	-4.054360e+000	-5.796589e+001	-2.084047e+001	-4.024889e+001	-2.691056e+000	-1.377546e+002
3610191700	-5.627614e+000	1.618209e+002	-4.118217e+000	-5.855834e+001	-2.092453e+001	-4.067710e+001	-2.700094e+000	-1.381281e+002
3620191400	-5.616962e+000	1.611541e+002	-4.177380e+000	-5.906514e+001	-2.098015e+001	-4.097118e+001	-2.697641e+000	-1.385737e+002
3630191100	-5.614180e+000	1.605243e+002	-4.229357e+000	-5.955350e+001	-2.101465e+001	-4.102077e+001	-2.700031e+000	-1.389975e+002
3640190800	-5.614671e+000	1.599724e+002	-4.284060e+000	-5.997583e+001	-2.105122e+001	-4.133787e+001	-2.698542e+000	-1.393535e+002
3650190500	-5.615043e+000	1.593711e+002	-4.357647e+000	-6.039936e+001	-2.107454e+001	-4.152278e+001	-2.692800e+000	-1.397810e+002
3660190200	-5.630339e+000	1.588954e+002	-4.414056e+000	-6.087732e+001	-2.111797e+001	-4.165720e+001	-2.696584e+000	-1.401251e+002
3670189900	-5.625054e+000	1.584112e+002	-4.463804e+000	-6.132904e+001	-2.112194e+001	-4.198520e+001	-2.692730e+000	-1.404844e+002
3680189600	-5.616091e+000	1.578461e+002	-4.517782e+000	-6.180738e+001	-2.111534e+001	-4.219194e+001	-2.689440e+000	-1.408603e+002
3690189300	-5.614585e+000	1.572560e+002	-4.581628e+000	-6.222737e+001	-2.118269e+001	-4.242840e+001	-2.686274e+000	-1.412034e+002
3700189000	-5.617239e+000	1.566611e+002	-4.648802e+000	-6.265371e+001	-2.118862e+001	-4.201708e+001	-2.665251e+000	-1.414827e+002
3710188700	-5.633001e+000	1.559253e+002	-4.717836e+000	-6.303268e+001	-2.128280e+001	-4.154672e+001	-2.664306e+000	-1.417697e+002
3720188400	-5.648534e+000	1.552699e+002	-4.778351e+000	-6.333603e+001	-2.127110e+001	-4.114109e+001	-2.656933e+000	-1.420761e+002
3730188100	-5.675769e+000	1.546730e+002	-4.817963e+000	-6.369744e+001	-2.122484e+001	-4.078683e+001	-2.673927e+000	-1.424628e+002
3740187800	-5.707052e+000	1.542052e+002	-4.865053e+000	-6.399138e+001	-2.110491e+001	-4.079261e+001	-2.685872e+000	-1.428389e+002
3750187500	-5.718593e+000	1.539076e+002	-4.896075e+000	-6.419097e+001	-2.101313e+001	-4.116974e+001	-2.698470e+000	-1.431483e+002
3760187200	-5.729767e+000	1.536762e+002	-4.923174e+000	-6.469582e+001	-2.088313e+001	-4.209944e+001	-2.707700e+000	-1.435062e+002
3770186900	-5.697423e+000	1.533725e+002	-4.947229e+000	-6.524323e+001	-2.087597e+001	-4.303539e+001	-2.715353e+000	-1.437924e+002
3780186600	-5.683297e+000	1.530081e+002	-4.982378e+000	-6.579435e+001	-2.089359e+001	-4.421019e+001	-2.722427e+000	-1.441690e+002
3790186300	-5.669488e+000	1.527900e+002	-5.034999e+000	-6.633692e+001	-2.091124e+001	-4.497472e+001	-2.715756e+000	-1.444953e+002
3800186000	-5.612919e+000	1.525338e+002	-5.066023e+000	-6.689067e+001	-2.096973e+001	-4.621321e+001	-2.710756e+000	-1.448817e+002
3810185700	-5.555119e+000	1.521005e+002	-5.119596e+000	-6.755535e+001	-2.107684e+001	-4.721820e+001	-2.696586e+000	-1.452214e+002
3820185400	-5.505564e+000	1.515366e+002	-5.184076e+000	-6.806525e+001	-2.121337e+001	-4.775000e+001	-2.679562e+000	-1.455735e+002
3830185100	-5.463690e+000	1.509172e+002	-5.249333e+000	-6.857535e+001	-2.129855e+001	-4.788131e+001	-2.668220e+000	-1.459584e+002
3840184800	-5.431720e+000	1.501895e+002	-5.312782e+000	-6.909472e+001	-2.138777e+001	-4.802448e+001	-2.652069e+000	-1.463703e+002
3850184500	-5.418841e+000	1.495178e+002	-5.393852e+000	-6.960646e+001	-2.144812e+001	-4.798302e+001	-2.636889e+000	-1.467591e+002
3860184200	-5.407627e+000	1.487533e+002	-5.459422e+000	-7.009860e+001	-2.153309e+001	-4.795563e+001	-2.619589e+000	-1.471561e+002
3870183900	-5.412993e+000	1.479537e+002	-5.537318e+000	-7.060389e+001	-2.157154e+001	-4.782939e+001	-2.620038e+000	-1.475387e+002
3880183600	-5.424610e+000	1.472101e+002	-5.605866e+000	-7.108053e+001	-2.163571e+001	-4.752231e+001	-2.615389e+000	-1.478572e+002
3890183300	-5.431347e+000	1.463881e+002	-5.686571e+000	-7.140395e+001	-2.173477e+001	-4.750949e+001	-2.634526e+000	-1.481816e+002
3900183000	-5.450959e+000	1.456835e+002	-5.768540e+000	-7.179806e+001	-2.181411e+001	-4.725390e+001	-2.645519e+000	-1.485334e+002
3910182700	-5.492498e+000	1.450207e+002	-5.852675e+000	-7.208549e+001	-2.184673e+001	-4.647721e+001	-2.645869e+000	-1.488748e+002
3920182400	-5.516370e+000	1.444755e+002	-5.914178e+000	-7.225259e+001	-2.187861e+001	-4.607647e+001	-2.656370e+000	-1.492907e+002
3930182100	-5.542056e+000	1.439768e+002	-5.986928e+000	-7.247383e+001	-2.179532e+001	-4.534028e+001	-2.657699e+000	-1.497192e+002
3940181800	-5.552969e+000	1.435297e+002	-6.038290e+000	-7.263436e+001	-2.172731e+001	-4.480595e+001	-2.665810e+000	-1.501387e+002
3950181500	-5.577692e+000	1.430308e+002	-6.078519e+000	-7.291973e+001	-2.161703e+001	-4.460227e+001	-2.679714e+000	-1.505403e+002
3960181200	-5.616637e+000	1.427213e+002	-6.117381e+000	-7.300881e+001	-2.143937e+001	-4.461711e+001	-2.690692e+000	-1.509387e+002
3970180900	-5.660930e+000	1.425807e+002	-6.133268e+000	-7.320133e+001	-2.122989e+001	-4.523326e+001	-2.706270e+000	-1.512651e+002
3980180600	-5.670573e+000	1.425910e+002	-6.126088e+000	-7.355582e+001	-2.106407e+001	-4.633754e+001	-2.703243e+000	-1.515397e+002
3990180300	-5.639713e+000	1.426748e+002	-6.132828e+000	-7.402585e+001	-2.093801e+001	-4.837092e+001	-2.698533e+000	-1.517819e+002
4000180000	-5.602994e+000	1.425054e+002	-6.154564e+000	-7.470759e+001	-2.092975e+001	-4.993638e+001	-2.693456e+000	-1.520514e+002
4010179700	-5.570171e+000	1.422598e+002	-6.193377e+000	-7.539652e+001	-2.098367e+001	-5.109794e+001	-2.672288e+000	-1.523479e+002
4020179400	-5.535821e+000	1.420278e+002	-6.234311e+000	-7.600971e+001	-2.105664e+001	-5.231218e+001	-2.648954e+000	-1.526626e+002
4030179100	-5.472933e+000	1.416763e+002	-6.285905e+000	-7.666988e+001	-2.115275e+001	-5.311143e+001	-2.636534e+000	-1.529520e+002
4040178800	-5.417164e+000	1.411072e+002	-6.348545e+000	-7.741328e+001	-2.132378e+001	-5.415524e+001	-2.622021e+000	-1.532566e+002
4050178500	-5.380375e+000	1.404321e+002	-6.438888e+000	-7.806949e+001	-2.155270e+001	-5.449895e+001	-2.609499e+000	-1.535495e+002
4060178200	-5.345447e+000	1.397699e+002	-6.528391e+000	-7.848520e+001	-2.176814e+001	-5.465869e+001	-2.603623e+000	-1.539047e+002
4070177900	-5.322235e+000	1.391672e+002	-6.606554e+000	-7.899421e+001	-2.190767e+001	-5.454538e+001	-2.603473e+000	-1.543243e+002
4080177600	-5.277833e+000	1.385238e+002	-6.694751e+000	-7.943819e+001	-2.204610e+001	-5.414611e+001	-2.606963e+000	-1.546981e+002
4090177300	-5.236197e+000	1.377688e+002	-6.770853e+000	-7.986187e+001	-2.215058e+001	-5.397100e+001	-2.614790e+000	-1.551056e+002
4100177000	-5.221407e+000	1.369347e+002	-6.857344e+000	-8.025359e+001	-2.224750e+001	-5.373584e+001	-2.617542e+000	-1.555495e+002
4110176700	-5.220651e+000	1.361441e+002	-6.952480e+000	-8.072577e+001	-2.235957e+001	-5.326558e+001	-2.606451e+000	-1.559984e+002
4120176400	-5.229924e+000	1.353987e+002	-7.054251e+000	-8.095274e+001	-2.245497e+001	-5.231114e+001	-2.606495e+000	-1.564174e+002
4130176100	-5.249402e+000	1.346650e+002	-7.152693e+000	-8.110844e+001	-2.248325e+001	-5.130483e+001	-2.604289e+000	-1.568563e+002
4140175800	-5.282007e+000	1.339715e+002	-7.238238e+000	-8.116617e+001	-2.244568e+001	-5.009743e+001	-2.605403e+000	-1.572840e+002
4150175500	-5.350549e+000	1.333611e+002	-7.318330e+000	-8.122286e+001	-2.231845e+001	-4.910753e+001	-2.609210e+000	-1.577608e+002
4160175200	-5.422463e+000	1.329865e+002	-7.387761e+000	-8.105255e+001	-2.209190e+001	-4.814593e+001	-2.614992e+000	-1.581313e+002
4170174900	-5.510112e+000	1.327668e+002	-7.407989e+000	-8.104170e+001	-2.178835e+001	-4.799862e+001	-2.626582e+000	-1.584894e+002
4180174600	-5.579037e+000	1.327837e+002	-7.393014e+000	-8.087159e+001	-2.145798e+001	-4.848408e+001	-2.644733e+000	-1.588067e+002
4190174300	-5.635670e+000	1.331308e+002	-7.365189e+000	-8.102382e+001	-2.113803e+001	-4.982235e+001	-2.653371e+000	-1.589795e+002
4200174000	-5.624101e+000	1.335385e+002	-7.313551e+000	-8.148637e+001	-2.095964e+001	-5.181543e+001	-2.650339e+000	-1.591130e+002
4210173700	-5.560012e+000	1.338215e+002	-7.290909e+000	-8.228069e+001	-2.095225e+001	-5.441175e+001	-2.640299e+000	-1.591920e+002
4220173400	-5.462457e+000	1.335999e+002	-7.308197e+000	-8.322708e+001	-2.108781e+001	-5.633712e+001	-2.625241e+000	-1.594813e+002
4230173100	-5.373302e+000	1.332521e+002	-7.371731e+000	-8.396872e+001	-2.129730e+001	-5.769405e+001	-2.621191e+000	-1.597096e+002
4240172800	-5.317185e+000	1.326848e+002	-7.438292e+000	-8.467580e+001	-2.143185e+001	-5.867484e+001	-2.605040e+000	-1.600962e+002
4250172500	-5.266761e+000	1.322922e+002	-7.501366e+000	-8.532166e+001	-2.157589e+001	-5.933415e+001	-2.607578e+000	-1.603969e+002
4260172200	-5.200620e+000	1.318105e+002	-7.557403e+000	-8.598791e+001	-2.173668e+001	-6.051844e+001	-2.608318e+000	-1.607581e+002
4270171900	-5.132108e+000	1.312346e+002	-7.633402e+000	-8.676331e+001	-2.189647e+001	-6.128213e+001	-2.601145e+000	-1.611335e+002
4280171600	-5.085163e+000	1.305105e+002	-7.727527e+000	-8.741185e+001	-2.212875e+001	-6.186360e+001	-2.586951e+000	-1.615469e+002
4290171300	-5.059214e+000	1.297934e+002	-7.841032e+000	-8.800547e+001	-2.235811e+001	-6.206978e+001	-2.573970e+000	-1.618999e+002
4300171000	-5.047793e+000	1.291452e+002	-7.956319e+000	-8.835584e+001	-2.263510e+001	-6.180084e+001	-2.555987e+000	-1.623230e+002
4310170700	-5.049164e+000	1.286918e+002	-8.080722e+000	-8.872618e+001	-2.276705e+001	-6.078422e+001	-2.530493e+000	-1.627656e+002
4320170400	-5.027247e+000	1.281822e+002	-8.196709e+000	-8.892193e+001	-2.291519e+001	-5.993388e+001	-2.524070e+000	-1.632393e+002
4330170100	-4.999801e+000	1.276049e+002	-8.300420e+000	-8.905381e+001	-2.295021e+001	-5.892318e+001	-2.508642e+000	-1.636779e+002
4340169800	-4.999612e+000	1.268594e+002	-8.398184e+000	-8.920996e+001	-2.300512e+001	-5.762729e+001	-2.492742e+000	-1.641497e+002
4350169500	-5.025870e+000	1.260766e+002	-8.498797e+000	-8.938661e+001	-2.295257e+001	-5.628272e+001	-2.498004e+000	-1.645054e+002
4360169200	-5.084468e+000	1.253159e+002	-8.610426e+000	-8.929109e+001	-2.289709e+001	-5.453733e+001	-2.504232e+000	-1.648466e+002
4370168900	-5.155863e+000	1.246752e+002	-8.687461e+000	-8.894188e+001	-2.274093e+001	-5.270060e+001	-2.525246e+000	-1.651878e+002
4380168600	-5.282715e+000	1.243827e+002	-8.724853e+000	-8.855350e+001	-2.238766e+001	-5.154759e+001	-2.554639e+000	-1.655294e+002
4390168300	-5.384938e+000	1.243636e+002	-8.694945e+000	-8.811058e+001	-2.193201e+001	-5.200237e+001	-2.583729e+000	-1.657695e+002
4400168000	-5.442719e+000	1.248032e+002	-8.612440e+000	-8.811676e+001	-2.155262e+001	-5.367354e+001	-2.614139e+000	-1.659116e+002
4410167700	-5.432112e+000	1.253238e+002	-8.520672e+000	-8.858148e+001	-2.134814e+001	-5.645110e+001	-2.625988e+000	-1.659854e+002
4420167400	-5.351523e+000	1.257057e+002	-8.477460e+000	-8.947014e+001	-2.135127e+001	-5.959894e+001	-2.616594e+000	-1.662162e+002
4430167100	-5.237883e+000	1.257486e+002	-8.488144e+000	-9.058408e+001	-2.146767e+001	-6.191780e+001	-2.595672e+000	-1.664596e+002
4440166800	-5.144525e+000	1.254444e+002	-8.550453e+000	-9.148979e+001	-2.167275e+001	-6.368678e+001	-2.569026e+000	-1.667784e+002
4450166500	-5.068555e+000	1.250475e+002	-8.638383e+000	-9.225381e+001	-2.189374e+001	-6.471108e+001	-2.556818e+000	-1.672196e+002
4460166200	-5.012967e+000	1.245704e+002	-8.733850e+000	-9.295322e+001	-2.206947e+001	-6.523844e+001	-2.537748e+000	-1.676071e+002
4470165900	-4.963164e+000	1.241470e+002	-8.807325e+000	-9.333549e+001	-2.218197e+001	-6.546814e+001	-2.524453e+000	-1.679308e+002
4480165600	-4.939983e+000	1.237926e+002	-8.872197e+000	-9.386418e+001	-2.221960e+001	-6.619177e+001	-2.511876e+000	-1.683110e+002
4490165300	-4.892290e+000	1.234626e+002	-8.935010e+000	-9.447442e+001	-2.231976e+001	-6.704652e+001	-2.485963e+000	-1.685985e+002
4500165000	-4.838509e+000	1.230161e+002	-9.020600e+000	-9.518555e+001	-2.249784e+001	-6.771490e+001	-2.460447e+000	-1.689131e+002
4510164700	-4.800348e+000	1.223975e+002	-9.131534e+000	-9.576914e+001	-2.271814e+001	-6.783872e+001	-2.438658e+000	-1.692019e+002
4520164400	-4.789038e+000	1.217018e+002	-9.261834e+000	-9.631478e+001	-2.294504e+001	-6.817624e+001	-2.430584e+000	-1.695219e+002
4530164100	-4.791355e+000	1.210525e+002	-9.383371e+000	-9.680791e+001	-2.324056e+001	-6.796391e+001	-2.423240e+000	-1.698685e+002
4540163800	-4.811568e+000	1.204592e+002	-9.542219e+000	-9.704312e+001	-2.349894e+001	-6.686393e+001	-2.416473e+000	-1.702253e+002
4550163500	-4.829870e+000	1.200140e+002	-9.697117e+000	-9.704330e+001	-2.378024e+001	-6.512849e+001	-2.418922e+000	-1.706447e+002
4560163200	-4.848126e+000	1.196012e+002	-9.812894e+000	-9.690447e+001	-2.380745e+001	-6.277770e+001	-2.430928e+000	-1.710883e+002
4570162900	-4.854791e+000	1.190828e+002	-9.913443e+000	-9.659248e+001	-2.370548e+001	-6.054987e+001	-2.441404e+000	-1.714974e+002
4580162600	-4.891620e+000	1.185491e+002	-9.982354e+000	-9.615685e+001	-2.346438e+001	-5.892376e+001	-2.469319e+000	-1.719794e+002
4590162300	-4.961230e+000	1.181228e+002	-1.000959e+001	-9.563000e+001	-2.308189e+001	-5.801839e+001	-2.493941e+000	-1.723026e+002
4600162000	-5.023530e+000	1.181272e+002	-9.968701e+000	-9.524341e+001	-2.267125e+001	-5.851590e+001	-2.522981e+000	-1.725832e+002
4610161700	-5.057090e+000	1.183713e+002	-9.891587e+000	-9.540728e+001	-2.235359e+001	-6.009117e+001	-2.543241e+000	-1.727934e+002
4620161400	-5.045642e+000	1.186723e+002	-9.831751e+000	-9.583952e+001	-2.214049e+001	-6.228105e+001	-2.549695e+000	-1.728928e+002
4630161100	-4.997110e+000	1.188486e+002	-9.790173e+000	-9.644371e+001	-2.204965e+001	-6.475076e+001	-2.521151e+000	-1.729619e+002
4640160800	-4.939059e+000	1.189758e+002	-9.790696e+000	-9.742828e+001	-2.210023e+001	-6.720827e+001	-2.481234e+000	-1.730854e+002
4650160500	-4.869932e+000	1.189399e+002	-9.852019e+000	-9.842799e+001	-2.225742e+001	-6.905641e+001	-2.445256e+000	-1.733397e+002
4660160200	-4.800084e+000	1.186739e+002	-9.929764e+000	-9.925877e+001	-2.253042e+001	-6.990475e+001	-2.409931e+000	-1.736566e+002
4670159900	-4.742751e+000	1.182858e+002	-1.002764e+001	-9.984372e+001	-2.274540e+001	-7.039678e+001	-2.387770e+000	-1.739937e+002
4680159600	-4.717125e+000	1.179084e+002	-1.012968e+001	-1.003430e+002	-2.289801e+001	-7.045007e+001	-2.371207e+000	-1.743529e+002
4690159300	-4.693143e+000	1.174659e+002	-1.023128e+001	-1.007196e+002	-2.307117e+001	-7.034563e+001	-2.374537e+000	-1.747034e+002
4700159000	-4.674537e+000	1.170939e+002	-1.029661e+001	-1.010267e+002	-2.310064e+001	-7.060121e+001	-2.381577e+000	-1.749958e+002
4710158700	-4.662250e+000	1.168391e+002	-1.034952e+001	-1.013767e+002	-2.313272e+001	-7.097135e+001	-2.378841e+000	-1.753138e+002
4720158400	-4.634340e+000	1.165548e+002	-1.039436e+001	-1.019476e+002	-2.322896e+001	-7.213920e+001	-2.376812e+000	-1.755425e+002
4730158100	-4.593520e+000	1.161280e+002	-1.048416e+001	-1.025515e+002	-2.342796e+001	-7.308244e+001	-2.367361e+000	-1.758646e+002
4740157800	-4.560991e+000	1.156511e+002	-1.059676e+001	-1.032053e+002	-2.364624e+001	-7.356211e+001	-2.359144e+000	-1.762403e+002
4750157500	-4.537345e+000	1.151183e+002	-1.073178e+001	-1.036824e+002	-2.386272e+001	-7.359977e+001	-2.357475e+000	-1.766063e+002
4760157200	-4.521097e+000	1.145673e+002	-1.085666e+001	-1.041050e+002	-2.413575e+001	-7.318347e+001	-2.364115e+000	-1.769766e+002
4770156900	-4.535361e+000	1.140376e+002	-1.102410e+001	-1.043246e+002	-2.438129e+001	-7.264236e+001	-2.366144e+000	-1.773711e+002
4780156600	-4.554552e+000	1.135638e+002	-1.120103e+001	-1.041994e+002	-2.466694e+001	-7.058382e+001	-2.361278e+000	-1.776740e+002
4790156300	-4.576805e+000	1.132031e+002	-1.135272e+001	-1.037553e+002	-2.472070e+001	-6.742505e+001	-2.357898e+000	-1.780087e+002
4800156000	-4.618818e+000	1.129334e+002	-1.145506e+001	-1.028563e+002	-2.443577e+001	-6.420176e+001	-2.362601e+000	-1.782576e+002
4810155700	-4.679258e+000	1.128647e+002	-1.143527e+001	-1.020040e+002	-2.392819e+001	-6.269019e+001	-2.368635e+000	-1.784439e+002
4820155400	-4.713447e+000	1.130218e+002	-1.133126e+001	-1.017997e+002	-2.343075e+001	-6.389707e+001	-2.381086e+000	-1.785563e+002
4830155100	-4.704132e+000	1.133049e+002	-1.125421e+001	-1.023211e+002	-2.326221e+001	-6.641590e+001	-2.369812e+000	-1.786843e+002
4840154800	-4.665496e+000	1.133135e+002	-1.124300e+001	-1.030908e+002	-2.325136e+001	-6.855183e+001	-2.346574e+000	-1.788618e+002
4850154500	-4.635327e+000	1.131738e+002	-1.130314e+001	-1.037490e+002	-2.335557e+001	-6.986445e+001	-2.338732e+000	-1.791420e+002
4860154200	-4.625214e+000	1.130141e+002	-1.133955e+001	-1.040609e+002	-2.337160e+001	-7.060527e+001	-2.336309e+000	-1.793879e+002
4870153900	-4.610056e+000	1.129915e+002	-1.133687e+001	-1.045466e+002	-2.332458e+001	-7.222494e+001	-2.343715e+000	-1.795170e+002
4880153600	-4.576384e+000	1.129336e+002	-1.138182e+001	-1.054166e+002	-2.348157e+001	-7.408822e+001	-2.319271e+000	-1.796482e+002
4890153300	-4.520143e+000	1.126975e+002	-1.145304e+001	-1.061778e+002	-2.374980e+001	-7.540031e+001	-2.290888e+000	-1.798882e+002
4900153000	-4.474788e+000	1.123596e+002	-1.157004e+001	-1.067720e+002	-2.399970e+001	-7.539954e+001	-2.263455e+000	1.797052e+002
4910152700	-4.452729e+000	1.120076e+002	-1.169524e+001	-1.070470e+002	-2.418789e+001	-7.526209e+001	-2.257801e+000	1.793319e+002
4920152400	-4.432119e+000	1.116215e+002	-1.178920e+001	-1.073332e+002	-2.431061e+001	-7.514243e+001	-2.249385e+000	1.789298e+002
4930152100	-4.423902e+000	1.113192e+002	-1.188387e+001	-1.074411e+002	-2.433653e+001	-7.442706e+001	-2.250587e+000	1.785575e+002
4940151800	-4.418881e+000	1.111119e+002	-1.193576e+001	-1.077158e+002	-2.429136e+001	-7.486727e+001	-2.245133e+000	1.782784e+002
4950151500	-4.387777e+000	1.109872e+002	-1.197758e+001	-1.081038e+002	-2.434331e+001	-7.565552e+001	-2.238914e+000	1.780649e+002
4960151200	-4.355806e+000	1.107512e+002	-1.206948e+001	-1.087863e+002	-2.449224e+001	-7.615808e+001	-2.234233e+000	1.778409e+002
4970150900	-4.325650e+000	1.104317e+002	-1.218105e+001	-1.092185e+002	-2.470324e+001	-7.661112e+001	-2.232229e+000	1.775854e+002
4980150600	-4.308176e+000	1.101407e+002	-1.230843e+001	-1.096071e+002	-2.494158e+001	-7.642061e+001	-2.240235e+000	1.773552e+002
4990150300	-4.300446e+000	1.097031e+002	-1.246923e+001	-1.099317e+002	-2.524522e+001	-7.606315e+001	-2.245722e+000	1.771309e+002
5000150000	-4.303792e+000	1.093204e+002	-1.263791e+001	-1.099791e+002	-2.555314e+001	-7.463597e+001	-2.239469e+000	1.770351e+002
5010149700	-4.330136e+000	1.089703e+002	-1.280173e+001	-1.096562e+002	-2.570115e+001	-7.231084e+001	-2.228792e+000	1.768236e+002
5020149400	-4.372591e+000	1.085807e+002	-1.291204e+001	-1.090091e+002	-2.567837e+001	-6.957405e+001	-2.220924e+000	1.765793e+002
5030149100	-4.425665e+000	1.083828e+002	-1.296506e+001	-1.081969e+002	-2.533798e+001	-6.740184e+001	-2.226397e+000	1.762952e+002
5040148800	-4.490777e+000	1.084409e+002	-1.290688e+001	-1.075099e+002	-2.482869e+001	-6.712120e+001	-2.242264e+000	1.761112e+002
5050148500	-4.507109e+000	1.087887e+002	-1.279408e+001	-1.076937e+002	-2.451513e+001	-6.961736e+001	-2.232971e+000	1.759863e+002
5060148200	-4.468180e+000	1.089778e+002	-1.276246e+001	-1.085298e+002	-2.453171e+001	-7.211569e+001	-2.204721e+000	1.757942e+002
5070147900	-4.421149e+000	1.089075e+002	-1.282884e+001	-1.092799e+002	-2.469208e+001	-7.335344e+001	-2.183448e+000	1.754887e+002
5080147600	-4.382676e+000	1.086478e+002	-1.291230e+001	-1.098503e+002	-2.489855e+001	-7.393573e+001	-2.164760e+000	1.752388e+002
5090147300	-4.370881e+000	1.083746e+002	-1.300614e+001	-1.101465e+002	-2.496253e+001	-7.393592e+001	-2.154700e+000	1.748970e+002
5100147000	-4.371510e+000	1.082401e+002	-1.304923e+001	-1.103054e+002	-2.494422e+001	-7.424662e+001	-2.144841e+000	1.746095e+002
5110146700	-4.348315e+000	1.082814e+002	-1.310286e+001	-1.105833e+002	-2.498522e+001	-7.459841e+001	-2.144129e+000	1.743791e+002
5120146400	-4.310832e+000	1.082015e+002	-1.316047e+001	-1.109860e+002	-2.510683e+001	-7.547811e+001	-2.132260e+000	1.742415e+002
5130146100	-4.276491e+000	1.080541e+002	-1.324891e+001	-1.115974e+002	-2.525962e+001	-7.580239e+001	-2.124641e+000	1.740713e+002
5140145800	-4.253456e+000	1.078510e+002	-1.335267e+001	-1.120006e+002	-2.549613e+001	-7.590335e+001	-2.116681e+000	1.739328e+002
5150145500	-4.230774e+000	1.075821e+002	-1.348866e+001	-1.123255e+002	-2.572105e+001	-7.548655e+001	-2.094046e+000	1.736401e+002
5160145200	-4.224712e+000	1.073186e+002	-1.360306e+001	-1.123736e+002	-2.585405e+001	-7.442257e+001	-2.086708e+000	1.732792e+002
5170144900	-4.226057e+000	1.071574e+002	-1.369879e+001	-1.123744e+002	-2.595711e+001	-7.335122e+001	-2.088929e+000	1.729608e+002
5180144600	-4.227931e+000	1.070061e+002	-1.377409e+001	-1.123946e+002	-2.591444e+001	-7.350259e+001	-2.099835e+000	1.726288e+002
5190144300	-4.221071e+000	1.068589e+002	-1.383878e+001	-1.124665e+002	-2.596596e+001	-7.316368e+001	-2.127367e+000	1.723678e+002
5200144000	-4.204641e+000	1.067361e+002	-1.393787e+001	-1.124467e+002	-2.600412e+001	-7.336235e+001	-2.155972e+000	1.721691e+002
5210143700	-4.192645e+000	1.064668e+002	-1.398823e+001	-1.126054e+002	-2.605156e+001	-7.325432e+001	-2.181418e+000	1.722315e+002
5220143400	-4.187443e+000	1.061878e+002	-1.407553e+001	-1.129226e+002	-2.625611e+001	-7.372201e+001	-2.158910e+000	1.722626e+002
5230143100	-4.178673e+000	1.058620e+002	-1.418901e+001	-1.132306e+002	-2.650391e+001	-7.307359e+001	-2.118402e+000	1.721776e+002
5240142800	-4.194774e+000	1.055342e+002	-1.433716e+001	-1.131182e+002	-2.658296e+001	-7.105486e+001	-2.083589e+000	1.719364e+002
5250142500	-4.207199e+000	1.052141e+002	-1.447157e+001	-1.128131e+002	-2.659498e+001	-6.906108e+001	-2.060318e+000	1.715607e+002
5260142200	-4.245847e+000	1.049488e+002	-1.455922e+001	-1.121454e+002	-2.642621e+001	-6.672594e+001	-2.060317e+000	1.712749e+002
5270141900	-4.300457e+000	1.049023e+002	-1.455872e+001	-1.114204e+002	-2.604313e+001	-6.609113e+001	-2.058438e+000	1.710405e+002
5280141600	-4.338399e+000	1.051210e+002	-1.447990e+001	-1.110963e+002	-2.565050e+001	-6.697863e+001	-2.058303e+000	1.710158e+002
5290141300	-4.329177e+000	1.054515e+002	-1.441447e+001	-1.116429e+002	-2.556942e+001	-6.971815e+001	-2.046546e+000	1.709387e+002
5300141000	-4.288933e+000	1.055991e+002	-1.444504e+001	-1.125025e+002	-2.576869e+001	-7.116313e+001	-2.018860e+000	1.708495e+002
5310140700	-4.247800e+000	1.055295e+002	-1.454904e+001	-1.131022e+002	-2.602602e+001	-7.205483e+001	-2.008164e+000	1.706004e+002
5320140400	-4.227955e+000	1.053712e+002	-1.466023e+001	-1.134088e+002	-2.623124e+001	-7.144420e+001	-1.992589e+000	1.702844e+002
5330140100	-4.221492e+000	1.052668e+002	-1.478440e+001	-1.133461e+002	-2.634833e+001	-7.057141e+001	-2.002117e+000	1.699765e+002
5340139800	-4.219229e+000	1.051788e+002	-1.483080e+001	-1.133519e+002	-2.636449e+001	-7.042404e+001	-2.003331e+000	1.697193e+002
5350139500	-4.216981e+000	1.052304e+002	-1.490206e+001	-1.136466e+002	-2.643307e+001	-7.099878e+001	-1.999992e+000	1.695392e+002
5360139200	-4.198356e+000	1.051499e+002	-1.499902e+001	-1.138842e+002	-2.660677e+001	-7.091482e+001	-1.992883e+000	1.692630e+002
5370138900	-4.177965e+000	1.050198e+002	-1.510734e+001	-1.141044e+002	-2.683759e+001	-7.019000e+001	-2.005449e+000	1.690045e+002
5380138600	-4.171442e+000	1.048380e+002	-1.524419e+001	-1.140233e+002	-2.690399e+001	-6.928075e+001	-2.005536e+000	1.687153e+002
5390138300	-4.167488e+000	1.046287e+002	-1.534347e+001	-1.138724e+002	-2.708096e+001	-6.805452e+001	-2.019925e+000	1.685185e+002
5400138000	-4.165135e+000	1.044341e+002	-1.543493e+001	-1.137828e+002	-2.709724e+001	-6.697626e+001	-2.020262e+000	1.682797e+002
5410137700	-4.159884e+000	1.042404e+002	-1.556227e+001	-1.136399e+002	-2.708568e+001	-6.564324e+001	-2.009879e+000	1.680755e+002
5420137400	-4.170591e+000	1.040318e+002	-1.565721e+001	-1.132066e+002	-2.697333e+001	-6.402669e+001	-2.011657e+000	1.678786e+002
5430137100	-4.174964e+000	1.038939e+002	-1.572423e+001	-1.125391e+002	-2.678809e+001	-6.277712e+001	-2.033358e+000	1.676734e+002
5440136800	-4.187050e+000	1.037512e+002	-1.573796e+001	-1.119919e+002	-2.656217e+001	-6.182841e+001	-2.057996e+000	1.675752e+002
5450136500	-4.197828e+000	1.037185e+002	-1.569224e+001	-1.115917e+002	-2.622946e+001	-6.279197e+001	-2.090763e+000	1.677798e+002
5460136200	-4.197604e+000	1.037296e+002	-1.562490e+001	-1.122042e+002	-2.616380e+001	-6.461962e+001	-2.076016e+000	1.681206e+002
5470135900	-4.184568e+000	1.036144e+002	-1.569726e+001	-1.130944e+002	-2.647785e+001	-6.591010e+001	-2.021242e+000	1.682337e+002
5480135600	-4.185882e+000	1.033924e+002	-1.588063e+001	-1.134372e+002	-2.685842e+001	-6.515486e+001	-1.969939e+000	1.678864e+002
5490135300	-4.207988e+000	1.031509e+002	-1.607225e+001	-1.130210e+002	-2.702244e+001	-6.218370e+001	-1.958293e+000	1.675638e+002
5500135000	-4.252303e+000	1.030145e+002	-1.616959e+001	-1.122524e+002	-2.681058e+001	-6.016087e+001	-1.959149e+000	1.672064e+002
5510134700	-4.308241e+000	1.030440e+002	-1.619345e+001	-1.112607e+002	-2.645094e+001	-5.903112e+001	-1.970617e+000	1.669897e+002
5520134400	-4.352631e+000	1.032909e+002	-1.612704e+001	-1.108416e+002	-2.621117e+001	-6.005611e+001	-1.981609e+000	1.668458e+002
5530134100	-4.354137e+000	1.035941e+002	-1.604615e+001	-1.110760e+002	-2.607329e+001	-6.212112e+001	-1.988486e+000	1.667858e+002
5540133800	-4.329350e+000	1.037554e+002	-1.607193e+001	-1.118218e+002	-2.624270e+001	-6.361092e+001	-1.966131e+000	1.666493e+002
5550133500	-4.306237e+000	1.037959e+002	-1.619221e+001	-1.124100e+002	-2.651850e+001	-6.366370e+001	-1.944790e+000	1.664100e+002
5560133200	-4.289557e+000	1.036595e+002	-1.633861e+001	-1.124793e+002	-2.679674e+001	-6.244473e+001	-1.936006e+000	1.660793e+002
5570132900	-4.291421e+000	1.034973e+002	-1.644181e+001	-1.120585e+002	-2.680101e+001	-6.081517e+001	-1.941974e+000	1.657563e+002
5580132600	-4.303527e+000	1.034767e+002	-1.650536e+001	-1.117676e+002	-2.666563e+001	-5.976191e+001	-1.946643e+000	1.656087e+002
5590132300	-4.296716e+000	1.035165e+002	-1.658452e+001	-1.116355e+002	-2.666183e+001	-5.935980e+001	-1.928223e+000	1.653749e+002
5600132000	-4.279764e+000	1.034546e+002	-1.668151e+001	-1.116665e+002	-2.681586e+001	-5.840590e+001	-1.932940e+000	1.652230e+002
5610131700	-4.267478e+000	1.033310e+002	-1.685287e+001	-1.110855e+002	-2.678412e+001	-5.604072e+001	-1.943409e+000	1.649819e+002
5620131400	-4.276108e+000	1.031714e+002	-1.694295e+001	-1.101451e+002	-2.664334e+001	-5.313734e+001	-1.976912e+000	1.648805e+002
5630131100	-4.289673e+000	1.030275e+002	-1.703438e+001	-1.090368e+002	-2.633621e+001	-5.123423e+001	-2.003338e+000	1.647532e+002
5640130800	-4.323376e+000	1.029296e+002	-1.699246e+001	-1.078140e+002	-2.586686e+001	-5.070672e+001	-2.050154e+000	1.647216e+002
5650130500	-4.341233e+000	1.030268e+002	-1.687982e+001	-1.070624e+002	-2.548883e+001	-5.145738e+001	-2.077605e+000	1.647813e+002
5660130200	-4.364758e+000	1.031437e+002	-1.680208e+001	-1.068594e+002	-2.533475e+001	-5.277544e+001	-2.091192e+000	1.648778e+002
5670129900	-4.377183e+000	1.031259e+002	-1.677789e+001	-1.068084e+002	-2.522265e+001	-5.330971e+001	-2.082518e+000	1.647827e+002
5680129600	-4.407235e+000	1.031816e+002	-1.676567e+001	-1.061988e+002	-2.496082e+001	-5.354097e+001	-2.093904e+000	1.647184e+002
5690129300	-4.439085e+000	1.032434e+002	-1.664014e+001	-1.057912e+002	-2.469963e+001	-5.453285e+001	-2.120422e+000	1.647902e+002
5700129000	-4.459719e+000	1.035438e+002	-1.644716e+001	-1.060130e+002	-2.442220e+001	-5.749136e+001	-2.131801e+000	1.650779e+002
5710128700	-4.444535e+000	1.037485e+002	-1.636467e+001	-1.075863e+002	-2.461628e+001	-6.070721e+001	-2.078913e+000	1.653114e+002
5720128400	-4.410648e+000	1.037606e+002	-1.650384e+001	-1.092143e+002	-2.516964e+001	-6.253084e+001	-1.999024e+000	1.651911e+002
5730128100	-4.401314e+000	1.035063e+002	-1.679292e+001	-1.095544e+002	-2.565028e+001	-6.037743e+001	-1.943106e+000	1.648376e+002
5740127800	-4.434381e+000	1.031886e+002	-1.702575e+001	-1.084905e+002	-2.569479e+001	-5.664990e+001	-1.928247e+000	1.644316e+002
5750127500	-4.500968e+000	1.031660e+002	-1.708132e+001	-1.069956e+002	-2.535799e+001	-5.416490e+001	-1.933829e+000	1.641271e+002
5760127200	-4.552223e+000	1.034332e+002	-1.702234e+001	-1.058208e+002	-2.496904e+001	-5.364995e+001	-1.943865e+000	1.639985e+002
5770126900	-4.576108e+000	1.038202e+002	-1.692710e+001	-1.055673e+002	-2.476382e+001	-5.427760e+001	-1.961083e+000	1.640206e+002
5780126600	-4.563348e+000	1.040946e+002	-1.689255e+001	-1.056067e+002	-2.473200e+001	-5.466585e+001	-1.976475e+000	1.640068e+002
5790126300	-4.543749e+000	1.043053e+002	-1.690639e+001	-1.056591e+002	-2.473183e+001	-5.485184e+001	-1.977933e+000	1.639334e+002
5800126000	-4.535500e+000	1.043285e+002	-1.699875e+001	-1.054056e+002	-2.469199e+001	-5.388532e+001	-1.988073e+000	1.637601e+002
5810125700	-4.547208e+000	1.044192e+002	-1.699785e+001	-1.044530e+002	-2.451618e+001	-5.292805e+001	-2.005959e+000	1.635864e+002
5820125400	-4.567626e+000	1.045788e+002	-1.695311e+001	-1.037321e+002	-2.422692e+001	-5.291565e+001	-2.036564e+000	1.634321e+002
5830125100	-4.568797e+000	1.047316e+002	-1.689783e+001	-1.035486e+002	-2.412413e+001	-5.306392e+001	-2.041745e+000	1.633759e+002
5840124800	-4.578170e+000	1.048131e+002	-1.693084e+001	-1.028570e+002	-2.397915e+001	-5.248069e+001	-2.061008e+000	1.632386e+002
5850124500	-4.598073e+000	1.048440e+002	-1.687356e+001	-1.015796e+002	-2.359829e+001	-5.168855e+001	-2.099744e+000	1.631089e+002
5860124200	-4.649276e+000	1.049535e+002	-1.669555e+001	-1.004913e+002	-2.311847e+001	-5.231631e+001	-2.143129e+000	1.631730e+002
5870123900	-4.696519e+000	1.052394e+002	-1.639751e+001	-9.993575e+001	-2.266635e+001	-5.394097e+001	-2.178439e+000	1.634325e+002
5880123600	-4.730687e+000	1.057090e+002	-1.612532e+001	-1.003698e+002	-2.235510e+001	-5.707688e+001	-2.179297e+000	1.637506e+002
5890123300	-4.740615e+000	1.062511e+002	-1.587746e+001	-1.015596e+002	-2.219547e+001	-6.031950e+001	-2.153632e+000	1.640593e+002
5900123000	-4.711416e+000	1.067641e+002	-1.576287e+001	-1.030916e+002	-2.226920e+001	-6.348087e+001	-2.104548e+000	1.642826e+002
5910122700	-4.668212e+000	1.070961e+002	-1.576496e+001	-1.045762e+002	-2.247509e+001	-6.549019e+001	-2.045220e+000	1.643865e+002
5920122400	-4.633874e+000	1.072537e+002	-1.583070e+001	-1.054752e+002	-2.268317e+001	-6.615780e+001	-2.000812e+000	1.643988e+002
5930122100	-4.622833e+000	1.073496e+002	-1.587363e+001	-1.057040e+002	-2.279651e+001	-6.630818e+001	-1.998106e+000	1.644132e+002
5940121800	-4.608360e+000	1.076088e+002	-1.583585e+001	-1.062555e+002	-2.277460e+001	-6.722969e+001	-1.981373e+000	1.645094e+002
5950121500	-4.576743e+000	1.079347e+002	-1.581659e+001	-1.070510e+002	-2.286294e+001	-6.885861e+001	-1.955664e+000	1.645257e+002
5960121200	-4.528717e+000	1.080453e+002	-1.589872e+001	-1.081135e+002	-2.315424e+001	-7.001743e+001	-1.926243e+000	1.645208e+002
5970120900	-4.488096e+000	1.080422e+002	-1.608731e+001	-1.089262e+002	-2.353484e+001	-7.018262e+001	-1.887479e+000	1.642479e+002
5980120600	-4.480532e+000	1.078248e+002	-1.629652e+001	-1.086028e+002	-2.381205e+001	-6.792490e+001	-1.871150e+000	1.638991e+002
5990120300	-4.524289e+000	1.077980e+002	-1.643627e+001	-1.072820e+002	-2.371529e+001	-6.497954e+001	-1.877824e+000	1.634949e+002
6000120000	-4.572761e+000	1.080963e+002	-1.635415e+001	-1.059541e+002	-2.333724e+001	-6.366628e+001	-1.906278e+000	1.633559e+002
6010119700	-4.598293e+000	1.085928e+002	-1.621528e+001	-1.053805e+002	-2.298232e+001	-6.387267e+001	-1.935250e+000	1.632817e+002
6020119400	-4.587295e+000	1.090669e+002	-1.604706e+001	-1.052392e+002	-2.269278e+001	-6.473993e+001	-1.951477e+000	1.633393e+002
6030119100	-4.569443e+000	1.095121e+002	-1.590513e+001	-1.056384e+002	-2.250576e+001	-6.654042e+001	-1.949597e+000	1.634366e+002
6040118800	-4.529206e+000	1.099020e+002	-1.582172e+001	-1.063335e+002	-2.247851e+001	-6.830799e+001	-1.935258e+000	1.634321e+002
6050118500	-4.500480e+000	1.101936e+002	-1.578981e+001	-1.067717e+002	-2.247057e+001	-6.877750e+001	-1.925188e+000	1.634304e+002
6060118200	-4.473774e+000	1.103915e+002	-1.572338e+001	-1.070106e+002	-2.237357e+001	-6.946160e+001	-1.914357e+000	1.633745e+002
6070117900	-4.444832e+000	1.106249e+002	-1.569603e+001	-1.072289e+002	-2.232748e+001	-7.006223e+001	-1.899882e+000	1.634458e+002
6080117600	-4.414402e+000	1.108300e+002	-1.562313e+001	-1.073804e+002	-2.220924e+001	-7.028163e+001	-1.902894e+000	1.635898e+002
6090117300	-4.400457e+000	1.111482e+002	-1.550566e+001	-1.076031e+002	-2.204444e+001	-7.123222e+001	-1.914739e+000	1.637995e+002
6100117000	-4.359735e+000	1.115460e+002	-1.536684e+001	-1.083338e+002	-2.191376e+001	-7.315154e+001	-1.908233e+000	1.640823e+002
6110116700	-4.321891e+000	1.119169e+002	-1.526681e+001	-1.093773e+002	-2.188428e+001	-7.534642e+001	-1.882857e+000	1.642314e+002
6120116400	-4.260515e+000	1.121890e+002	-1.523629e+001	-1.105351e+002	-2.196024e+001	-7.735056e+001	-1.858640e+000	1.642364e+002
6130116100	-4.188257e+000	1.124260e+002	-1.523599e+001	-1.116454e+002	-2.205165e+001	-7.899812e+001	-1.836023e+000	1.642539e+002
6140115800	-4.118566e+000	1.125751e+002	-1.527501e+001	-1.126579e+002	-2.218764e+001	-8.039601e+001	-1.810968e+000	1.641177e+002
6150115500	-4.061088e+000	1.126725e+002	-1.532130e+001	-1.137045e+002	-2.235105e+001	-8.157763e+001	-1.787446e+000	1.639559e+002
6160115200	-4.005910e+000	1.127463e+002	-1.539509e+001	-1.142809e+002	-2.249755e+001	-8.230064e+001	-1.768308e+000	1.638683e+002
6170114900	-3.954355e+000	1.127724e+002	-1.543241e+001	-1.149020e+002	-2.258895e+001	-8.273765e+001	-1.758777e+000	1.637908e+002
6180114600	-3.904214e+000	1.128005e+002	-1.546856e+001	-1.155607e+002	-2.273822e+001	-8.352961e+001	-1.740522e+000	1.636921e+002
6190114300	-3.853811e+000	1.127999e+002	-1.554871e+001	-1.162755e+002	-2.285300e+001	-8.456043e+001	-1.721996e+000	1.636399e+002
6200114000	-3.798536e+000	1.126772e+002	-1.563627e+001	-1.169071e+002	-2.303198e+001	-8.493399e+001	-1.697107e+000	1.634735e+002
6210113700	-3.772978e+000	1.124959e+002	-1.571645e+001	-1.174277e+002	-2.322292e+001	-8.540718e+001	-1.683500e+000	1.633185e+002
6220113400	-3.742671e+000	1.123585e+002	-1.584917e+001	-1.178406e+002	-2.342002e+001	-8.484211e+001	-1.667708e+000	1.632282e+002
6230113100	-3.733711e+000	1.121698e+002	-1.598494e+001	-1.178459e+002	-2.363299e+001	-8.381856e+001	-1.638425e+000	1.631520e+002
6240112800	-3.743678e+000	1.121277e+002	-1.609934e+001	-1.173517e+002	-2.376436e+001	-8.168693e+001	-1.636212e+000	1.630629e+002
6250112500	-3.762568e+000	1.122201e+002	-1.611416e+001	-1.164172e+002	-2.359620e+001	-7.984501e+001	-1.655243e+000	1.630997e+002
6260112200	-3.758818e+000	1.125521e+002	-1.600656e+001	-1.157560e+002	-2.326154e+001	-7.918191e+001	-1.680642e+000	1.631573e+002
6270111900	-3.725177e+000	1.128707e+002	-1.586761e+001	-1.159444e+002	-2.300184e+001	-8.028165e+001	-1.690669e+000	1.632284e+002
6280111600	-3.666971e+000	1.131231e+002	-1.577725e+001	-1.165855e+002	-2.285528e+001	-8.160240e+001	-1.681121e+000	1.633118e+002
6290111300	-3.622997e+000	1.132628e+002	-1.574124e+001	-1.171760e+002	-2.285426e+001	-8.287178e+001	-1.676689e+000	1.632628e+002
6300111000	-3.568825e+000	1.134147e+002	-1.573629e+001	-1.176893e+002	-2.278424e+001	-8.382576e+001	-1.680478e+000	1.632546e+002
6310110700	-3.517483e+000	1.134701e+002	-1.570149e+001	-1.183505e+002	-2.274502e+001	-8.501682e+001	-1.675110e+000	1.631873e+002
6320110400	-3.464435e+000	1.134681e+002	-1.570046e+001	-1.190276e+002	-2.278644e+001	-8.598930e+001	-1.660896e+000	1.632207e+002
6330110100	-3.428204e+000	1.134695e+002	-1.569438e+001	-1.195183e+002	-2.274977e+001	-8.698786e+001	-1.655643e+000	1.631775e+002
6340109800	-3.374715e+000	1.134605e+002	-1.568262e+001	-1.204465e+002	-2.277352e+001	-8.820471e+001	-1.645925e+000	1.631956e+002
6350109500	-3.325215e+000	1.134121e+002	-1.568577e+001	-1.211286e+002	-2.282650e+001	-8.946264e+001	-1.631698e+000	1.631600e+002
6360109200	-3.279931e+000	1.133748e+002	-1.574366e+001	-1.219700e+002	-2.291554e+001	-9.060911e+001	-1.613609e+000	1.631850e+002
6370108900	-3.243569e+000	1.132368e+002	-1.576883e+001	-1.227922e+002	-2.303206e+001	-9.169409e+001	-1.591071e+000	1.631031e+002
6380108600	-3.198966e+000	1.131475e+002	-1.581676e+001	-1.233463e+002	-2.312157e+001	-9.251352e+001	-1.582687e+000	1.630650e+002
6390108300	-3.160476e+000	1.129257e+002	-1.588636e+001	-1.241244e+002	-2.326813e+001	-9.303004e+001	-1.559399e+000	1.630958e+002
6400108000	-3.123165e+000	1.127560e+002	-1.595192e+001	-1.245543e+002	-2.342952e+001	-9.348901e+001	-1.542135e+000	1.631395e+002
6410107700	-3.098875e+000	1.125322e+002	-1.602218e+001	-1.251859e+002	-2.357113e+001	-9.402790e+001	-1.533978e+000	1.631801e+002
6420107400	-3.070998e+000	1.123571e+002	-1.608626e+001	-1.257096e+002	-2.370470e+001	-9.482388e+001	-1.528828e+000	1.631604e+002
6430107100	-3.039390e+000	1.121022e+002	-1.616485e+001	-1.263136e+002	-2.386433e+001	-9.516563e+001	-1.516047e+000	1.631583e+002
6440106800	-3.031993e+000	1.118115e+002	-1.626951e+001	-1.268239e+002	-2.402374e+001	-9.558361e+001	-1.506924e+000	1.630833e+002
6450106500	-3.032980e+000	1.115967e+002	-1.637165e+001	-1.271236e+002	-2.423827e+001	-9.577256e+001	-1.495672e+000	1.629957e+002
6460106200	-3.038018e+000	1.114693e+002	-1.651243e+001	-1.274226e+002	-2.445096e+001	-9.529051e+001	-1.490935e+000	1.628926e+002
6470105900	-3.058746e+000	1.113456e+002	-1.664320e+001	-1.274442e+002	-2.465675e+001	-9.427862e+001	-1.485759e+000	1.627822e+002
6480105600	-3.071046e+000	1.112951e+002	-1.675960e+001	-1.271309e+002	-2.477109e+001	-9.305684e+001	-1.479267e+000	1.626723e+002
6490105300	-3.083478e+000	1.113483e+002	-1.682838e+001	-1.267106e+002	-2.472262e+001	-9.089062e+001	-1.485124e+000	1.625819e+002
6500105000	-3.084708e+000	1.115150e+002	-1.684643e+001	-1.259512e+002	-2.459405e+001	-8.976165e+001	-1.491571e+000	1.625278e+002
6510104700	-3.083361e+000	1.116158e+002	-1.680122e+001	-1.256496e+002	-2.432174e+001	-8.962995e+001	-1.502511e+000	1.624988e+002
6520104400	-3.060465e+000	1.117305e+002	-1.670973e+001	-1.256388e+002	-2.410565e+001	-8.979327e+001	-1.508118e+000	1.624701e+002
6530104100	-3.034350e+000	1.118466e+002	-1.664075e+001	-1.259845e+002	-2.397657e+001	-9.105740e+001	-1.503877e+000	1.625295e+002
6540103800	-2.994675e+000	1.118045e+002	-1.660045e+001	-1.265699e+002	-2.386827e+001	-9.221573e+001	-1.499540e+000	1.625587e+002
6550103500	-2.962647e+000	1.117432e+002	-1.656000e+001	-1.272690e+002	-2.386030e+001	-9.329039e+001	-1.485593e+000	1.626549e+002
6560103200	-2.920242e+000	1.116512e+002	-1.657368e+001	-1.280261e+002	-2.392242e+001	-9.455670e+001	-1.478635e+000	1.627664e+002
6570102900	-2.891693e+000	1.114690e+002	-1.659333e+001	-1.287437e+002	-2.394546e+001	-9.572085e+001	-1.469768e+000	1.628253e+002
6580102600	-2.857536e+000	1.112334e+002	-1.662485e+001	-1.295187e+002	-2.407248e+001	-9.708737e+001	-1.460282e+000	1.628814e+002
6590102300	-2.838787e+000	1.109846e+002	-1.669413e+001	-1.300986e+002	-2.419132e+001	-9.782142e+001	-1.449362e+000	1.628622e+002
6600102000	-2.829793e+000	1.106882e+002	-1.678365e+001	-1.307919e+002	-2.433764e+001	-9.901147e+001	-1.440378e+000	1.628563e+002
6610101700	-2.816734e+000	1.104760e+002	-1.686595e+001	-1.313679e+002	-2.450524e+001	-9.956233e+001	-1.427624e+000	1.627792e+002
6620101400	-2.823515e+000	1.101970e+002	-1.696400e+001	-1.317661e+002	-2.466317e+001	-9.983950e+001	-1.418926e+000	1.627475e+002
6630101100	-2.835775e+000	1.099095e+002	-1.707140e+001	-1.321172e+002	-2.486412e+001	-9.993819e+001	-1.411769e+000	1.627036e+002
6640100800	-2.860795e+000	1.096832e+002	-1.717704e+001	-1.323647e+002	-2.505153e+001	-9.976775e+001	-1.407695e+000	1.626542e+002
6650100500	-2.892133e+000	1.095505e+002	-1.728229e+001	-1.324583e+002	-2.526405e+001	-9.934295e+001	-1.397588e+000	1.625966e+002
6660100200	-2.938642e+000	1.094582e+002	-1.738257e+001	-1.324154e+002	-2.540967e+001	-9.881704e+001	-1.390507e+000	1.625821e+002
6670099900	-2.971520e+000	1.094446e+002	-1.747232e+001	-1.322280e+002	-2.549349e+001	-9.807997e+001	-1.387656e+000	1.625340e+002
6680099600	-3.010959e+000	1.095865e+002	-1.753670e+001	-1.320236e+002	-2.555675e+001	-9.724697e+001	-1.385354e+000	1.624917e+002
6690099300	-3.020075e+000	1.097524e+002	-1.755021e+001	-1.317774e+002	-2.553968e+001	-9.614144e+001	-1.375083e+000	1.624655e+002
6700099000	-3.031780e+000	1.099452e+002	-1.758306e+001	-1.316643e+002	-2.558119e+001	-9.539435e+001	-1.366544e+000	1.624352e+002
6710098700	-3.019246e+000	1.100823e+002	-1.759203e+001	-1.316524e+002	-2.553963e+001	-9.476526e+001	-1.368801e+000	1.625134e+002
6720098400	-2.989616e+000	1.101140e+002	-1.760877e+001	-1.317946e+002	-2.549579e+001	-9.492404e+001	-1.365050e+000	1.625162e+002
6730098100	-2.971496e+000	1.100646e+002	-1.764734e+001	-1.320337e+002	-2.550716e+001	-9.474544e+001	-1.367295e+000	1.625391e+002
6740097800	-2.947096e+000	1.099468e+002	-1.770161e+001	-1.322252e+002	-2.557852e+001	-9.448801e+001	-1.366881e+000	1.624911e+002
6750097500	-2.954552e+000	1.097180e+002	-1.777637e+001	-1.321253e+002	-2.553892e+001	-9.370284e+001	-1.367455e+000	1.624429e+002
6760097200	-2.970332e+000	1.095673e+002	-1.782340e+001	-1.316928e+002	-2.546235e+001	-9.281968e+001	-1.372434e+000	1.624350e+002
6770096900	-3.002435e+000	1.096311e+002	-1.781255e+001	-1.310440e+002	-2.524308e+001	-9.215180e+001	-1.379011e+000	1.624097e+002
6780096600	-3.005799e+000	1.097853e+002	-1.769119e+001	-1.308595e+002	-2.499562e+001	-9.254310e+001	-1.388307e+000	1.624301e+002
6790096300	-2.994684e+000	1.099636e+002	-1.760561e+001	-1.311905e+002	-2.477159e+001	-9.391127e+001	-1.387105e+000	1.624494e+002
6800096000	-2.968127e+000	1.100313e+002	-1.755305e+001	-1.319868e+002	-2.474155e+001	-9.545239e+001	-1.383111e+000	1.624939e+002
6810095700	-2.935749e+000	1.099967e+002	-1.753054e+001	-1.328257e+002	-2.473831e+001	-9.700428e+001	-1.373135e+000	1.625556e+002
6820095400	-2.926290e+000	1.098067e+002	-1.755180e+001	-1.335991e+002	-2.483901e+001	-9.844012e+001	-1.367679e+000	1.626107e+002
6830095100	-2.922584e+000	1.095425e+002	-1.762478e+001	-1.342944e+002	-2.504992e+001	-9.948942e+001	-1.355430e+000	1.626123e+002
6840094800	-2.948023e+000	1.093260e+002	-1.773428e+001	-1.347205e+002	-2.523379e+001	-9.978757e+001	-1.348138e+000	1.626323e+002
6850094500	-2.991323e+000	1.092107e+002	-1.781571e+001	-1.348336e+002	-2.546155e+001	-9.948437e+001	-1.333516e+000	1.626168e+002
6860094200	-3.030832e+000	1.092755e+002	-1.790212e+001	-1.347487e+002	-2.557087e+001	-9.865248e+001	-1.325144e+000	1.626029e+002
6870093900	-3.052736e+000	1.093545e+002	-1.793321e+001	-1.347405e+002	-2.561270e+001	-9.796910e+001	-1.316764e+000	1.626421e+002
6880093600	-3.069570e+000	1.094949e+002	-1.796667e+001	-1.347532e+002	-2.566343e+001	-9.781440e+001	-1.319475e+000	1.626614e+002
6890093300	-3.069501e+000	1.096162e+002	-1.797610e+001	-1.347434e+002	-2.559480e+001	-9.740520e+001	-1.319021e+000	1.626815e+002
6900093000	-3.061178e+000	1.096588e+002	-1.798739e+001	-1.350680e+002	-2.559083e+001	-9.715262e+001	-1.314508e+000	1.626774e+002
6910092700	-3.050455e+000	1.096633e+002	-1.799206e+001	-1.351139e+002	-2.555725e+001	-9.736990e+001	-1.314846e+000	1.626468e+002
6920092400	-3.042627e+000	1.096798e+002	-1.802530e+001	-1.354657e+002	-2.555865e+001	-9.755116e+001	-1.313399e+000	1.626619e+002
6930092100	-3.026975e+000	1.096923e+002	-1.803706e+001	-1.357437e+002	-2.551288e+001	-9.745457e+001	-1.312398e+000	1.626335e+002
6940091800	-3.014118e+000	1.096660e+002	-1.806002e+001	-1.359217e+002	-2.551747e+001	-9.800576e+001	-1.313224e+000	1.626329e+002
6950091500	-2.998306e+000	1.095996e+002	-1.808792e+001	-1.362653e+002	-2.555828e+001	-9.796273e+001	-1.314359e+000	1.626274e+002
6960091200	-2.986946e+000	1.095231e+002	-1.813288e+001	-1.365129e+002	-2.555075e+001	-9.802152e+001	-1.307217e+000	1.626305e+002
6970090900	-2.983983e+000	1.094135e+002	-1.817893e+001	-1.367024e+002	-2.558776e+001	-9.810899e+001	-1.305781e+000	1.626283e+002
6980090600	-2.984560e+000	1.092733e+002	-1.823571e+001	-1.367029e+002	-2.561528e+001	-9.787957e+001	-1.308980e+000	1.626297e+002
6990090300	-2.989957e+000	1.091260e+002	-1.826816e+001	-1.364816e+002	-2.557288e+001	-9.782226e+001	-1.306824e+000	1.626266e+002
7000090000	-3.007450e+000	1.090040e+002	-1.829445e+001	-1.367375e+002	-2.555199e+001	-9.763669e+001	-1.305627e+000	1.626799e+002
7010089700	-3.033478e+000	1.089188e+002	-1.830847e+001	-1.366981e+002	-2.553578e+001	-9.744207e+001	-1.303493e+000	1.626963e+002
7020089400	-3.063488e+000	1.088427e+002	-1.831411e+001	-1.366275e+002	-2.541744e+001	-9.767007e+001	-1.301898e+000	1.627510e+002
7030089100	-3.090008e+000	1.089149e+002	-1.828623e+001	-1.364336e+002	-2.541356e+001	-9.747783e+001	-1.303655e+000	1.627751e+002
7040088800	-3.098147e+000	1.089874e+002	-1.824313e+001	-1.368054e+002	-2.529035e+001	-9.835943e+001	-1.297470e+000	1.628425e+002
7050088500	-3.091596e+000	1.090512e+002	-1.820194e+001	-1.372127e+002	-2.527024e+001	-9.961547e+001	-1.294974e+000	1.628814e+002
7060088200	-3.095486e+000	1.089883e+002	-1.821925e+001	-1.377662e+002	-2.532464e+001	-1.007957e+002	-1.293847e+000	1.629303e+002
7070087900	-3.094962e+000	1.089293e+002	-1.824702e+001	-1.383244e+002	-2.537273e+001	-1.014096e+002	-1.292159e+000	1.629124e+002
7080087600	-3.100162e+000	1.088392e+002	-1.826513e+001	-1.388018e+002	-2.546149e+001	-1.015630e+002	-1.292455e+000	1.629309e+002
7090087300	-3.111143e+000	1.087675e+002	-1.831830e+001	-1.393039e+002	-2.554738e+001	-1.022674e+002	-1.287287e+000	1.629678e+002
7100087000	-3.117715e+000	1.087182e+002	-1.837917e+001	-1.395197e+002	-2.567762e+001	-1.022108e+002	-1.286848e+000	1.629714e+002
7110086700	-3.137639e+000	1.086560e+002	-1.841684e+001	-1.397391e+002	-2.577421e+001	-1.026293e+002	-1.285315e+000	1.629855e+002
7120086400	-3.148744e+000	1.086812e+002	-1.847611e+001	-1.397503e+002	-2.580679e+001	-1.019681e+002	-1.278056e+000	1.629900e+002
7130086100	-3.162632e+000	1.087413e+002	-1.849487e+001	-1.398328e+002	-2.580139e+001	-1.014763e+002	-1.277069e+000	1.630147e+002
7140085800	-3.163310e+000	1.087395e+002	-1.853152e+001	-1.400412e+002	-2.579611e+001	-1.015055e+002	-1.273779e+000	1.630195e+002
7150085500	-3.163048e+000	1.087150e+002	-1.855457e+001	-1.403194e+002	-2.576749e+001	-1.016072e+002	-1.269127e+000	1.630295e+002
7160085200	-3.165190e+000	1.086760e+002	-1.856491e+001	-1.404436e+002	-2.574719e+001	-1.016508e+002	-1.265711e+000	1.630530e+002
7170084900	-3.172035e+000	1.085897e+002	-1.858377e+001	-1.406208e+002	-2.573779e+001	-1.018771e+002	-1.268248e+000	1.630968e+002
7180084600	-3.177652e+000	1.085183e+002	-1.864417e+001	-1.409194e+002	-2.577702e+001	-1.018961e+002	-1.269837e+000	1.631033e+002
7190084300	-3.188996e+000	1.084220e+002	-1.864697e+001	-1.411255e+002	-2.580646e+001	-1.020477e+002	-1.270155e+000	1.631008e+002
7200084000	-3.208244e+000	1.082938e+002	-1.866940e+001	-1.413222e+002	-2.577803e+001	-1.022828e+002	-1.267719e+000	1.631135e+002
7210083700	-3.211135e+000	1.081653e+002	-1.872182e+001	-1.414779e+002	-2.577406e+001	-1.023780e+002	-1.264265e+000	1.631202e+002
7220083400	-3.227752e+000	1.080539e+002	-1.871147e+001	-1.417098e+002	-2.580656e+001	-1.028727e+002	-1.268262e+000	1.631248e+002
7230083100	-3.241094e+000	1.079390e+002	-1.872208e+001	-1.418538e+002	-2.578061e+001	-1.031351e+002	-1.265830e+000	1.631690e+002
7240082800	-3.256383e+000	1.077773e+002	-1.874063e+001	-1.421994e+002	-2.580110e+001	-1.034171e+002	-1.268490e+000	1.631980e+002
7250082500	-3.279494e+000	1.076654e+002	-1.876243e+001	-1.423209e+002	-2.583741e+001	-1.039116e+002	-1.266868e+000	1.632251e+002
7260082200	-3.307365e+000	1.075490e+002	-1.880745e+001	-1.426744e+002	-2.592230e+001	-1.041322e+002	-1.264071e+000	1.632457e+002
7270081900	-3.349943e+000	1.074400e+002	-1.884470e+001	-1.428409e+002	-2.592750e+001	-1.043932e+002	-1.265277e+000	1.632788e+002
7280081600	-3.392110e+000	1.074489e+002	-1.889452e+001	-1.428029e+002	-2.600926e+001	-1.041872e+002	-1.261662e+000	1.633339e+002
7290081300	-3.426975e+000	1.075297e+002	-1.888239e+001	-1.431391e+002	-2.603848e+001	-1.041840e+002	-1.261619e+000	1.633556e+002
7300081000	-3.459544e+000	1.076481e+002	-1.893301e+001	-1.432066e+002	-2.604226e+001	-1.040403e+002	-1.258154e+000	1.634114e+002
7310080700	-3.473292e+000	1.078278e+002	-1.893349e+001	-1.432208e+002	-2.605505e+001	-1.042007e+002	-1.260547e+000	1.634575e+002
7320080400	-3.478933e+000	1.079051e+002	-1.894344e+001	-1.434469e+002	-2.597028e+001	-1.040918e+002	-1.254094e+000	1.635176e+002
7330080100	-3.487661e+000	1.079770e+002	-1.895345e+001	-1.436718e+002	-2.596384e+001	-1.041041e+002	-1.256838e+000	1.635352e+002
7340079800	-3.487438e+000	1.079144e+002	-1.896203e+001	-1.439051e+002	-2.601074e+001	-1.045655e+002	-1.262221e+000	1.635669e+002
7350079500	-3.495932e+000	1.078421e+002	-1.895715e+001	-1.442138e+002	-2.596605e+001	-1.047900e+002	-1.265170e+000	1.635943e+002
7360079200	-3.512109e+000	1.077151e+002	-1.895601e+001	-1.445042e+002	-2.590567e+001	-1.054223e+002	-1.264140e+000	1.636170e+002
7370078900	-3.525066e+000	1.075381e+002	-1.897411e+001	-1.449656e+002	-2.597913e+001	-1.064082e+002	-1.258162e+000	1.635478e+002
7380078600	-3.554008e+000	1.074015e+002	-1.901876e+001	-1.454968e+002	-2.605864e+001	-1.068911e+002	-1.255432e+000	1.635394e+002
7390078300	-3.580554e+000	1.072648e+002	-1.904019e+001	-1.459344e+002	-2.611433e+001	-1.070796e+002	-1.257867e+000	1.635811e+002
7400078000	-3.609927e+000	1.071474e+002	-1.908923e+001	-1.461196e+002	-2.620016e+001	-1.073258e+002	-1.251742e+000	1.635836e+002
7410077700	-3.638871e+000	1.071265e+002	-1.913897e+001	-1.463255e+002	-2.621099e+001	-1.069510e+002	-1.254957e+000	1.636087e+002
7420077400	-3.663976e+000	1.070370e+002	-1.915682e+001	-1.465572e+002	-2.628725e+001	-1.070934e+002	-1.248505e+000	1.636559e+002
7430077100	-3.693365e+000	1.070266e+002	-1.920858e+001	-1.467768e+002	-2.631583e+001	-1.073233e+002	-1.247667e+000	1.636680e+002
7440076800	-3.717274e+000	1.070578e+002	-1.925121e+001	-1.469636e+002	-2.634691e+001	-1.075168e+002	-1.247973e+000	1.637088e+002
7450076500	-3.747132e+000	1.070468e+002	-1.927455e+001	-1.471086e+002	-2.638732e+001	-1.075979e+002	-1.247168e+000	1.637249e+002
7460076200	-3.774498e+000	1.070927e+002	-1.936354e+001	-1.473614e+002	-2.643537e+001	-1.071841e+002	-1.244309e+000	1.637788e+002
7470075900	-3.801862e+000	1.071278e+002	-1.939492e+001	-1.474363e+002	-2.648595e+001	-1.071347e+002	-1.242265e+000	1.638268e+002
7480075600	-3.826362e+000	1.071453e+002	-1.941003e+001	-1.476031e+002	-2.653819e+001	-1.070943e+002	-1.236936e+000	1.638519e+002
7490075300	-3.861905e+000	1.071419e+002	-1.947458e+001	-1.476771e+002	-2.655369e+001	-1.071147e+002	-1.244108e+000	1.639232e+002
7500075000	-3.901568e+000	1.071549e+002	-1.950315e+001	-1.479165e+002	-2.656214e+001	-1.067527e+002	-1.254843e+000	1.639670e+002
7510074700	-3.943648e+000	1.071569e+002	-1.951678e+001	-1.478660e+002	-2.657741e+001	-1.064726e+002	-1.250105e+000	1.639788e+002
7520074400	-3.978345e+000	1.072525e+002	-1.953461e+001	-1.478265e+002	-2.662986e+001	-1.066740e+002	-1.249024e+000	1.638861e+002
7530074100	-4.013534e+000	1.074074e+002	-1.958309e+001	-1.478847e+002	-2.657820e+001	-1.065077e+002	-1.244608e+000	1.638405e+002
7540073800	-4.036461e+000	1.075438e+002	-1.956661e+001	-1.477773e+002	-2.654121e+001	-1.058857e+002	-1.249926e+000	1.637875e+002
7550073500	-4.040912e+000	1.076344e+002	-1.954692e+001	-1.479392e+002	-2.649639e+001	-1.057862e+002	-1.255337e+000	1.638287e+002
7560073200	-4.040203e+000	1.076976e+002	-1.951572e+001	-1.480617e+002	-2.639563e+001	-1.058847e+002	-1.256962e+000	1.638564e+002
7570072900	-4.042541e+000	1.076975e+002	-1.950213e+001	-1.481993e+002	-2.634998e+001	-1.063636e+002	-1.255422e+000	1.639432e+002
7580072600	-4.045128e+000	1.076458e+002	-1.950875e+001	-1.485974e+002	-2.637929e+001	-1.066441e+002	-1.259805e+000	1.639660e+002
7590072300	-4.051090e+000	1.075282e+002	-1.952606e+001	-1.490772e+002	-2.634329e+001	-1.072449e+002	-1.256267e+000	1.640068e+002
7600072000	-4.058760e+000	1.074754e+002	-1.950966e+001	-1.493674e+002	-2.635456e+001	-1.078596e+002	-1.259056e+000	1.640556e+002
7610071700	-4.075604e+000	1.074376e+002	-1.954660e+001	-1.497055e+002	-2.638432e+001	-1.080117e+002	-1.252971e+000	1.640997e+002
7620071400	-4.088447e+000	1.074057e+002	-1.958470e+001	-1.500065e+002	-2.643409e+001	-1.083049e+002	-1.250680e+000	1.641381e+002
7630071100	-4.103574e+000	1.073899e+002	-1.960066e+001	-1.502379e+002	-2.648421e+001	-1.082386e+002	-1.248002e+000	1.641671e+002
7640070800	-4.119745e+000	1.073603e+002	-1.964553e+001	-1.504780e+002	-2.651795e+001	-1.083594e+002	-1.248335e+000	1.642191e+002
7650070500	-4.139363e+000	1.073010e+002	-1.966289e+001	-1.507025e+002	-2.648147e+001	-1.080873e+002	-1.249835e+000	1.642893e+002
7660070200	-4.158485e+000	1.072364e+002	-1.969607e+001	-1.508832e+002	-2.651945e+001	-1.082614e+002	-1.256792e+000	1.643188e+002
7670069900	-4.180899e+000	1.071738e+002	-1.972760e+001	-1.512034e+002	-2.655558e+001	-1.085751e+002	-1.260028e+000	1.642725e+002
7680069600	-4.202375e+000	1.070820e+002	-1.974654e+001	-1.513190e+002	-2.652433e+001	-1.089514e+002	-1.259399e+000	1.642497e+002
7690069300	-4.224353e+000	1.069657e+002	-1.978263e+001	-1.515341e+002	-2.663006e+001	-1.086668e+002	-1.259515e+000	1.641457e+002
7700069000	-4.248202e+000	1.068245e+002	-1.982667e+001	-1.517544e+002	-2.657139e+001	-1.089148e+002	-1.261557e+000	1.641389e+002
7710068700	-4.276283e+000	1.066522e+002	-1.986231e+001	-1.519321e+002	-2.659069e+001	-1.088320e+002	-1.268855e+000	1.641568e+002
7720068400	-4.302624e+000	1.063952e+002	-1.986652e+001	-1.520415e+002	-2.663888e+001	-1.085970e+002	-1.277814e+000	1.642458e+002
7730068100	-4.335954e+000	1.062261e+002	-1.989034e+001	-1.520301e+002	-2.662480e+001	-1.083632e+002	-1.278395e+000	1.642533e+002
7740067800	-4.381024e+000	1.061184e+002	-1.988675e+001	-1.519913e+002	-2.658523e+001	-1.080818e+002	-1.281690e+000	1.643140e+002
7750067500	-4.420764e+000	1.060030e+002	-1.988259e+001	-1.520761e+002	-2.649193e+001	-1.079530e+002	-1.288368e+000	1.643140e+002
7760067200	-4.453888e+000	1.059840e+002	-1.988715e+001	-1.521688e+002	-2.646767e+001	-1.079854e+002	-1.286307e+000	1.643757e+002
7770066900	-4.473648e+000	1.059497e+002	-1.985386e+001	-1.523495e+002	-2.635844e+001	-1.082346e+002	-1.285267e+000	1.643995e+002
7780066600	-4.497195e+000	1.059471e+002	-1.984415e+001	-1.525252e+002	-2.633744e+001	-1.088488e+002	-1.282815e+000	1.644127e+002
7790066300	-4.514129e+000	1.059184e+002	-1.984127e+001	-1.527511e+002	-2.629758e+001	-1.090097e+002	-1.285884e+000	1.644240e+002
7800066000	-4.543575e+000	1.058711e+002	-1.983582e+001	-1.532551e+002	-2.628433e+001	-1.092243e+002	-1.286330e+000	1.644778e+002
7810065700	-4.566536e+000	1.058338e+002	-1.982740e+001	-1.536115e+002	-2.628106e+001	-1.100998e+002	-1.289547e+000	1.645057e+002
7820065400	-4.597487e+000	1.057501e+002	-1.982097e+001	-1.540078e+002	-2.627181e+001	-1.105782e+002	-1.304518e+000	1.645245e+002
7830065100	-4.629511e+000	1.056204e+002	-1.984065e+001	-1.542433e+002	-2.628956e+001	-1.112783e+002	-1.314045e+000	1.645141e+002
7840064800	-4.658702e+000	1.055087e+002	-1.986607e+001	-1.547506e+002	-2.627435e+001	-1.115639e+002	-1.305396e+000	1.644724e+002
7850064500	-4.695574e+000	1.054199e+002	-1.988789e+001	-1.550595e+002	-2.630205e+001	-1.121420e+002	-1.307460e+000	1.643572e+002
7860064200	-4.732015e+000	1.052570e+002	-1.989851e+001	-1.554762e+002	-2.634467e+001	-1.123533e+002	-1.315645e+000	1.644046e+002
7870063900	-4.771615e+000	1.051110e+002	-1.989938e+001	-1.558683e+002	-2.636009e+001	-1.126345e+002	-1.322905e+000	1.644822e+002
7880063600	-4.808314e+000	1.049255e+002	-1.992487e+001	-1.562577e+002	-2.640812e+001	-1.128577e+002	-1.327909e+000	1.645252e+002
7890063300	-4.840301e+000	1.047074e+002	-1.995741e+001	-1.565828e+002	-2.644909e+001	-1.129694e+002	-1.330205e+000	1.646220e+002
7900063000	-4.874162e+000	1.045282e+002	-1.999959e+001	-1.569495e+002	-2.641769e+001	-1.133627e+002	-1.339412e+000	1.646575e+002
7910062700	-4.909385e+000	1.043326e+002	-2.005800e+001	-1.571130e+002	-2.650302e+001	-1.133849e+002	-1.339153e+000	1.647179e+002
7920062400	-4.941763e+000	1.041820e+002	-2.006265e+001	-1.573030e+002	-2.649182e+001	-1.134170e+002	-1.341097e+000	1.647002e+002
7930062100	-4.971601e+000	1.039597e+002	-2.012118e+001	-1.575952e+002	-2.655301e+001	-1.133076e+002	-1.345748e+000	1.647107e+002
7940061800	-5.009386e+000	1.037446e+002	-2.013039e+001	-1.578106e+002	-2.654012e+001	-1.136032e+002	-1.348883e+000	1.646819e+002
7950061500	-5.049472e+000	1.035583e+002	-2.013967e+001	-1.580004e+002	-2.654412e+001	-1.139538e+002	-1.352411e+000	1.646966e+002
7960061200	-5.096173e+000	1.034106e+002	-2.016193e+001	-1.581715e+002	-2.656216e+001	-1.137997e+002	-1.356603e+000	1.647008e+002
7970060900	-5.151116e+000	1.032940e+002	-2.020515e+001	-1.581267e+002	-2.655160e+001	-1.133570e+002	-1.363304e+000	1.647621e+002
7980060600	-5.209619e+000	1.032010e+002	-2.019054e+001	-1.584375e+002	-2.654043e+001	-1.135262e+002	-1.377044e+000	1.648227e+002
7990060300	-5.265690e+000	1.032140e+002	-2.018382e+001	-1.586959e+002	-2.652283e+001	-1.139787e+002	-1.388083e+000	1.648074e+002
8000060000	-5.321422e+000	1.031926e+002	-2.015785e+001	-1.589087e+002	-2.645240e+001	-1.144613e+002	-1.386851e+000	1.647589e+002
8010059700	-5.373744e+000	1.031222e+002	-2.015785e+001	-1.593382e+002	-2.645366e+001	-1.148027e+002	-1.382372e+000	1.646214e+002
8020059400	-5.423659e+000	1.030620e+002	-2.016971e+001	-1.596581e+002	-2.642196e+001	-1.152381e+002	-1.384557e+000	1.646478e+002
8030059100	-5.470886e+000	1.029378e+002	-2.015044e+001	-1.601067e+002	-2.645682e+001	-1.158899e+002	-1.389720e+000	1.646822e+002
8040058800	-5.518108e+000	1.027845e+002	-2.015339e+001	-1.606393e+002	-2.644669e+001	-1.165735e+002	-1.395355e+000	1.647393e+002
8050058500	-5.565344e+000	1.026544e+002	-2.017689e+001	-1.611221e+002	-2.651687e+001	-1.170971e+002	-1.408316e+000	1.647563e+002
8060058200	-5.612467e+000	1.024455e+002	-2.019862e+001	-1.618366e+002	-2.656137e+001	-1.174523e+002	-1.416018e+000	1.647977e+002
8070057900	-5.657970e+000	1.022459e+002	-2.023999e+001	-1.621853e+002	-2.663251e+001	-1.180210e+002	-1.426547e+000	1.647877e+002
8080057600	-5.700793e+000	1.020438e+002	-2.027031e+001	-1.629107e+002	-2.671628e+001	-1.181401e+002	-1.437708e+000	1.647774e+002
8090057300	-5.745114e+000	1.018271e+002	-2.032737e+001	-1.633629e+002	-2.675361e+001	-1.186493e+002	-1.448325e+000	1.647776e+002
8100057000	-5.783756e+000	1.015940e+002	-2.036976e+001	-1.637583e+002	-2.688184e+001	-1.187705e+002	-1.455961e+000	1.647749e+002
8110056700	-5.824031e+000	1.013806e+002	-2.044666e+001	-1.642827e+002	-2.697948e+001	-1.187614e+002	-1.475433e+000	1.648090e+002
8120056400	-5.864776e+000	1.011972e+002	-2.051056e+001	-1.647863e+002	-2.712879e+001	-1.186933e+002	-1.482714e+000	1.648235e+002
8130056100	-5.912637e+000	1.010040e+002	-2.060828e+001	-1.651814e+002	-2.724653e+001	-1.181155e+002	-1.494522e+000	1.649196e+002
8140055800	-5.965875e+000	1.008381e+002	-2.068211e+001	-1.651130e+002	-2.724685e+001	-1.179436e+002	-1.503582e+000	1.650110e+002
8150055500	-6.021246e+000	1.006189e+002	-2.074974e+001	-1.654270e+002	-2.735350e+001	-1.181367e+002	-1.515386e+000	1.650039e+002
8160055200	-6.081737e+000	1.004284e+002	-2.079171e+001	-1.655423e+002	-2.739534e+001	-1.176975e+002	-1.528440e+000	1.650241e+002
8170054900	-6.153732e+000	1.002290e+002	-2.085812e+001	-1.655700e+002	-2.740801e+001	-1.171194e+002	-1.523375e+000	1.649562e+002
8180054600	-6.226466e+000	1.000400e+002	-2.088282e+001	-1.658111e+002	-2.736653e+001	-1.169888e+002	-1.526851e+000	1.648588e+002
8190054300	-6.300630e+000	9.983568e+001	-2.093229e+001	-1.660814e+002	-2.737247e+001	-1.169943e+002	-1.527698e+000	1.649424e+002
8200054000	-6.370022e+000	9.957929e+001	-2.097522e+001	-1.663898e+002	-2.742912e+001	-1.167928e+002	-1.535209e+000	1.650131e+002
8210053700	-6.451492e+000	9.931730e+001	-2.108774e+001	-1.665983e+002	-2.749017e+001	-1.162888e+002	-1.553603e+000	1.650307e+002
8220053400	-6.537119e+000	9.904360e+001	-2.115105e+001	-1.665432e+002	-2.748180e+001	-1.158701e+002	-1.574973e+000	1.651237e+002
8230053100	-6.620210e+000	9.881576e+001	-2.118994e+001	-1.664705e+002	-2.742761e+001	-1.154349e+002	-1.580092e+000	1.651756e+002
8240052800	-6.702804e+000	9.860971e+001	-2.120621e+001	-1.664912e+002	-2.736468e+001	-1.154838e+002	-1.602420e+000	1.652187e+002
8250052500	-6.777224e+000	9.844248e+001	-2.125478e+001	-1.667520e+002	-2.731686e+001	-1.153848e+002	-1.607700e+000	1.652728e+002
8260052200	-6.830501e+000	9.824194e+001	-2.125238e+001	-1.672842e+002	-2.732819e+001	-1.158056e+002	-1.617041e+000	1.652827e+002
8270051900	-6.888338e+000	9.800662e+001	-2.130297e+001	-1.674941e+002	-2.742315e+001	-1.158866e+002	-1.627713e+000	1.653003e+002
8280051600	-6.944266e+000	9.781103e+001	-2.135172e+001	-1.681589e+002	-2.749883e+001	-1.163145e+002	-1.638118e+000	1.652968e+002
8290051300	-6.985144e+000	9.755765e+001	-2.144877e+001	-1.685603e+002	-2.767384e+001	-1.157655e+002	-1.652825e+000	1.652888e+002
8300051000	-7.041982e+000	9.721995e+001	-2.163727e+001	-1.690464e+002	-2.791842e+001	-1.147928e+002	-1.664159e+000	1.653005e+002
8310050700	-7.110156e+000	9.682616e+001	-2.179631e+001	-1.693122e+002	-2.808505e+001	-1.136236e+002	-1.693436e+000	1.653268e+002
8320050400	-7.194042e+000	9.644676e+001	-2.201044e+001	-1.691442e+002	-2.820488e+001	-1.117969e+002	-1.717966e+000	1.653556e+002
8330050100	-7.280994e+000	9.601747e+001	-2.220504e+001	-1.684661e+002	-2.812745e+001	-1.097670e+002	-1.739579e+000	1.653412e+002
8340049800	-7.393366e+000	9.555367e+001	-2.237685e+001	-1.674564e+002	-2.796294e+001	-1.072584e+002	-1.745963e+000	1.653891e+002
8350049500	-7.516982e+000	9.517372e+001	-2.248637e+001	-1.661807e+002	-2.771711e+001	-1.049722e+002	-1.758275e+000	1.655095e+002
8360049200	-7.655065e+000	9.475382e+001	-2.253144e+001	-1.647089e+002	-2.738573e+001	-1.035359e+002	-1.767108e+000	1.657560e+002
8370048900	-7.795317e+000	9.434160e+001	-2.246855e+001	-1.629650e+002	-2.693932e+001	-1.024200e+002	-1.771961e+000	1.659644e+002
8380048600	-7.945126e+000	9.407215e+001	-2.233194e+001	-1.617751e+002	-2.654909e+001	-1.027323e+002	-1.785968e+000	1.661410e+002
8390048300	-8.086357e+000	9.374290e+001	-2.217852e+001	-1.610705e+002	-2.624958e+001	-1.033638e+002	-1.796981e+000	1.663875e+002
8400048000	-8.219961e+000	9.345495e+001	-2.204561e+001	-1.605722e+002	-2.601147e+001	-1.042577e+002	-1.791243e+000	1.665208e+002
8410047700	-8.357337e+000	9.314825e+001	-2.188259e+001	-1.601963e+002	-2.570989e+001	-1.051780e+002	-1.803114e+000	1.666469e+002
8420047400	-8.509029e+000	9.291715e+001	-2.174031e+001	-1.598717e+002	-2.542014e+001	-1.061363e+002	-1.800491e+000	1.667407e+002
8430047100	-8.640161e+000	9.280523e+001	-2.150561e+001	-1.602691e+002	-2.524285e+001	-1.081435e+002	-1.792795e+000	1.668091e+002
8440046800	-8.757377e+000	9.273344e+001	-2.137817e+001	-1.611696e+002	-2.515791e+001	-1.102992e+002	-1.779693e+000	1.668615e+002
8450046500	-8.874697e+000	9.261165e+001	-2.137656e+001	-1.622782e+002	-2.521704e+001	-1.117910e+002	-1.777732e+000	1.667652e+002
8460046200	-8.992699e+000	9.247316e+001	-2.140551e+001	-1.632852e+002	-2.540388e+001	-1.123608e+002	-1.779775e+000	1.666656e+002
8470045900	-9.117951e+000	9.240915e+001	-2.147013e+001	-1.634304e+002	-2.549874e+001	-1.125783e+002	-1.795130e+000	1.666606e+002
8480045600	-9.248087e+000	9.230703e+001	-2.153653e+001	-1.636334e+002	-2.551840e+001	-1.122866e+002	-1.799881e+000	1.666325e+002
8490045300	-9.372021e+000	9.222457e+001	-2.157459e+001	-1.631755e+002	-2.551215e+001	-1.112328e+002	-1.812001e+000	1.666721e+002
8500045000	-9.518114e+000	9.205840e+001	-2.176299e+001	-1.626784e+002	-2.527797e+001	-1.110826e+002	-1.790359e+000	1.665874e+002
8510044700	-9.670332e+000	9.190674e+001	-2.165788e+001	-1.622026e+002	-2.506349e+001	-1.100116e+002	-1.801173e+000	1.665230e+002
8520044400	-9.833029e+000	9.164239e+001	-2.157563e+001	-1.612300e+002	-2.483414e+001	-1.101344e+002	-1.774998e+000	1.667716e+002
8530044100	-1.005133e+001	9.122255e+001	-2.151743e+001	-1.608834e+002	-2.465504e+001	-1.114647e+002	-1.773501e+000	1.668261e+002
8540043800	-1.025670e+001	9.116909e+001	-2.132329e+001	-1.607350e+002	-2.438996e+001	-1.125440e+002	-1.785171e+000	1.669054e+002
8550043500	-1.046064e+001	9.105406e+001	-2.113751e+001	-1.602617e+002	-2.421021e+001	-1.128558e+002	-1.806089e+000	1.671779e+002
8560043200	-1.063493e+001	9.091375e+001	-2.107647e+001	-1.607296e+002	-2.398909e+001	-1.140832e+002	-1.806921e+000	1.673222e+002
8570042900	-1.086211e+001	9.102345e+001	-2.078256e+001	-1.610825e+002	-2.393686e+001	-1.154515e+002	-1.819495e+000	1.674961e+002
8580042600	-1.101635e+001	9.099006e+001	-2.070807e+001	-1.620736e+002	-2.386569e+001	-1.170617e+002	-1.791741e+000	1.677280e+002
8590042300	-1.116668e+001	9.089100e+001	-2.060840e+001	-1.633471e+002	-2.377113e+001	-1.189465e+002	-1.813785e+000	1.679448e+002
8600042000	-1.130438e+001	9.090970e+001	-2.054543e+001	-1.639934e+002	-2.374966e+001	-1.203489e+002	-1.808838e+000	1.678408e+002
8610041700	-1.147471e+001	9.073541e+001	-2.048326e+001	-1.650340e+002	-2.380168e+001	-1.222415e+002	-1.799741e+000	1.678949e+002
8620041400	-1.163089e+001	9.081839e+001	-2.051509e+001	-1.659869e+002	-2.394979e+001	-1.223318e+002	-1.803339e+000	1.679463e+002
8630041100	-1.180281e+001	9.073338e+001	-2.051088e+001	-1.662157e+002	-2.387223e+001	-1.229590e+002	-1.802127e+000	1.678766e+002
8640040800	-1.196663e+001	9.094187e+001	-2.060110e+001	-1.665368e+002	-2.387320e+001	-1.237678e+002	-1.801381e+000	1.678120e+002
8650040500	-1.220097e+001	9.119385e+001	-2.051614e+001	-1.673591e+002	-2.395201e+001	-1.236472e+002	-1.789958e+000	1.675944e+002
8660040200	-1.239147e+001	9.149592e+001	-2.045334e+001	-1.677509e+002	-2.386363e+001	-1.251785e+002	-1.765635e+000	1.674286e+002
8670039900	-1.261957e+001	9.168813e+001	-2.046434e+001	-1.683328e+002	-2.395681e+001	-1.261810e+002	-1.776066e+000	1.672906e+002
8680039600	-1.281479e+001	9.219304e+001	-2.037359e+001	-1.691089e+002	-2.382445e+001	-1.269481e+002	-1.758154e+000	1.671557e+002
8690039300	-1.302605e+001	9.243489e+001	-2.035263e+001	-1.699923e+002	-2.384656e+001	-1.280319e+002	-1.757918e+000	1.673026e+002
8700039000	-1.323245e+001	9.284835e+001	-2.036277e+001	-1.706113e+002	-2.400021e+001	-1.285340e+002	-1.773796e+000	1.672909e+002
8710038700	-1.344823e+001	9.298750e+001	-2.039615e+001	-1.708247e+002	-2.394156e+001	-1.291996e+002	-1.781888e+000	1.673059e+002
8720038400	-1.367806e+001	9.296849e+001	-2.039817e+001	-1.715251e+002	-2.395092e+001	-1.286463e+002	-1.801975e+000	1.673983e+002
8730038100	-1.392045e+001	9.307939e+001	-2.042537e+001	-1.718995e+002	-2.396154e+001	-1.289376e+002	-1.832400e+000	1.675434e+002
8740037800	-1.415439e+001	9.314831e+001	-2.038166e+001	-1.716568e+002	-2.390180e+001	-1.291990e+002	-1.859442e+000	1.677113e+002
8750037500	-1.441298e+001	9.336197e+001	-2.034887e+001	-1.717324e+002	-2.383323e+001	-1.296558e+002	-1.866016e+000	1.678059e+002
8760037200	-1.464974e+001	9.332948e+001	-2.026969e+001	-1.726228e+002	-2.363744e+001	-1.307603e+002	-1.890296e+000	1.679569e+002
8770036900	-1.486535e+001	9.354808e+001	-2.030130e+001	-1.727722e+002	-2.369926e+001	-1.315753e+002	-1.892314e+000	1.679871e+002
8780036600	-1.517543e+001	9.388523e+001	-2.022366e+001	-1.731997e+002	-2.372073e+001	-1.323986e+002	-1.894773e+000	1.679836e+002
8790036300	-1.537063e+001	9.468756e+001	-2.021234e+001	-1.744090e+002	-2.370508e+001	-1.334614e+002	-1.903041e+000	1.678795e+002
8800036000	-1.560824e+001	9.529864e+001	-2.017726e+001	-1.749597e+002	-2.366659e+001	-1.344046e+002	-1.894355e+000	1.678011e+002
8810035700	-1.579594e+001	9.611139e+001	-2.020890e+001	-1.753476e+002	-2.370938e+001	-1.349816e+002	-1.892261e+000	1.676804e+002
8820035400	-1.605458e+001	9.706420e+001	-2.019415e+001	-1.760447e+002	-2.367717e+001	-1.364423e+002	-1.871891e+000	1.676240e+002
8830035100	-1.625306e+001	9.837511e+001	-2.023292e+001	-1.769722e+002	-2.365324e+001	-1.370638e+002	-1.881645e+000	1.674834e+002
8840034800	-1.652312e+001	9.924031e+001	-2.026795e+001	-1.772196e+002	-2.366755e+001	-1.372480e+002	-1.857027e+000	1.674901e+002
8850034500	-1.671211e+001	1.001945e+002	-2.019297e+001	-1.773360e+002	-2.378631e+001	-1.375389e+002	-1.876881e+000	1.673539e+002
8860034200	-1.700551e+001	1.013979e+002	-2.022060e+001	-1.779579e+002	-2.371833e+001	-1.375499e+002	-1.864538e+000	1.674282e+002
8870033900	-1.725723e+001	1.020422e+002	-2.028789e+001	-1.785086e+002	-2.373906e+001	-1.383129e+002	-1.871240e+000	1.674877e+002
8880033600	-1.755864e+001	1.028061e+002	-2.021959e+001	-1.789717e+002	-2.362260e+001	-1.391997e+002	-1.877845e+000	1.675737e+002
8890033300	-1.786859e+001	1.039916e+002	-2.016611e+001	-1.794984e+002	-2.359675e+001	-1.400709e+002	-1.895521e+000	1.676171e+002
8900033000	-1.816069e+001	1.050567e+002	-2.011615e+001	-1.799004e+002	-2.364289e+001	-1.407743e+002	-1.915238e+000	1.677546e+002
8910032700	-1.835668e+001	1.060690e+002	-2.007010e+001	1.795553e+002	-2.360598e+001	-1.406830e+002	-1.927994e+000	1.677690e+002
8920032400	-1.868774e+001	1.067567e+002	-2.015120e+001	1.790067e+002	-2.358481e+001	-1.422541e+002	-1.968557e+000	1.679265e+002
8930032100	-1.894827e+001	1.077452e+002	-2.007929e+001	1.784464e+002	-2.360856e+001	-1.423411e+002	-1.981824e+000	1.679739e+002
8940031800	-1.914007e+001	1.091293e+002	-2.015612e+001	1.770394e+002	-2.356969e+001	-1.442089e+002	-1.998671e+000	1.679675e+002
8950031500	-1.937283e+001	1.103984e+002	-2.009373e+001	1.770280e+002	-2.370496e+001	-1.447538e+002	-2.027263e+000	1.678759e+002
8960031200	-1.961531e+001	1.114158e+002	-2.020694e+001	1.763918e+002	-2.368199e+001	-1.461484e+002	-2.031278e+000	1.678176e+002
8970030900	-1.981131e+001	1.133145e+002	-2.015356e+001	1.758603e+002	-2.359753e+001	-1.457648e+002	-2.057355e+000	1.678130e+002
8980030600	-2.001258e+001	1.153914e+002	-2.018224e+001	1.753242e+002	-2.375118e+001	-1.466546e+002	-2.047406e+000	1.676831e+002
8990030300	-2.030302e+001	1.167349e+002	-2.027790e+001	1.751216e+002	-2.373133e+001	-1.474173e+002	-2.043208e+000	1.675650e+002
9000030000	-2.044246e+001	1.187864e+002	-2.024705e+001	1.739586e+002	-2.376061e+001	-1.479550e+002	-2.028392e+000	1.675541e+002
9010029700	-2.066179e+001	1.219786e+002	-2.024725e+001	1.737890e+002	-2.377579e+001	-1.480640e+002	-2.048146e+000	1.674486e+002
9020029400	-2.093255e+001	1.243455e+002	-2.019986e+001	1.734474e+002	-2.374106e+001	-1.494000e+002	-2.056503e+000	1.673874e+002
9030029100	-2.112619e+001	1.268156e+002	-2.023954e+001	1.727625e+002	-2.379046e+001	-1.492510e+002	-2.058208e+000	1.674108e+002
9040028800	-2.127723e+001	1.295543e+002	-2.021875e+001	1.724193e+002	-2.375173e+001	-1.493886e+002	-2.057126e+000	1.675445e+002
9050028500	-2.147109e+001	1.320486e+002	-2.022794e+001	1.714210e+002	-2.373921e+001	-1.507885e+002	-2.060214e+000	1.674788e+002
9060028200	-2.169019e+001	1.349442e+002	-2.028186e+001	1.705316e+002	-2.372938e+001	-1.512866e+002	-2.070625e+000	1.675975e+002
9070027900	-2.182538e+001	1.377089e+002	-2.026259e+001	1.704300e+002	-2.384077e+001	-1.514144e+002	-2.092238e+000	1.676728e+002
9080027600	-2.187556e+001	1.396461e+002	-2.029656e+001	1.698401e+002	-2.385062e+001	-1.519807e+002	-2.127540e+000	1.677765e+002
9090027300	-2.203431e+001	1.425819e+002	-2.035194e+001	1.692514e+002	-2.401173e+001	-1.526792e+002	-2.149201e+000	1.679428e+002
9100027000	-2.208347e+001	1.448068e+002	-2.032831e+001	1.688911e+002	-2.391750e+001	-1.537661e+002	-2.186671e+000	1.678381e+002
9110026700	-2.213910e+001	1.465859e+002	-2.041782e+001	1.678795e+002	-2.398419e+001	-1.538836e+002	-2.194168e+000	1.679108e+002
9120026400	-2.217372e+001	1.496162e+002	-2.042715e+001	1.677316e+002	-2.399386e+001	-1.543898e+002	-2.208605e+000	1.678658e+002
9130026100	-2.209684e+001	1.520566e+002	-2.046882e+001	1.670527e+002	-2.406069e+001	-1.554265e+002	-2.221841e+000	1.678855e+002
9140025800	-2.205479e+001	1.539120e+002	-2.043603e+001	1.669959e+002	-2.404474e+001	-1.563935e+002	-2.242334e+000	1.677899e+002
9150025500	-2.198236e+001	1.568435e+002	-2.055083e+001	1.671126e+002	-2.408068e+001	-1.563532e+002	-2.250843e+000	1.676323e+002
9160025200	-2.188670e+001	1.596180e+002	-2.055067e+001	1.659248e+002	-2.403301e+001	-1.561509e+002	-2.270571e+000	1.675301e+002
9170024900	-2.171566e+001	1.613723e+002	-2.061693e+001	1.656207e+002	-2.406720e+001	-1.569266e+002	-2.277709e+000	1.674215e+002
9180024600	-2.142456e+001	1.643631e+002	-2.061389e+001	1.652812e+002	-2.405093e+001	-1.573829e+002	-2.282537e+000	1.674517e+002
9190024300	-2.127480e+001	1.662353e+002	-2.066871e+001	1.647464e+002	-2.396989e+001	-1.578703e+002	-2.276823e+000	1.673705e+002
9200024000	-2.114162e+001	1.686088e+002	-2.065580e+001	1.646658e+002	-2.422220e+001	-1.576561e+002	-2.291327e+000	1.675214e+002
9210023700	-2.105968e+001	1.715710e+002	-2.077903e+001	1.642606e+002	-2.420327e+001	-1.574154e+002	-2.322285e+000	1.676795e+002
9220023400	-2.071980e+001	1.734383e+002	-2.063734e+001	1.638716e+002	-2.417218e+001	-1.583839e+002	-2.325404e+000	1.677062e+002
9230023100	-2.060750e+001	1.758171e+002	-2.075105e+001	1.633718e+002	-2.421598e+001	-1.578188e+002	-2.327116e+000	1.678916e+002
9240022800	-2.048303e+001	1.773696e+002	-2.083861e+001	1.628607e+002	-2.419100e+001	-1.589733e+002	-2.353681e+000	1.680643e+002
9250022500	-2.019274e+001	1.789146e+002	-2.076154e+001	1.629883e+002	-2.408843e+001	-1.591951e+002	-2.354372e+000	1.682550e+002
9260022200	-2.000515e+001	-1.798085e+002	-2.077488e+001	1.627294e+002	-2.404830e+001	-1.586336e+002	-2.371025e+000	1.683019e+002
9270021900	-1.986904e+001	-1.785000e+002	-2.075207e+001	1.629023e+002	-2.396748e+001	-1.599054e+002	-2.382174e+000	1.684148e+002
9280021600	-1.968798e+001	-1.774913e+002	-2.081139e+001	1.628456e+002	-2.394657e+001	-1.595980e+002	-2.369794e+000	1.686857e+002
9290021300	-1.943771e+001	-1.768021e+002	-2.071373e+001	1.624011e+002	-2.391242e+001	-1.602787e+002	-2.390285e+000	1.687356e+002
9300021000	-1.925354e+001	-1.761156e+002	-2.069718e+001	1.617472e+002	-2.374640e+001	-1.616480e+002	-2.381570e+000	1.686684e+002
9310020700	-1.895077e+001	-1.750467e+002	-2.073508e+001	1.620349e+002	-2.362226e+001	-1.620949e+002	-2.390368e+000	1.685967e+002
9320020400	-1.877984e+001	-1.754405e+002	-2.065392e+001	1.612806e+002	-2.354502e+001	-1.622413e+002	-2.419127e+000	1.685976e+002
9330020100	-1.841601e+001	-1.744866e+002	-2.056785e+001	1.611481e+002	-2.360610e+001	-1.626395e+002	-2.405434e+000	1.683412e+002
9340019800	-1.824920e+001	-1.741370e+002	-2.060812e+001	1.607132e+002	-2.350685e+001	-1.637472e+002	-2.414126e+000	1.683233e+002
9350019500	-1.811921e+001	-1.736013e+002	-2.051611e+001	1.598919e+002	-2.350400e+001	-1.644251e+002	-2.406710e+000	1.682240e+002
9360019200	-1.783492e+001	-1.738407e+002	-2.046410e+001	1.587710e+002	-2.344917e+001	-1.654644e+002	-2.433034e+000	1.681220e+002
9370018900	-1.762506e+001	-1.732826e+002	-2.048362e+001	1.583753e+002	-2.335531e+001	-1.668020e+002	-2.423234e+000	1.682133e+002
9380018600	-1.749776e+001	-1.730013e+002	-2.039111e+001	1.579932e+002	-2.335178e+001	-1.671595e+002	-2.417280e+000	1.681599e+002
9390018300	-1.725711e+001	-1.725640e+002	-2.038785e+001	1.575876e+002	-2.344421e+001	-1.680844e+002	-2.420013e+000	1.680989e+002
9400018000	-1.708033e+001	-1.729597e+002	-2.036098e+001	1.570456e+002	-2.332828e+001	-1.695520e+002	-2.434260e+000	1.682693e+002
9410017700	-1.695821e+001	-1.726133e+002	-2.032395e+001	1.562749e+002	-2.331757e+001	-1.695892e+002	-2.431567e+000	1.683301e+002
9420017400	-1.683520e+001	-1.723719e+002	-2.033330e+001	1.556530e+002	-2.330576e+001	-1.710370e+002	-2.435065e+000	1.683625e+002
9430017100	-1.670403e+001	-1.722318e+002	-2.029380e+001	1.549700e+002	-2.331700e+001	-1.723664e+002	-2.459126e+000	1.684505e+002
9440016800	-1.661368e+001	-1.730540e+002	-2.028632e+001	1.542802e+002	-2.329251e+001	-1.731460e+002	-2.456174e+000	1.686781e+002
9450016500	-1.653101e+001	-1.726877e+002	-2.026797e+001	1.534333e+002	-2.328021e+001	-1.737957e+002	-2.464330e+000	1.685939e+002
9460016200	-1.639244e+001	-1.732575e+002	-2.025956e+001	1.530994e+002	-2.324146e+001	-1.747828e+002	-2.477703e+000	1.686958e+002
9470015900	-1.632141e+001	-1.734873e+002	-2.033650e+001	1.523817e+002	-2.322585e+001	-1.751627e+002	-2.495487e+000	1.686521e+002
9480015600	-1.618447e+001	-1.741377e+002	-2.031696e+001	1.520104e+002	-2.314394e+001	-1.760116e+002	-2.492870e+000	1.685952e+002
9490015300	-1.603551e+001	-1.747008e+002	-2.025900e+001	1.513091e+002	-2.333576e+001	-1.770768e+002	-2.504588e+000	1.684639e+002
9500015000	-1.593483e+001	-1.747320e+002	-2.028423e+001	1.501706e+002	-2.322729e+001	-1.777557e+002	-2.544597e+000	1.683294e+002
9510014700	-1.583179e+001	-1.755063e+002	-2.029421e+001	1.499329e+002	-2.317231e+001	-1.786971e+002	-2.548122e+000	1.681154e+002
9520014400	-1.578714e+001	-1.759779e+002	-2.022800e+001	1.492564e+002	-2.322392e+001	1.798521e+002	-2.553124e+000	1.679265e+002
9530014100	-1.570672e+001	-1.765071e+002	-2.033618e+001	1.487735e+002	-2.332011e+001	1.796613e+002	-2.562821e+000	1.679391e+002
9540013800	-1.561405e+001	-1.771579e+002	-2.028548e+001	1.478060e+002	-2.330869e+001	1.785319e+002	-2.555697e+000	1.677906e+002
9550013500	-1.552112e+001	-1.773989e+002	-2.027097e+001	1.471694e+002	-2.321366e+001	1.768749e+002	-2.552374e+000	1.677685e+002
9560013200	-1.544967e+001	-1.772702e+002	-2.027950e+001	1.468231e+002	-2.317766e+001	1.767126e+002	-2.575863e+000	1.677839e+002
9570012900	-1.536507e+001	-1.778497e+002	-2.022060e+001	1.457586e+002	-2.327976e+001	1.755782e+002	-2.561791e+000	1.678132e+002
9580012600	-1.531307e+001	-1.783386e+002	-2.016448e+001	1.452317e+002	-2.321602e+001	1.748542e+002	-2.588730e+000	1.678589e+002
9590012300	-1.528838e+001	-1.788610e+002	-2.011608e+001	1.449459e+002	-2.316387e+001	1.730451e+002	-2.589257e+000	1.678848e+002
9600012000	-1.529735e+001	-1.795246e+002	-2.009926e+001	1.436244e+002	-2.313962e+001	1.730523e+002	-2.590217e+000	1.679271e+002
9610011700	-1.525893e+001	1.799110e+002	-2.017545e+001	1.433105e+002	-2.309353e+001	1.713776e+002	-2.594426e+000	1.681775e+002
9620011400	-1.522313e+001	1.791799e+002	-2.013888e+001	1.419154e+002	-2.313186e+001	1.703152e+002	-2.606647e+000	1.682945e+002
9630011100	-1.526336e+001	1.784990e+002	-2.020029e+001	1.411221e+002	-2.327552e+001	1.691085e+002	-2.602765e+000	1.682975e+002
9640010800	-1.529165e+001	1.778823e+002	-2.018312e+001	1.401362e+002	-2.324662e+001	1.684598e+002	-2.644756e+000	1.680912e+002
9650010500	-1.523101e+001	1.768425e+002	-2.014962e+001	1.398018e+002	-2.313831e+001	1.675108e+002	-2.658030e+000	1.682926e+002
9660010200	-1.528504e+001	1.759767e+002	-2.015896e+001	1.390028e+002	-2.322880e+001	1.658252e+002	-2.691841e+000	1.680241e+002
9670009900	-1.527090e+001	1.753110e+002	-2.016474e+001	1.378787e+002	-2.326708e+001	1.641501e+002	-2.691559e+000	1.679872e+002
9680009600	-1.533788e+001	1.739555e+002	-2.015815e+001	1.368682e+002	-2.324177e+001	1.636876e+002	-2.731523e+000	1.678204e+002
9690009300	-1.527551e+001	1.734199e+002	-2.020619e+001	1.363978e+002	-2.324876e+001	1.627733e+002	-2.728768e+000	1.676606e+002
9700009000	-1.528676e+001	1.723762e+002	-2.021204e+001	1.352278e+002	-2.319075e+001	1.607357e+002	-2.727073e+000	1.677244e+002
9710008700	-1.531972e+001	1.715848e+002	-2.016907e+001	1.347601e+002	-2.328658e+001	1.606862e+002	-2.735065e+000	1.676237e+002
9720008400	-1.538631e+001	1.705371e+002	-2.014806e+001	1.337025e+002	-2.334675e+001	1.586483e+002	-2.720831e+000	1.675421e+002
9730008100	-1.544120e+001	1.700372e+002	-2.027088e+001	1.326504e+002	-2.334800e+001	1.574932e+002	-2.751026e+000	1.675410e+002
9740007800	-1.548505e+001	1.691270e+002	-2.014403e+001	1.316943e+002	-2.330864e+001	1.565559e+002	-2.751071e+000	1.676414e+002
9750007500	-1.556850e+001	1.678358e+002	-2.020404e+001	1.308621e+002	-2.333987e+001	1.552998e+002	-2.755149e+000	1.677083e+002
9760007200	-1.559724e+001	1.666116e+002	-2.018194e+001	1.299895e+002	-2.342011e+001	1.541047e+002	-2.749929e+000	1.676572e+002
9770006900	-1.572821e+001	1.656524e+002	-2.025076e+001	1.292533e+002	-2.339564e+001	1.528286e+002	-2.739732e+000	1.677949e+002
9780006600	-1.587844e+001	1.643629e+002	-2.020571e+001	1.276396e+002	-2.349617e+001	1.510905e+002	-2.735846e+000	1.678069e+002
9790006300	-1.601259e+001	1.631338e+002	-2.024815e+001	1.273987e+002	-2.337641e+001	1.506342e+002	-2.750606e+000	1.679794e+002
9800006000	-1.617284e+001	1.619328e+002	-2.031491e+001	1.259131e+002	-2.343838e+001	1.483253e+002	-2.749376e+000	1.678204e+002
9810005700	-1.631416e+001	1.608753e+002	-2.024047e+001	1.250386e+002	-2.365482e+001	1.473031e+002	-2.760121e+000	1.677670e+002
9820005400	-1.645750e+001	1.595347e+002	-2.031948e+001	1.243322e+002	-2.356658e+001	1.453662e+002	-2.794222e+000	1.677039e+002
9830005100	-1.664721e+001	1.580278e+002	-2.031295e+001	1.229370e+002	-2.358784e+001	1.439909e+002	-2.818762e+000	1.675287e+002
9840004800	-1.673996e+001	1.566932e+002	-2.030088e+001	1.212752e+002	-2.371675e+001	1.416131e+002	-2.823256e+000	1.673739e+002
9850004500	-1.695208e+001	1.553724e+002	-2.038306e+001	1.206383e+002	-2.374693e+001	1.406169e+002	-2.829121e+000	1.672398e+002
9860004200	-1.713903e+001	1.544683e+002	-2.037125e+001	1.189624e+002	-2.382425e+001	1.391495e+002	-2.843326e+000	1.671060e+002
9870003900	-1.735880e+001	1.523200e+002	-2.039251e+001	1.180898e+002	-2.398915e+001	1.362801e+002	-2.832557e+000	1.669566e+002
9880003600	-1.760842e+001	1.513454e+002	-2.044394e+001	1.164939e+002	-2.405366e+001	1.346783e+002	-2.870289e+000	1.668108e+002
9890003300	-1.792289e+001	1.497674e+002	-2.055850e+001	1.149025e+002	-2.410868e+001	1.328252e+002	-2.869461e+000	1.668482e+002
9900003000	-1.819559e+001	1.479608e+002	-2.059026e+001	1.137929e+002	-2.420312e+001	1.312635e+002	-2.853706e+000	1.668683e+002
9910002700	-1.853868e+001	1.468535e+002	-2.073945e+001	1.127045e+002	-2.443132e+001	1.297217e+002	-2.868883e+000	1.669672e+002
9920002400	-1.889269e+001	1.456523e+002	-2.075328e+001	1.109871e+002	-2.457442e+001	1.275647e+002	-2.876421e+000	1.668690e+002
9930002100	-1.932345e+001	1.435263e+002	-2.089916e+001	1.094595e+002	-2.476136e+001	1.265680e+002	-2.870447e+000	1.668813e+002
9940001800	-1.981644e+001	1.418442e+002	-2.097952e+001	1.083754e+002	-2.490064e+001	1.244742e+002	-2.867878e+000	1.667704e+002
9950001500	-2.021263e+001	1.405419e+002	-2.108115e+001	1.072444e+002	-2.521959e+001	1.233152e+002	-2.858846e+000	1.666587e+002
9960001200	-2.077193e+001	1.390310e+002	-2.125721e+001	1.061002e+002	-2.530237e+001	1.209125e+002	-2.889817e+000	1.665134e+002
9970000900	-2.122647e+001	1.371073e+002	-2.127235e+001	1.048070e+002	-2.544451e+001	1.197192e+002	-2.896781e+000	1.664886e+002
9980000600	-2.179829e+001	1.351424e+002	-2.144909e+001	1.039662e+002	-2.559467e+001	1.173155e+002	-2.910606e+000	1.663768e+002
9990000300	-2.247140e+001	1.325517e+002	-2.158710e+001	1.018042e+002	-2.580499e+001	1.154005e+002	-2.927404e+000	1.662663e+002
10000000000	-2.323849e+001	1.301235e+002	-2.171785e+001	1.007252e+002	-2.603275e+001	1.141991e+002	-2.978715e+000	1.660657e+002

!Noise Parameters
!Freq  NFmin(dB)  Mag(GammaOpt)  Ang(GammaOpt)(deg)  rn(normalized)
6.5e+008 1.2029 0.43726 66.415 0.29065
7e+008   1.1686 0.44677 69.347 0.27188
7.5e+008 1.1583 0.39467 70.517 0.27487
8e+008   1.1381 0.41664 74.307 0.24362
8.5e+008 1.1623 0.4069  76.308 0.25206
9e+008   1.1584 0.42526 77.191 0.22827
9.5e+008 1.1816 0.37885 82.072 0.25309
1e+009   1.2190 0.38477 86.923 0.20294