!Agilent Technologies,E5071C,MY46316587,B.13.01
!Date: Wed Dec 06 12:10:15 2017
!Data & Calibration Information:
!Freq	S11:SOLT2(ON)	S21:SOLT2(ON)	S12:SOLT2(ON)	S22:SOLT2(ON)
!PortZ  Port1:50+j0    Port2:50+j0
!Above PortZ is port z conversion or system Z0 setting when saving the data.
!When reading, reference impedance value at option line is always used.
# Hz S RI R 50
300000	8.371803e-001	4.968739e-002	9.714179e-004	-5.893461e-005	2.696240e-003	1.639415e-003	9.926152e-001	-3.490446e-003
10299700	9.418536e-001	4.931097e-003	-4.142219e-002	-1.490353e-002	3.033583e-005	2.451935e-005	9.766983e-001	-3.585360e-002
20299400	9.411054e-001	-8.560665e-003	-3.999031e-002	-2.149219e-002	1.456022e-004	2.825383e-004	9.689294e-001	-5.415835e-002
30299100	9.407757e-001	-1.734523e-002	-4.210405e-002	-1.178821e-002	-1.647857e-004	4.796226e-004	9.652786e-001	-7.327505e-002
40298800	9.409896e-001	-2.575748e-002	-3.369498e-002	-9.152106e-003	-3.641892e-005	5.101880e-004	9.618862e-001	-9.481192e-002
50298500	9.408199e-001	-3.444617e-002	-2.400779e-002	-1.328813e-002	-4.676925e-005	4.508212e-004	9.589090e-001	-1.151806e-001
60298200	9.402673e-001	-4.313241e-002	-1.511109e-002	-2.104432e-002	-2.491487e-004	4.977172e-004	9.552669e-001	-1.360284e-001
70297900	9.396833e-001	-5.096611e-002	-8.082423e-003	-3.043334e-002	-2.850046e-004	9.348005e-004	9.510838e-001	-1.566913e-001
80297600	9.390788e-001	-5.885774e-002	-1.618608e-003	-4.023187e-002	1.234745e-004	9.733075e-004	9.467127e-001	-1.777176e-001
90297300	9.382217e-001	-6.699792e-002	3.990086e-003	-5.063603e-002	2.077735e-004	1.287748e-003	9.414543e-001	-1.974161e-001
100297000	9.372995e-001	-7.511719e-002	9.974749e-003	-6.090709e-002	-3.211346e-005	1.645210e-003	9.354552e-001	-2.179798e-001
110296700	9.362094e-001	-8.350529e-002	1.606745e-002	-7.066175e-002	-5.142158e-005	1.520291e-003	9.292378e-001	-2.381351e-001
120296400	9.355389e-001	-9.058115e-002	2.300166e-002	-8.133219e-002	2.370738e-004	1.580655e-003	9.224730e-001	-2.580224e-001
130296100	9.345063e-001	-9.712662e-002	3.036320e-002	-9.208161e-002	3.428951e-004	2.298539e-003	9.150142e-001	-2.763072e-001
140295800	9.333701e-001	-1.055644e-001	3.857789e-002	-1.041533e-001	2.447419e-004	1.905395e-003	9.075760e-001	-2.960505e-001
150295500	9.323423e-001	-1.136383e-001	4.745204e-002	-1.161819e-001	4.473201e-004	2.120248e-003	8.996973e-001	-3.154258e-001
160295200	9.311447e-001	-1.208445e-001	5.658921e-002	-1.295120e-001	9.559958e-005	2.469200e-003	8.909786e-001	-3.334560e-001
170294900	9.302385e-001	-1.287003e-001	6.630090e-002	-1.445624e-001	2.692890e-004	2.324235e-003	8.820888e-001	-3.528336e-001
180294600	9.289821e-001	-1.354127e-001	7.615355e-002	-1.605120e-001	7.190625e-004	2.317089e-003	8.735515e-001	-3.699896e-001
190294300	9.268334e-001	-1.429513e-001	8.508538e-002	-1.772054e-001	5.278267e-004	2.309343e-003	8.644793e-001	-3.883046e-001
200294000	9.257987e-001	-1.496683e-001	9.501828e-002	-1.949245e-001	6.690226e-004	2.667756e-003	8.546973e-001	-4.060486e-001
210293700	9.241480e-001	-1.584842e-001	1.047135e-001	-2.134194e-001	5.522402e-004	2.635773e-003	8.448248e-001	-4.236669e-001
220293400	9.230334e-001	-1.630763e-001	1.144125e-001	-2.329926e-001	7.472634e-004	2.470837e-003	8.351822e-001	-4.395618e-001
230293100	9.214456e-001	-1.720295e-001	1.227230e-001	-2.534329e-001	7.238639e-004	2.554595e-003	8.234317e-001	-4.567676e-001
240292800	9.197533e-001	-1.792962e-001	1.324812e-001	-2.746858e-001	8.978818e-004	2.482453e-003	8.124367e-001	-4.734789e-001
250292500	9.182333e-001	-1.867133e-001	1.433228e-001	-2.976322e-001	1.119136e-003	2.817126e-003	8.007659e-001	-4.887978e-001
260292200	9.165393e-001	-1.941318e-001	1.540916e-001	-3.234139e-001	9.912079e-004	2.742553e-003	7.890690e-001	-5.053310e-001
270291900	9.140987e-001	-2.017984e-001	1.623787e-001	-3.525221e-001	9.020110e-004	2.567532e-003	7.770672e-001	-5.207573e-001
280291600	9.121591e-001	-2.081030e-001	1.691329e-001	-3.811910e-001	1.114723e-003	2.666128e-003	7.649283e-001	-5.363100e-001
290291300	9.103976e-001	-2.156359e-001	1.756415e-001	-4.102774e-001	9.626114e-004	2.683602e-003	7.518774e-001	-5.513514e-001
300291000	9.082093e-001	-2.233777e-001	1.810291e-001	-4.404681e-001	1.039340e-003	2.812685e-003	7.380014e-001	-5.661609e-001
310290700	9.060270e-001	-2.297094e-001	1.869138e-001	-4.717724e-001	1.198996e-003	2.663082e-003	7.246581e-001	-5.801363e-001
320290400	9.041937e-001	-2.357019e-001	1.916355e-001	-5.043064e-001	1.359776e-003	2.821324e-003	7.113460e-001	-5.934017e-001
330290100	9.030077e-001	-2.414129e-001	1.953335e-001	-5.373120e-001	1.291001e-003	2.606748e-003	6.969906e-001	-6.066465e-001
340289800	9.016086e-001	-2.481575e-001	1.985416e-001	-5.724425e-001	1.071346e-003	3.058161e-003	6.827854e-001	-6.200914e-001
350289500	8.989282e-001	-2.568496e-001	1.998774e-001	-6.094095e-001	1.142596e-003	2.699620e-003	6.675099e-001	-6.331373e-001
360289200	8.967919e-001	-2.647294e-001	2.001513e-001	-6.477894e-001	1.097488e-003	2.793046e-003	6.522394e-001	-6.459001e-001
370288900	8.947314e-001	-2.711416e-001	1.991702e-001	-6.888075e-001	9.767320e-004	2.697824e-003	6.369391e-001	-6.577318e-001
380288600	8.923858e-001	-2.790861e-001	1.949917e-001	-7.308354e-001	1.133238e-003	2.493671e-003	6.214665e-001	-6.694269e-001
390288300	8.900256e-001	-2.840719e-001	1.915287e-001	-7.733449e-001	1.005389e-003	2.618008e-003	6.066079e-001	-6.800687e-001
400288000	8.882230e-001	-2.909244e-001	1.827187e-001	-8.170370e-001	1.103699e-003	2.728527e-003	5.916857e-001	-6.904597e-001
410287700	8.853994e-001	-2.991395e-001	1.738999e-001	-8.609449e-001	1.101969e-003	2.735270e-003	5.753322e-001	-7.013242e-001
420287400	8.827602e-001	-3.063647e-001	1.620456e-001	-9.063364e-001	1.004830e-003	2.745657e-003	5.585261e-001	-7.108797e-001
430287100	8.796877e-001	-3.138567e-001	1.489341e-001	-9.519645e-001	8.748242e-004	2.695091e-003	5.419516e-001	-7.203092e-001
440286800	8.777705e-001	-3.189037e-001	1.353359e-001	-9.993033e-001	9.441254e-004	2.518509e-003	5.263345e-001	-7.288958e-001
450286500	8.760031e-001	-3.249756e-001	1.199974e-001	-1.048137e+000	7.146086e-004	2.423049e-003	5.092723e-001	-7.372388e-001
460286200	8.731630e-001	-3.335960e-001	1.013077e-001	-1.098677e+000	8.306800e-004	2.483292e-003	4.924352e-001	-7.456310e-001
470285900	8.706415e-001	-3.408216e-001	7.982467e-002	-1.152590e+000	6.993790e-004	2.488501e-003	4.747308e-001	-7.527757e-001
480285600	8.683508e-001	-3.475171e-001	5.297807e-002	-1.207352e+000	4.703153e-004	2.327322e-003	4.569691e-001	-7.599212e-001
490285300	8.665167e-001	-3.538342e-001	2.210316e-002	-1.261149e+000	5.721516e-004	2.151888e-003	4.398666e-001	-7.662486e-001
500285000	8.633257e-001	-3.613669e-001	-1.321841e-002	-1.314746e+000	1.024730e-004	2.093077e-003	4.211780e-001	-7.720883e-001
510284700	8.608888e-001	-3.686531e-001	-5.139295e-002	-1.368378e+000	3.476454e-004	2.181654e-003	4.031038e-001	-7.774037e-001
520284400	8.575695e-001	-3.763173e-001	-9.312461e-002	-1.423862e+000	-1.024776e-004	1.869870e-003	3.839148e-001	-7.824973e-001
530284100	8.561343e-001	-3.832190e-001	-1.412502e-001	-1.478159e+000	-2.563333e-004	1.952725e-003	3.659435e-001	-7.860946e-001
540283800	8.526384e-001	-3.919015e-001	-1.923670e-001	-1.531921e+000	-6.507601e-004	2.247996e-003	3.471265e-001	-7.895625e-001
550283500	8.496631e-001	-3.999762e-001	-2.519260e-001	-1.585813e+000	-5.644945e-004	1.593326e-003	3.287859e-001	-7.921085e-001
560283200	8.458848e-001	-4.085369e-001	-3.158301e-001	-1.637997e+000	-8.543830e-004	1.793258e-003	3.099145e-001	-7.940630e-001
570282900	8.415000e-001	-4.171250e-001	-3.877983e-001	-1.686578e+000	-1.163627e-003	1.638288e-003	2.920624e-001	-7.954457e-001
580282600	8.371343e-001	-4.244864e-001	-4.624650e-001	-1.726814e+000	-1.301155e-003	1.801505e-003	2.746773e-001	-7.959402e-001
590282300	8.344482e-001	-4.305573e-001	-5.364255e-001	-1.773134e+000	-1.508388e-003	1.832387e-003	2.567958e-001	-7.962518e-001
600282000	8.322690e-001	-4.389666e-001	-6.282374e-001	-1.817349e+000	-1.904305e-003	1.368962e-003	2.387564e-001	-7.954500e-001
610281700	8.285702e-001	-4.479558e-001	-7.331787e-001	-1.852885e+000	-2.221845e-003	1.438383e-003	2.212739e-001	-7.931540e-001
620281400	8.232828e-001	-4.576548e-001	-8.436253e-001	-1.875840e+000	-2.651153e-003	1.500175e-003	2.045873e-001	-7.893584e-001
630281100	8.173303e-001	-4.663725e-001	-9.607684e-001	-1.888084e+000	-3.118965e-003	1.560627e-003	1.877636e-001	-7.852343e-001
640280800	8.117595e-001	-4.760917e-001	-1.085454e+000	-1.887948e+000	-3.430482e-003	1.566120e-003	1.725641e-001	-7.802133e-001
650280500	8.050515e-001	-4.856688e-001	-1.215141e+000	-1.869506e+000	-4.014946e-003	1.727778e-003	1.573623e-001	-7.739550e-001
660280200	7.975146e-001	-4.949707e-001	-1.342141e+000	-1.832880e+000	-4.311274e-003	1.891851e-003	1.434511e-001	-7.674958e-001
670279900	7.897197e-001	-5.036867e-001	-1.465192e+000	-1.775811e+000	-4.947692e-003	2.241306e-003	1.314199e-001	-7.603572e-001
680279600	7.806093e-001	-5.109433e-001	-1.582760e+000	-1.695882e+000	-5.390649e-003	2.543247e-003	1.209110e-001	-7.528300e-001
690279300	7.700725e-001	-5.177225e-001	-1.679110e+000	-1.595514e+000	-5.864910e-003	2.772975e-003	1.123687e-001	-7.468292e-001
700279000	7.598268e-001	-5.235938e-001	-1.752972e+000	-1.481626e+000	-6.197681e-003	3.067608e-003	1.040128e-001	-7.415285e-001
710278700	7.506178e-001	-5.276616e-001	-1.802585e+000	-1.367921e+000	-6.272917e-003	3.648744e-003	9.640568e-002	-7.371007e-001
720278400	7.419696e-001	-5.322323e-001	-1.835799e+000	-1.254870e+000	-6.377251e-003	3.984822e-003	8.933291e-002	-7.333147e-001
730278100	7.326555e-001	-5.366055e-001	-1.846663e+000	-1.138175e+000	-7.138539e-003	4.295549e-003	8.350158e-002	-7.308568e-001
740277800	7.218995e-001	-5.382268e-001	-1.836678e+000	-1.029532e+000	-7.125681e-003	4.891349e-003	7.710454e-002	-7.303340e-001
750277500	7.131568e-001	-5.395673e-001	-1.807542e+000	-9.303799e-001	-6.821562e-003	5.366060e-003	7.000757e-002	-7.305508e-001
760277200	7.049660e-001	-5.407353e-001	-1.760625e+000	-8.453398e-001	-7.239372e-003	5.644365e-003	6.368668e-002	-7.318734e-001
770276900	6.982582e-001	-5.406689e-001	-1.699434e+000	-7.816651e-001	-7.143469e-003	5.944586e-003	5.583416e-002	-7.341891e-001
780276600	6.919273e-001	-5.414599e-001	-1.635735e+000	-7.389201e-001	-6.914302e-003	6.129468e-003	4.705469e-002	-7.375122e-001
790276300	6.860264e-001	-5.424191e-001	-1.572215e+000	-7.147948e-001	-7.126065e-003	6.622806e-003	3.681447e-002	-7.398639e-001
800276000	6.808026e-001	-5.425901e-001	-1.511711e+000	-7.085672e-001	-7.375214e-003	6.333781e-003	2.546851e-002	-7.429222e-001
810275700	6.762605e-001	-5.429905e-001	-1.458133e+000	-7.164548e-001	-7.320074e-003	6.641705e-003	1.291350e-002	-7.450833e-001
820275400	6.731904e-001	-5.442276e-001	-1.414126e+000	-7.363077e-001	-7.274903e-003	6.895234e-003	1.275720e-004	-7.465750e-001
830275100	6.688767e-001	-5.458049e-001	-1.378265e+000	-7.663261e-001	-7.350392e-003	6.847968e-003	-1.401861e-002	-7.468417e-001
840274800	6.649265e-001	-5.487542e-001	-1.359860e+000	-8.034646e-001	-7.595427e-003	6.974961e-003	-2.931051e-002	-7.461790e-001
850274500	6.608422e-001	-5.506877e-001	-1.353233e+000	-8.391518e-001	-7.780385e-003	7.133012e-003	-4.338485e-002	-7.440406e-001
860274200	6.576650e-001	-5.520165e-001	-1.353268e+000	-8.735828e-001	-7.748241e-003	7.231504e-003	-5.801555e-002	-7.417449e-001
870273900	6.549652e-001	-5.546794e-001	-1.359585e+000	-9.077291e-001	-7.806143e-003	7.296486e-003	-7.264865e-002	-7.382040e-001
880273600	6.522293e-001	-5.582877e-001	-1.368996e+000	-9.359163e-001	-8.410492e-003	7.227842e-003	-8.717745e-002	-7.343734e-001
890273300	6.493127e-001	-5.625247e-001	-1.382072e+000	-9.673121e-001	-8.370096e-003	7.156934e-003	-1.018550e-001	-7.309257e-001
900273000	6.446946e-001	-5.663505e-001	-1.397531e+000	-9.983081e-001	-8.785775e-003	7.509189e-003	-1.158331e-001	-7.255786e-001
910272700	6.406422e-001	-5.695711e-001	-1.418443e+000	-1.031540e+000	-9.386099e-003	7.526902e-003	-1.303316e-001	-7.205136e-001
920272400	6.357867e-001	-5.731610e-001	-1.443690e+000	-1.062613e+000	-9.460035e-003	7.892477e-003	-1.450183e-001	-7.143749e-001
930272100	6.315150e-001	-5.762229e-001	-1.473641e+000	-1.093305e+000	-9.759819e-003	8.038438e-003	-1.589848e-001	-7.084812e-001
940271800	6.271415e-001	-5.798822e-001	-1.507291e+000	-1.125292e+000	-1.015158e-002	7.849522e-003	-1.730540e-001	-7.017205e-001
950271500	6.224333e-001	-5.828519e-001	-1.550739e+000	-1.152425e+000	-1.039523e-002	8.499714e-003	-1.866902e-001	-6.941597e-001
960271200	6.181252e-001	-5.857305e-001	-1.594781e+000	-1.179128e+000	-1.075264e-002	8.636993e-003	-2.001475e-001	-6.867617e-001
970270900	6.146766e-001	-5.891915e-001	-1.645082e+000	-1.203045e+000	-1.103749e-002	8.788606e-003	-2.130142e-001	-6.781565e-001
980270600	6.105473e-001	-5.929133e-001	-1.698628e+000	-1.221800e+000	-1.138087e-002	8.698378e-003	-2.253935e-001	-6.687660e-001
990270300	6.066007e-001	-5.975957e-001	-1.754338e+000	-1.233689e+000	-1.199666e-002	8.896667e-003	-2.368963e-001	-6.588556e-001
1000270000	6.017292e-001	-6.028620e-001	-1.810737e+000	-1.238812e+000	-1.231854e-002	9.159509e-003	-2.484295e-001	-6.492989e-001
1010269700	5.955471e-001	-6.072553e-001	-1.863395e+000	-1.241837e+000	-1.287375e-002	9.428596e-003	-2.589786e-001	-6.392398e-001
1020269400	5.896943e-001	-6.110248e-001	-1.915829e+000	-1.245239e+000	-1.327286e-002	9.904567e-003	-2.701406e-001	-6.289883e-001
1030269100	5.832219e-001	-6.147560e-001	-1.969648e+000	-1.247795e+000	-1.366430e-002	1.025766e-002	-2.801543e-001	-6.176657e-001
1040268800	5.780652e-001	-6.186105e-001	-2.028237e+000	-1.251380e+000	-1.417640e-002	1.056793e-002	-2.908051e-001	-6.066930e-001
1050268500	5.720945e-001	-6.215705e-001	-2.087849e+000	-1.251400e+000	-1.451786e-002	1.101141e-002	-3.012616e-001	-5.946214e-001
1060268200	5.667550e-001	-6.252410e-001	-2.150913e+000	-1.247127e+000	-1.494587e-002	1.134124e-002	-3.106287e-001	-5.823134e-001
1070267900	5.613450e-001	-6.282705e-001	-2.216340e+000	-1.242845e+000	-1.518624e-002	1.175860e-002	-3.200887e-001	-5.693650e-001
1080267600	5.551750e-001	-6.314919e-001	-2.279715e+000	-1.233016e+000	-1.571899e-002	1.213917e-002	-3.290914e-001	-5.560068e-001
1090267300	5.499755e-001	-6.347483e-001	-2.347583e+000	-1.220174e+000	-1.605074e-002	1.260058e-002	-3.374305e-001	-5.429877e-001
1100267000	5.443241e-001	-6.378148e-001	-2.415168e+000	-1.201870e+000	-1.672363e-002	1.303225e-002	-3.453791e-001	-5.292692e-001
1110266700	5.389578e-001	-6.412614e-001	-2.481878e+000	-1.180577e+000	-1.710756e-002	1.323077e-002	-3.523191e-001	-5.153946e-001
1120266400	5.328035e-001	-6.449637e-001	-2.545700e+000	-1.152775e+000	-1.764597e-002	1.393563e-002	-3.590745e-001	-5.012292e-001
1130266100	5.256877e-001	-6.487746e-001	-2.605688e+000	-1.122878e+000	-1.827039e-002	1.463933e-002	-3.651700e-001	-4.872517e-001
1140265800	5.184288e-001	-6.506938e-001	-2.670217e+000	-1.095847e+000	-1.844003e-002	1.521564e-002	-3.712097e-001	-4.726368e-001
1150265500	5.108255e-001	-6.532167e-001	-2.731106e+000	-1.064766e+000	-1.886611e-002	1.577470e-002	-3.761755e-001	-4.584707e-001
1160265200	5.045630e-001	-6.549267e-001	-2.796785e+000	-1.034939e+000	-1.928859e-002	1.634037e-002	-3.810660e-001	-4.444084e-001
1170264900	4.981703e-001	-6.575821e-001	-2.861776e+000	-9.989462e-001	-1.966796e-002	1.716146e-002	-3.853614e-001	-4.296321e-001
1180264600	4.907751e-001	-6.592377e-001	-2.924819e+000	-9.584780e-001	-2.005464e-002	1.766736e-002	-3.890138e-001	-4.144448e-001
1190264300	4.840665e-001	-6.616534e-001	-2.989072e+000	-9.157811e-001	-2.040635e-002	1.852649e-002	-3.920450e-001	-3.993573e-001
1200264000	4.776049e-001	-6.632847e-001	-3.054666e+000	-8.698135e-001	-2.085464e-002	1.908571e-002	-3.937906e-001	-3.838381e-001
1210263700	4.711612e-001	-6.652340e-001	-3.116811e+000	-8.190180e-001	-2.117014e-002	1.976781e-002	-3.957718e-001	-3.683798e-001
1220263400	4.641609e-001	-6.671803e-001	-3.177096e+000	-7.653195e-001	-2.161305e-002	2.058534e-002	-3.966015e-001	-3.527215e-001
1230263100	4.571035e-001	-6.684853e-001	-3.235312e+000	-7.092303e-001	-2.177142e-002	2.139242e-002	-3.968011e-001	-3.368271e-001
1240262800	4.498274e-001	-6.706560e-001	-3.294371e+000	-6.519335e-001	-2.230239e-002	2.217598e-002	-3.970089e-001	-3.209504e-001
1250262500	4.418436e-001	-6.717127e-001	-3.347822e+000	-5.914108e-001	-2.257322e-002	2.323223e-002	-3.965077e-001	-3.052832e-001
1260262200	4.351812e-001	-6.726141e-001	-3.405214e+000	-5.285057e-001	-2.273757e-002	2.377061e-002	-3.953766e-001	-2.894040e-001
1270261900	4.274708e-001	-6.742842e-001	-3.458497e+000	-4.598243e-001	-2.307309e-002	2.509490e-002	-3.937061e-001	-2.732927e-001
1280261600	4.203440e-001	-6.743290e-001	-3.508155e+000	-3.894988e-001	-2.322362e-002	2.609994e-002	-3.909431e-001	-2.575073e-001
1290261300	4.125619e-001	-6.749107e-001	-3.556509e+000	-3.168104e-001	-2.328281e-002	2.675833e-002	-3.884145e-001	-2.421988e-001
1300261000	4.056429e-001	-6.747935e-001	-3.602473e+000	-2.434496e-001	-2.339291e-002	2.785154e-002	-3.847967e-001	-2.263768e-001
1310260700	3.988456e-001	-6.740777e-001	-3.645888e+000	-1.675549e-001	-2.367688e-002	2.859259e-002	-3.808445e-001	-2.111845e-001
1320260400	3.912848e-001	-6.743507e-001	-3.684974e+000	-8.687777e-002	-2.379250e-002	2.934252e-002	-3.758416e-001	-1.956238e-001
1330260100	3.841323e-001	-6.740457e-001	-3.724805e+000	-6.253166e-003	-2.372076e-002	3.052051e-002	-3.699306e-001	-1.808321e-001
1340259800	3.769393e-001	-6.732368e-001	-3.759608e+000	7.555934e-002	-2.383714e-002	3.167059e-002	-3.640279e-001	-1.665224e-001
1350259500	3.702201e-001	-6.724226e-001	-3.795062e+000	1.614713e-001	-2.404568e-002	3.249161e-002	-3.571255e-001	-1.523892e-001
1360259200	3.622521e-001	-6.715916e-001	-3.823871e+000	2.472512e-001	-2.406205e-002	3.352117e-002	-3.496226e-001	-1.385229e-001
1370258900	3.554138e-001	-6.699542e-001	-3.854070e+000	3.334392e-001	-2.396293e-002	3.452429e-002	-3.411068e-001	-1.252600e-001
1380258600	3.486778e-001	-6.685601e-001	-3.877799e+000	4.270331e-001	-2.416421e-002	3.570163e-002	-3.323633e-001	-1.120080e-001
1390258300	3.412041e-001	-6.676651e-001	-3.898346e+000	5.180468e-001	-2.384062e-002	3.679805e-002	-3.229197e-001	-9.953177e-002
1400258000	3.333732e-001	-6.649698e-001	-3.915870e+000	6.139679e-001	-2.367413e-002	3.802748e-002	-3.128866e-001	-8.674928e-002
1410257700	3.269106e-001	-6.624644e-001	-3.932906e+000	7.039195e-001	-2.357714e-002	3.885630e-002	-3.020635e-001	-7.483693e-002
1420257400	3.205392e-001	-6.608330e-001	-3.940174e+000	8.031419e-001	-2.342549e-002	4.024076e-002	-2.912955e-001	-6.290355e-002
1430257100	3.138489e-001	-6.582363e-001	-3.946546e+000	9.005193e-001	-2.304495e-002	4.109535e-002	-2.800812e-001	-5.150744e-002
1440256800	3.070930e-001	-6.551956e-001	-3.949079e+000	9.927715e-001	-2.277350e-002	4.220484e-002	-2.687379e-001	-4.084388e-002
1450256500	3.014187e-001	-6.518058e-001	-3.949923e+000	1.089814e+000	-2.246754e-002	4.302153e-002	-2.569325e-001	-3.032418e-002
1460256200	2.957969e-001	-6.490565e-001	-3.946011e+000	1.186460e+000	-2.199962e-002	4.434670e-002	-2.437475e-001	-2.019820e-002
1470255900	2.898551e-001	-6.467819e-001	-3.938982e+000	1.286028e+000	-2.169128e-002	4.530728e-002	-2.311008e-001	-1.069194e-002
1480255600	2.845320e-001	-6.434574e-001	-3.927418e+000	1.381055e+000	-2.128914e-002	4.631450e-002	-2.175237e-001	-2.376756e-003
1490255300	2.785288e-001	-6.405407e-001	-3.913600e+000	1.478242e+000	-2.085850e-002	4.757251e-002	-2.042997e-001	5.732755e-003
1500255000	2.728168e-001	-6.370818e-001	-3.896474e+000	1.577102e+000	-2.039466e-002	4.856807e-002	-1.901999e-001	1.255204e-002
1510254700	2.665375e-001	-6.333426e-001	-3.873877e+000	1.673235e+000	-2.004400e-002	4.960460e-002	-1.766821e-001	1.952909e-002
1520254400	2.621405e-001	-6.298944e-001	-3.849516e+000	1.767302e+000	-1.933001e-002	5.050418e-002	-1.621087e-001	2.531982e-002
1530254100	2.565651e-001	-6.261181e-001	-3.821046e+000	1.864932e+000	-1.843884e-002	5.156067e-002	-1.474096e-001	3.000714e-002
1540253800	2.509786e-001	-6.210193e-001	-3.787519e+000	1.957962e+000	-1.794403e-002	5.254193e-002	-1.325359e-001	3.310336e-002
1550253500	2.466937e-001	-6.165718e-001	-3.749999e+000	2.048117e+000	-1.715675e-002	5.339789e-002	-1.173953e-001	3.669001e-002
1560253200	2.429065e-001	-6.122634e-001	-3.716442e+000	2.136366e+000	-1.662406e-002	5.432398e-002	-1.026005e-001	3.960698e-002
1570252900	2.389458e-001	-6.078482e-001	-3.673333e+000	2.226232e+000	-1.581114e-002	5.494368e-002	-8.713296e-002	4.145082e-002
1580252600	2.357861e-001	-6.027612e-001	-3.626402e+000	2.311282e+000	-1.522782e-002	5.585848e-002	-7.054760e-002	4.313321e-002
1590252300	2.321796e-001	-5.984738e-001	-3.576543e+000	2.396418e+000	-1.431541e-002	5.705118e-002	-5.490827e-002	4.396746e-002
1600252000	2.284059e-001	-5.946024e-001	-3.527129e+000	2.480420e+000	-1.350881e-002	5.780707e-002	-3.951893e-002	4.502906e-002
1610251700	2.254456e-001	-5.889298e-001	-3.470235e+000	2.560638e+000	-1.291794e-002	5.870466e-002	-2.334919e-002	4.497994e-002
1620251400	2.216037e-001	-5.850929e-001	-3.411913e+000	2.641168e+000	-1.178627e-002	5.975322e-002	-8.083276e-003	4.468784e-002
1630251100	2.189154e-001	-5.801525e-001	-3.355594e+000	2.717457e+000	-1.103284e-002	6.001625e-002	7.266474e-003	4.426628e-002
1640250800	2.156394e-001	-5.756632e-001	-3.292311e+000	2.790830e+000	-9.979688e-003	6.074266e-002	2.204968e-002	4.292947e-002
1650250500	2.125206e-001	-5.706911e-001	-3.225800e+000	2.862997e+000	-9.008779e-003	6.132666e-002	3.696825e-002	4.051254e-002
1660250200	2.105713e-001	-5.669937e-001	-3.161660e+000	2.930243e+000	-8.197391e-003	6.210699e-002	4.972566e-002	3.885132e-002
1670249900	2.077389e-001	-5.616743e-001	-3.094142e+000	2.995833e+000	-7.221001e-003	6.290011e-002	6.212793e-002	3.554258e-002
1680249600	2.059145e-001	-5.563382e-001	-3.022265e+000	3.057557e+000	-6.233577e-003	6.357797e-002	7.584630e-002	3.131797e-002
1690249300	2.036724e-001	-5.523003e-001	-2.951121e+000	3.119247e+000	-5.328893e-003	6.408210e-002	8.970473e-002	2.600016e-002
1700249000	2.024011e-001	-5.469636e-001	-2.875316e+000	3.173905e+000	-4.307634e-003	6.465592e-002	1.019170e-001	2.035991e-002
1710248700	2.011256e-001	-5.435389e-001	-2.804397e+000	3.226340e+000	-3.316255e-003	6.501483e-002	1.149353e-001	1.417024e-002
1720248400	2.005187e-001	-5.389877e-001	-2.729261e+000	3.274744e+000	-2.281698e-003	6.532595e-002	1.275476e-001	7.839897e-003
1730248100	2.000199e-001	-5.342321e-001	-2.653914e+000	3.321720e+000	-1.153655e-003	6.588434e-002	1.395556e-001	7.738690e-005
1740247800	1.985642e-001	-5.302752e-001	-2.575451e+000	3.368979e+000	-3.449646e-004	6.630296e-002	1.518935e-001	-7.034666e-003
1750247500	1.984901e-001	-5.250379e-001	-2.496802e+000	3.407661e+000	8.170883e-004	6.630656e-002	1.629176e-001	-1.479363e-002
1760247200	1.977499e-001	-5.210266e-001	-2.418039e+000	3.449455e+000	1.903078e-003	6.691212e-002	1.747254e-001	-2.346772e-002
1770246900	1.977820e-001	-5.164507e-001	-2.341535e+000	3.485755e+000	2.716713e-003	6.705879e-002	1.870572e-001	-3.288940e-002
1780246600	1.979702e-001	-5.125909e-001	-2.263011e+000	3.518786e+000	3.660337e-003	6.734052e-002	1.972901e-001	-4.101138e-002
1790246300	1.978374e-001	-5.081066e-001	-2.183268e+000	3.549578e+000	4.742194e-003	6.752328e-002	2.081023e-001	-4.949675e-002
1800246000	1.984522e-001	-5.040470e-001	-2.101969e+000	3.575222e+000	6.012196e-003	6.798802e-002	2.180463e-001	-5.855084e-002
1810245700	1.992408e-001	-4.990598e-001	-2.022286e+000	3.599844e+000	6.891671e-003	6.791538e-002	2.278139e-001	-6.720059e-002
1820245400	1.993667e-001	-4.960509e-001	-1.944685e+000	3.621242e+000	7.632846e-003	6.803142e-002	2.373228e-001	-7.616668e-002
1830245100	1.998861e-001	-4.932689e-001	-1.868594e+000	3.644221e+000	8.954039e-003	6.814152e-002	2.455651e-001	-8.557655e-002
1840244800	2.003046e-001	-4.894054e-001	-1.787465e+000	3.661718e+000	1.001811e-002	6.826573e-002	2.535992e-001	-9.523952e-002
1850244500	2.016740e-001	-4.858946e-001	-1.713385e+000	3.672374e+000	1.100284e-002	6.808381e-002	2.612817e-001	-1.050143e-001
1860244200	2.020493e-001	-4.827038e-001	-1.635984e+000	3.686609e+000	1.179894e-002	6.815630e-002	2.682205e-001	-1.151930e-001
1870243900	2.022572e-001	-4.802127e-001	-1.557937e+000	3.700942e+000	1.293461e-002	6.825075e-002	2.742265e-001	-1.252494e-001
1880243600	2.034848e-001	-4.775208e-001	-1.484999e+000	3.704860e+000	1.349073e-002	6.829896e-002	2.801815e-001	-1.356318e-001
1890243300	2.042425e-001	-4.745653e-001	-1.408568e+000	3.710672e+000	1.436401e-002	6.809894e-002	2.859731e-001	-1.471933e-001
1900243000	2.053021e-001	-4.718609e-001	-1.331915e+000	3.715820e+000	1.544037e-002	6.795837e-002	2.909034e-001	-1.581351e-001
1910242700	2.066637e-001	-4.689244e-001	-1.259871e+000	3.715256e+000	1.647369e-002	6.830542e-002	2.951202e-001	-1.689659e-001
1920242400	2.077504e-001	-4.665526e-001	-1.187617e+000	3.716468e+000	1.723126e-002	6.788378e-002	2.991941e-001	-1.804772e-001
1930242100	2.091125e-001	-4.638176e-001	-1.115145e+000	3.713976e+000	1.807328e-002	6.770839e-002	3.028105e-001	-1.918269e-001
1940241800	2.103992e-001	-4.611602e-001	-1.040804e+000	3.710596e+000	1.888234e-002	6.754770e-002	3.062976e-001	-2.029764e-001
1950241500	2.118640e-001	-4.592258e-001	-9.712714e-001	3.703605e+000	1.975004e-002	6.737282e-002	3.101299e-001	-2.136778e-001
1960241200	2.137057e-001	-4.572372e-001	-9.028174e-001	3.695936e+000	2.064086e-002	6.726061e-002	3.136719e-001	-2.253631e-001
1970240900	2.153115e-001	-4.551374e-001	-8.359686e-001	3.685501e+000	2.144329e-002	6.690176e-002	3.170170e-001	-2.369696e-001
1980240600	2.171803e-001	-4.529141e-001	-7.703753e-001	3.670185e+000	2.217632e-002	6.660372e-002	3.199314e-001	-2.474037e-001
1990240300	2.190747e-001	-4.511711e-001	-7.075252e-001	3.655985e+000	2.307770e-002	6.647849e-002	3.230002e-001	-2.586968e-001
2000240000	2.204947e-001	-4.493120e-001	-6.434181e-001	3.642806e+000	2.362490e-002	6.609111e-002	3.254349e-001	-2.696827e-001
2010239700	2.232876e-001	-4.479100e-001	-5.859764e-001	3.623909e+000	2.444430e-002	6.562195e-002	3.271582e-001	-2.793357e-001
2020239400	2.247467e-001	-4.463767e-001	-5.250051e-001	3.606368e+000	2.512151e-002	6.548925e-002	3.280852e-001	-2.897999e-001
2030239100	2.261922e-001	-4.452587e-001	-4.681452e-001	3.590322e+000	2.552400e-002	6.527480e-002	3.291856e-001	-2.989431e-001
2040238800	2.272070e-001	-4.442659e-001	-4.105938e-001	3.576472e+000	2.634916e-002	6.505295e-002	3.294094e-001	-3.090718e-001
2050238500	2.287661e-001	-4.425553e-001	-3.562665e-001	3.558068e+000	2.697283e-002	6.497360e-002	3.293562e-001	-3.182533e-001
2060238200	2.305859e-001	-4.407950e-001	-2.994035e-001	3.534654e+000	2.749326e-002	6.436231e-002	3.293293e-001	-3.280278e-001
2070237900	2.322511e-001	-4.404119e-001	-2.489202e-001	3.516848e+000	2.845547e-002	6.423532e-002	3.286696e-001	-3.374508e-001
2080237600	2.332312e-001	-4.386429e-001	-1.922594e-001	3.494015e+000	2.879417e-002	6.414225e-002	3.277092e-001	-3.471064e-001
2090237300	2.350246e-001	-4.380834e-001	-1.403610e-001	3.474083e+000	2.948681e-002	6.387227e-002	3.265338e-001	-3.568085e-001
2100237000	2.369857e-001	-4.368480e-001	-9.118198e-002	3.449383e+000	3.033840e-002	6.326591e-002	3.245481e-001	-3.666261e-001
2110236700	2.386474e-001	-4.358957e-001	-4.384983e-002	3.424551e+000	3.074535e-002	6.290756e-002	3.232327e-001	-3.761836e-001
2120236400	2.398185e-001	-4.353060e-001	9.597501e-003	3.399333e+000	3.137273e-002	6.257978e-002	3.210486e-001	-3.859211e-001
2130236100	2.420957e-001	-4.349928e-001	5.317175e-002	3.371959e+000	3.198093e-002	6.240207e-002	3.184175e-001	-3.954653e-001
2140235800	2.436835e-001	-4.343275e-001	9.882075e-002	3.344650e+000	3.262097e-002	6.185902e-002	3.169897e-001	-4.059091e-001
2150235500	2.456531e-001	-4.349252e-001	1.383168e-001	3.321393e+000	3.297532e-002	6.159584e-002	3.151181e-001	-4.154652e-001
2160235200	2.468902e-001	-4.338375e-001	1.860154e-001	3.290682e+000	3.319155e-002	6.108308e-002	3.130012e-001	-4.241100e-001
2170234900	2.481576e-001	-4.343848e-001	2.220658e-001	3.265498e+000	3.377004e-002	6.080423e-002	3.109285e-001	-4.331637e-001
2180234600	2.499671e-001	-4.337163e-001	2.598034e-001	3.239049e+000	3.419695e-002	6.020365e-002	3.092179e-001	-4.420692e-001
2190234300	2.510810e-001	-4.331599e-001	3.032289e-001	3.211082e+000	3.460131e-002	5.992908e-002	3.072359e-001	-4.507015e-001
2200234000	2.532894e-001	-4.331487e-001	3.405678e-001	3.180441e+000	3.485192e-002	5.963102e-002	3.050886e-001	-4.587658e-001
2210233700	2.552044e-001	-4.327492e-001	3.764671e-001	3.152843e+000	3.555335e-002	5.954774e-002	3.029759e-001	-4.669168e-001
2220233400	2.565403e-001	-4.336573e-001	4.103170e-001	3.126607e+000	3.593203e-002	5.889711e-002	3.007336e-001	-4.740133e-001
2230233100	2.577732e-001	-4.333619e-001	4.473711e-001	3.096873e+000	3.614109e-002	5.848283e-002	2.972644e-001	-4.816987e-001
2240232800	2.589816e-001	-4.341595e-001	4.830861e-001	3.070223e+000	3.654613e-002	5.795518e-002	2.936950e-001	-4.890200e-001
2250232500	2.600396e-001	-4.338777e-001	5.192984e-001	3.037573e+000	3.703833e-002	5.768970e-002	2.902581e-001	-4.958851e-001
2260232200	2.622921e-001	-4.348811e-001	5.425927e-001	3.007183e+000	3.693026e-002	5.714198e-002	2.860825e-001	-5.030765e-001
2270231900	2.623097e-001	-4.350129e-001	5.746772e-001	2.977010e+000	3.724592e-002	5.716975e-002	2.804126e-001	-5.107135e-001
2280231600	2.625216e-001	-4.345652e-001	6.042846e-001	2.945054e+000	3.751462e-002	5.672197e-002	2.755361e-001	-5.173616e-001
2290231300	2.637899e-001	-4.345011e-001	6.275601e-001	2.913927e+000	3.784574e-002	5.674997e-002	2.707705e-001	-5.240296e-001
2300231000	2.647951e-001	-4.337731e-001	6.549488e-001	2.886339e+000	3.814208e-002	5.671748e-002	2.648541e-001	-5.299114e-001
2310230700	2.652443e-001	-4.337701e-001	6.845852e-001	2.862921e+000	3.840980e-002	5.626738e-002	2.602132e-001	-5.361471e-001
2320230400	2.666257e-001	-4.336229e-001	7.140065e-001	2.832894e+000	3.900183e-002	5.610998e-002	2.561122e-001	-5.430032e-001
2330230100	2.683900e-001	-4.339876e-001	7.378470e-001	2.804315e+000	3.934736e-002	5.556002e-002	2.509569e-001	-5.487362e-001
2340229800	2.694333e-001	-4.343476e-001	7.611123e-001	2.775710e+000	3.968141e-002	5.539736e-002	2.464095e-001	-5.556501e-001
2350229500	2.698915e-001	-4.338123e-001	7.896893e-001	2.743663e+000	3.967659e-002	5.510544e-002	2.420681e-001	-5.613992e-001
2360229200	2.714826e-001	-4.336532e-001	8.083258e-001	2.713745e+000	4.019620e-002	5.476062e-002	2.381298e-001	-5.673354e-001
2370228900	2.722281e-001	-4.340947e-001	8.284240e-001	2.687882e+000	4.051535e-002	5.466085e-002	2.344643e-001	-5.730015e-001
2380228600	2.739868e-001	-4.344222e-001	8.459903e-001	2.659743e+000	4.102152e-002	5.427075e-002	2.299574e-001	-5.788891e-001
2390228300	2.757507e-001	-4.348373e-001	8.649118e-001	2.634143e+000	4.144185e-002	5.395537e-002	2.269608e-001	-5.841493e-001
2400228000	2.765312e-001	-4.353263e-001	8.866999e-001	2.609796e+000	4.169556e-002	5.343364e-002	2.238612e-001	-5.895716e-001
2410227700	2.782592e-001	-4.360257e-001	9.031703e-001	2.579518e+000	4.180468e-002	5.321328e-002	2.198171e-001	-5.936475e-001
2420227400	2.788955e-001	-4.365446e-001	9.283330e-001	2.555948e+000	4.223356e-002	5.268620e-002	2.161204e-001	-5.985305e-001
2430227100	2.799862e-001	-4.372560e-001	9.452460e-001	2.527725e+000	4.250216e-002	5.260394e-002	2.117875e-001	-6.030858e-001
2440226800	2.813626e-001	-4.379750e-001	9.625161e-001	2.503474e+000	4.260254e-002	5.206652e-002	2.072581e-001	-6.075229e-001
2450226500	2.819888e-001	-4.384151e-001	9.848113e-001	2.475671e+000	4.306722e-002	5.184550e-002	2.017612e-001	-6.120697e-001
2460226200	2.830307e-001	-4.385748e-001	1.003079e+000	2.448783e+000	4.325795e-002	5.139344e-002	1.962339e-001	-6.153812e-001
2470225900	2.838059e-001	-4.397008e-001	1.020204e+000	2.422500e+000	4.339191e-002	5.112693e-002	1.916753e-001	-6.200663e-001
2480225600	2.851322e-001	-4.402836e-001	1.034061e+000	2.394153e+000	4.355427e-002	5.063205e-002	1.859921e-001	-6.248778e-001
2490225300	2.852306e-001	-4.407225e-001	1.052537e+000	2.366463e+000	4.357358e-002	5.028116e-002	1.801889e-001	-6.290115e-001
2500225000	2.865921e-001	-4.416213e-001	1.066880e+000	2.342105e+000	4.395189e-002	4.993031e-002	1.747399e-001	-6.331131e-001
2510224700	2.873415e-001	-4.422623e-001	1.081157e+000	2.316945e+000	4.401566e-002	4.968497e-002	1.685107e-001	-6.370930e-001
2520224400	2.889535e-001	-4.427380e-001	1.094452e+000	2.287585e+000	4.429548e-002	4.911212e-002	1.628064e-001	-6.416624e-001
2530224100	2.898013e-001	-4.432268e-001	1.107603e+000	2.263285e+000	4.461529e-002	4.900567e-002	1.575447e-001	-6.457296e-001
2540223800	2.907179e-001	-4.437588e-001	1.119790e+000	2.236136e+000	4.465339e-002	4.858148e-002	1.527041e-001	-6.498467e-001
2550223500	2.913959e-001	-4.450074e-001	1.130558e+000	2.211347e+000	4.507518e-002	4.825816e-002	1.478088e-001	-6.542283e-001
2560223200	2.925472e-001	-4.458109e-001	1.142183e+000	2.186059e+000	4.486310e-002	4.795113e-002	1.433745e-001	-6.581293e-001
2570222900	2.927812e-001	-4.466561e-001	1.154644e+000	2.160420e+000	4.486004e-002	4.742118e-002	1.391470e-001	-6.615138e-001
2580222600	2.934635e-001	-4.471848e-001	1.163796e+000	2.134857e+000	4.476661e-002	4.717614e-002	1.352086e-001	-6.653849e-001
2590222300	2.944646e-001	-4.482922e-001	1.172662e+000	2.109031e+000	4.529340e-002	4.703702e-002	1.308221e-001	-6.685065e-001
2600222000	2.948023e-001	-4.491379e-001	1.184864e+000	2.085400e+000	4.499956e-002	4.666239e-002	1.257796e-001	-6.717172e-001
2610221700	2.947150e-001	-4.500376e-001	1.196492e+000	2.064885e+000	4.528060e-002	4.673320e-002	1.218514e-001	-6.745698e-001
2620221400	2.954928e-001	-4.507060e-001	1.200362e+000	2.040101e+000	4.572073e-002	4.623777e-002	1.171155e-001	-6.771513e-001
2630221100	2.956616e-001	-4.514247e-001	1.214251e+000	2.017331e+000	4.581333e-002	4.594546e-002	1.118331e-001	-6.795903e-001
2640220800	2.959131e-001	-4.525058e-001	1.220627e+000	1.993737e+000	4.570445e-002	4.554300e-002	1.069247e-001	-6.820714e-001
2650220500	2.963124e-001	-4.535422e-001	1.229164e+000	1.970752e+000	4.584380e-002	4.569039e-002	1.013280e-001	-6.841378e-001
2660220200	2.962521e-001	-4.537605e-001	1.241093e+000	1.946731e+000	4.580779e-002	4.537593e-002	9.536331e-002	-6.863885e-001
2670219900	2.972768e-001	-4.552621e-001	1.247664e+000	1.924961e+000	4.643666e-002	4.502294e-002	8.975527e-002	-6.887743e-001
2680219600	2.978108e-001	-4.557723e-001	1.252071e+000	1.900675e+000	4.608577e-002	4.470014e-002	8.333802e-002	-6.907869e-001
2690219300	2.981817e-001	-4.567202e-001	1.261977e+000	1.875796e+000	4.624283e-002	4.439735e-002	7.695048e-002	-6.933340e-001
2700219000	2.982289e-001	-4.575724e-001	1.270506e+000	1.851368e+000	4.618937e-002	4.391214e-002	7.181350e-002	-6.960599e-001
2710218700	2.992104e-001	-4.583951e-001	1.273459e+000	1.828323e+000	4.649643e-002	4.384153e-002	6.606897e-002	-6.985752e-001
2720218400	2.992425e-001	-4.597883e-001	1.280313e+000	1.809038e+000	4.662177e-002	4.363440e-002	6.000733e-002	-7.012456e-001
2730218100	2.995580e-001	-4.602532e-001	1.287685e+000	1.785055e+000	4.683468e-002	4.326538e-002	5.518621e-002	-7.038559e-001
2740217800	2.999508e-001	-4.613165e-001	1.293332e+000	1.763036e+000	4.694592e-002	4.287918e-002	4.935915e-002	-7.057182e-001
2750217500	3.002111e-001	-4.616544e-001	1.296314e+000	1.740093e+000	4.690414e-002	4.293094e-002	4.568772e-002	-7.087162e-001
2760217200	3.009675e-001	-4.625653e-001	1.297855e+000	1.720994e+000	4.686720e-002	4.242972e-002	4.159108e-002	-7.105183e-001
2770216900	3.010817e-001	-4.637877e-001	1.299377e+000	1.702519e+000	4.657311e-002	4.234567e-002	3.709603e-002	-7.128457e-001
2780216600	3.012734e-001	-4.643774e-001	1.305927e+000	1.682521e+000	4.674835e-002	4.179646e-002	3.306927e-002	-7.139878e-001
2790216300	3.010339e-001	-4.655971e-001	1.311407e+000	1.663089e+000	4.671493e-002	4.211845e-002	2.886504e-002	-7.157388e-001
2800216000	3.011995e-001	-4.661868e-001	1.312395e+000	1.641201e+000	4.719973e-002	4.173666e-002	2.470330e-002	-7.170854e-001
2810215700	3.012612e-001	-4.666903e-001	1.318184e+000	1.622792e+000	4.696667e-002	4.148529e-002	2.062047e-002	-7.182320e-001
2820215400	3.010646e-001	-4.680907e-001	1.321276e+000	1.607753e+000	4.710956e-002	4.127385e-002	1.573163e-002	-7.194371e-001
2830215100	3.010037e-001	-4.685909e-001	1.324969e+000	1.586095e+000	4.679180e-002	4.124692e-002	1.050525e-002	-7.200644e-001
2840214800	3.006025e-001	-4.694207e-001	1.330493e+000	1.566546e+000	4.697958e-002	4.078589e-002	4.615347e-003	-7.206077e-001
2850214500	3.003759e-001	-4.703803e-001	1.334515e+000	1.547399e+000	4.740459e-002	4.083562e-002	-1.960223e-003	-7.223803e-001
2860214200	3.003662e-001	-4.708474e-001	1.335426e+000	1.525616e+000	4.730682e-002	4.028566e-002	-6.910555e-003	-7.229984e-001
2870213900	3.000880e-001	-4.723265e-001	1.342279e+000	1.509318e+000	4.745063e-002	3.990571e-002	-1.365843e-002	-7.232801e-001
2880213600	3.005229e-001	-4.731191e-001	1.343527e+000	1.489028e+000	4.751542e-002	3.972773e-002	-1.953908e-002	-7.244927e-001
2890213300	3.003215e-001	-4.739689e-001	1.346595e+000	1.469191e+000	4.743816e-002	3.962211e-002	-2.580417e-002	-7.259879e-001
2900213000	3.009489e-001	-4.749493e-001	1.348214e+000	1.453040e+000	4.735050e-002	3.929656e-002	-3.040862e-002	-7.272095e-001
2910212700	3.008407e-001	-4.756884e-001	1.350302e+000	1.432754e+000	4.722888e-002	3.888619e-002	-3.693216e-002	-7.284929e-001
2920212400	3.012420e-001	-4.764376e-001	1.350167e+000	1.416028e+000	4.725825e-002	3.863293e-002	-4.199062e-002	-7.294716e-001
2930212100	3.013869e-001	-4.776121e-001	1.351132e+000	1.395964e+000	4.748264e-002	3.848418e-002	-4.686356e-002	-7.312824e-001
2940211800	3.011279e-001	-4.780101e-001	1.349689e+000	1.377480e+000	4.703423e-002	3.816456e-002	-5.131395e-002	-7.322255e-001
2950211500	3.013745e-001	-4.789820e-001	1.351100e+000	1.363719e+000	4.715095e-002	3.831508e-002	-5.566101e-002	-7.332829e-001
2960211200	3.012318e-001	-4.795184e-001	1.352205e+000	1.347006e+000	4.719692e-002	3.784904e-002	-5.969211e-002	-7.344910e-001
2970210900	3.012699e-001	-4.800932e-001	1.351328e+000	1.330470e+000	4.719665e-002	3.800646e-002	-6.356961e-002	-7.356456e-001
2980210600	3.009130e-001	-4.814222e-001	1.351479e+000	1.312261e+000	4.737023e-002	3.771814e-002	-6.770006e-002	-7.357819e-001
2990210300	3.007540e-001	-4.820292e-001	1.352841e+000	1.299967e+000	4.709415e-002	3.725148e-002	-7.084286e-002	-7.360762e-001
3000210000	3.005790e-001	-4.826950e-001	1.353604e+000	1.285167e+000	4.748543e-002	3.749288e-002	-7.557480e-002	-7.359507e-001
3010209700	2.998111e-001	-4.832171e-001	1.357148e+000	1.268559e+000	4.745151e-002	3.731869e-002	-8.043337e-002	-7.362222e-001
3020209400	2.993055e-001	-4.842377e-001	1.356752e+000	1.250664e+000	4.746732e-002	3.720882e-002	-8.548842e-002	-7.369223e-001
3030209100	2.990973e-001	-4.853189e-001	1.359153e+000	1.236816e+000	4.751718e-002	3.723039e-002	-9.056544e-002	-7.368827e-001
3040208800	2.989453e-001	-4.860105e-001	1.360099e+000	1.221194e+000	4.726378e-002	3.686972e-002	-9.576772e-002	-7.354028e-001
3050208500	2.986585e-001	-4.865390e-001	1.362491e+000	1.205820e+000	4.748931e-002	3.679269e-002	-1.021983e-001	-7.350320e-001
3060208200	2.982428e-001	-4.873691e-001	1.360644e+000	1.191187e+000	4.747396e-002	3.674390e-002	-1.075254e-001	-7.351010e-001
3070207900	2.984724e-001	-4.884809e-001	1.362108e+000	1.172895e+000	4.744722e-002	3.610446e-002	-1.137912e-001	-7.338468e-001
3080207600	2.979919e-001	-4.893295e-001	1.361636e+000	1.160150e+000	4.745542e-002	3.620059e-002	-1.190636e-001	-7.342963e-001
3090207300	2.978061e-001	-4.899995e-001	1.360473e+000	1.139008e+000	4.738074e-002	3.621811e-002	-1.255234e-001	-7.337296e-001
3100207000	2.977344e-001	-4.907010e-001	1.362664e+000	1.127924e+000	4.753414e-002	3.569474e-002	-1.312303e-001	-7.340138e-001
3110206700	2.976059e-001	-4.907074e-001	1.357036e+000	1.112370e+000	4.760820e-002	3.533418e-002	-1.366232e-001	-7.338555e-001
3120206400	2.969343e-001	-4.915147e-001	1.359128e+000	1.097945e+000	4.773427e-002	3.565134e-002	-1.416079e-001	-7.337467e-001
3130206100	2.972169e-001	-4.924152e-001	1.357075e+000	1.083254e+000	4.744791e-002	3.561588e-002	-1.465083e-001	-7.345100e-001
3140205800	2.968469e-001	-4.926098e-001	1.356084e+000	1.068552e+000	4.751569e-002	3.518522e-002	-1.508182e-001	-7.347354e-001
3150205500	2.964603e-001	-4.932266e-001	1.354542e+000	1.053832e+000	4.761486e-002	3.480058e-002	-1.546083e-001	-7.346225e-001
3160205200	2.958398e-001	-4.938144e-001	1.353029e+000	1.041129e+000	4.723446e-002	3.462593e-002	-1.590050e-001	-7.348245e-001
3170204900	2.956137e-001	-4.948799e-001	1.351258e+000	1.028477e+000	4.726125e-002	3.449916e-002	-1.621361e-001	-7.352591e-001
3180204600	2.955354e-001	-4.951325e-001	1.350886e+000	1.016041e+000	4.726394e-002	3.464682e-002	-1.659112e-001	-7.351264e-001
3190204300	2.949332e-001	-4.956112e-001	1.349100e+000	1.001580e+000	4.701789e-002	3.464009e-002	-1.692791e-001	-7.347156e-001
3200204000	2.941286e-001	-4.964401e-001	1.346948e+000	9.868957e-001	4.723474e-002	3.442584e-002	-1.740206e-001	-7.338309e-001
3210203700	2.937750e-001	-4.968083e-001	1.349270e+000	9.773541e-001	4.751799e-002	3.426946e-002	-1.783498e-001	-7.336107e-001
3220203400	2.931310e-001	-4.972884e-001	1.347289e+000	9.647452e-001	4.767482e-002	3.422696e-002	-1.832257e-001	-7.327569e-001
3230203100	2.922195e-001	-4.978790e-001	1.348453e+000	9.488561e-001	4.750001e-002	3.376728e-002	-1.883496e-001	-7.308387e-001
3240202800	2.919868e-001	-4.982691e-001	1.347635e+000	9.361680e-001	4.762959e-002	3.396061e-002	-1.937005e-001	-7.296484e-001
3250202500	2.911515e-001	-4.987339e-001	1.347813e+000	9.243100e-001	4.757491e-002	3.379403e-002	-1.989926e-001	-7.284118e-001
3260202200	2.911290e-001	-4.991586e-001	1.346453e+000	9.081165e-001	4.733176e-002	3.348865e-002	-2.048089e-001	-7.267787e-001
3270201900	2.901851e-001	-4.996033e-001	1.345183e+000	8.951427e-001	4.745887e-002	3.347650e-002	-2.105369e-001	-7.254405e-001
3280201600	2.905459e-001	-5.000119e-001	1.341568e+000	8.838093e-001	4.773239e-002	3.339066e-002	-2.166920e-001	-7.237258e-001
3290201300	2.897784e-001	-5.009402e-001	1.343358e+000	8.691169e-001	4.768699e-002	3.308456e-002	-2.220530e-001	-7.228097e-001
3300201000	2.897000e-001	-5.014982e-001	1.340571e+000	8.574752e-001	4.763170e-002	3.302063e-002	-2.274923e-001	-7.217322e-001
3310200700	2.892937e-001	-5.017047e-001	1.337855e+000	8.430216e-001	4.788278e-002	3.309993e-002	-2.326696e-001	-7.211329e-001
3320200400	2.888665e-001	-5.022274e-001	1.335423e+000	8.314160e-001	4.766102e-002	3.266962e-002	-2.370115e-001	-7.214974e-001
3330200100	2.880450e-001	-5.033759e-001	1.330992e+000	8.185131e-001	4.785998e-002	3.247035e-002	-2.417833e-001	-7.205449e-001
3340199800	2.876710e-001	-5.040904e-001	1.331470e+000	8.079984e-001	4.774859e-002	3.231032e-002	-2.455534e-001	-7.202689e-001
3350199500	2.875436e-001	-5.042497e-001	1.326483e+000	7.965675e-001	4.785581e-002	3.222723e-002	-2.498383e-001	-7.202490e-001
3360199200	2.866634e-001	-5.047118e-001	1.323896e+000	7.836458e-001	4.755136e-002	3.202647e-002	-2.534043e-001	-7.194413e-001
3370198900	2.859263e-001	-5.055778e-001	1.321408e+000	7.712148e-001	4.727990e-002	3.177409e-002	-2.567710e-001	-7.190094e-001
3380198600	2.853518e-001	-5.060258e-001	1.318699e+000	7.591560e-001	4.740968e-002	3.190598e-002	-2.607625e-001	-7.180179e-001
3390198300	2.848074e-001	-5.064124e-001	1.317202e+000	7.480134e-001	4.731963e-002	3.183190e-002	-2.644031e-001	-7.166006e-001
3400198000	2.842943e-001	-5.065825e-001	1.314666e+000	7.389165e-001	4.786231e-002	3.150489e-002	-2.681324e-001	-7.147299e-001
3410197700	2.841844e-001	-5.070529e-001	1.313736e+000	7.282621e-001	4.773345e-002	3.173109e-002	-2.722728e-001	-7.136085e-001
3420197400	2.837179e-001	-5.069116e-001	1.311823e+000	7.182805e-001	4.777333e-002	3.139275e-002	-2.761742e-001	-7.115957e-001
3430197100	2.832466e-001	-5.071854e-001	1.310554e+000	7.072838e-001	4.769879e-002	3.158145e-002	-2.812824e-001	-7.100828e-001
3440196800	2.826162e-001	-5.079798e-001	1.310219e+000	6.956779e-001	4.797849e-002	3.176000e-002	-2.865071e-001	-7.073997e-001
3450196500	2.817360e-001	-5.076399e-001	1.307170e+000	6.825012e-001	4.801108e-002	3.147578e-002	-2.916590e-001	-7.050647e-001
3460196200	2.819857e-001	-5.079944e-001	1.304686e+000	6.729459e-001	4.828255e-002	3.118576e-002	-2.975056e-001	-7.029775e-001
3470195900	2.813837e-001	-5.081084e-001	1.301514e+000	6.586599e-001	4.847785e-002	3.102596e-002	-3.030963e-001	-7.003444e-001
3480195600	2.810359e-001	-5.084674e-001	1.298649e+000	6.484544e-001	4.845918e-002	3.089629e-002	-3.090480e-001	-6.976942e-001
3490195300	2.799340e-001	-5.089518e-001	1.295445e+000	6.324512e-001	4.859555e-002	3.042873e-002	-3.154318e-001	-6.961305e-001
3500195000	2.796989e-001	-5.088209e-001	1.292091e+000	6.229859e-001	4.865203e-002	3.020754e-002	-3.205861e-001	-6.942033e-001
3510194700	2.791845e-001	-5.090736e-001	1.289227e+000	6.114479e-001	4.870416e-002	3.011278e-002	-3.254994e-001	-6.930538e-001
3520194400	2.791194e-001	-5.100249e-001	1.284931e+000	6.007338e-001	4.889564e-002	2.986665e-002	-3.302538e-001	-6.918907e-001
3530194100	2.788861e-001	-5.102999e-001	1.280869e+000	5.909944e-001	4.932883e-002	2.959988e-002	-3.344721e-001	-6.907945e-001
3540193800	2.785892e-001	-5.105502e-001	1.277136e+000	5.790320e-001	4.934745e-002	2.959298e-002	-3.393321e-001	-6.901736e-001
3550193500	2.780467e-001	-5.106470e-001	1.272195e+000	5.705691e-001	4.933278e-002	2.915882e-002	-3.420853e-001	-6.884672e-001
3560193200	2.780027e-001	-5.113580e-001	1.268471e+000	5.606985e-001	4.950348e-002	2.893192e-002	-3.460715e-001	-6.875739e-001
3570192900	2.777905e-001	-5.116672e-001	1.265103e+000	5.503275e-001	4.994308e-002	2.851284e-002	-3.498943e-001	-6.868997e-001
3580192600	2.780896e-001	-5.122926e-001	1.259624e+000	5.408017e-001	4.970696e-002	2.805645e-002	-3.533446e-001	-6.849314e-001
3590192300	2.780037e-001	-5.126578e-001	1.254750e+000	5.305897e-001	4.971218e-002	2.778644e-002	-3.566288e-001	-6.830176e-001
3600192000	2.781535e-001	-5.122708e-001	1.250465e+000	5.194672e-001	4.999564e-002	2.737503e-002	-3.612040e-001	-6.805841e-001
3610191700	2.787350e-001	-5.124507e-001	1.246605e+000	5.089289e-001	5.013231e-002	2.698483e-002	-3.657651e-001	-6.773496e-001
3620191400	2.793471e-001	-5.128518e-001	1.242907e+000	4.994886e-001	5.070012e-002	2.672082e-002	-3.712466e-001	-6.735157e-001
3630191100	2.793522e-001	-5.131518e-001	1.238412e+000	4.872735e-001	5.048155e-002	2.640583e-002	-3.767220e-001	-6.697013e-001
3640190800	2.806162e-001	-5.128499e-001	1.231559e+000	4.770983e-001	5.081266e-002	2.572762e-002	-3.823794e-001	-6.656648e-001
3650190500	2.813705e-001	-5.135385e-001	1.224499e+000	4.652552e-001	5.093469e-002	2.498416e-002	-3.885639e-001	-6.612451e-001
3660190200	2.830137e-001	-5.139182e-001	1.217019e+000	4.551944e-001	5.158855e-002	2.432061e-002	-3.947550e-001	-6.556530e-001
3670189900	2.849695e-001	-5.151393e-001	1.209459e+000	4.470207e-001	5.163572e-002	2.340674e-002	-4.003976e-001	-6.518736e-001
3680189600	2.868045e-001	-5.166772e-001	1.201094e+000	4.369194e-001	5.195843e-002	2.234632e-002	-4.062328e-001	-6.475591e-001
3690189300	2.890352e-001	-5.189869e-001	1.189532e+000	4.302626e-001	5.201183e-002	2.110648e-002	-4.119183e-001	-6.424153e-001
3700189000	2.917953e-001	-5.219573e-001	1.179068e+000	4.259983e-001	5.213068e-002	1.942905e-002	-4.165158e-001	-6.377348e-001
3710188700	2.939033e-001	-5.254802e-001	1.165703e+000	4.216702e-001	5.178727e-002	1.810542e-002	-4.209643e-001	-6.333339e-001
3720188400	2.965465e-001	-5.301769e-001	1.154475e+000	4.214391e-001	5.083642e-002	1.593794e-002	-4.242310e-001	-6.287786e-001
3730188100	2.982164e-001	-5.361860e-001	1.141296e+000	4.223519e-001	4.950950e-002	1.434704e-002	-4.258228e-001	-6.240422e-001
3740187800	2.999396e-001	-5.436028e-001	1.134136e+000	4.278914e-001	4.787077e-002	1.259050e-002	-4.266964e-001	-6.190470e-001
3750187500	2.992000e-001	-5.519862e-001	1.126697e+000	4.352505e-001	4.566614e-002	1.100225e-002	-4.255499e-001	-6.145473e-001
3760187200	2.963954e-001	-5.613276e-001	1.126124e+000	4.425665e-001	4.292792e-002	1.026712e-002	-4.236968e-001	-6.107378e-001
3770186900	2.909960e-001	-5.692751e-001	1.129332e+000	4.518656e-001	4.012740e-002	1.029287e-002	-4.203257e-001	-6.080171e-001
3780186600	2.828291e-001	-5.758094e-001	1.137613e+000	4.556348e-001	3.701519e-002	1.107035e-002	-4.172206e-001	-6.069109e-001
3790186300	2.748429e-001	-5.804490e-001	1.148895e+000	4.575766e-001	3.472509e-002	1.269141e-002	-4.163812e-001	-6.058887e-001
3800186000	2.659959e-001	-5.825705e-001	1.159254e+000	4.549495e-001	3.302757e-002	1.439782e-002	-4.151597e-001	-6.059342e-001
3810185700	2.574588e-001	-5.837034e-001	1.170636e+000	4.490784e-001	3.193157e-002	1.646882e-002	-4.160118e-001	-6.065135e-001
3820185400	2.499180e-001	-5.819827e-001	1.179882e+000	4.403265e-001	3.142316e-002	1.859385e-002	-4.183957e-001	-6.063195e-001
3830185100	2.434022e-001	-5.807905e-001	1.188893e+000	4.295894e-001	3.119714e-002	1.992846e-002	-4.219374e-001	-6.061565e-001
3840184800	2.381211e-001	-5.783127e-001	1.192256e+000	4.157674e-001	3.147562e-002	2.120575e-002	-4.267661e-001	-6.060763e-001
3850184500	2.331339e-001	-5.762707e-001	1.197167e+000	4.042144e-001	3.142592e-002	2.239166e-002	-4.312146e-001	-6.049318e-001
3860184200	2.297856e-001	-5.738959e-001	1.199641e+000	3.922538e-001	3.194759e-002	2.331129e-002	-4.376253e-001	-6.038707e-001
3870183900	2.261257e-001	-5.721741e-001	1.199474e+000	3.790747e-001	3.217765e-002	2.429578e-002	-4.426613e-001	-6.026897e-001
3880183600	2.228010e-001	-5.703703e-001	1.198219e+000	3.649506e-001	3.258639e-002	2.487888e-002	-4.484292e-001	-6.021012e-001
3890183300	2.204798e-001	-5.688483e-001	1.195471e+000	3.525053e-001	3.280758e-002	2.558581e-002	-4.537120e-001	-6.006510e-001
3900183000	2.182500e-001	-5.675132e-001	1.194424e+000	3.427266e-001	3.318069e-002	2.600554e-002	-4.582454e-001	-5.997113e-001
3910182700	2.159686e-001	-5.666483e-001	1.192046e+000	3.304659e-001	3.384715e-002	2.656841e-002	-4.626848e-001	-5.993926e-001
3920182400	2.139423e-001	-5.654223e-001	1.189048e+000	3.200993e-001	3.400528e-002	2.706146e-002	-4.665211e-001	-5.986589e-001
3930182100	2.122365e-001	-5.648603e-001	1.187144e+000	3.102216e-001	3.434001e-002	2.731826e-002	-4.705930e-001	-5.986206e-001
3940181800	2.104203e-001	-5.633646e-001	1.181627e+000	3.020346e-001	3.469292e-002	2.734302e-002	-4.739954e-001	-5.968743e-001
3950181500	2.089482e-001	-5.632675e-001	1.180754e+000	2.935419e-001	3.493470e-002	2.732454e-002	-4.766003e-001	-5.965831e-001
3960181200	2.077844e-001	-5.623384e-001	1.177166e+000	2.855262e-001	3.529033e-002	2.775052e-002	-4.798521e-001	-5.950892e-001
3970180900	2.062778e-001	-5.618731e-001	1.174586e+000	2.761828e-001	3.557153e-002	2.754436e-002	-4.827834e-001	-5.928982e-001
3980180600	2.040404e-001	-5.615669e-001	1.173898e+000	2.667125e-001	3.572694e-002	2.758161e-002	-4.861239e-001	-5.904337e-001
3990180300	2.027129e-001	-5.602844e-001	1.169998e+000	2.585754e-001	3.589912e-002	2.760698e-002	-4.895790e-001	-5.876212e-001
4000180000	2.012310e-001	-5.598142e-001	1.165702e+000	2.492256e-001	3.598696e-002	2.748439e-002	-4.939633e-001	-5.837536e-001
4010179700	1.994839e-001	-5.596276e-001	1.163308e+000	2.404477e-001	3.598512e-002	2.725835e-002	-4.980186e-001	-5.801554e-001
4020179400	1.972888e-001	-5.594260e-001	1.163296e+000	2.289962e-001	3.585627e-002	2.743531e-002	-5.027125e-001	-5.756396e-001
4030179100	1.956801e-001	-5.586114e-001	1.158108e+000	2.216935e-001	3.603350e-002	2.723289e-002	-5.078629e-001	-5.713546e-001
4040178800	1.936125e-001	-5.583146e-001	1.154392e+000	2.119780e-001	3.591887e-002	2.764638e-002	-5.137666e-001	-5.670834e-001
4050178500	1.917999e-001	-5.579912e-001	1.149069e+000	2.024773e-001	3.598875e-002	2.746570e-002	-5.181223e-001	-5.627680e-001
4060178200	1.901312e-001	-5.577154e-001	1.144233e+000	1.960917e-001	3.612329e-002	2.764309e-002	-5.232999e-001	-5.593446e-001
4070177900	1.886772e-001	-5.574861e-001	1.139348e+000	1.885241e-001	3.622504e-002	2.757492e-002	-5.281703e-001	-5.557479e-001
4080177600	1.869130e-001	-5.577741e-001	1.135569e+000	1.792720e-001	3.645484e-002	2.736771e-002	-5.326634e-001	-5.534822e-001
4090177300	1.843401e-001	-5.578908e-001	1.131057e+000	1.709788e-001	3.654889e-002	2.744399e-002	-5.367712e-001	-5.511768e-001
4100177000	1.833330e-001	-5.577976e-001	1.125461e+000	1.648710e-001	3.643929e-002	2.711796e-002	-5.406577e-001	-5.492577e-001
4110176700	1.817768e-001	-5.584658e-001	1.122076e+000	1.600813e-001	3.637345e-002	2.676109e-002	-5.441910e-001	-5.476452e-001
4120176400	1.798684e-001	-5.585979e-001	1.118034e+000	1.518056e-001	3.607045e-002	2.666488e-002	-5.479322e-001	-5.456968e-001
4130176100	1.781987e-001	-5.588577e-001	1.114558e+000	1.454877e-001	3.594623e-002	2.670154e-002	-5.510590e-001	-5.441659e-001
4140175800	1.770890e-001	-5.590567e-001	1.109073e+000	1.408755e-001	3.524421e-002	2.675049e-002	-5.534202e-001	-5.421695e-001
4150175500	1.744321e-001	-5.590723e-001	1.105642e+000	1.327782e-001	3.519619e-002	2.673726e-002	-5.560299e-001	-5.399209e-001
4160175200	1.726238e-001	-5.592964e-001	1.103403e+000	1.250785e-001	3.487439e-002	2.677015e-002	-5.590292e-001	-5.367776e-001
4170174900	1.710370e-001	-5.588252e-001	1.098726e+000	1.185577e-001	3.487773e-002	2.712349e-002	-5.609080e-001	-5.328557e-001
4180174600	1.692499e-001	-5.588144e-001	1.095513e+000	1.133079e-001	3.463177e-002	2.724002e-002	-5.637766e-001	-5.293345e-001
4190174300	1.668586e-001	-5.588204e-001	1.091669e+000	1.052750e-001	3.476083e-002	2.740125e-002	-5.663847e-001	-5.247829e-001
4200174000	1.645381e-001	-5.588884e-001	1.088664e+000	9.670195e-002	3.471663e-002	2.754617e-002	-5.699521e-001	-5.200186e-001
4210173700	1.623778e-001	-5.587191e-001	1.084465e+000	9.009853e-002	3.465026e-002	2.766546e-002	-5.729164e-001	-5.148300e-001
4220173400	1.605129e-001	-5.589457e-001	1.081047e+000	8.416771e-002	3.436538e-002	2.777583e-002	-5.761285e-001	-5.097563e-001
4230173100	1.582743e-001	-5.585081e-001	1.075266e+000	7.709902e-002	3.437484e-002	2.740992e-002	-5.809860e-001	-5.049908e-001
4240172800	1.561050e-001	-5.584995e-001	1.070649e+000	7.005173e-002	3.433271e-002	2.744347e-002	-5.855201e-001	-5.004126e-001
4250172500	1.538614e-001	-5.588682e-001	1.066714e+000	6.378878e-002	3.404204e-002	2.745022e-002	-5.894573e-001	-4.957171e-001
4260172200	1.518252e-001	-5.589660e-001	1.062282e+000	5.805681e-002	3.404666e-002	2.763335e-002	-5.943109e-001	-4.914616e-001
4270171900	1.494608e-001	-5.596169e-001	1.057655e+000	5.012008e-002	3.382079e-002	2.780629e-002	-5.994821e-001	-4.876539e-001
4280171600	1.469221e-001	-5.593895e-001	1.051157e+000	4.384694e-002	3.323256e-002	2.783989e-002	-6.028370e-001	-4.838122e-001
4290171300	1.452879e-001	-5.600894e-001	1.047419e+000	3.969674e-002	3.292250e-002	2.822827e-002	-6.064135e-001	-4.803476e-001
4300171000	1.430418e-001	-5.599346e-001	1.042148e+000	3.290712e-002	3.292608e-002	2.852551e-002	-6.096663e-001	-4.775723e-001
4310170700	1.404314e-001	-5.598231e-001	1.036629e+000	2.754842e-002	3.276378e-002	2.869562e-002	-6.123936e-001	-4.751208e-001
4320170400	1.386705e-001	-5.605574e-001	1.032275e+000	2.275890e-002	3.269597e-002	2.892179e-002	-6.145337e-001	-4.723932e-001
4330170100	1.367235e-001	-5.602099e-001	1.027724e+000	1.751358e-002	3.255349e-002	2.901121e-002	-6.161888e-001	-4.695908e-001
4340169800	1.343226e-001	-5.602722e-001	1.024667e+000	1.187164e-002	3.286357e-002	2.931726e-002	-6.179177e-001	-4.671883e-001
4350169500	1.313822e-001	-5.602969e-001	1.020682e+000	6.843171e-003	3.287555e-002	2.955609e-002	-6.196981e-001	-4.650635e-001
4360169200	1.297531e-001	-5.601769e-001	1.015099e+000	2.689612e-003	3.275248e-002	2.981443e-002	-6.207061e-001	-4.622256e-001
4370168900	1.269947e-001	-5.600837e-001	1.012539e+000	-3.692217e-003	3.282256e-002	3.002561e-002	-6.231123e-001	-4.587303e-001
4380168600	1.251623e-001	-5.600517e-001	1.008752e+000	-8.383453e-003	3.282063e-002	3.000328e-002	-6.250450e-001	-4.542614e-001
4390168300	1.223702e-001	-5.603702e-001	1.004265e+000	-1.449660e-002	3.303636e-002	3.025116e-002	-6.271107e-001	-4.498416e-001
4400168000	1.199601e-001	-5.598847e-001	1.000552e+000	-2.034511e-002	3.304695e-002	3.049813e-002	-6.299875e-001	-4.452928e-001
4410167700	1.172997e-001	-5.599326e-001	9.961548e-001	-2.616819e-002	3.297085e-002	3.062154e-002	-6.328879e-001	-4.404585e-001
4420167400	1.147293e-001	-5.604005e-001	9.929309e-001	-3.155231e-002	3.301470e-002	3.079542e-002	-6.361755e-001	-4.341383e-001
4430167100	1.120160e-001	-5.598733e-001	9.875010e-001	-3.667708e-002	3.292755e-002	3.099490e-002	-6.389072e-001	-4.293880e-001
4440166800	1.091147e-001	-5.597867e-001	9.831437e-001	-4.338437e-002	3.317856e-002	3.092437e-002	-6.427001e-001	-4.238055e-001
4450166500	1.064044e-001	-5.599966e-001	9.787128e-001	-4.969747e-002	3.318661e-002	3.136315e-002	-6.454760e-001	-4.196446e-001
4460166200	1.038684e-001	-5.599493e-001	9.725840e-001	-5.427423e-002	3.351214e-002	3.157728e-002	-6.485872e-001	-4.149425e-001
4470165900	1.014302e-001	-5.599728e-001	9.675508e-001	-5.852852e-002	3.327529e-002	3.130964e-002	-6.514729e-001	-4.119675e-001
4480165600	9.862965e-002	-5.601171e-001	9.633086e-001	-6.397979e-002	3.375513e-002	3.145930e-002	-6.543397e-001	-4.085364e-001
4490165300	9.689290e-002	-5.596707e-001	9.564532e-001	-6.796241e-002	3.365478e-002	3.145658e-002	-6.568103e-001	-4.061657e-001
4500165000	9.356533e-002	-5.600339e-001	9.524852e-001	-7.276825e-002	3.373522e-002	3.165883e-002	-6.590771e-001	-4.041943e-001
4510164700	9.156058e-002	-5.602759e-001	9.472423e-001	-7.688047e-002	3.334757e-002	3.162369e-002	-6.611120e-001	-4.022044e-001
4520164400	8.904267e-002	-5.602873e-001	9.429406e-001	-8.110747e-002	3.397954e-002	3.169832e-002	-6.631796e-001	-4.000733e-001
4530164100	8.647280e-002	-5.597671e-001	9.381878e-001	-8.591370e-002	3.369344e-002	3.168153e-002	-6.646055e-001	-3.978126e-001
4540163800	8.383740e-002	-5.598295e-001	9.341756e-001	-9.000718e-002	3.376304e-002	3.164791e-002	-6.662168e-001	-3.956111e-001
4550163500	8.163825e-002	-5.596576e-001	9.290540e-001	-9.358838e-002	3.410959e-002	3.181953e-002	-6.673512e-001	-3.934166e-001
4560163200	7.891226e-002	-5.596817e-001	9.271346e-001	-9.855862e-002	3.414537e-002	3.188878e-002	-6.687399e-001	-3.906276e-001
4570162900	7.630476e-002	-5.597280e-001	9.236476e-001	-1.026275e-001	3.418542e-002	3.194010e-002	-6.705277e-001	-3.873537e-001
4580162600	7.341394e-002	-5.592453e-001	9.185913e-001	-1.078808e-001	3.432027e-002	3.180376e-002	-6.728943e-001	-3.839698e-001
4590162300	7.079478e-002	-5.590648e-001	9.150380e-001	-1.125791e-001	3.436758e-002	3.137773e-002	-6.750995e-001	-3.799813e-001
4600162000	6.803180e-002	-5.586348e-001	9.102963e-001	-1.168071e-001	3.402119e-002	3.169117e-002	-6.775358e-001	-3.752233e-001
4610161700	6.480181e-002	-5.585322e-001	9.063749e-001	-1.234725e-001	3.415996e-002	3.125695e-002	-6.801091e-001	-3.704767e-001
4620161400	6.236648e-002	-5.583424e-001	9.010354e-001	-1.275799e-001	3.386705e-002	3.152798e-002	-6.830291e-001	-3.654133e-001
4630161100	5.927961e-002	-5.585931e-001	8.958022e-001	-1.315321e-001	3.429197e-002	3.131548e-002	-6.862580e-001	-3.609807e-001
4640160800	5.676003e-002	-5.585899e-001	8.906361e-001	-1.364179e-001	3.420087e-002	3.101510e-002	-6.888999e-001	-3.562751e-001
4650160500	5.384187e-002	-5.584354e-001	8.847454e-001	-1.419653e-001	3.411347e-002	3.099223e-002	-6.920517e-001	-3.514618e-001
4660160200	5.121791e-002	-5.585051e-001	8.794282e-001	-1.465291e-001	3.398950e-002	3.091515e-002	-6.953020e-001	-3.479029e-001
4670159900	4.850266e-002	-5.585462e-001	8.741898e-001	-1.494861e-001	3.385279e-002	3.072040e-002	-6.976651e-001	-3.444982e-001
4680159600	4.563767e-002	-5.580682e-001	8.689061e-001	-1.536736e-001	3.368247e-002	3.067613e-002	-7.007824e-001	-3.420684e-001
4690159300	4.282568e-002	-5.580818e-001	8.634150e-001	-1.569351e-001	3.368940e-002	3.041335e-002	-7.035052e-001	-3.392228e-001
4700159000	3.972670e-002	-5.583190e-001	8.583260e-001	-1.601380e-001	3.335884e-002	3.061048e-002	-7.064017e-001	-3.375066e-001
4710158700	3.690008e-002	-5.582118e-001	8.543331e-001	-1.633453e-001	3.279546e-002	3.078386e-002	-7.081176e-001	-3.355729e-001
4720158400	3.367755e-002	-5.581213e-001	8.495358e-001	-1.678297e-001	3.239132e-002	3.064490e-002	-7.102646e-001	-3.331986e-001
4730158100	3.119509e-002	-5.583643e-001	8.451877e-001	-1.698160e-001	3.219138e-002	3.081469e-002	-7.118001e-001	-3.310912e-001
4740157800	2.786737e-002	-5.577363e-001	8.402131e-001	-1.737193e-001	3.226631e-002	3.101073e-002	-7.135185e-001	-3.289352e-001
4750157500	2.499617e-002	-5.580266e-001	8.364976e-001	-1.772406e-001	3.207441e-002	3.111491e-002	-7.150631e-001	-3.260167e-001
4760157200	2.144836e-002	-5.574359e-001	8.327128e-001	-1.805468e-001	3.208658e-002	3.152851e-002	-7.171595e-001	-3.220871e-001
4770156900	1.783326e-002	-5.571713e-001	8.273639e-001	-1.849429e-001	3.191727e-002	3.144133e-002	-7.185249e-001	-3.185915e-001
4780156600	1.514391e-002	-5.567889e-001	8.225419e-001	-1.892330e-001	3.194844e-002	3.142654e-002	-7.201911e-001	-3.143621e-001
4790156300	1.175490e-002	-5.566208e-001	8.173945e-001	-1.929515e-001	3.169827e-002	3.148198e-002	-7.218362e-001	-3.099875e-001
4800156000	8.545892e-003	-5.572457e-001	8.129076e-001	-1.973760e-001	3.157237e-002	3.153657e-002	-7.242340e-001	-3.044158e-001
4810155700	5.217300e-003	-5.563828e-001	8.070015e-001	-2.013440e-001	3.136331e-002	3.141279e-002	-7.264625e-001	-2.993413e-001
4820155400	2.162593e-003	-5.565321e-001	8.030217e-001	-2.047992e-001	3.122691e-002	3.157491e-002	-7.288666e-001	-2.937858e-001
4830155100	-1.233411e-003	-5.563420e-001	7.977396e-001	-2.089381e-001	3.093507e-002	3.150833e-002	-7.305789e-001	-2.882705e-001
4840154800	-4.498865e-003	-5.559260e-001	7.913543e-001	-2.123407e-001	3.063296e-002	3.177978e-002	-7.338545e-001	-2.833403e-001
4850154500	-7.634507e-003	-5.559917e-001	7.857076e-001	-2.152215e-001	3.050675e-002	3.170771e-002	-7.355938e-001	-2.794406e-001
4860154200	-1.126953e-002	-5.558544e-001	7.810641e-001	-2.188260e-001	3.039573e-002	3.205431e-002	-7.386368e-001	-2.753755e-001
4870153900	-1.430288e-002	-5.556671e-001	7.760765e-001	-2.203206e-001	3.009397e-002	3.232544e-002	-7.407827e-001	-2.719484e-001
4880153600	-1.729340e-002	-5.554029e-001	7.703167e-001	-2.225188e-001	2.974079e-002	3.241984e-002	-7.428183e-001	-2.692215e-001
4890153300	-2.023367e-002	-5.549543e-001	7.648250e-001	-2.250958e-001	2.987800e-002	3.274351e-002	-7.457452e-001	-2.668223e-001
4900153000	-2.398749e-002	-5.546709e-001	7.597125e-001	-2.267928e-001	2.972609e-002	3.302369e-002	-7.474036e-001	-2.646234e-001
4910152700	-2.724253e-002	-5.544085e-001	7.552353e-001	-2.295161e-001	2.968050e-002	3.332973e-002	-7.489976e-001	-2.622169e-001
4920152400	-3.095860e-002	-5.539773e-001	7.500310e-001	-2.325540e-001	2.958036e-002	3.351349e-002	-7.507936e-001	-2.603585e-001
4930152100	-3.408393e-002	-5.536152e-001	7.463554e-001	-2.347650e-001	2.959279e-002	3.352740e-002	-7.511679e-001	-2.581755e-001
4940151800	-3.755059e-002	-5.536419e-001	7.423690e-001	-2.369442e-001	2.937669e-002	3.336915e-002	-7.525397e-001	-2.555124e-001
4950151500	-4.089151e-002	-5.527208e-001	7.362533e-001	-2.398110e-001	2.933050e-002	3.361409e-002	-7.532954e-001	-2.528954e-001
4960151200	-4.448684e-002	-5.519527e-001	7.322783e-001	-2.434839e-001	2.908717e-002	3.391862e-002	-7.546724e-001	-2.495705e-001
4970150900	-4.849109e-002	-5.517787e-001	7.275936e-001	-2.461574e-001	2.881316e-002	3.428937e-002	-7.554739e-001	-2.460456e-001
4980150600	-5.125495e-002	-5.511933e-001	7.218348e-001	-2.485924e-001	2.901393e-002	3.426396e-002	-7.569207e-001	-2.412476e-001
4990150300	-5.536747e-002	-5.511011e-001	7.179029e-001	-2.508882e-001	2.843339e-002	3.468999e-002	-7.581112e-001	-2.363909e-001
5000150000	-5.907166e-002	-5.505259e-001	7.133111e-001	-2.541951e-001	2.848920e-002	3.481994e-002	-7.590841e-001	-2.308801e-001
5010149700	-6.260611e-002	-5.502755e-001	7.079186e-001	-2.562979e-001	2.818026e-002	3.510514e-002	-7.606989e-001	-2.259578e-001
5020149400	-6.586000e-002	-5.496894e-001	7.020479e-001	-2.583114e-001	2.809854e-002	3.517858e-002	-7.625053e-001	-2.209737e-001
5030149100	-6.956548e-002	-5.493001e-001	6.966225e-001	-2.614024e-001	2.828702e-002	3.539008e-002	-7.642570e-001	-2.158492e-001
5040148800	-7.329758e-002	-5.491338e-001	6.919140e-001	-2.638157e-001	2.822085e-002	3.570575e-002	-7.655489e-001	-2.107585e-001
5050148500	-7.684458e-002	-5.491594e-001	6.862255e-001	-2.655267e-001	2.831535e-002	3.596274e-002	-7.678962e-001	-2.064951e-001
5060148200	-8.002990e-002	-5.482401e-001	6.805260e-001	-2.677656e-001	2.805411e-002	3.605461e-002	-7.701220e-001	-2.026547e-001
5070147900	-8.341603e-002	-5.476016e-001	6.749849e-001	-2.699360e-001	2.798078e-002	3.617180e-002	-7.729088e-001	-1.995537e-001
5080147600	-8.720230e-002	-5.472053e-001	6.709442e-001	-2.713713e-001	2.792468e-002	3.622941e-002	-7.748350e-001	-1.964444e-001
5090147300	-9.050903e-002	-5.470185e-001	6.655086e-001	-2.724539e-001	2.781126e-002	3.667821e-002	-7.769224e-001	-1.941455e-001
5100147000	-9.388949e-002	-5.456201e-001	6.608114e-001	-2.744840e-001	2.758406e-002	3.674544e-002	-7.779532e-001	-1.919478e-001
5110146700	-9.728330e-002	-5.449680e-001	6.558299e-001	-2.755094e-001	2.732481e-002	3.697174e-002	-7.790113e-001	-1.903446e-001
5120146400	-1.007843e-001	-5.442571e-001	6.516453e-001	-2.767155e-001	2.726584e-002	3.730743e-002	-7.806382e-001	-1.888937e-001
5130146100	-1.047921e-001	-5.439334e-001	6.470647e-001	-2.777719e-001	2.720358e-002	3.757241e-002	-7.815474e-001	-1.862326e-001
5140145800	-1.085220e-001	-5.428072e-001	6.423579e-001	-2.808204e-001	2.734803e-002	3.784770e-002	-7.819480e-001	-1.841103e-001
5150145500	-1.121501e-001	-5.415196e-001	6.366841e-001	-2.817988e-001	2.703542e-002	3.835715e-002	-7.821858e-001	-1.808905e-001
5160145200	-1.157800e-001	-5.408985e-001	6.330432e-001	-2.833141e-001	2.692597e-002	3.872848e-002	-7.830041e-001	-1.774835e-001
5170144900	-1.196403e-001	-5.404445e-001	6.284138e-001	-2.839084e-001	2.699851e-002	3.907643e-002	-7.837867e-001	-1.737326e-001
5180144600	-1.241817e-001	-5.393716e-001	6.235400e-001	-2.870841e-001	2.693784e-002	3.935287e-002	-7.839991e-001	-1.700992e-001
5190144300	-1.273615e-001	-5.384865e-001	6.184582e-001	-2.884582e-001	2.725002e-002	3.964181e-002	-7.857875e-001	-1.652538e-001
5200144000	-1.316802e-001	-5.377287e-001	6.139005e-001	-2.899420e-001	2.715371e-002	3.997054e-002	-7.857982e-001	-1.602393e-001
5210143700	-1.351173e-001	-5.372357e-001	6.085183e-001	-2.915586e-001	2.694378e-002	4.005225e-002	-7.863785e-001	-1.556319e-001
5220143400	-1.392598e-001	-5.358242e-001	6.040742e-001	-2.943093e-001	2.722809e-002	4.037973e-002	-7.877732e-001	-1.500388e-001
5230143100	-1.425918e-001	-5.352583e-001	5.993230e-001	-2.958239e-001	2.734155e-002	4.037942e-002	-7.893049e-001	-1.458637e-001
5240142800	-1.463108e-001	-5.352922e-001	5.940794e-001	-2.964257e-001	2.698237e-002	4.084828e-002	-7.907936e-001	-1.406864e-001
5250142500	-1.497345e-001	-5.342715e-001	5.889807e-001	-2.978174e-001	2.712771e-002	4.096232e-002	-7.930330e-001	-1.370704e-001
5260142200	-1.529660e-001	-5.339306e-001	5.839473e-001	-2.975072e-001	2.685971e-002	4.148802e-002	-7.937629e-001	-1.326297e-001
5270141900	-1.567769e-001	-5.330348e-001	5.786727e-001	-2.984634e-001	2.682523e-002	4.166789e-002	-7.955179e-001	-1.299041e-001
5280141600	-1.601847e-001	-5.320041e-001	5.733068e-001	-2.993577e-001	2.678920e-002	4.207515e-002	-7.968110e-001	-1.274561e-001
5290141300	-1.635763e-001	-5.309153e-001	5.685942e-001	-2.992364e-001	2.691605e-002	4.276102e-002	-7.976948e-001	-1.245440e-001
5300141000	-1.670602e-001	-5.305062e-001	5.649071e-001	-2.985345e-001	2.673413e-002	4.291424e-002	-7.982807e-001	-1.232671e-001
5310140700	-1.705305e-001	-5.294150e-001	5.593260e-001	-3.000731e-001	2.669223e-002	4.320458e-002	-7.986204e-001	-1.208467e-001
5320140400	-1.745081e-001	-5.283797e-001	5.556027e-001	-3.000891e-001	2.679844e-002	4.383271e-002	-7.997732e-001	-1.197251e-001
5330140100	-1.774346e-001	-5.269360e-001	5.511125e-001	-3.009945e-001	2.716645e-002	4.391129e-002	-7.997543e-001	-1.171089e-001
5340139800	-1.814172e-001	-5.259541e-001	5.477572e-001	-3.016030e-001	2.729315e-002	4.448642e-002	-8.001365e-001	-1.158417e-001
5350139500	-1.849833e-001	-5.246201e-001	5.436757e-001	-3.040952e-001	2.775066e-002	4.445045e-002	-7.994769e-001	-1.134004e-001
5360139200	-1.887110e-001	-5.236426e-001	5.395302e-001	-3.040010e-001	2.751408e-002	4.480498e-002	-8.002852e-001	-1.099778e-001
5370138900	-1.926219e-001	-5.223720e-001	5.354937e-001	-3.044541e-001	2.742168e-002	4.512867e-002	-8.005315e-001	-1.072368e-001
5380138600	-1.965893e-001	-5.216826e-001	5.306236e-001	-3.041556e-001	2.770242e-002	4.554813e-002	-8.006227e-001	-1.028631e-001
5390138300	-2.003470e-001	-5.203749e-001	5.258263e-001	-3.060128e-001	2.756087e-002	4.582086e-002	-8.007320e-001	-9.888310e-002
5400138000	-2.043336e-001	-5.192778e-001	5.212491e-001	-3.057830e-001	2.764363e-002	4.630485e-002	-8.008260e-001	-9.413172e-002
5410137700	-2.081227e-001	-5.182241e-001	5.163242e-001	-3.071758e-001	2.787099e-002	4.633250e-002	-8.012276e-001	-8.898641e-002
5420137400	-2.117714e-001	-5.171639e-001	5.112809e-001	-3.076097e-001	2.791036e-002	4.696338e-002	-8.015666e-001	-8.534509e-002
5430137100	-2.159819e-001	-5.160618e-001	5.068889e-001	-3.083829e-001	2.830928e-002	4.733564e-002	-8.018325e-001	-8.036252e-002
5440136800	-2.192756e-001	-5.156620e-001	5.027812e-001	-3.076508e-001	2.842026e-002	4.774737e-002	-8.027242e-001	-7.688549e-002
5450136500	-2.230803e-001	-5.141917e-001	4.982125e-001	-3.080804e-001	2.869426e-002	4.815903e-002	-8.034812e-001	-7.357021e-002
5460136200	-2.265953e-001	-5.132318e-001	4.940449e-001	-3.084803e-001	2.898441e-002	4.811427e-002	-8.036388e-001	-7.049026e-002
5470135900	-2.302173e-001	-5.122414e-001	4.898832e-001	-3.081732e-001	2.901781e-002	4.858134e-002	-8.045557e-001	-6.821417e-002
5480135600	-2.334745e-001	-5.112042e-001	4.845380e-001	-3.075331e-001	2.913477e-002	4.865048e-002	-8.057670e-001	-6.607233e-002
5490135300	-2.369338e-001	-5.103361e-001	4.811094e-001	-3.075257e-001	2.925798e-002	4.878841e-002	-8.056540e-001	-6.458496e-002
5500135000	-2.402123e-001	-5.092423e-001	4.777042e-001	-3.078999e-001	2.944675e-002	4.907734e-002	-8.067122e-001	-6.337798e-002
5510134700	-2.438449e-001	-5.082822e-001	4.735803e-001	-3.070867e-001	2.926343e-002	4.937896e-002	-8.077158e-001	-6.248930e-002
5520134400	-2.470141e-001	-5.069831e-001	4.697002e-001	-3.067819e-001	2.974474e-002	4.998513e-002	-8.083497e-001	-6.128286e-002
5530134100	-2.506792e-001	-5.057631e-001	4.666698e-001	-3.060331e-001	2.986957e-002	5.029030e-002	-8.086252e-001	-5.958920e-002
5540133800	-2.541012e-001	-5.045914e-001	4.625970e-001	-3.066371e-001	3.008542e-002	5.060755e-002	-8.078292e-001	-5.718034e-002
5550133500	-2.578187e-001	-5.032785e-001	4.591190e-001	-3.066987e-001	2.996702e-002	5.147376e-002	-8.079876e-001	-5.528665e-002
5560133200	-2.616664e-001	-5.017709e-001	4.551087e-001	-3.062529e-001	3.022693e-002	5.165069e-002	-8.074196e-001	-5.272640e-002
5570132900	-2.650074e-001	-5.006609e-001	4.508991e-001	-3.057184e-001	3.093790e-002	5.205954e-002	-8.070844e-001	-4.905404e-002
5580132600	-2.683638e-001	-4.984872e-001	4.472799e-001	-3.071666e-001	3.161031e-002	5.223079e-002	-8.066371e-001	-4.624123e-002
5590132300	-2.725784e-001	-4.970750e-001	4.432007e-001	-3.068942e-001	3.174154e-002	5.250205e-002	-8.051349e-001	-4.198087e-002
5600132000	-2.756409e-001	-4.959112e-001	4.393000e-001	-3.071020e-001	3.238337e-002	5.265311e-002	-8.051153e-001	-3.791680e-002
5610131700	-2.793737e-001	-4.946590e-001	4.357070e-001	-3.071209e-001	3.270086e-002	5.264058e-002	-8.051546e-001	-3.456143e-002
5620131400	-2.828429e-001	-4.935317e-001	4.313926e-001	-3.066603e-001	3.261169e-002	5.274588e-002	-8.049733e-001	-3.025127e-002
5630131100	-2.870200e-001	-4.918682e-001	4.278527e-001	-3.067324e-001	3.303093e-002	5.287743e-002	-8.056997e-001	-2.684264e-002
5640130800	-2.903661e-001	-4.909194e-001	4.236105e-001	-3.063036e-001	3.311771e-002	5.294347e-002	-8.059854e-001	-2.363534e-002
5650130500	-2.937334e-001	-4.894195e-001	4.203625e-001	-3.052788e-001	3.328191e-002	5.350123e-002	-8.068577e-001	-2.070706e-002
5660130200	-2.973708e-001	-4.886015e-001	4.161850e-001	-3.041871e-001	3.349124e-002	5.384452e-002	-8.071667e-001	-1.888702e-002
5670129900	-3.009985e-001	-4.871687e-001	4.123621e-001	-3.033019e-001	3.375435e-002	5.408069e-002	-8.078739e-001	-1.666785e-002
5680129600	-3.044638e-001	-4.857395e-001	4.086446e-001	-3.014333e-001	3.440535e-002	5.462758e-002	-8.085678e-001	-1.481666e-002
5690129300	-3.074556e-001	-4.847836e-001	4.050290e-001	-3.004804e-001	3.460043e-002	5.498515e-002	-8.083552e-001	-1.391082e-002
5700129000	-3.110579e-001	-4.833115e-001	4.022992e-001	-2.994706e-001	3.495648e-002	5.553660e-002	-8.084428e-001	-1.299026e-002
5710128700	-3.141821e-001	-4.819325e-001	3.989952e-001	-2.990539e-001	3.548789e-002	5.595827e-002	-8.087761e-001	-1.302813e-002
5720128400	-3.169886e-001	-4.805741e-001	3.963205e-001	-2.988756e-001	3.627409e-002	5.601349e-002	-8.079217e-001	-1.303381e-002
5730128100	-3.203643e-001	-4.792533e-001	3.935159e-001	-2.980798e-001	3.688189e-002	5.608032e-002	-8.077488e-001	-1.182759e-002
5740127800	-3.234299e-001	-4.778175e-001	3.909100e-001	-2.976758e-001	3.750004e-002	5.610270e-002	-8.069373e-001	-1.125441e-002
5750127500	-3.263911e-001	-4.762335e-001	3.878218e-001	-2.981401e-001	3.805212e-002	5.631776e-002	-8.059217e-001	-9.799878e-003
5760127200	-3.295174e-001	-4.750706e-001	3.857079e-001	-2.975288e-001	3.840517e-002	5.617955e-002	-8.049551e-001	-7.810483e-003
5770126900	-3.326800e-001	-4.733155e-001	3.825608e-001	-2.966144e-001	3.894325e-002	5.631723e-002	-8.039622e-001	-5.718987e-003
5780126600	-3.357979e-001	-4.718563e-001	3.788272e-001	-2.962234e-001	3.920300e-002	5.605514e-002	-8.025857e-001	-3.221997e-003
5790126300	-3.396820e-001	-4.702843e-001	3.761790e-001	-2.953139e-001	3.965964e-002	5.636239e-002	-8.023570e-001	1.606636e-004
5800126000	-3.426002e-001	-4.682636e-001	3.725279e-001	-2.950211e-001	4.015714e-002	5.662815e-002	-8.005708e-001	3.997977e-003
5810125700	-3.458828e-001	-4.668349e-001	3.692061e-001	-2.939589e-001	4.061416e-002	5.681020e-002	-8.002350e-001	7.769634e-003
5820125400	-3.495085e-001	-4.652695e-001	3.659583e-001	-2.929953e-001	4.164096e-002	5.667765e-002	-7.987384e-001	1.071290e-002
5830125100	-3.526811e-001	-4.638562e-001	3.631891e-001	-2.923638e-001	4.238800e-002	5.689520e-002	-7.989501e-001	1.331614e-002
5840124800	-3.556556e-001	-4.621735e-001	3.605015e-001	-2.917379e-001	4.340211e-002	5.699135e-002	-7.985898e-001	1.565819e-002
5850124500	-3.584480e-001	-4.611179e-001	3.574401e-001	-2.907192e-001	4.403421e-002	5.656105e-002	-7.981537e-001	1.599669e-002
5860124200	-3.618165e-001	-4.605043e-001	3.549710e-001	-2.901077e-001	4.448884e-002	5.592435e-002	-7.990873e-001	1.666205e-002
5870123900	-3.642777e-001	-4.591395e-001	3.526052e-001	-2.896814e-001	4.470441e-002	5.534091e-002	-7.995942e-001	1.592587e-002
5880123600	-3.674223e-001	-4.582263e-001	3.502432e-001	-2.890867e-001	4.531025e-002	5.470798e-002	-8.003347e-001	1.568846e-002
5890123300	-3.703671e-001	-4.573968e-001	3.480895e-001	-2.880304e-001	4.542996e-002	5.475711e-002	-8.011412e-001	1.463459e-002
5900123000	-3.730856e-001	-4.563324e-001	3.451112e-001	-2.867730e-001	4.573330e-002	5.458154e-002	-8.020623e-001	1.413241e-002
5910122700	-3.757283e-001	-4.553329e-001	3.429729e-001	-2.866219e-001	4.589703e-002	5.442387e-002	-8.022488e-001	1.244521e-002
5920122400	-3.785168e-001	-4.542812e-001	3.405297e-001	-2.856097e-001	4.618127e-002	5.437946e-002	-8.023324e-001	1.177463e-002
5930122100	-3.813518e-001	-4.528813e-001	3.383102e-001	-2.855184e-001	4.653047e-002	5.432927e-002	-8.018841e-001	1.112838e-002
5940121800	-3.837552e-001	-4.515895e-001	3.360662e-001	-2.849898e-001	4.692882e-002	5.431125e-002	-8.005672e-001	1.072638e-002
5950121500	-3.863514e-001	-4.501171e-001	3.341191e-001	-2.845879e-001	4.765926e-002	5.432061e-002	-7.997268e-001	1.194074e-002
5960121200	-3.889616e-001	-4.485298e-001	3.321628e-001	-2.840678e-001	4.836446e-002	5.419665e-002	-7.981452e-001	1.265112e-002
5970120900	-3.916029e-001	-4.471927e-001	3.298942e-001	-2.834921e-001	4.882646e-002	5.384136e-002	-7.962614e-001	1.426122e-002
5980120600	-3.944734e-001	-4.457780e-001	3.272226e-001	-2.829923e-001	4.981243e-002	5.352332e-002	-7.950009e-001	1.640045e-002
5990120300	-3.968716e-001	-4.440231e-001	3.247812e-001	-2.828667e-001	5.042968e-002	5.315584e-002	-7.938813e-001	1.860054e-002
6000120000	-3.995463e-001	-4.426236e-001	3.222633e-001	-2.829389e-001	5.113790e-002	5.242090e-002	-7.928982e-001	2.055065e-002
6010119700	-4.021325e-001	-4.415102e-001	3.200420e-001	-2.825577e-001	5.154404e-002	5.161872e-002	-7.925684e-001	2.237181e-002
6020119400	-4.052255e-001	-4.405199e-001	3.176282e-001	-2.823149e-001	5.196435e-002	5.061566e-002	-7.927064e-001	2.465763e-002
6030119100	-4.078473e-001	-4.393702e-001	3.148323e-001	-2.815637e-001	5.248940e-002	5.018551e-002	-7.929431e-001	2.643567e-002
6040118800	-4.108306e-001	-4.387078e-001	3.129312e-001	-2.821228e-001	5.261262e-002	4.942572e-002	-7.938554e-001	2.666950e-002
6050118500	-4.133243e-001	-4.378521e-001	3.100137e-001	-2.813072e-001	5.296765e-002	4.835964e-002	-7.948984e-001	2.697418e-002
6060118200	-4.161017e-001	-4.369951e-001	3.074617e-001	-2.809709e-001	5.291342e-002	4.794488e-002	-7.968543e-001	2.675560e-002
6070117900	-4.188728e-001	-4.364400e-001	3.051225e-001	-2.803934e-001	5.318986e-002	4.682035e-002	-7.986865e-001	2.603144e-002
6080117600	-4.212386e-001	-4.359828e-001	3.029446e-001	-2.798705e-001	5.332115e-002	4.627591e-002	-7.994835e-001	2.381153e-002
6090117300	-4.236469e-001	-4.358003e-001	3.011423e-001	-2.800045e-001	5.368895e-002	4.529806e-002	-8.007562e-001	2.129932e-002
6100117000	-4.261798e-001	-4.356039e-001	2.989088e-001	-2.795840e-001	5.356419e-002	4.406197e-002	-8.022530e-001	1.857720e-002
6110116700	-4.288108e-001	-4.349401e-001	2.964910e-001	-2.794656e-001	5.321052e-002	4.310383e-002	-8.034084e-001	1.572605e-002
6120116400	-4.317456e-001	-4.346832e-001	2.943082e-001	-2.799518e-001	5.287826e-002	4.227371e-002	-8.042533e-001	1.268025e-002
6130116100	-4.341650e-001	-4.341516e-001	2.917164e-001	-2.798827e-001	5.227874e-002	4.137857e-002	-8.053656e-001	1.152954e-002
6140115800	-4.369958e-001	-4.335479e-001	2.888703e-001	-2.802421e-001	5.177221e-002	4.066421e-002	-8.059508e-001	1.048582e-002
6150115500	-4.398791e-001	-4.328582e-001	2.864234e-001	-2.799720e-001	5.130695e-002	3.997095e-002	-8.067539e-001	1.010457e-002
6160115200	-4.426172e-001	-4.320946e-001	2.839084e-001	-2.800208e-001	5.080133e-002	3.947138e-002	-8.068276e-001	1.101639e-002
6170114900	-4.454642e-001	-4.311872e-001	2.805071e-001	-2.799535e-001	5.014692e-002	3.873914e-002	-8.071799e-001	1.217980e-002
6180114600	-4.482194e-001	-4.301178e-001	2.774448e-001	-2.800370e-001	4.952058e-002	3.832791e-002	-8.071603e-001	1.402122e-002
6190114300	-4.513101e-001	-4.292297e-001	2.744495e-001	-2.794425e-001	4.892445e-002	3.794561e-002	-8.075647e-001	1.682264e-002
6200114000	-4.544684e-001	-4.287213e-001	2.717050e-001	-2.789802e-001	4.844159e-002	3.748836e-002	-8.083384e-001	1.891592e-002
6210113700	-4.574593e-001	-4.280188e-001	2.686863e-001	-2.786304e-001	4.779480e-002	3.690795e-002	-8.091306e-001	2.074969e-002
6220113400	-4.603170e-001	-4.271848e-001	2.650514e-001	-2.783658e-001	4.716835e-002	3.652991e-002	-8.111606e-001	2.432608e-002
6230113100	-4.636707e-001	-4.263811e-001	2.619771e-001	-2.776669e-001	4.626659e-002	3.659803e-002	-8.133384e-001	2.689984e-002
6240112800	-4.672527e-001	-4.261294e-001	2.589466e-001	-2.768633e-001	4.549286e-002	3.650625e-002	-8.159395e-001	2.878255e-002
6250112500	-4.702317e-001	-4.256205e-001	2.558999e-001	-2.759290e-001	4.471339e-002	3.613927e-002	-8.186394e-001	2.936439e-002
6260112200	-4.733485e-001	-4.246928e-001	2.530173e-001	-2.749401e-001	4.406132e-002	3.641646e-002	-8.212651e-001	3.001324e-002
6270111900	-4.761861e-001	-4.243507e-001	2.504151e-001	-2.741637e-001	4.308438e-002	3.636811e-002	-8.233114e-001	3.043868e-002
6280111600	-4.787742e-001	-4.236115e-001	2.476663e-001	-2.729756e-001	4.261315e-002	3.655120e-002	-8.262881e-001	2.981794e-002
6290111300	-4.816263e-001	-4.230636e-001	2.449399e-001	-2.719200e-001	4.196391e-002	3.650675e-002	-8.278439e-001	2.871890e-002
6300111000	-4.842748e-001	-4.221609e-001	2.422524e-001	-2.698967e-001	4.147665e-002	3.688215e-002	-8.289568e-001	2.795024e-002
6310110700	-4.866760e-001	-4.215448e-001	2.397525e-001	-2.692117e-001	4.104480e-002	3.703549e-002	-8.301428e-001	2.646015e-002
6320110400	-4.894570e-001	-4.201973e-001	2.371341e-001	-2.682943e-001	4.051764e-002	3.702720e-002	-8.307203e-001	2.563005e-002
6330110100	-4.920276e-001	-4.197661e-001	2.350529e-001	-2.670705e-001	3.951960e-002	3.716575e-002	-8.307451e-001	2.451694e-002
6340109800	-4.948445e-001	-4.180785e-001	2.321191e-001	-2.657101e-001	3.935478e-002	3.704107e-002	-8.310819e-001	2.501898e-002
6350109500	-4.976826e-001	-4.170419e-001	2.298387e-001	-2.647106e-001	3.859432e-002	3.758198e-002	-8.302727e-001	2.534654e-002
6360109200	-5.005721e-001	-4.158061e-001	2.274519e-001	-2.636970e-001	3.805030e-002	3.785144e-002	-8.311227e-001	2.680280e-002
6370108900	-5.035652e-001	-4.147347e-001	2.249391e-001	-2.629042e-001	3.767513e-002	3.815779e-002	-8.303166e-001	2.884562e-002
6380108600	-5.065618e-001	-4.135778e-001	2.228703e-001	-2.618651e-001	3.705835e-002	3.884222e-002	-8.298879e-001	3.156736e-002
6390108300	-5.092186e-001	-4.122419e-001	2.202084e-001	-2.599267e-001	3.666968e-002	3.942665e-002	-8.298838e-001	3.485391e-002
6400108000	-5.123481e-001	-4.107031e-001	2.174781e-001	-2.592481e-001	3.635728e-002	3.984244e-002	-8.299845e-001	3.860858e-002
6410107700	-5.150010e-001	-4.096493e-001	2.153709e-001	-2.579509e-001	3.644696e-002	4.037425e-002	-8.307465e-001	4.115330e-002
6420107400	-5.182065e-001	-4.085853e-001	2.128462e-001	-2.566775e-001	3.613132e-002	4.057473e-002	-8.317802e-001	4.445331e-002
6430107100	-5.206873e-001	-4.074446e-001	2.103398e-001	-2.552719e-001	3.593494e-002	4.085214e-002	-8.329317e-001	4.708323e-002
6440106800	-5.234459e-001	-4.065543e-001	2.080832e-001	-2.539457e-001	3.565551e-002	4.125595e-002	-8.339042e-001	4.930290e-002
6450106500	-5.254847e-001	-4.055727e-001	2.058270e-001	-2.522284e-001	3.534003e-002	4.159803e-002	-8.360147e-001	5.067412e-002
6460106200	-5.276305e-001	-4.046188e-001	2.034859e-001	-2.506640e-001	3.528337e-002	4.189162e-002	-8.369902e-001	5.105233e-002
6470105900	-5.304402e-001	-4.036914e-001	2.014440e-001	-2.489624e-001	3.503801e-002	4.186929e-002	-8.382865e-001	5.146156e-002
6480105600	-5.324782e-001	-4.027140e-001	1.994563e-001	-2.473983e-001	3.488338e-002	4.228576e-002	-8.399712e-001	5.046015e-002
6490105300	-5.343668e-001	-4.018742e-001	1.975048e-001	-2.459374e-001	3.447537e-002	4.259651e-002	-8.405426e-001	4.916230e-002
6500105000	-5.367046e-001	-4.006737e-001	1.957231e-001	-2.441331e-001	3.434222e-002	4.315511e-002	-8.414620e-001	4.771102e-002
6510104700	-5.387846e-001	-3.997443e-001	1.942538e-001	-2.425894e-001	3.436978e-002	4.323591e-002	-8.418884e-001	4.597851e-002
6520104400	-5.410864e-001	-3.984342e-001	1.924447e-001	-2.414940e-001	3.438649e-002	4.384241e-002	-8.417347e-001	4.454378e-002
6530104100	-5.434522e-001	-3.974759e-001	1.912279e-001	-2.404109e-001	3.432662e-002	4.410450e-002	-8.421948e-001	4.348486e-002
6540103800	-5.456739e-001	-3.958494e-001	1.890628e-001	-2.390383e-001	3.403536e-002	4.428295e-002	-8.417665e-001	4.362781e-002
6550103500	-5.481423e-001	-3.950902e-001	1.879089e-001	-2.381622e-001	3.400485e-002	4.476155e-002	-8.413108e-001	4.441129e-002
6560103200	-5.504146e-001	-3.940913e-001	1.859054e-001	-2.370387e-001	3.389527e-002	4.489692e-002	-8.413011e-001	4.588582e-002
6570102900	-5.530600e-001	-3.929967e-001	1.842778e-001	-2.360994e-001	3.377397e-002	4.510382e-002	-8.404707e-001	4.784031e-002
6580102600	-5.555653e-001	-3.916532e-001	1.819591e-001	-2.346354e-001	3.390563e-002	4.543856e-002	-8.406447e-001	5.006758e-002
6590102300	-5.575362e-001	-3.910715e-001	1.801156e-001	-2.331878e-001	3.379975e-002	4.565179e-002	-8.402258e-001	5.322292e-002
6600102000	-5.602224e-001	-3.899054e-001	1.781021e-001	-2.323174e-001	3.363874e-002	4.589500e-002	-8.397900e-001	5.633441e-002
6610101700	-5.621778e-001	-3.890325e-001	1.759230e-001	-2.305054e-001	3.342186e-002	4.621033e-002	-8.401694e-001	5.930298e-002
6620101400	-5.642361e-001	-3.885110e-001	1.741119e-001	-2.292072e-001	3.342214e-002	4.655388e-002	-8.409044e-001	6.200788e-002
6630101100	-5.659928e-001	-3.879324e-001	1.721757e-001	-2.280057e-001	3.339198e-002	4.662521e-002	-8.414487e-001	6.415338e-002
6640100800	-5.678366e-001	-3.873051e-001	1.702186e-001	-2.261846e-001	3.318211e-002	4.697632e-002	-8.424008e-001	6.610429e-002
6650100500	-5.694111e-001	-3.866673e-001	1.686991e-001	-2.244301e-001	3.299459e-002	4.707884e-002	-8.434503e-001	6.579960e-002
6660100200	-5.716176e-001	-3.862723e-001	1.669621e-001	-2.225048e-001	3.288855e-002	4.729571e-002	-8.449083e-001	6.579781e-002
6670099900	-5.733124e-001	-3.857363e-001	1.658605e-001	-2.209859e-001	3.294069e-002	4.772635e-002	-8.465623e-001	6.493063e-002
6680099600	-5.747724e-001	-3.850902e-001	1.646637e-001	-2.192321e-001	3.258665e-002	4.837463e-002	-8.476088e-001	6.318644e-002
6690099300	-5.767755e-001	-3.841409e-001	1.631126e-001	-2.181388e-001	3.268169e-002	4.841354e-002	-8.488863e-001	6.160809e-002
6700099000	-5.781412e-001	-3.834015e-001	1.618241e-001	-2.160108e-001	3.271766e-002	4.885872e-002	-8.495021e-001	5.972659e-002
6710098700	-5.806228e-001	-3.826353e-001	1.604251e-001	-2.148169e-001	3.272441e-002	4.914449e-002	-8.501612e-001	5.789655e-002
6720098400	-5.822385e-001	-3.817876e-001	1.592805e-001	-2.138374e-001	3.266744e-002	4.937512e-002	-8.498454e-001	5.704644e-002
6730098100	-5.842204e-001	-3.805104e-001	1.579495e-001	-2.126563e-001	3.247881e-002	4.950397e-002	-8.498766e-001	5.610739e-002
6740097800	-5.864343e-001	-3.798563e-001	1.570312e-001	-2.115016e-001	3.246778e-002	4.983394e-002	-8.486997e-001	5.581906e-002
6750097500	-5.883568e-001	-3.783901e-001	1.554921e-001	-2.105081e-001	3.240711e-002	5.001686e-002	-8.480940e-001	5.672185e-002
6760097200	-5.907100e-001	-3.778908e-001	1.540766e-001	-2.094174e-001	3.223763e-002	5.033509e-002	-8.472997e-001	5.799608e-002
6770096900	-5.925669e-001	-3.770183e-001	1.523761e-001	-2.083187e-001	3.204980e-002	5.058039e-002	-8.463775e-001	5.986673e-002
6780096600	-5.947100e-001	-3.764028e-001	1.510107e-001	-2.069723e-001	3.203114e-002	5.073410e-002	-8.456348e-001	6.257375e-002
6790096300	-5.966657e-001	-3.755227e-001	1.494292e-001	-2.055268e-001	3.208361e-002	5.101292e-002	-8.448633e-001	6.549267e-002
6800096000	-5.988964e-001	-3.756935e-001	1.479730e-001	-2.042945e-001	3.178660e-002	5.137798e-002	-8.444131e-001	6.829953e-002
6810095700	-6.012034e-001	-3.751622e-001	1.461498e-001	-2.028791e-001	3.168129e-002	5.178850e-002	-8.441067e-001	7.075007e-002
6820095400	-6.028648e-001	-3.745449e-001	1.447718e-001	-2.009494e-001	3.130675e-002	5.204319e-002	-8.445426e-001	7.339852e-002
6830095100	-6.047757e-001	-3.739872e-001	1.431233e-001	-1.994364e-001	3.145746e-002	5.232756e-002	-8.450464e-001	7.469750e-002
6840094800	-6.065749e-001	-3.736857e-001	1.415382e-001	-1.973061e-001	3.129586e-002	5.255055e-002	-8.463574e-001	7.565773e-002
6850094500	-6.084373e-001	-3.735287e-001	1.406385e-001	-1.960948e-001	3.111961e-002	5.289408e-002	-8.475455e-001	7.585552e-002
6860094200	-6.099776e-001	-3.726204e-001	1.390182e-001	-1.942063e-001	3.068480e-002	5.337364e-002	-8.489654e-001	7.523642e-002
6870093900	-6.116177e-001	-3.718667e-001	1.378303e-001	-1.927860e-001	3.078708e-002	5.380340e-002	-8.505055e-001	7.420026e-002
6880093600	-6.132552e-001	-3.711229e-001	1.366823e-001	-1.911033e-001	3.061157e-002	5.397562e-002	-8.515131e-001	7.237385e-002
6890093300	-6.150150e-001	-3.700072e-001	1.355598e-001	-1.899372e-001	3.049216e-002	5.447548e-002	-8.521876e-001	7.123918e-002
6900093000	-6.170978e-001	-3.693616e-001	1.347662e-001	-1.881560e-001	3.021376e-002	5.494524e-002	-8.527791e-001	6.887190e-002
6910092700	-6.185111e-001	-3.682217e-001	1.338070e-001	-1.869995e-001	3.030242e-002	5.544808e-002	-8.530130e-001	6.697903e-002
6920092400	-6.202680e-001	-3.676537e-001	1.328597e-001	-1.858362e-001	3.015047e-002	5.613403e-002	-8.528255e-001	6.506818e-002
6930092100	-6.222536e-001	-3.668645e-001	1.316585e-001	-1.844547e-001	2.989899e-002	5.654532e-002	-8.520204e-001	6.465051e-002
6940091800	-6.242306e-001	-3.655391e-001	1.305941e-001	-1.826884e-001	2.957460e-002	5.722478e-002	-8.514437e-001	6.417005e-002
6950091500	-6.258923e-001	-3.651791e-001	1.297162e-001	-1.810628e-001	2.948703e-002	5.771522e-002	-8.502252e-001	6.440832e-002
6960091200	-6.280714e-001	-3.644176e-001	1.286597e-001	-1.798927e-001	2.945611e-002	5.830607e-002	-8.486223e-001	6.567838e-002
6970090900	-6.300640e-001	-3.634111e-001	1.272230e-001	-1.780695e-001	2.940651e-002	5.902136e-002	-8.475199e-001	6.771298e-002
6980090600	-6.320303e-001	-3.629809e-001	1.262304e-001	-1.765136e-001	2.951290e-002	5.961745e-002	-8.463328e-001	6.985606e-002
6990090300	-6.340987e-001	-3.622237e-001	1.249085e-001	-1.745969e-001	2.950590e-002	6.036969e-002	-8.453962e-001	7.262843e-002
7000090000	-6.354763e-001	-3.613710e-001	1.240330e-001	-1.734081e-001	2.966653e-002	6.126704e-002	-8.452605e-001	7.495808e-002
7010089700	-6.370577e-001	-3.608087e-001	1.225859e-001	-1.717683e-001	2.987366e-002	6.184975e-002	-8.446972e-001	7.720710e-002
7020089400	-6.391523e-001	-3.599487e-001	1.220374e-001	-1.700993e-001	2.982281e-002	6.237551e-002	-8.444936e-001	7.911216e-002
7030089100	-6.402383e-001	-3.596095e-001	1.210292e-001	-1.681453e-001	3.013114e-002	6.280481e-002	-8.449833e-001	8.056652e-002
7040088800	-6.415013e-001	-3.586755e-001	1.201275e-001	-1.664596e-001	3.019265e-002	6.357409e-002	-8.457555e-001	8.144550e-002
7050088500	-6.428236e-001	-3.577031e-001	1.192172e-001	-1.644694e-001	3.022899e-002	6.430035e-002	-8.465367e-001	8.095593e-002
7060088200	-6.439339e-001	-3.570909e-001	1.186637e-001	-1.629286e-001	3.056657e-002	6.465218e-002	-8.480138e-001	8.028841e-002
7070087900	-6.449909e-001	-3.564554e-001	1.177841e-001	-1.607317e-001	3.045369e-002	6.544856e-002	-8.486786e-001	7.903783e-002
7080087600	-6.457667e-001	-3.552900e-001	1.172929e-001	-1.591026e-001	3.051055e-002	6.642662e-002	-8.493728e-001	7.688973e-002
7090087300	-6.472810e-001	-3.542321e-001	1.167561e-001	-1.573366e-001	3.066581e-002	6.699768e-002	-8.497427e-001	7.446489e-002
7100087000	-6.484264e-001	-3.538272e-001	1.162460e-001	-1.556230e-001	3.059578e-002	6.808396e-002	-8.494818e-001	7.252844e-002
7110086700	-6.492408e-001	-3.524956e-001	1.161997e-001	-1.540966e-001	3.118530e-002	6.884751e-002	-8.492189e-001	7.019581e-002
7120086400	-6.509652e-001	-3.514192e-001	1.157165e-001	-1.524383e-001	3.145709e-002	6.993035e-002	-8.480393e-001	6.887298e-002
7130086100	-6.524237e-001	-3.506369e-001	1.151232e-001	-1.509579e-001	3.202645e-002	7.065265e-002	-8.465609e-001	6.784343e-002
7140085800	-6.533989e-001	-3.490850e-001	1.149019e-001	-1.493816e-001	3.266721e-002	7.128243e-002	-8.447365e-001	6.745735e-002
7150085500	-6.545351e-001	-3.480960e-001	1.143045e-001	-1.481818e-001	3.326867e-002	7.225196e-002	-8.431386e-001	6.811334e-002
7160085200	-6.561090e-001	-3.467448e-001	1.138863e-001	-1.462590e-001	3.401120e-002	7.309084e-002	-8.412897e-001	6.901830e-002
7170084900	-6.572243e-001	-3.457481e-001	1.136333e-001	-1.444901e-001	3.440628e-002	7.377098e-002	-8.394467e-001	7.110232e-002
7180084600	-6.583852e-001	-3.444938e-001	1.134662e-001	-1.432853e-001	3.493385e-002	7.468490e-002	-8.379302e-001	7.379686e-002
7190084300	-6.593030e-001	-3.434993e-001	1.123814e-001	-1.416304e-001	3.522326e-002	7.504706e-002	-8.365093e-001	7.582685e-002
7200084000	-6.598138e-001	-3.429307e-001	1.121894e-001	-1.401686e-001	3.598215e-002	7.576250e-002	-8.354812e-001	7.842713e-002
7210083700	-6.610810e-001	-3.421682e-001	1.118048e-001	-1.384696e-001	3.680518e-002	7.640308e-002	-8.346070e-001	8.078696e-002
7220083400	-6.619369e-001	-3.411774e-001	1.116382e-001	-1.365797e-001	3.721490e-002	7.681575e-002	-8.344456e-001	8.255733e-002
7230083100	-6.623130e-001	-3.398286e-001	1.111353e-001	-1.352240e-001	3.800296e-002	7.758678e-002	-8.338355e-001	8.373851e-002
7240082800	-6.629273e-001	-3.391317e-001	1.109753e-001	-1.333226e-001	3.861520e-002	7.843533e-002	-8.339729e-001	8.412999e-002
7250082500	-6.631769e-001	-3.380606e-001	1.110566e-001	-1.314444e-001	3.935650e-002	7.887652e-002	-8.338937e-001	8.341641e-002
7260082200	-6.634776e-001	-3.375470e-001	1.110112e-001	-1.295054e-001	4.002484e-002	7.973514e-002	-8.339598e-001	8.218184e-002
7270081900	-6.640642e-001	-3.361052e-001	1.113136e-001	-1.278757e-001	4.071229e-002	8.024444e-002	-8.340369e-001	8.021133e-002
7280081600	-6.643303e-001	-3.351934e-001	1.113891e-001	-1.260949e-001	4.156486e-002	8.142532e-002	-8.340913e-001	7.739437e-002
7290081300	-6.649315e-001	-3.339149e-001	1.116993e-001	-1.243742e-001	4.221889e-002	8.197197e-002	-8.333954e-001	7.493575e-002
7300081000	-6.647800e-001	-3.327050e-001	1.121089e-001	-1.225441e-001	4.331792e-002	8.287748e-002	-8.323541e-001	7.223018e-002
7310080700	-6.647341e-001	-3.306950e-001	1.122013e-001	-1.206625e-001	4.396336e-002	8.346856e-002	-8.312882e-001	6.991316e-002
7320080400	-6.657187e-001	-3.295586e-001	1.128034e-001	-1.194245e-001	4.510850e-002	8.425700e-002	-8.294102e-001	6.860125e-002
7330080100	-6.656394e-001	-3.284247e-001	1.129224e-001	-1.178446e-001	4.638047e-002	8.503362e-002	-8.271810e-001	6.750383e-002
7340079800	-6.662684e-001	-3.270378e-001	1.135800e-001	-1.162918e-001	4.769787e-002	8.551798e-002	-8.247215e-001	6.675414e-002
7350079500	-6.659949e-001	-3.254298e-001	1.139597e-001	-1.148905e-001	4.895281e-002	8.653409e-002	-8.217722e-001	6.757898e-002
7360079200	-6.661752e-001	-3.250876e-001	1.146919e-001	-1.132983e-001	5.021206e-002	8.738224e-002	-8.191341e-001	6.793563e-002
7370078900	-6.657163e-001	-3.234703e-001	1.149583e-001	-1.118941e-001	5.163531e-002	8.789684e-002	-8.159926e-001	6.949450e-002
7380078600	-6.664568e-001	-3.217999e-001	1.155563e-001	-1.108154e-001	5.301392e-002	8.843553e-002	-8.135033e-001	7.187185e-002
7390078300	-6.661822e-001	-3.210919e-001	1.164633e-001	-1.089154e-001	5.477136e-002	8.929821e-002	-8.108056e-001	7.384289e-002
7400078000	-6.658238e-001	-3.198241e-001	1.177402e-001	-1.075624e-001	5.636308e-002	8.964301e-002	-8.089010e-001	7.523909e-002
7410077700	-6.651852e-001	-3.185952e-001	1.185553e-001	-1.061470e-001	5.819317e-002	9.012191e-002	-8.073225e-001	7.690035e-002
7420077400	-6.637595e-001	-3.176256e-001	1.195323e-001	-1.046171e-001	6.017352e-002	9.028752e-002	-8.061503e-001	7.736165e-002
7430077100	-6.627881e-001	-3.158733e-001	1.206901e-001	-1.033311e-001	6.177219e-002	9.073239e-002	-8.048644e-001	7.702475e-002
7440076800	-6.621937e-001	-3.142985e-001	1.221194e-001	-1.019130e-001	6.391889e-002	9.087192e-002	-8.040877e-001	7.607678e-002
7450076500	-6.602790e-001	-3.126013e-001	1.234458e-001	-1.001849e-001	6.598661e-002	9.134330e-002	-8.035332e-001	7.411367e-002
7460076200	-6.586964e-001	-3.109538e-001	1.249923e-001	-9.878560e-002	6.776974e-002	9.140615e-002	-8.028137e-001	7.156008e-002
7470075900	-6.564209e-001	-3.092954e-001	1.267848e-001	-9.723665e-002	7.022204e-002	9.175776e-002	-8.014964e-001	6.830759e-002
7480075600	-6.541314e-001	-3.076293e-001	1.284703e-001	-9.593321e-002	7.283400e-002	9.160522e-002	-8.000742e-001	6.400045e-002
7490075300	-6.515085e-001	-3.058396e-001	1.307558e-001	-9.479560e-002	7.505768e-002	9.187414e-002	-7.975455e-001	6.008983e-002
7500075000	-6.487267e-001	-3.045243e-001	1.334661e-001	-9.353506e-002	7.809410e-002	9.175090e-002	-7.950876e-001	5.486098e-002
7510074700	-6.453511e-001	-3.025613e-001	1.359612e-001	-9.302915e-002	8.152280e-002	9.155409e-002	-7.919306e-001	5.062981e-002
7520074400	-6.422399e-001	-3.016901e-001	1.397042e-001	-9.277084e-002	8.492352e-002	9.102982e-002	-7.885942e-001	4.618587e-002
7530074100	-6.385450e-001	-3.000636e-001	1.429412e-001	-9.300617e-002	8.854583e-002	9.004439e-002	-7.857948e-001	4.235548e-002
7540073800	-6.347298e-001	-2.994223e-001	1.466103e-001	-9.366054e-002	9.211270e-002	8.836579e-002	-7.814029e-001	3.913659e-002
7550073500	-6.299754e-001	-2.992803e-001	1.504727e-001	-9.466975e-002	9.624578e-002	8.647512e-002	-7.777628e-001	3.655954e-002
7560073200	-6.248126e-001	-2.997683e-001	1.539386e-001	-9.651083e-002	1.003037e-001	8.420995e-002	-7.746777e-001	3.482616e-002
7570072900	-6.199632e-001	-3.008746e-001	1.578271e-001	-9.846287e-002	1.042917e-001	8.099440e-002	-7.714057e-001	3.280315e-002
7580072600	-6.140183e-001	-3.024058e-001	1.612775e-001	-1.012185e-001	1.082158e-001	7.714394e-002	-7.687916e-001	3.044387e-002
7590072300	-6.082980e-001	-3.048881e-001	1.645335e-001	-1.047685e-001	1.116029e-001	7.265560e-002	-7.672722e-001	2.803434e-002
7600072000	-6.021019e-001	-3.083976e-001	1.675696e-001	-1.086168e-001	1.146466e-001	6.759073e-002	-7.660631e-001	2.572191e-002
7610071700	-5.959610e-001	-3.128769e-001	1.694572e-001	-1.132296e-001	1.172459e-001	6.193919e-002	-7.657908e-001	2.186768e-002
7620071400	-5.901943e-001	-3.187069e-001	1.713987e-001	-1.184586e-001	1.187702e-001	5.567944e-002	-7.671656e-001	1.824252e-002
7630071100	-5.848562e-001	-3.253177e-001	1.722633e-001	-1.239503e-001	1.196421e-001	4.865991e-002	-7.693698e-001	1.356038e-002
7640070800	-5.804999e-001	-3.326228e-001	1.722389e-001	-1.300844e-001	1.195703e-001	4.201932e-002	-7.729053e-001	7.707943e-003
7650070500	-5.770422e-001	-3.408928e-001	1.710301e-001	-1.360563e-001	1.184922e-001	3.499355e-002	-7.771809e-001	1.541185e-003
7660070200	-5.742959e-001	-3.496137e-001	1.694014e-001	-1.416979e-001	1.161174e-001	2.865645e-002	-7.812230e-001	-5.042960e-003
7670069900	-5.737674e-001	-3.586051e-001	1.670385e-001	-1.472318e-001	1.131653e-001	2.256041e-002	-7.863760e-001	-1.212143e-002
7680069600	-5.741477e-001	-3.669973e-001	1.634225e-001	-1.520691e-001	1.089858e-001	1.677371e-002	-7.915244e-001	-1.924875e-002
7690069300	-5.755982e-001	-3.754089e-001	1.593226e-001	-1.570575e-001	1.047642e-001	1.206317e-002	-7.962226e-001	-2.554746e-002
7700069000	-5.776603e-001	-3.834854e-001	1.548655e-001	-1.610029e-001	9.977058e-002	7.854197e-003	-8.016606e-001	-3.011489e-002
7710068700	-5.815313e-001	-3.907501e-001	1.501202e-001	-1.644666e-001	9.470083e-002	4.570928e-003	-8.058220e-001	-3.521549e-002
7720068400	-5.853971e-001	-3.977962e-001	1.446529e-001	-1.669535e-001	8.943529e-002	1.949930e-003	-8.091969e-001	-3.782258e-002
7730068100	-5.902229e-001	-4.033257e-001	1.392261e-001	-1.690944e-001	8.423664e-002	-2.224057e-004	-8.120155e-001	-3.925178e-002
7740067800	-5.958604e-001	-4.087386e-001	1.337810e-001	-1.706760e-001	7.870844e-002	-1.323180e-003	-8.148904e-001	-3.935050e-002
7750067500	-6.001454e-001	-4.127722e-001	1.280341e-001	-1.714797e-001	7.376163e-002	-1.912318e-003	-8.167000e-001	-3.793302e-002
7760067200	-6.051747e-001	-4.171684e-001	1.228735e-001	-1.714032e-001	6.887278e-002	-1.916721e-003	-8.181543e-001	-3.562875e-002
7770066900	-6.100818e-001	-4.208199e-001	1.174539e-001	-1.709761e-001	6.421680e-002	-1.810356e-003	-8.197401e-001	-3.262239e-002
7780066600	-6.149076e-001	-4.237254e-001	1.125205e-001	-1.696029e-001	5.952125e-002	-9.499924e-004	-8.211974e-001	-2.820899e-002
7790066300	-6.191333e-001	-4.260807e-001	1.077410e-001	-1.681111e-001	5.589934e-002	3.380972e-004	-8.223689e-001	-2.409720e-002
7800066000	-6.235227e-001	-4.283727e-001	1.033510e-001	-1.664699e-001	5.190954e-002	1.384546e-003	-8.233131e-001	-2.012416e-002
7810065700	-6.281581e-001	-4.300076e-001	9.943779e-002	-1.643423e-001	4.850015e-002	2.852269e-003	-8.249844e-001	-1.663549e-002
7820065400	-6.316988e-001	-4.314132e-001	9.584847e-002	-1.620075e-001	4.545886e-002	4.558696e-003	-8.271197e-001	-1.426351e-002
7830065100	-6.357529e-001	-4.318968e-001	9.224663e-002	-1.597577e-001	4.232518e-002	6.195874e-003	-8.286996e-001	-1.325885e-002
7840064800	-6.390591e-001	-4.335586e-001	8.932428e-002	-1.573087e-001	3.991883e-002	8.238355e-003	-8.313167e-001	-1.347776e-002
7850064500	-6.424608e-001	-4.339097e-001	8.664933e-002	-1.545465e-001	3.737496e-002	1.010760e-002	-8.336344e-001	-1.420643e-002
7860064200	-6.456293e-001	-4.342758e-001	8.423645e-002	-1.521733e-001	3.547395e-002	1.192790e-002	-8.360585e-001	-1.613742e-002
7870063900	-6.489634e-001	-4.346379e-001	8.189036e-002	-1.494772e-001	3.327312e-002	1.413708e-002	-8.377891e-001	-1.857620e-002
7880063600	-6.520115e-001	-4.342998e-001	8.022242e-002	-1.471930e-001	3.191320e-002	1.626009e-002	-8.397224e-001	-2.203152e-002
7890063300	-6.550088e-001	-4.344042e-001	7.825425e-002	-1.444450e-001	3.021546e-002	1.825311e-002	-8.405902e-001	-2.515819e-002
7900063000	-6.577324e-001	-4.346223e-001	7.720644e-002	-1.421450e-001	2.893536e-002	2.024370e-002	-8.412996e-001	-2.851993e-002
7910062700	-6.602987e-001	-4.344287e-001	7.593632e-002	-1.398322e-001	2.776642e-002	2.203266e-002	-8.411183e-001	-3.169849e-002
7920062400	-6.632302e-001	-4.345845e-001	7.451737e-002	-1.377802e-001	2.692853e-002	2.415352e-002	-8.401169e-001	-3.347185e-002
7930062100	-6.653949e-001	-4.346599e-001	7.349755e-002	-1.356549e-001	2.622719e-002	2.593275e-002	-8.395614e-001	-3.503936e-002
7940061800	-6.681433e-001	-4.335860e-001	7.239565e-002	-1.336787e-001	2.545103e-002	2.770196e-002	-8.377849e-001	-3.562057e-002
7950061500	-6.703294e-001	-4.347435e-001	7.147156e-002	-1.316216e-001	2.499103e-002	2.944923e-002	-8.366802e-001	-3.491556e-002
7960061200	-6.721208e-001	-4.342686e-001	7.054863e-002	-1.298631e-001	2.466016e-002	3.098718e-002	-8.357245e-001	-3.330069e-002
7970060900	-6.743530e-001	-4.343376e-001	6.976475e-002	-1.280214e-001	2.392774e-002	3.273195e-002	-8.347711e-001	-3.093092e-002
7980060600	-6.760153e-001	-4.340613e-001	6.874601e-002	-1.264170e-001	2.361351e-002	3.386852e-002	-8.346082e-001	-2.790671e-002
7990060300	-6.780405e-001	-4.337973e-001	6.787492e-002	-1.243805e-001	2.345097e-002	3.568200e-002	-8.348958e-001	-2.488857e-002
8000060000	-6.796846e-001	-4.339075e-001	6.686439e-002	-1.224804e-001	2.306783e-002	3.695871e-002	-8.353005e-001	-2.235598e-002
8010059700	-6.810627e-001	-4.338769e-001	6.665843e-002	-1.207706e-001	2.294539e-002	3.820070e-002	-8.367327e-001	-2.009810e-002
8020059400	-6.821818e-001	-4.334234e-001	6.593166e-002	-1.189903e-001	2.284065e-002	3.949326e-002	-8.381487e-001	-1.794836e-002
8030059100	-6.834610e-001	-4.335462e-001	6.531111e-002	-1.172240e-001	2.254276e-002	4.047463e-002	-8.402787e-001	-1.740217e-002
8040058800	-6.846766e-001	-4.330377e-001	6.456816e-002	-1.157444e-001	2.256090e-002	4.204294e-002	-8.421012e-001	-1.723800e-002
8050058500	-6.858696e-001	-4.331650e-001	6.426090e-002	-1.138113e-001	2.243215e-002	4.292046e-002	-8.443189e-001	-1.865115e-002
8060058200	-6.866904e-001	-4.326645e-001	6.387050e-002	-1.125092e-001	2.249173e-002	4.406592e-002	-8.462010e-001	-1.995431e-002
8070057900	-6.876842e-001	-4.326058e-001	6.396479e-002	-1.108827e-001	2.209054e-002	4.487042e-002	-8.480391e-001	-2.312343e-002
8080057600	-6.890605e-001	-4.325694e-001	6.328485e-002	-1.096255e-001	2.215292e-002	4.594673e-002	-8.491944e-001	-2.698492e-002
8090057300	-6.898414e-001	-4.327125e-001	6.307753e-002	-1.081316e-001	2.197228e-002	4.717972e-002	-8.494457e-001	-3.044584e-002
8100057000	-6.907006e-001	-4.330229e-001	6.290395e-002	-1.069833e-001	2.199999e-002	4.813526e-002	-8.494374e-001	-3.366373e-002
8110056700	-6.919550e-001	-4.324241e-001	6.287135e-002	-1.055834e-001	2.207489e-002	4.885467e-002	-8.491300e-001	-3.629586e-002
8120056400	-6.930826e-001	-4.327639e-001	6.270696e-002	-1.045119e-001	2.189549e-002	5.019734e-002	-8.475588e-001	-3.790438e-002
8130056100	-6.940665e-001	-4.318693e-001	6.195301e-002	-1.030489e-001	2.204402e-002	5.095280e-002	-8.462358e-001	-3.818710e-002
8140055800	-6.944969e-001	-4.320830e-001	6.135363e-002	-1.017363e-001	2.205121e-002	5.207920e-002	-8.446990e-001	-3.800795e-002
8150055500	-6.951483e-001	-4.317663e-001	6.127191e-002	-1.007367e-001	2.195836e-002	5.276510e-002	-8.430653e-001	-3.634914e-002
8160055200	-6.962267e-001	-4.313467e-001	6.063738e-002	-9.976747e-002	2.220633e-002	5.372151e-002	-8.417991e-001	-3.397332e-002
8170054900	-6.969713e-001	-4.311547e-001	6.030639e-002	-9.877270e-002	2.247268e-002	5.463406e-002	-8.400730e-001	-3.134404e-002
8180054600	-6.981073e-001	-4.311123e-001	6.016265e-002	-9.745017e-002	2.247205e-002	5.532541e-002	-8.394311e-001	-2.747075e-002
8190054300	-6.979433e-001	-4.307105e-001	5.955482e-002	-9.633395e-002	2.271268e-002	5.599794e-002	-8.394445e-001	-2.444673e-002
8200054000	-6.982366e-001	-4.310900e-001	5.938010e-002	-9.513709e-002	2.298592e-002	5.688130e-002	-8.396072e-001	-2.113489e-002
8210053700	-6.986492e-001	-4.315033e-001	5.880497e-002	-9.382869e-002	2.262522e-002	5.752634e-002	-8.399219e-001	-1.870112e-002
8220053400	-6.993516e-001	-4.310504e-001	5.882708e-002	-9.247346e-002	2.290608e-002	5.816878e-002	-8.417069e-001	-1.689993e-002
8230053100	-7.004074e-001	-4.310202e-001	5.826110e-002	-9.167407e-002	2.274666e-002	5.891056e-002	-8.429872e-001	-1.672329e-002
8240052800	-7.002781e-001	-4.316958e-001	5.794979e-002	-9.025560e-002	2.269945e-002	5.961080e-002	-8.439898e-001	-1.747173e-002
8250052500	-7.004084e-001	-4.312118e-001	5.780761e-002	-8.866908e-002	2.281214e-002	6.074724e-002	-8.449317e-001	-1.987012e-002
8260052200	-7.006721e-001	-4.311061e-001	5.746570e-002	-8.765665e-002	2.291630e-002	6.120105e-002	-8.463116e-001	-2.207120e-002
8270051900	-7.013290e-001	-4.312681e-001	5.724314e-002	-8.646542e-002	2.286557e-002	6.194682e-002	-8.465360e-001	-2.440762e-002
8280051600	-7.014742e-001	-4.310518e-001	5.693995e-002	-8.540713e-002	2.299743e-002	6.276510e-002	-8.468888e-001	-2.819744e-002
8290051300	-7.018274e-001	-4.305123e-001	5.708076e-002	-8.423220e-002	2.288210e-002	6.349906e-002	-8.466825e-001	-3.078936e-002
8300051000	-7.019998e-001	-4.309611e-001	5.680940e-002	-8.288127e-002	2.335672e-002	6.440702e-002	-8.452587e-001	-3.364378e-002
8310050700	-7.021272e-001	-4.305058e-001	5.657398e-002	-8.205439e-002	2.323483e-002	6.502225e-002	-8.438852e-001	-3.596380e-002
8320050400	-7.027548e-001	-4.309053e-001	5.665021e-002	-8.089682e-002	2.334244e-002	6.584813e-002	-8.414933e-001	-3.661454e-002
8330050100	-7.023190e-001	-4.301301e-001	5.661843e-002	-7.985048e-002	2.353532e-002	6.679387e-002	-8.383997e-001	-3.731305e-002
8340049800	-7.025854e-001	-4.299067e-001	5.625767e-002	-7.876853e-002	2.353433e-002	6.750217e-002	-8.360346e-001	-3.615439e-002
8350049500	-7.033975e-001	-4.300209e-001	5.593495e-002	-7.779401e-002	2.400736e-002	6.844224e-002	-8.349019e-001	-3.430559e-002
8360049200	-7.035766e-001	-4.299507e-001	5.583252e-002	-7.693076e-002	2.417931e-002	6.888366e-002	-8.324604e-001	-3.181284e-002
8370048900	-7.029746e-001	-4.303190e-001	5.572281e-002	-7.595398e-002	2.440201e-002	6.971396e-002	-8.309659e-001	-2.902604e-002
8380048600	-7.036331e-001	-4.304172e-001	5.562914e-002	-7.515862e-002	2.469844e-002	7.043544e-002	-8.304886e-001	-2.555329e-002
8390048300	-7.043679e-001	-4.308371e-001	5.519008e-002	-7.427766e-002	2.497219e-002	7.060718e-002	-8.300495e-001	-2.183735e-002
8400048000	-7.041506e-001	-4.307311e-001	5.503158e-002	-7.301946e-002	2.516916e-002	7.175910e-002	-8.305695e-001	-1.891886e-002
8410047700	-7.036893e-001	-4.306313e-001	5.482025e-002	-7.222139e-002	2.544042e-002	7.216564e-002	-8.309243e-001	-1.665478e-002
8420047400	-7.050024e-001	-4.311187e-001	5.464310e-002	-7.090133e-002	2.572110e-002	7.285813e-002	-8.313581e-001	-1.550084e-002
8430047100	-7.041323e-001	-4.316860e-001	5.419417e-002	-6.964088e-002	2.574694e-002	7.362357e-002	-8.329296e-001	-1.467662e-002
8440046800	-7.047487e-001	-4.314216e-001	5.407386e-002	-6.873361e-002	2.588728e-002	7.400574e-002	-8.330654e-001	-1.579383e-002
8450046500	-7.040805e-001	-4.316714e-001	5.413188e-002	-6.728655e-002	2.619580e-002	7.465333e-002	-8.338553e-001	-1.753997e-002
8460046200	-7.039207e-001	-4.322953e-001	5.417706e-002	-6.591155e-002	2.628521e-002	7.511397e-002	-8.340871e-001	-2.014269e-002
8470045900	-7.034482e-001	-4.324687e-001	5.415631e-002	-6.502009e-002	2.620064e-002	7.619125e-002	-8.341863e-001	-2.308731e-002
8480045600	-7.030955e-001	-4.318920e-001	5.404022e-002	-6.393838e-002	2.672549e-002	7.670459e-002	-8.340265e-001	-2.658893e-002
8490045300	-7.026694e-001	-4.324809e-001	5.427774e-002	-6.279378e-002	2.696598e-002	7.752831e-002	-8.325701e-001	-2.953102e-002
8500045000	-6.988770e-001	-4.331259e-001	5.344483e-002	-5.938397e-002	2.725311e-002	7.796807e-002	-8.256349e-001	-3.301896e-002
8510044700	-6.997645e-001	-4.318161e-001	5.358605e-002	-5.955661e-002	2.703327e-002	7.914734e-002	-8.230057e-001	-3.432869e-002
8520044400	-6.997894e-001	-4.340821e-001	5.373383e-002	-5.811639e-002	2.826900e-002	7.992599e-002	-8.234498e-001	-3.846912e-002
8530044100	-7.003993e-001	-4.320581e-001	5.364494e-002	-5.757662e-002	2.756040e-002	8.056832e-002	-8.205698e-001	-3.635880e-002
8540043800	-7.009828e-001	-4.336134e-001	5.384290e-002	-5.696060e-002	2.871115e-002	8.102861e-002	-8.193725e-001	-3.686313e-002
8550043500	-6.990271e-001	-4.343991e-001	5.464603e-002	-5.598343e-002	2.882276e-002	8.191667e-002	-8.176956e-001	-3.478280e-002
8560043200	-6.990446e-001	-4.334296e-001	5.419666e-002	-5.552676e-002	2.893803e-002	8.277982e-002	-8.174228e-001	-2.991130e-002
8570042900	-6.992940e-001	-4.344998e-001	5.423281e-002	-5.425030e-002	2.962760e-002	8.295026e-002	-8.149097e-001	-2.750131e-002
8580042600	-6.979884e-001	-4.323510e-001	5.439496e-002	-5.355490e-002	3.100287e-002	8.387938e-002	-8.150730e-001	-2.169660e-002
8590042300	-6.983781e-001	-4.336084e-001	5.406328e-002	-5.244395e-002	3.151266e-002	8.389045e-002	-8.137069e-001	-1.871964e-002
8600042000	-6.997302e-001	-4.327123e-001	5.435922e-002	-5.194741e-002	3.236504e-002	8.500550e-002	-8.119531e-001	-1.456375e-002
8610041700	-6.989936e-001	-4.332334e-001	5.392876e-002	-5.146678e-002	3.210727e-002	8.557236e-002	-8.120549e-001	-1.312392e-002
8620041400	-6.997617e-001	-4.326652e-001	5.443590e-002	-4.978027e-002	3.260940e-002	8.521031e-002	-8.126260e-001	-1.203001e-002
8630041100	-6.961481e-001	-4.341512e-001	5.458231e-002	-4.922027e-002	3.351371e-002	8.624355e-002	-8.118382e-001	-9.744285e-003
8640040800	-6.976389e-001	-4.340770e-001	5.483715e-002	-4.840311e-002	3.332378e-002	8.576571e-002	-8.126844e-001	-1.092058e-002
8650040500	-6.972793e-001	-4.336212e-001	5.464066e-002	-4.785651e-002	3.390516e-002	8.756600e-002	-8.125180e-001	-1.412012e-002
8660040200	-6.943098e-001	-4.342504e-001	5.509149e-002	-4.753053e-002	3.431763e-002	8.649145e-002	-8.131100e-001	-1.777218e-002
8670039900	-6.959156e-001	-4.371391e-001	5.574872e-002	-4.670882e-002	3.363231e-002	8.753900e-002	-8.119927e-001	-2.157194e-002
8680039600	-6.952514e-001	-4.343886e-001	5.601057e-002	-4.604623e-002	3.532354e-002	8.735202e-002	-8.120967e-001	-2.490700e-002
8690039300	-6.937262e-001	-4.358437e-001	5.648087e-002	-4.506184e-002	3.508381e-002	8.907938e-002	-8.107025e-001	-3.056866e-002
8700039000	-6.951891e-001	-4.353005e-001	5.558219e-002	-4.444917e-002	3.578627e-002	8.870868e-002	-8.096998e-001	-3.245553e-002
8710038700	-6.955765e-001	-4.363707e-001	5.646210e-002	-4.439115e-002	3.657098e-002	8.941620e-002	-8.106609e-001	-3.482023e-002
8720038400	-6.930196e-001	-4.351777e-001	5.607515e-002	-4.415597e-002	3.607017e-002	8.919938e-002	-8.076178e-001	-3.694049e-002
8730038100	-6.946611e-001	-4.378597e-001	5.674578e-002	-4.428285e-002	3.639822e-002	8.955516e-002	-8.062616e-001	-3.550307e-002
8740037800	-6.943274e-001	-4.386493e-001	5.683944e-002	-4.384462e-002	3.609190e-002	8.965670e-002	-8.051463e-001	-3.417084e-002
8750037500	-6.932985e-001	-4.387235e-001	5.613598e-002	-4.296232e-002	3.722338e-002	9.021719e-002	-8.029087e-001	-3.376371e-002
8760037200	-6.941333e-001	-4.381838e-001	5.597719e-002	-4.284169e-002	3.670639e-002	9.083020e-002	-8.011463e-001	-3.043574e-002
8770036900	-6.944398e-001	-4.387700e-001	5.495114e-002	-4.240668e-002	3.681056e-002	9.024859e-002	-8.004709e-001	-2.620069e-002
8780036600	-6.927519e-001	-4.394719e-001	5.433659e-002	-4.102867e-002	3.682803e-002	9.075637e-002	-7.988986e-001	-2.234656e-002
8790036300	-6.960950e-001	-4.424272e-001	5.411493e-002	-4.029777e-002	3.630432e-002	9.188737e-002	-7.972046e-001	-1.846924e-002
8800036000	-6.944996e-001	-4.403887e-001	5.338274e-002	-3.860225e-002	3.766174e-002	9.183364e-002	-7.979402e-001	-1.582956e-002
8810035700	-6.970528e-001	-4.424902e-001	5.441945e-002	-3.851051e-002	3.680757e-002	9.326306e-002	-7.963983e-001	-1.224244e-002
8820035400	-6.942283e-001	-4.404429e-001	5.334353e-002	-3.677625e-002	3.669844e-002	9.375549e-002	-7.976540e-001	-1.142797e-002
8830035100	-6.954931e-001	-4.410119e-001	5.173908e-002	-3.633471e-002	3.642574e-002	9.366071e-002	-7.979041e-001	-1.008673e-002
8840034800	-6.941877e-001	-4.424045e-001	5.204933e-002	-3.501892e-002	3.683323e-002	9.495456e-002	-7.992400e-001	-1.223763e-002
8850034500	-6.947999e-001	-4.424154e-001	5.253314e-002	-3.418820e-002	3.665252e-002	9.655420e-002	-8.005272e-001	-1.372002e-002
8860034200	-6.946066e-001	-4.423906e-001	5.252871e-002	-3.269731e-002	3.736839e-002	9.703774e-002	-8.011393e-001	-1.626358e-002
8870033900	-6.958351e-001	-4.416009e-001	5.202398e-002	-3.166828e-002	3.773915e-002	9.781400e-002	-8.038652e-001	-1.817712e-002
8880033600	-6.958869e-001	-4.407156e-001	5.224282e-002	-2.992877e-002	3.857878e-002	9.949161e-002	-8.019946e-001	-1.936823e-002
8890033300	-6.907397e-001	-4.411220e-001	5.299684e-002	-2.879437e-002	3.894849e-002	1.007463e-001	-8.012167e-001	-2.245793e-002
8900033000	-6.938490e-001	-4.405661e-001	5.249226e-002	-2.714708e-002	3.838129e-002	1.008261e-001	-8.005319e-001	-2.526005e-002
8910032700	-6.920651e-001	-4.392824e-001	5.317597e-002	-2.606135e-002	3.864120e-002	1.020815e-001	-7.978691e-001	-2.411470e-002
8920032400	-6.968773e-001	-4.373388e-001	5.331048e-002	-2.486081e-002	3.976095e-002	1.029729e-001	-7.946343e-001	-2.610544e-002
8930032100	-6.941380e-001	-4.371091e-001	5.348315e-002	-2.449412e-002	4.032531e-002	1.036711e-001	-7.914855e-001	-2.495042e-002
8940031800	-6.953626e-001	-4.382852e-001	5.354557e-002	-2.223117e-002	4.086817e-002	1.052878e-001	-7.879999e-001	-2.290299e-002
8950031500	-6.925346e-001	-4.373613e-001	5.408501e-002	-2.101990e-002	4.137898e-002	1.071195e-001	-7.837109e-001	-2.046371e-002
8960031200	-6.912503e-001	-4.381305e-001	5.475522e-002	-2.006628e-002	4.312265e-002	1.064717e-001	-7.803031e-001	-1.561668e-002
8970030900	-6.912957e-001	-4.372753e-001	5.461897e-002	-1.888880e-002	4.351382e-002	1.079165e-001	-7.768582e-001	-1.215473e-002
8980030600	-6.931498e-001	-4.358237e-001	5.555304e-002	-1.764229e-002	4.406463e-002	1.096496e-001	-7.738907e-001	-9.089148e-003
8990030300	-6.891275e-001	-4.369429e-001	5.612756e-002	-1.647776e-002	4.575687e-002	1.098987e-001	-7.712521e-001	-4.768282e-003
9000030000	-6.879652e-001	-4.377972e-001	5.768787e-002	-1.544928e-002	4.704276e-002	1.107146e-001	-7.708106e-001	-2.242493e-003
9010029700	-6.878785e-001	-4.375438e-001	5.722943e-002	-1.387998e-002	4.899716e-002	1.105196e-001	-7.695600e-001	-3.935876e-005
9020029400	-6.862728e-001	-4.366002e-001	5.824411e-002	-1.277263e-002	4.933352e-002	1.124657e-001	-7.697586e-001	2.226616e-003
9030029100	-6.854461e-001	-4.379803e-001	5.916798e-002	-1.212172e-002	4.990959e-002	1.132396e-001	-7.704898e-001	4.156824e-004
9040028800	-6.822311e-001	-4.367958e-001	6.046087e-002	-1.074309e-002	5.224068e-002	1.138846e-001	-7.692532e-001	7.324390e-006
9050028500	-6.843145e-001	-4.382621e-001	6.157027e-002	-1.025759e-002	5.290962e-002	1.144401e-001	-7.694271e-001	-6.539669e-004
9060028200	-6.809955e-001	-4.360934e-001	6.264308e-002	-8.881585e-003	5.470581e-002	1.149992e-001	-7.686557e-001	-2.944267e-003
9070027900	-6.806040e-001	-4.354732e-001	6.379517e-002	-8.420216e-003	5.476698e-002	1.160053e-001	-7.675054e-001	-8.372341e-003
9080027600	-6.768493e-001	-4.371537e-001	6.406205e-002	-7.134699e-003	5.672722e-002	1.163442e-001	-7.641876e-001	-8.506880e-003
9090027300	-6.778703e-001	-4.364984e-001	6.559277e-002	-6.350886e-003	5.825291e-002	1.171409e-001	-7.616444e-001	-1.335740e-002
9100027000	-6.772638e-001	-4.360390e-001	6.710484e-002	-6.379552e-003	6.092697e-002	1.164619e-001	-7.586515e-001	-1.498613e-002
9110026700	-6.753426e-001	-4.364411e-001	6.820840e-002	-5.250346e-003	6.214708e-002	1.172429e-001	-7.563804e-001	-1.945920e-002
9120026400	-6.748423e-001	-4.353731e-001	7.000309e-002	-4.048871e-003	6.383380e-002	1.170150e-001	-7.514263e-001	-2.150520e-002
9130026100	-6.734290e-001	-4.369867e-001	7.113274e-002	-4.075495e-003	6.478273e-002	1.173348e-001	-7.451325e-001	-2.283155e-002
9140025800	-6.721949e-001	-4.367160e-001	7.296499e-002	-4.476510e-003	6.620704e-002	1.164538e-001	-7.410384e-001	-2.208640e-002
9150025500	-6.697595e-001	-4.387668e-001	7.359600e-002	-4.502909e-003	6.860077e-002	1.165112e-001	-7.364820e-001	-2.225933e-002
9160025200	-6.685265e-001	-4.388831e-001	7.558615e-002	-4.552642e-003	6.958059e-002	1.155122e-001	-7.324797e-001	-2.087133e-002
9170024900	-6.678683e-001	-4.419726e-001	7.686938e-002	-5.123530e-003	7.106005e-002	1.151308e-001	-7.282762e-001	-1.906574e-002
9180024600	-6.636392e-001	-4.407338e-001	7.807448e-002	-6.134011e-003	7.319272e-002	1.144364e-001	-7.248324e-001	-1.854116e-002
9190024300	-6.633454e-001	-4.424660e-001	7.916551e-002	-6.046269e-003	7.585392e-002	1.115644e-001	-7.224176e-001	-1.706502e-002
9200024000	-6.624356e-001	-4.459190e-001	7.952931e-002	-7.131542e-003	7.665047e-002	1.109995e-001	-7.215378e-001	-1.530415e-002
9210023700	-6.607983e-001	-4.460634e-001	7.905206e-002	-8.200803e-003	7.665486e-002	1.105547e-001	-7.204810e-001	-1.447392e-002
9220023400	-6.589151e-001	-4.474920e-001	8.037003e-002	-9.697897e-003	7.641937e-002	1.073137e-001	-7.208267e-001	-1.502402e-002
9230023100	-6.597677e-001	-4.510706e-001	8.002460e-002	-1.043557e-002	7.658539e-002	1.056294e-001	-7.220133e-001	-1.606659e-002
9240022800	-6.583162e-001	-4.530752e-001	7.967301e-002	-1.181532e-002	7.587382e-002	1.050616e-001	-7.229634e-001	-1.831215e-002
9250022500	-6.604554e-001	-4.531853e-001	7.942635e-002	-1.209147e-002	7.559643e-002	1.031179e-001	-7.249664e-001	-1.955719e-002
9260022200	-6.589077e-001	-4.537423e-001	7.925708e-002	-1.290095e-002	7.494365e-002	1.027745e-001	-7.261843e-001	-2.369054e-002
9270021900	-6.573451e-001	-4.571923e-001	7.733783e-002	-1.301137e-002	7.480666e-002	1.029185e-001	-7.269547e-001	-2.585812e-002
9280021600	-6.609330e-001	-4.584914e-001	7.664387e-002	-1.310069e-002	7.282073e-002	1.026830e-001	-7.270427e-001	-2.742115e-002
9290021300	-6.603642e-001	-4.601649e-001	7.568784e-002	-1.281773e-002	7.218252e-002	1.030884e-001	-7.253256e-001	-3.181784e-002
9300021000	-6.639955e-001	-4.591466e-001	7.398184e-002	-1.206177e-002	7.044389e-002	1.032113e-001	-7.262647e-001	-3.311949e-002
9310020700	-6.643322e-001	-4.627577e-001	7.232521e-002	-1.072106e-002	6.953166e-002	1.041801e-001	-7.209337e-001	-3.370907e-002
9320020400	-6.638607e-001	-4.603677e-001	7.274918e-002	-9.898624e-003	6.890131e-002	1.051744e-001	-7.196582e-001	-3.259606e-002
9330020100	-6.650421e-001	-4.632064e-001	7.169127e-002	-8.624845e-003	6.868875e-002	1.062303e-001	-7.157165e-001	-3.272527e-002
9340019800	-6.659683e-001	-4.606363e-001	7.137236e-002	-7.047758e-003	6.837866e-002	1.077257e-001	-7.132676e-001	-3.069219e-002
9350019500	-6.662603e-001	-4.623122e-001	7.182819e-002	-5.121270e-003	6.925283e-002	1.093580e-001	-7.087121e-001	-2.691812e-002
9360019200	-6.662728e-001	-4.614640e-001	7.267407e-002	-4.244760e-003	6.950409e-002	1.098888e-001	-7.039861e-001	-2.201725e-002
9370018900	-6.692836e-001	-4.604654e-001	7.189585e-002	-2.826632e-003	7.014811e-002	1.111055e-001	-6.998431e-001	-1.765935e-002
9380018600	-6.689464e-001	-4.615209e-001	7.248565e-002	-1.185745e-003	7.151986e-002	1.133086e-001	-6.951176e-001	-1.439891e-002
9390018300	-6.653192e-001	-4.591891e-001	7.298562e-002	-2.978748e-004	7.255060e-002	1.140871e-001	-6.912615e-001	-8.215794e-003
9400018000	-6.615481e-001	-4.603917e-001	7.363010e-002	1.761449e-003	7.373824e-002	1.159930e-001	-6.910050e-001	-5.096906e-003
9410017700	-6.617631e-001	-4.586401e-001	7.424223e-002	2.900921e-003	7.526327e-002	1.158861e-001	-6.866022e-001	5.220472e-004
9420017400	-6.614911e-001	-4.588403e-001	7.542527e-002	3.514328e-003	7.583538e-002	1.168641e-001	-6.866355e-001	6.491340e-004
9430017100	-6.634893e-001	-4.587016e-001	7.694044e-002	4.634905e-003	7.667904e-002	1.169639e-001	-6.836942e-001	4.545517e-003
9440016800	-6.597042e-001	-4.577643e-001	7.780133e-002	5.338063e-003	7.837505e-002	1.177053e-001	-6.824978e-001	2.263985e-003
9450016500	-6.594145e-001	-4.579723e-001	7.835477e-002	6.352911e-003	7.899648e-002	1.173934e-001	-6.814901e-001	5.655761e-004
9460016200	-6.569079e-001	-4.569402e-001	7.938393e-002	7.016244e-003	8.065261e-002	1.175121e-001	-6.820679e-001	-2.146540e-003
9470015900	-6.572145e-001	-4.568929e-001	8.114416e-002	7.447514e-003	8.247512e-002	1.178133e-001	-6.783337e-001	-5.601260e-003
9480015600	-6.599892e-001	-4.583256e-001	8.181370e-002	7.862720e-003	8.297236e-002	1.189881e-001	-6.753425e-001	-1.042187e-002
9490015300	-6.532329e-001	-4.587795e-001	8.372082e-002	8.437584e-003	8.427547e-002	1.185460e-001	-6.741274e-001	-1.496925e-002
9500015000	-6.564915e-001	-4.574610e-001	8.336506e-002	8.471412e-003	8.567468e-002	1.186466e-001	-6.700064e-001	-1.855917e-002
9510014700	-6.542700e-001	-4.606028e-001	8.336118e-002	7.793698e-003	8.623578e-002	1.187468e-001	-6.664807e-001	-2.285634e-002
9520014400	-6.539248e-001	-4.587878e-001	8.443525e-002	8.283835e-003	8.737807e-002	1.183720e-001	-6.622338e-001	-2.517451e-002
9530014100	-6.534509e-001	-4.599558e-001	8.460671e-002	7.570527e-003	8.810724e-002	1.172583e-001	-6.569860e-001	-2.601623e-002
9540013800	-6.508001e-001	-4.571250e-001	8.609191e-002	7.213290e-003	8.831498e-002	1.179601e-001	-6.542937e-001	-2.541810e-002
9550013500	-6.518121e-001	-4.628806e-001	8.636074e-002	8.268112e-003	8.901804e-002	1.168770e-001	-6.509858e-001	-2.573514e-002
9560013200	-6.547759e-001	-4.617627e-001	8.610840e-002	8.254063e-003	8.854260e-002	1.171961e-001	-6.476438e-001	-2.282250e-002
9570012900	-6.520807e-001	-4.606538e-001	8.659246e-002	8.865456e-003	8.825770e-002	1.177415e-001	-6.459584e-001	-1.875263e-002
9580012600	-6.535870e-001	-4.620686e-001	8.557196e-002	9.677080e-003	8.894856e-002	1.189641e-001	-6.415710e-001	-1.480036e-002
9590012300	-6.519690e-001	-4.624902e-001	8.541976e-002	1.080683e-002	8.896121e-002	1.190580e-001	-6.402441e-001	-1.046427e-002
9600012000	-6.529454e-001	-4.604310e-001	8.448048e-002	1.082143e-002	8.930959e-002	1.199734e-001	-6.386219e-001	-6.499768e-003
9610011700	-6.540164e-001	-4.599365e-001	8.479198e-002	1.247306e-002	9.025314e-002	1.210573e-001	-6.400668e-001	-3.337594e-003
9620011400	-6.524984e-001	-4.614387e-001	8.545741e-002	1.483247e-002	8.945267e-002	1.227627e-001	-6.359470e-001	8.932225e-004
9630011100	-6.538118e-001	-4.607314e-001	8.564986e-002	1.623148e-002	8.977956e-002	1.237695e-001	-6.374266e-001	3.719248e-003
9640010800	-6.528660e-001	-4.606134e-001	8.461402e-002	1.831504e-002	9.213035e-002	1.259673e-001	-6.352048e-001	6.379147e-003
9650010500	-6.508600e-001	-4.572920e-001	8.655990e-002	2.061982e-002	9.245372e-002	1.263628e-001	-6.342008e-001	4.769177e-003
9660010200	-6.510642e-001	-4.596993e-001	8.658641e-002	2.266361e-002	9.277190e-002	1.280459e-001	-6.303721e-001	4.063276e-003
9670009900	-6.485564e-001	-4.587338e-001	8.873312e-002	2.433623e-002	9.466856e-002	1.305257e-001	-6.296202e-001	1.397309e-003
9680009600	-6.509017e-001	-4.565545e-001	8.950873e-002	2.692034e-002	9.644541e-002	1.329138e-001	-6.243869e-001	-1.101967e-003
9690009300	-6.499372e-001	-4.546469e-001	9.192994e-002	2.849278e-002	9.803691e-002	1.347088e-001	-6.210737e-001	-2.905014e-003
9700009000	-6.482528e-001	-4.541367e-001	9.375430e-002	3.033232e-002	1.007799e-001	1.371158e-001	-6.116764e-001	-5.366473e-003
9710008700	-6.477811e-001	-4.530052e-001	9.605346e-002	3.244008e-002	1.035442e-001	1.385429e-001	-6.043271e-001	-5.160729e-003
9720008400	-6.445982e-001	-4.524418e-001	9.954507e-002	3.485278e-002	1.062822e-001	1.392834e-001	-5.980258e-001	-5.744577e-003
9730008100	-6.462659e-001	-4.491490e-001	1.011097e-001	3.609712e-002	1.104332e-001	1.403574e-001	-5.889141e-001	-7.389809e-003
9740007800	-6.453432e-001	-4.498656e-001	1.050542e-001	3.826480e-002	1.139699e-001	1.415366e-001	-5.806717e-001	-5.930830e-003
9750007500	-6.412829e-001	-4.497083e-001	1.076430e-001	3.936721e-002	1.183019e-001	1.428005e-001	-5.708833e-001	-3.863130e-003
9760007200	-6.399814e-001	-4.466779e-001	1.108072e-001	4.077304e-002	1.210650e-001	1.436866e-001	-5.625249e-001	-2.677631e-003
9770006900	-6.383881e-001	-4.488961e-001	1.139459e-001	4.175676e-002	1.248131e-001	1.441775e-001	-5.539882e-001	-8.030126e-005
9780006600	-6.360684e-001	-4.489048e-001	1.182468e-001	4.197524e-002	1.293535e-001	1.438661e-001	-5.463707e-001	3.085971e-003
9790006300	-6.337374e-001	-4.455761e-001	1.212319e-001	4.279700e-002	1.334227e-001	1.438503e-001	-5.388551e-001	3.955774e-003
9800006000	-6.318390e-001	-4.457022e-001	1.261294e-001	4.257720e-002	1.380179e-001	1.429932e-001	-5.318844e-001	4.042064e-003
9810005700	-6.259625e-001	-4.481237e-001	1.295082e-001	4.275038e-002	1.399702e-001	1.422922e-001	-5.251640e-001	2.962570e-003
9820005400	-6.250302e-001	-4.434869e-001	1.342044e-001	4.287583e-002	1.454139e-001	1.415666e-001	-5.213349e-001	-2.611333e-004
9830005100	-6.212310e-001	-4.456881e-001	1.379645e-001	4.164824e-002	1.487721e-001	1.391572e-001	-5.166464e-001	-4.905838e-003
9840004800	-6.180680e-001	-4.468849e-001	1.416007e-001	4.124081e-002	1.547364e-001	1.377097e-001	-5.106596e-001	-1.009627e-002
9850004500	-6.156683e-001	-4.466205e-001	1.469221e-001	4.005402e-002	1.590301e-001	1.356892e-001	-5.061257e-001	-2.024517e-002
9860004200	-6.115765e-001	-4.468756e-001	1.517559e-001	3.868703e-002	1.632401e-001	1.327971e-001	-5.019911e-001	-2.831244e-002
9870003900	-6.088358e-001	-4.495994e-001	1.557194e-001	3.616036e-002	1.664763e-001	1.303747e-001	-4.957592e-001	-3.713563e-002
9880003600	-6.094820e-001	-4.500935e-001	1.601593e-001	3.388684e-002	1.701378e-001	1.277540e-001	-4.891174e-001	-4.596468e-002
9890003300	-6.067066e-001	-4.520312e-001	1.647096e-001	3.068548e-002	1.741999e-001	1.241630e-001	-4.815117e-001	-5.767956e-002
9900003000	-6.034331e-001	-4.511530e-001	1.688139e-001	2.811593e-002	1.784947e-001	1.211518e-001	-4.754300e-001	-6.792846e-002
9910002700	-5.997364e-001	-4.540468e-001	1.714082e-001	2.528324e-002	1.809762e-001	1.176528e-001	-4.701947e-001	-7.439494e-002
9920002400	-5.996852e-001	-4.541664e-001	1.753594e-001	2.209195e-002	1.847742e-001	1.128070e-001	-4.618401e-001	-8.611466e-002
9930002100	-5.963466e-001	-4.579840e-001	1.790647e-001	1.808300e-002	1.861308e-001	1.087657e-001	-4.550515e-001	-9.452750e-002
9940001800	-5.923554e-001	-4.602546e-001	1.805179e-001	1.406278e-002	1.895983e-001	1.042522e-001	-4.485084e-001	-1.025921e-001
9950001500	-5.914009e-001	-4.631577e-001	1.849314e-001	9.563184e-003	1.916003e-001	9.918875e-002	-4.440687e-001	-1.066588e-001
9960001200	-5.875872e-001	-4.645730e-001	1.861330e-001	4.919316e-003	1.943023e-001	9.446639e-002	-4.406005e-001	-1.145107e-001
9970000900	-5.890047e-001	-4.651200e-001	1.879061e-001	2.463900e-004	1.952149e-001	8.899180e-002	-4.372257e-001	-1.222458e-001
9980000600	-5.848618e-001	-4.679681e-001	1.889193e-001	-4.399520e-003	1.967998e-001	8.275257e-002	-4.380772e-001	-1.282660e-001
9990000300	-5.848013e-001	-4.707553e-001	1.904309e-001	-1.029743e-002	1.963451e-001	7.788870e-002	-4.383671e-001	-1.332431e-001
10000000000	-5.827671e-001	-4.737939e-001	1.920597e-001	-1.401658e-002	1.983519e-001	7.353593e-002	-4.402469e-001	-1.410722e-001


!Noise Parameters
!Freq  NFmin(dB)  Mag(GammaOpt)  Ang(GammaOpt)(deg)  rn(normalized)
1.1e+009  0.76874 0.5592  35.108 0.26371
1.15e+009 0.78266 0.54901 36.523 0.25449
1.2e+009  0.74083 0.54164 37.721 0.24711
1.25e+009 0.7307  0.53397 38.247 0.24196
1.3e+009  0.73604 0.53236 39.649 0.23717
1.35e+009 0.71778 0.51422 42.011 0.22817
1.4e+009  0.71881 0.52081 41.212 0.22985
1.45e+009 0.7086  0.52034 44.142 0.22166
1.5e+009  0.68172 0.5089  44.091 0.22252
1.55e+009 0.67773 0.50345 45.245 0.22287
1.6e+009  0.68003 0.50153 47.065 0.21827
1.65e+009 0.67547 0.51095 46.77  0.22695
1.7e+009  0.69359 0.50867 49.673 0.21855
