!Agilent Technologies,E5071C,MY46316587,B.13.01
!Date: Fri Dec 08 11:13:57 2017
!Data & Calibration Information:
!Freq	S11:SOLT2(ON)	S21:SOLT2(ON)	S12:SOLT2(ON)	S22:SOLT2(ON)
!PortZ  Port1:50+j0    Port2:50+j0
!Above PortZ is port z conversion or system Z0 setting when saving the data.
!When reading, reference impedance value at option line is always used.
# Hz S dB R 50
300000	-5.463352e-002	-3.568630e-001	-5.959470e+001	-6.969226e+001	-6.113695e+001	-1.334021e+002	-7.278776e-002	-1.395449e-001
10299700	-2.771127e-001	-4.159461e+000	-2.882184e+001	9.810572e+001	-2.857086e+001	9.740227e+001	-8.308897e-002	-2.894222e+000
20299400	-3.382580e-001	-7.646199e+000	-2.266795e+001	8.909492e+001	-2.246535e+001	8.937996e+001	-1.202080e-001	-5.603932e+000
30299100	-4.111555e-001	-1.111979e+001	-1.913372e+001	8.371619e+001	-1.899724e+001	8.383487e+001	-1.677151e-001	-8.287226e+000
40298800	-4.935002e-001	-1.445628e+001	-1.665909e+001	7.947564e+001	-1.655766e+001	7.946031e+001	-2.355613e-001	-1.091386e+001
50298500	-5.909993e-001	-1.779127e+001	-1.482031e+001	7.532368e+001	-1.471940e+001	7.531609e+001	-3.139793e-001	-1.349032e+001
60298200	-6.997256e-001	-2.102649e+001	-1.334700e+001	7.149399e+001	-1.325413e+001	7.148599e+001	-4.105096e-001	-1.601130e+001
70297900	-8.219688e-001	-2.420100e+001	-1.211872e+001	6.791714e+001	-1.206475e+001	6.789257e+001	-5.195368e-001	-1.843839e+001
80297600	-9.488946e-001	-2.720638e+001	-1.112173e+001	6.458860e+001	-1.106579e+001	6.451080e+001	-6.404939e-001	-2.076444e+001
90297300	-1.094205e+000	-3.019160e+001	-1.026500e+001	6.136875e+001	-1.022342e+001	6.123036e+001	-7.722820e-001	-2.302310e+001
100297000	-1.240418e+000	-3.301426e+001	-9.547642e+000	5.828392e+001	-9.501509e+000	5.814030e+001	-9.092942e-001	-2.518584e+001
110296700	-1.400057e+000	-3.575825e+001	-8.904836e+000	5.529385e+001	-8.876281e+000	5.510758e+001	-1.054854e+000	-2.724615e+001
120296400	-1.550445e+000	-3.840092e+001	-8.370180e+000	5.237565e+001	-8.334452e+000	5.224343e+001	-1.201431e+000	-2.923390e+001
130296100	-1.715059e+000	-4.092120e+001	-7.898860e+000	4.966171e+001	-7.854370e+000	4.949168e+001	-1.358135e+000	-3.107202e+001
140295800	-1.880712e+000	-4.337476e+001	-7.469654e+000	4.709512e+001	-7.428265e+000	4.697268e+001	-1.504206e+000	-3.289030e+001
150295500	-2.039613e+000	-4.574892e+001	-7.091449e+000	4.466155e+001	-7.049729e+000	4.440927e+001	-1.661047e+000	-3.458312e+001
160295200	-2.207868e+000	-4.794969e+001	-6.771519e+000	4.222477e+001	-6.736645e+000	4.204371e+001	-1.811451e+000	-3.624479e+001
170294900	-2.353700e+000	-5.007245e+001	-6.478372e+000	3.994399e+001	-6.450120e+000	3.976290e+001	-1.960449e+000	-3.777450e+001
180294600	-2.510073e+000	-5.210305e+001	-6.230053e+000	3.775157e+001	-6.190678e+000	3.761436e+001	-2.107420e+000	-3.923897e+001
190294300	-2.667919e+000	-5.409222e+001	-5.995150e+000	3.567499e+001	-5.967832e+000	3.553497e+001	-2.253660e+000	-4.064178e+001
200294000	-2.810864e+000	-5.594040e+001	-5.788780e+000	3.367382e+001	-5.763922e+000	3.349263e+001	-2.402478e+000	-4.196050e+001
210293700	-2.958510e+000	-5.779268e+001	-5.605038e+000	3.173513e+001	-5.577149e+000	3.160433e+001	-2.528958e+000	-4.329475e+001
220293400	-3.106738e+000	-5.951044e+001	-5.448499e+000	2.989789e+001	-5.416099e+000	2.975713e+001	-2.665894e+000	-4.449640e+001
230293100	-3.236850e+000	-6.124775e+001	-5.285310e+000	2.811790e+001	-5.267506e+000	2.794550e+001	-2.798974e+000	-4.565633e+001
240292800	-3.374466e+000	-6.287401e+001	-5.158795e+000	2.637626e+001	-5.129256e+000	2.623388e+001	-2.922205e+000	-4.678439e+001
250292500	-3.493448e+000	-6.440580e+001	-5.038034e+000	2.474186e+001	-5.006124e+000	2.458396e+001	-3.044150e+000	-4.784124e+001
260292200	-3.613414e+000	-6.587851e+001	-4.932951e+000	2.319746e+001	-4.907146e+000	2.300085e+001	-3.164506e+000	-4.888739e+001
270291900	-3.732431e+000	-6.738331e+001	-4.822311e+000	2.161101e+001	-4.811499e+000	2.145982e+001	-3.263421e+000	-4.984558e+001
280291600	-3.842312e+000	-6.883198e+001	-4.734458e+000	2.014589e+001	-4.728933e+000	1.998367e+001	-3.375695e+000	-5.088511e+001
290291300	-3.946935e+000	-7.013225e+001	-4.655773e+000	1.865322e+001	-4.637840e+000	1.856522e+001	-3.479544e+000	-5.186411e+001
300291000	-4.046753e+000	-7.145497e+001	-4.582945e+000	1.730739e+001	-4.572567e+000	1.717647e+001	-3.579374e+000	-5.274370e+001
310290700	-4.141182e+000	-7.268640e+001	-4.522500e+000	1.605041e+001	-4.500357e+000	1.589261e+001	-3.670516e+000	-5.361865e+001
320290400	-4.227018e+000	-7.393451e+001	-4.463454e+000	1.471205e+001	-4.446309e+000	1.452487e+001	-3.765777e+000	-5.449303e+001
330290100	-4.316144e+000	-7.515908e+001	-4.404639e+000	1.338140e+001	-4.385354e+000	1.323917e+001	-3.840944e+000	-5.536865e+001
340289800	-4.385339e+000	-7.631942e+001	-4.346241e+000	1.227934e+001	-4.344637e+000	1.204992e+001	-3.917495e+000	-5.615008e+001
350289500	-4.466735e+000	-7.740398e+001	-4.306697e+000	1.106627e+001	-4.294034e+000	1.083162e+001	-4.001093e+000	-5.698162e+001
360289200	-4.532570e+000	-7.854906e+001	-4.270318e+000	9.884203e+000	-4.257746e+000	9.659227e+000	-4.066231e+000	-5.774783e+001
370288900	-4.609675e+000	-7.967447e+001	-4.240274e+000	8.776312e+000	-4.226116e+000	8.539700e+000	-4.127344e+000	-5.849368e+001
380288600	-4.666378e+000	-8.071413e+001	-4.207200e+000	7.614839e+000	-4.187230e+000	7.470756e+000	-4.201828e+000	-5.934798e+001
390288300	-4.734324e+000	-8.174433e+001	-4.175540e+000	6.554168e+000	-4.163619e+000	6.361972e+000	-4.264871e+000	-6.003915e+001
400288000	-4.786195e+000	-8.275024e+001	-4.150355e+000	5.462112e+000	-4.139511e+000	5.313584e+000	-4.323214e+000	-6.080766e+001
410287700	-4.835180e+000	-8.372191e+001	-4.132766e+000	4.373848e+000	-4.110071e+000	4.253315e+000	-4.377570e+000	-6.156563e+001
420287400	-4.886008e+000	-8.474350e+001	-4.110459e+000	3.450289e+000	-4.091090e+000	3.317680e+000	-4.433062e+000	-6.225510e+001
430287100	-4.932036e+000	-8.563785e+001	-4.091801e+000	2.479823e+000	-4.070658e+000	2.362699e+000	-4.480975e+000	-6.302014e+001
440286800	-4.978497e+000	-8.649959e+001	-4.075877e+000	1.547809e+000	-4.054746e+000	1.433238e+000	-4.529253e+000	-6.366142e+001
450286500	-5.010234e+000	-8.746267e+001	-4.058855e+000	6.383667e-001	-4.037634e+000	4.949718e-001	-4.574125e+000	-6.440969e+001
460286200	-5.046431e+000	-8.839241e+001	-4.047897e+000	-3.595707e-001	-4.035768e+000	-4.409632e-001	-4.612861e+000	-6.505668e+001
470285900	-5.078963e+000	-8.920290e+001	-4.038895e+000	-1.267594e+000	-4.021790e+000	-1.368519e+000	-4.657063e+000	-6.580105e+001
480285600	-5.103385e+000	-9.008515e+001	-4.036895e+000	-2.119570e+000	-4.015376e+000	-2.274284e+000	-4.689431e+000	-6.643661e+001
490285300	-5.137010e+000	-9.095076e+001	-4.026222e+000	-2.972913e+000	-4.014306e+000	-3.085958e+000	-4.717039e+000	-6.711486e+001
500285000	-5.155583e+000	-9.177987e+001	-4.020910e+000	-3.849186e+000	-4.006949e+000	-3.994407e+000	-4.758225e+000	-6.779128e+001
510284700	-5.182010e+000	-9.259966e+001	-4.016760e+000	-4.638457e+000	-4.010343e+000	-4.813647e+000	-4.781002e+000	-6.838338e+001
520284400	-5.195278e+000	-9.342623e+001	-4.021529e+000	-5.525754e+000	-4.006783e+000	-5.638193e+000	-4.813604e+000	-6.903844e+001
530284100	-5.215808e+000	-9.411028e+001	-4.015306e+000	-6.265180e+000	-3.999259e+000	-6.436498e+000	-4.827985e+000	-6.968668e+001
540283800	-5.227351e+000	-9.495042e+001	-4.016656e+000	-7.044809e+000	-4.004092e+000	-7.233123e+000	-4.861987e+000	-7.030535e+001
550283500	-5.249443e+000	-9.568873e+001	-4.022905e+000	-7.851792e+000	-4.006587e+000	-7.956205e+000	-4.881341e+000	-7.097978e+001
560283200	-5.254609e+000	-9.648942e+001	-4.023360e+000	-8.606570e+000	-4.004152e+000	-8.787377e+000	-4.906000e+000	-7.158262e+001
570282900	-5.263120e+000	-9.725181e+001	-4.028431e+000	-9.399393e+000	-4.008054e+000	-9.575934e+000	-4.926516e+000	-7.218555e+001
580282600	-5.272549e+000	-9.797425e+001	-4.031069e+000	-1.014701e+001	-4.014600e+000	-1.026898e+001	-4.938259e+000	-7.286475e+001
590282300	-5.279224e+000	-9.868317e+001	-4.039662e+000	-1.089727e+001	-4.026316e+000	-1.105021e+001	-4.953065e+000	-7.344822e+001
600282000	-5.281972e+000	-9.937279e+001	-4.052010e+000	-1.164101e+001	-4.028307e+000	-1.176884e+001	-4.970949e+000	-7.403863e+001
610281700	-5.288088e+000	-1.000930e+002	-4.055175e+000	-1.228863e+001	-4.038805e+000	-1.244262e+001	-4.981059e+000	-7.461893e+001
620281400	-5.293066e+000	-1.008026e+002	-4.061829e+000	-1.302706e+001	-4.048224e+000	-1.317587e+001	-5.001728e+000	-7.521976e+001
630281100	-5.291096e+000	-1.014859e+002	-4.075774e+000	-1.372661e+001	-4.054607e+000	-1.385561e+001	-5.008938e+000	-7.589798e+001
640280800	-5.288505e+000	-1.021759e+002	-4.090879e+000	-1.440350e+001	-4.065096e+000	-1.454783e+001	-5.023924e+000	-7.646830e+001
650280500	-5.284723e+000	-1.028463e+002	-4.094767e+000	-1.507153e+001	-4.076069e+000	-1.520959e+001	-5.033955e+000	-7.705026e+001
660280200	-5.281389e+000	-1.035100e+002	-4.104511e+000	-1.573027e+001	-4.087520e+000	-1.587023e+001	-5.036366e+000	-7.761005e+001
670279900	-5.278886e+000	-1.041055e+002	-4.116353e+000	-1.642309e+001	-4.097723e+000	-1.654851e+001	-5.044756e+000	-7.820882e+001
680279600	-5.276834e+000	-1.048199e+002	-4.128134e+000	-1.709913e+001	-4.113301e+000	-1.720378e+001	-5.039511e+000	-7.876081e+001
690279300	-5.267002e+000	-1.054480e+002	-4.138019e+000	-1.775379e+001	-4.121983e+000	-1.790944e+001	-5.048254e+000	-7.930373e+001
700279000	-5.264702e+000	-1.060881e+002	-4.154343e+000	-1.839040e+001	-4.136129e+000	-1.855571e+001	-5.055814e+000	-7.985360e+001
710278700	-5.251690e+000	-1.067090e+002	-4.163343e+000	-1.899510e+001	-4.145521e+000	-1.916429e+001	-5.066891e+000	-8.042381e+001
720278400	-5.257484e+000	-1.073281e+002	-4.185607e+000	-1.963462e+001	-4.163715e+000	-1.973929e+001	-5.065377e+000	-8.104241e+001
730278100	-5.244662e+000	-1.079155e+002	-4.200364e+000	-2.024041e+001	-4.186040e+000	-2.039438e+001	-5.074279e+000	-8.155274e+001
740277800	-5.228017e+000	-1.085517e+002	-4.219027e+000	-2.084273e+001	-4.199208e+000	-2.101841e+001	-5.079953e+000	-8.215988e+001
750277500	-5.222932e+000	-1.091068e+002	-4.234853e+000	-2.149790e+001	-4.216034e+000	-2.162475e+001	-5.079585e+000	-8.265532e+001
760277200	-5.211720e+000	-1.097326e+002	-4.249408e+000	-2.210090e+001	-4.229071e+000	-2.220084e+001	-5.078108e+000	-8.326144e+001
770276900	-5.201339e+000	-1.103579e+002	-4.263257e+000	-2.267596e+001	-4.244993e+000	-2.276207e+001	-5.075883e+000	-8.377398e+001
780276600	-5.189070e+000	-1.108874e+002	-4.281231e+000	-2.324299e+001	-4.262597e+000	-2.340526e+001	-5.076678e+000	-8.436115e+001
790276300	-5.182968e+000	-1.115009e+002	-4.295245e+000	-2.387568e+001	-4.273167e+000	-2.398203e+001	-5.078867e+000	-8.486917e+001
800276000	-5.159710e+000	-1.120687e+002	-4.318036e+000	-2.446421e+001	-4.291720e+000	-2.453885e+001	-5.067613e+000	-8.539725e+001
810275700	-5.148718e+000	-1.126475e+002	-4.336090e+000	-2.497839e+001	-4.313115e+000	-2.508386e+001	-5.074245e+000	-8.597719e+001
820275400	-5.142410e+000	-1.131966e+002	-4.359443e+000	-2.552871e+001	-4.335566e+000	-2.565393e+001	-5.072775e+000	-8.648246e+001
830275100	-5.117679e+000	-1.138022e+002	-4.381949e+000	-2.613408e+001	-4.350904e+000	-2.626898e+001	-5.075166e+000	-8.698867e+001
840274800	-5.106201e+000	-1.143229e+002	-4.398964e+000	-2.670688e+001	-4.371399e+000	-2.680616e+001	-5.070011e+000	-8.752870e+001
850274500	-5.084156e+000	-1.148704e+002	-4.421541e+000	-2.722414e+001	-4.398873e+000	-2.738907e+001	-5.060915e+000	-8.803973e+001
860274200	-5.072455e+000	-1.154086e+002	-4.439547e+000	-2.782081e+001	-4.414023e+000	-2.790928e+001	-5.059400e+000	-8.848045e+001
870273900	-5.063419e+000	-1.159535e+002	-4.456108e+000	-2.836393e+001	-4.431783e+000	-2.849657e+001	-5.056096e+000	-8.897698e+001
880273600	-5.038952e+000	-1.164873e+002	-4.474187e+000	-2.889347e+001	-4.452575e+000	-2.905908e+001	-5.050012e+000	-8.942420e+001
890273300	-5.024293e+000	-1.170083e+002	-4.497649e+000	-2.939699e+001	-4.475106e+000	-2.953928e+001	-5.043380e+000	-8.998371e+001
900273000	-5.008880e+000	-1.175091e+002	-4.526200e+000	-2.993306e+001	-4.493332e+000	-3.006877e+001	-5.050112e+000	-9.047260e+001
910272700	-5.004564e+000	-1.180848e+002	-4.536790e+000	-3.047792e+001	-4.514232e+000	-3.057464e+001	-5.046028e+000	-9.096374e+001
920272400	-4.984412e+000	-1.186139e+002	-4.565265e+000	-3.100664e+001	-4.537270e+000	-3.110682e+001	-5.038498e+000	-9.148355e+001
930272100	-4.972069e+000	-1.190926e+002	-4.586497e+000	-3.151782e+001	-4.555750e+000	-3.162758e+001	-5.032324e+000	-9.197269e+001
940271800	-4.956074e+000	-1.196814e+002	-4.604675e+000	-3.201224e+001	-4.583448e+000	-3.214333e+001	-5.022233e+000	-9.254507e+001
950271500	-4.937820e+000	-1.201591e+002	-4.633643e+000	-3.254294e+001	-4.599373e+000	-3.265094e+001	-5.019130e+000	-9.299032e+001
960271200	-4.917631e+000	-1.206696e+002	-4.656650e+000	-3.307556e+001	-4.629861e+000	-3.315023e+001	-5.009301e+000	-9.349155e+001
970270900	-4.903170e+000	-1.211884e+002	-4.675014e+000	-3.356064e+001	-4.652593e+000	-3.361998e+001	-5.005658e+000	-9.401521e+001
980270600	-4.885068e+000	-1.217366e+002	-4.698728e+000	-3.407041e+001	-4.669232e+000	-3.415450e+001	-4.995958e+000	-9.448489e+001
990270300	-4.863513e+000	-1.222454e+002	-4.721341e+000	-3.456560e+001	-4.697304e+000	-3.467083e+001	-4.989627e+000	-9.492128e+001
1000270000	-4.847985e+000	-1.227830e+002	-4.745460e+000	-3.504907e+001	-4.717166e+000	-3.514066e+001	-4.985783e+000	-9.542058e+001
1010269700	-4.828857e+000	-1.232576e+002	-4.769644e+000	-3.555827e+001	-4.742895e+000	-3.565220e+001	-4.970826e+000	-9.582258e+001
1020269400	-4.812641e+000	-1.237877e+002	-4.796011e+000	-3.606828e+001	-4.772360e+000	-3.613630e+001	-4.966543e+000	-9.632372e+001
1030269100	-4.800547e+000	-1.242854e+002	-4.821675e+000	-3.654398e+001	-4.798739e+000	-3.668976e+001	-4.958861e+000	-9.677238e+001
1040268800	-4.782712e+000	-1.247677e+002	-4.847145e+000	-3.701875e+001	-4.819382e+000	-3.716842e+001	-4.955310e+000	-9.718009e+001
1050268500	-4.766148e+000	-1.252373e+002	-4.871496e+000	-3.750479e+001	-4.845815e+000	-3.764005e+001	-4.943791e+000	-9.768828e+001
1060268200	-4.744340e+000	-1.257602e+002	-4.907004e+000	-3.802064e+001	-4.868397e+000	-3.812925e+001	-4.938853e+000	-9.806899e+001
1070267900	-4.726265e+000	-1.262618e+002	-4.927409e+000	-3.845053e+001	-4.893321e+000	-3.857140e+001	-4.937071e+000	-9.854506e+001
1080267600	-4.714922e+000	-1.267521e+002	-4.945272e+000	-3.893413e+001	-4.921654e+000	-3.905385e+001	-4.919623e+000	-9.898418e+001
1090267300	-4.695511e+000	-1.272523e+002	-4.973771e+000	-3.942833e+001	-4.938993e+000	-3.952929e+001	-4.917722e+000	-9.943940e+001
1100267000	-4.691423e+000	-1.278074e+002	-4.997008e+000	-3.989404e+001	-4.968785e+000	-3.999075e+001	-4.918247e+000	-9.990176e+001
1110266700	-4.669761e+000	-1.283166e+002	-5.028581e+000	-4.035470e+001	-4.996764e+000	-4.046884e+001	-4.902257e+000	-1.003644e+002
1120266400	-4.652526e+000	-1.287489e+002	-5.062698e+000	-4.086020e+001	-5.027215e+000	-4.092953e+001	-4.898724e+000	-1.008343e+002
1130266100	-4.641567e+000	-1.293090e+002	-5.093843e+000	-4.130545e+001	-5.065107e+000	-4.136939e+001	-4.878488e+000	-1.013456e+002
1140265800	-4.615304e+000	-1.297904e+002	-5.118081e+000	-4.176417e+001	-5.085993e+000	-4.187806e+001	-4.879092e+000	-1.017306e+002
1150265500	-4.607736e+000	-1.302563e+002	-5.148552e+000	-4.223620e+001	-5.110275e+000	-4.234083e+001	-4.876062e+000	-1.021558e+002
1160265200	-4.586673e+000	-1.307446e+002	-5.180698e+000	-4.272120e+001	-5.144900e+000	-4.276236e+001	-4.860450e+000	-1.026603e+002
1170264900	-4.582319e+000	-1.312921e+002	-5.204535e+000	-4.316991e+001	-5.179604e+000	-4.323987e+001	-4.851198e+000	-1.030002e+002
1180264600	-4.558740e+000	-1.317425e+002	-5.241738e+000	-4.364577e+001	-5.207314e+000	-4.370289e+001	-4.849668e+000	-1.034512e+002
1190264300	-4.550924e+000	-1.322597e+002	-5.271787e+000	-4.412997e+001	-5.244794e+000	-4.415080e+001	-4.836824e+000	-1.038292e+002
1200264000	-4.537011e+000	-1.328198e+002	-5.305590e+000	-4.449421e+001	-5.270658e+000	-4.461222e+001	-4.835446e+000	-1.042360e+002
1210263700	-4.517704e+000	-1.332734e+002	-5.332040e+000	-4.496552e+001	-5.305747e+000	-4.505563e+001	-4.823400e+000	-1.047337e+002
1220263400	-4.512906e+000	-1.338081e+002	-5.370330e+000	-4.539266e+001	-5.339646e+000	-4.549426e+001	-4.818119e+000	-1.051473e+002
1230263100	-4.501107e+000	-1.342762e+002	-5.403328e+000	-4.581459e+001	-5.368649e+000	-4.594670e+001	-4.810661e+000	-1.055758e+002
1240262800	-4.486293e+000	-1.348087e+002	-5.440369e+000	-4.628334e+001	-5.400248e+000	-4.635157e+001	-4.811718e+000	-1.060407e+002
1250262500	-4.475590e+000	-1.353118e+002	-5.471847e+000	-4.673801e+001	-5.443961e+000	-4.679048e+001	-4.792709e+000	-1.065081e+002
1260262200	-4.470220e+000	-1.358511e+002	-5.521292e+000	-4.714543e+001	-5.482887e+000	-4.717014e+001	-4.796985e+000	-1.069630e+002
1270261900	-4.454508e+000	-1.363798e+002	-5.553655e+000	-4.755092e+001	-5.516916e+000	-4.761187e+001	-4.788717e+000	-1.074437e+002
1280261600	-4.448401e+000	-1.369179e+002	-5.592478e+000	-4.794930e+001	-5.562996e+000	-4.799589e+001	-4.785957e+000	-1.079375e+002
1290261300	-4.444162e+000	-1.374228e+002	-5.633360e+000	-4.837057e+001	-5.601044e+000	-4.835903e+001	-4.776002e+000	-1.084748e+002
1300261000	-4.435196e+000	-1.379252e+002	-5.674146e+000	-4.879646e+001	-5.638306e+000	-4.872337e+001	-4.783927e+000	-1.089396e+002
1310260700	-4.436220e+000	-1.384434e+002	-5.722080e+000	-4.918155e+001	-5.685836e+000	-4.915308e+001	-4.779399e+000	-1.093426e+002
1320260400	-4.433151e+000	-1.390062e+002	-5.760725e+000	-4.954667e+001	-5.731687e+000	-4.956247e+001	-4.782180e+000	-1.097711e+002
1330260100	-4.438482e+000	-1.395342e+002	-5.803005e+000	-4.993726e+001	-5.774164e+000	-4.998613e+001	-4.779089e+000	-1.101265e+002
1340259800	-4.437306e+000	-1.400534e+002	-5.855888e+000	-5.024043e+001	-5.825116e+000	-5.037528e+001	-4.775563e+000	-1.105244e+002
1350259500	-4.439800e+000	-1.405449e+002	-5.901547e+000	-5.057457e+001	-5.868119e+000	-5.065474e+001	-4.788797e+000	-1.109708e+002
1360259200	-4.457478e+000	-1.410225e+002	-5.945743e+000	-5.093273e+001	-5.915331e+000	-5.097419e+001	-4.789185e+000	-1.113975e+002
1370258900	-4.471141e+000	-1.415242e+002	-5.989875e+000	-5.120038e+001	-5.963197e+000	-5.123036e+001	-4.808088e+000	-1.118427e+002
1380258600	-4.482957e+000	-1.419998e+002	-6.042071e+000	-5.150973e+001	-6.005111e+000	-5.150121e+001	-4.830130e+000	-1.123405e+002
1390258300	-4.504248e+000	-1.425378e+002	-6.090705e+000	-5.168980e+001	-6.053827e+000	-5.172394e+001	-4.844467e+000	-1.127232e+002
1400258000	-4.518044e+000	-1.430097e+002	-6.133775e+000	-5.188356e+001	-6.096312e+000	-5.191636e+001	-4.856211e+000	-1.131901e+002
1410257700	-4.536933e+000	-1.434463e+002	-6.179236e+000	-5.211242e+001	-6.141718e+000	-5.216013e+001	-4.871307e+000	-1.134855e+002
1420257400	-4.553075e+000	-1.438311e+002	-6.222352e+000	-5.224222e+001	-6.177993e+000	-5.226851e+001	-4.891945e+000	-1.139731e+002
1430257100	-4.576915e+000	-1.442629e+002	-6.249881e+000	-5.240913e+001	-6.212996e+000	-5.242325e+001	-4.911512e+000	-1.144139e+002
1440256800	-4.594967e+000	-1.445721e+002	-6.290152e+000	-5.256460e+001	-6.244462e+000	-5.255514e+001	-4.934100e+000	-1.147690e+002
1450256500	-4.621778e+000	-1.449441e+002	-6.309598e+000	-5.266814e+001	-6.269498e+000	-5.271722e+001	-4.954421e+000	-1.151185e+002
1460256200	-4.639060e+000	-1.452313e+002	-6.335486e+000	-5.280805e+001	-6.292003e+000	-5.280323e+001	-4.982622e+000	-1.154818e+002
1470255900	-4.658085e+000	-1.455347e+002	-6.355382e+000	-5.300088e+001	-6.318318e+000	-5.294928e+001	-5.003394e+000	-1.157870e+002
1480255600	-4.671511e+000	-1.457751e+002	-6.365501e+000	-5.308815e+001	-6.337374e+000	-5.312032e+001	-5.022670e+000	-1.160374e+002
1490255300	-4.685862e+000	-1.459952e+002	-6.373838e+000	-5.327367e+001	-6.340626e+000	-5.326922e+001	-5.044069e+000	-1.162380e+002
1500255000	-4.701602e+000	-1.462557e+002	-6.381422e+000	-5.339940e+001	-6.354819e+000	-5.345039e+001	-5.053258e+000	-1.164363e+002
1510254700	-4.706779e+000	-1.464318e+002	-6.383797e+000	-5.362337e+001	-6.347024e+000	-5.364317e+001	-5.067010e+000	-1.165311e+002
1520254400	-4.715356e+000	-1.465869e+002	-6.384195e+000	-5.384850e+001	-6.345839e+000	-5.384395e+001	-5.079378e+000	-1.167639e+002
1530254100	-4.714642e+000	-1.467441e+002	-6.386063e+000	-5.408746e+001	-6.346616e+000	-5.407500e+001	-5.089246e+000	-1.169181e+002
1540253800	-4.704316e+000	-1.469451e+002	-6.385689e+000	-5.431504e+001	-6.343193e+000	-5.432799e+001	-5.101273e+000	-1.170929e+002
1550253500	-4.692334e+000	-1.471165e+002	-6.386604e+000	-5.462146e+001	-6.350910e+000	-5.456812e+001	-5.108127e+000	-1.173308e+002
1560253200	-4.680348e+000	-1.473499e+002	-6.385970e+000	-5.491184e+001	-6.358617e+000	-5.488141e+001	-5.104813e+000	-1.175516e+002
1570252900	-4.670158e+000	-1.476346e+002	-6.394576e+000	-5.514782e+001	-6.350689e+000	-5.527202e+001	-5.118024e+000	-1.176931e+002
1580252600	-4.657990e+000	-1.478829e+002	-6.392941e+000	-5.554159e+001	-6.348554e+000	-5.553590e+001	-5.116888e+000	-1.179001e+002
1590252300	-4.643268e+000	-1.481005e+002	-6.393927e+000	-5.588673e+001	-6.354320e+000	-5.581952e+001	-5.118132e+000	-1.181873e+002
1600252000	-4.622533e+000	-1.484468e+002	-6.396293e+000	-5.617999e+001	-6.363507e+000	-5.614593e+001	-5.115553e+000	-1.183964e+002
1610251700	-4.604873e+000	-1.487201e+002	-6.398161e+000	-5.650773e+001	-6.363190e+000	-5.649873e+001	-5.115927e+000	-1.185694e+002
1620251400	-4.590708e+000	-1.489856e+002	-6.410267e+000	-5.687861e+001	-6.369223e+000	-5.683479e+001	-5.107155e+000	-1.188082e+002
1630251100	-4.571682e+000	-1.492663e+002	-6.411577e+000	-5.727188e+001	-6.379108e+000	-5.723113e+001	-5.092014e+000	-1.190688e+002
1640250800	-4.554233e+000	-1.494903e+002	-6.414587e+000	-5.768596e+001	-6.385581e+000	-5.757993e+001	-5.087090e+000	-1.192761e+002
1650250500	-4.535396e+000	-1.498516e+002	-6.421215e+000	-5.802420e+001	-6.396711e+000	-5.798143e+001	-5.081385e+000	-1.194726e+002
1660250200	-4.516261e+000	-1.501873e+002	-6.439774e+000	-5.839722e+001	-6.394696e+000	-5.834628e+001	-5.075711e+000	-1.196316e+002
1670249900	-4.495688e+000	-1.504624e+002	-6.450502e+000	-5.881929e+001	-6.403802e+000	-5.879418e+001	-5.058583e+000	-1.197697e+002
1680249600	-4.478015e+000	-1.507882e+002	-6.458749e+000	-5.915983e+001	-6.425018e+000	-5.911238e+001	-5.047876e+000	-1.200597e+002
1690249300	-4.461306e+000	-1.511668e+002	-6.472333e+000	-5.959397e+001	-6.433648e+000	-5.950328e+001	-5.046124e+000	-1.202487e+002
1700249000	-4.448949e+000	-1.515187e+002	-6.490121e+000	-5.991759e+001	-6.446771e+000	-5.988624e+001	-5.041052e+000	-1.205068e+002
1710248700	-4.420870e+000	-1.518394e+002	-6.505742e+000	-6.031368e+001	-6.459092e+000	-6.020128e+001	-5.042148e+000	-1.207579e+002
1720248400	-4.410362e+000	-1.521972e+002	-6.511598e+000	-6.067828e+001	-6.472202e+000	-6.065178e+001	-5.030792e+000	-1.210139e+002
1730248100	-4.392486e+000	-1.526019e+002	-6.532895e+000	-6.107082e+001	-6.488528e+000	-6.097991e+001	-5.020862e+000	-1.212880e+002
1740247800	-4.387077e+000	-1.529298e+002	-6.544358e+000	-6.145407e+001	-6.506632e+000	-6.135428e+001	-5.019979e+000	-1.215404e+002
1750247500	-4.370098e+000	-1.532926e+002	-6.569110e+000	-6.182886e+001	-6.527073e+000	-6.170583e+001	-5.013371e+000	-1.218530e+002
1760247200	-4.352343e+000	-1.536781e+002	-6.579927e+000	-6.222709e+001	-6.547132e+000	-6.206774e+001	-5.012110e+000	-1.221371e+002
1770246900	-4.341247e+000	-1.540459e+002	-6.610212e+000	-6.260580e+001	-6.575827e+000	-6.246401e+001	-4.999458e+000	-1.224145e+002
1780246600	-4.333099e+000	-1.544138e+002	-6.624592e+000	-6.291578e+001	-6.594592e+000	-6.283817e+001	-4.991902e+000	-1.226645e+002
1790246300	-4.322743e+000	-1.547863e+002	-6.641017e+000	-6.327474e+001	-6.601667e+000	-6.314920e+001	-4.990896e+000	-1.229175e+002
1800246000	-4.317887e+000	-1.551089e+002	-6.654889e+000	-6.362249e+001	-6.630554e+000	-6.352316e+001	-4.986767e+000	-1.232718e+002
1810245700	-4.294327e+000	-1.553922e+002	-6.670267e+000	-6.402544e+001	-6.641639e+000	-6.386917e+001	-4.983101e+000	-1.234281e+002
1820245400	-4.274494e+000	-1.556861e+002	-6.687947e+000	-6.446573e+001	-6.660147e+000	-6.431772e+001	-4.971680e+000	-1.236020e+002
1830245100	-4.260281e+000	-1.561741e+002	-6.712612e+000	-6.479328e+001	-6.661878e+000	-6.476431e+001	-4.961115e+000	-1.237159e+002
1840244800	-4.251163e+000	-1.565712e+002	-6.724914e+000	-6.510245e+001	-6.678274e+000	-6.512023e+001	-4.956060e+000	-1.239052e+002
1850244500	-4.234898e+000	-1.569635e+002	-6.745838e+000	-6.555256e+001	-6.712293e+000	-6.551109e+001	-4.936525e+000	-1.242452e+002
1860244200	-4.228078e+000	-1.573986e+002	-6.772885e+000	-6.597592e+001	-6.726234e+000	-6.584809e+001	-4.931262e+000	-1.244179e+002
1870243900	-4.229444e+000	-1.577958e+002	-6.797059e+000	-6.631168e+001	-6.742169e+000	-6.618038e+001	-4.936584e+000	-1.247379e+002
1880243600	-4.216959e+000	-1.581467e+002	-6.818571e+000	-6.668134e+001	-6.776483e+000	-6.656970e+001	-4.939006e+000	-1.250155e+002
1890243300	-4.200300e+000	-1.585585e+002	-6.846020e+000	-6.701962e+001	-6.805822e+000	-6.690851e+001	-4.943098e+000	-1.252829e+002
1900243000	-4.182074e+000	-1.589168e+002	-6.876678e+000	-6.736980e+001	-6.829461e+000	-6.721953e+001	-4.939951e+000	-1.255570e+002
1910242700	-4.177179e+000	-1.592974e+002	-6.888807e+000	-6.765751e+001	-6.852881e+000	-6.751117e+001	-4.943593e+000	-1.258526e+002
1920242400	-4.161518e+000	-1.597061e+002	-6.903197e+000	-6.802538e+001	-6.871158e+000	-6.793845e+001	-4.933386e+000	-1.261174e+002
1930242100	-4.150911e+000	-1.600961e+002	-6.926727e+000	-6.839644e+001	-6.895316e+000	-6.823227e+001	-4.937455e+000	-1.264451e+002
1940241800	-4.137059e+000	-1.605015e+002	-6.949266e+000	-6.880307e+001	-6.915673e+000	-6.861936e+001	-4.934875e+000	-1.267018e+002
1950241500	-4.132179e+000	-1.608943e+002	-6.967748e+000	-6.909330e+001	-6.944146e+000	-6.900252e+001	-4.927303e+000	-1.270136e+002
1960241200	-4.117118e+000	-1.613301e+002	-6.995268e+000	-6.948031e+001	-6.987017e+000	-6.934487e+001	-4.915384e+000	-1.273156e+002
1970240900	-4.108906e+000	-1.617245e+002	-7.025836e+000	-6.983756e+001	-7.008996e+000	-6.971136e+001	-4.904661e+000	-1.276450e+002
1980240600	-4.100424e+000	-1.620869e+002	-7.043102e+000	-7.018465e+001	-7.027148e+000	-7.013234e+001	-4.889814e+000	-1.278059e+002
1990240300	-4.097103e+000	-1.625037e+002	-7.072633e+000	-7.056064e+001	-7.033266e+000	-7.060919e+001	-4.863445e+000	-1.279657e+002
2000240000	-4.098981e+000	-1.629467e+002	-7.097744e+000	-7.086170e+001	-7.056017e+000	-7.085658e+001	-4.873058e+000	-1.281278e+002
2010239700	-4.103929e+000	-1.633465e+002	-7.121683e+000	-7.119987e+001	-7.078498e+000	-7.111379e+001	-4.878267e+000	-1.284173e+002
2020239400	-4.102670e+000	-1.637180e+002	-7.143632e+000	-7.146972e+001	-7.104226e+000	-7.136887e+001	-4.893667e+000	-1.286509e+002
2030239100	-4.106998e+000	-1.640156e+002	-7.155788e+000	-7.181459e+001	-7.111862e+000	-7.161377e+001	-4.906160e+000	-1.288481e+002
2040238800	-4.087911e+000	-1.643327e+002	-7.167684e+000	-7.212815e+001	-7.126406e+000	-7.202792e+001	-4.909712e+000	-1.291024e+002
2050238500	-4.069014e+000	-1.647729e+002	-7.184528e+000	-7.264821e+001	-7.143674e+000	-7.240459e+001	-4.909207e+000	-1.293612e+002
2060238200	-4.049220e+000	-1.652181e+002	-7.218123e+000	-7.299378e+001	-7.173705e+000	-7.281221e+001	-4.922492e+000	-1.295922e+002
2070237900	-4.043990e+000	-1.656904e+002	-7.240762e+000	-7.333583e+001	-7.192370e+000	-7.312521e+001	-4.927754e+000	-1.297800e+002
2080237600	-4.041298e+000	-1.661578e+002	-7.273554e+000	-7.371880e+001	-7.228705e+000	-7.353371e+001	-4.915641e+000	-1.300520e+002
2090237300	-4.040745e+000	-1.666009e+002	-7.304450e+000	-7.408455e+001	-7.261771e+000	-7.390910e+001	-4.914556e+000	-1.303339e+002
2100237000	-4.039524e+000	-1.669802e+002	-7.334889e+000	-7.437189e+001	-7.303046e+000	-7.420022e+001	-4.912549e+000	-1.306410e+002
2110236700	-4.025881e+000	-1.673909e+002	-7.357404e+000	-7.478923e+001	-7.336366e+000	-7.450248e+001	-4.907947e+000	-1.309791e+002
2120236400	-4.036544e+000	-1.678967e+002	-7.392486e+000	-7.503230e+001	-7.371804e+000	-7.482902e+001	-4.912732e+000	-1.313201e+002
2130236100	-4.045411e+000	-1.682590e+002	-7.425152e+000	-7.529321e+001	-7.420282e+000	-7.511176e+001	-4.917208e+000	-1.316422e+002
2140235800	-4.049282e+000	-1.685389e+002	-7.452595e+000	-7.560515e+001	-7.447688e+000	-7.538422e+001	-4.909814e+000	-1.319031e+002
2150235500	-4.045848e+000	-1.687589e+002	-7.461615e+000	-7.584253e+001	-7.454394e+000	-7.569469e+001	-4.907713e+000	-1.321205e+002
2160235200	-4.029500e+000	-1.690019e+002	-7.469995e+000	-7.611640e+001	-7.446297e+000	-7.609574e+001	-4.889347e+000	-1.322772e+002
2170234900	-3.998084e+000	-1.693555e+002	-7.489979e+000	-7.654607e+001	-7.441449e+000	-7.646109e+001	-4.872427e+000	-1.323874e+002
2180234600	-3.982589e+000	-1.697513e+002	-7.501375e+000	-7.693815e+001	-7.450475e+000	-7.684717e+001	-4.865699e+000	-1.325818e+002
2190234300	-3.968278e+000	-1.702289e+002	-7.534960e+000	-7.732164e+001	-7.489673e+000	-7.722919e+001	-4.874003e+000	-1.328223e+002
2200234000	-3.948598e+000	-1.706998e+002	-7.562425e+000	-7.772866e+001	-7.517093e+000	-7.747427e+001	-4.887633e+000	-1.330720e+002
2210233700	-3.944709e+000	-1.712202e+002	-7.601246e+000	-7.808094e+001	-7.546708e+000	-7.780680e+001	-4.895426e+000	-1.333371e+002
2220233400	-3.939693e+000	-1.716988e+002	-7.627263e+000	-7.838968e+001	-7.572517e+000	-7.815615e+001	-4.904578e+000	-1.335992e+002
2230233100	-3.939315e+000	-1.721987e+002	-7.662648e+000	-7.869520e+001	-7.610792e+000	-7.847366e+001	-4.915802e+000	-1.339191e+002
2240232800	-3.948667e+000	-1.726218e+002	-7.683306e+000	-7.898842e+001	-7.644344e+000	-7.873823e+001	-4.920947e+000	-1.341972e+002
2250232500	-3.950350e+000	-1.730166e+002	-7.708073e+000	-7.923146e+001	-7.659263e+000	-7.897055e+001	-4.939371e+000	-1.343979e+002
2260232200	-3.937848e+000	-1.733628e+002	-7.712292e+000	-7.953368e+001	-7.684188e+000	-7.922443e+001	-4.951619e+000	-1.345943e+002
2270231900	-3.922330e+000	-1.736984e+002	-7.717432e+000	-7.998882e+001	-7.680807e+000	-7.973076e+001	-4.935705e+000	-1.348126e+002
2280231600	-3.907879e+000	-1.741740e+002	-7.749785e+000	-8.039519e+001	-7.716151e+000	-8.012732e+001	-4.938108e+000	-1.350636e+002
2290231300	-3.892449e+000	-1.746994e+002	-7.783807e+000	-8.084081e+001	-7.761587e+000	-8.059963e+001	-4.928038e+000	-1.354252e+002
2300231000	-3.892946e+000	-1.752392e+002	-7.827659e+000	-8.128687e+001	-7.805557e+000	-8.100519e+001	-4.926123e+000	-1.356510e+002
2310230700	-3.903624e+000	-1.757340e+002	-7.860635e+000	-8.160708e+001	-7.852909e+000	-8.133376e+001	-4.929361e+000	-1.359589e+002
2320230400	-3.918896e+000	-1.761874e+002	-7.912592e+000	-8.187521e+001	-7.888929e+000	-8.162112e+001	-4.912123e+000	-1.362045e+002
2330230100	-3.940417e+000	-1.765393e+002	-7.942132e+000	-8.204197e+001	-7.922766e+000	-8.179785e+001	-4.919643e+000	-1.364641e+002
2340229800	-3.933761e+000	-1.768781e+002	-7.965744e+000	-8.239327e+001	-7.936620e+000	-8.211455e+001	-4.918759e+000	-1.367017e+002
2350229500	-3.928226e+000	-1.774034e+002	-8.008944e+000	-8.267886e+001	-7.970999e+000	-8.244966e+001	-4.917900e+000	-1.369519e+002
2360229200	-3.958842e+000	-1.778213e+002	-8.037946e+000	-8.278473e+001	-8.006948e+000	-8.253429e+001	-4.938583e+000	-1.372564e+002
2370228900	-3.974215e+000	-1.780830e+002	-8.060821e+000	-8.289902e+001	-8.013629e+000	-8.265032e+001	-4.960019e+000	-1.374299e+002
2380228600	-3.975563e+000	-1.783524e+002	-8.055977e+000	-8.314859e+001	-8.014757e+000	-8.283479e+001	-4.974445e+000	-1.375466e+002
2390228300	-3.971178e+000	-1.786599e+002	-8.054012e+000	-8.352545e+001	-8.001099e+000	-8.319548e+001	-4.970867e+000	-1.376166e+002
2400228000	-3.966993e+000	-1.788447e+002	-8.069802e+000	-8.394935e+001	-8.027653e+000	-8.354628e+001	-4.965375e+000	-1.379184e+002
2410227700	-3.944371e+000	-1.790908e+002	-8.080989e+000	-8.425445e+001	-8.034749e+000	-8.388890e+001	-4.973035e+000	-1.381733e+002
2420227400	-3.905285e+000	-1.794269e+002	-8.090316e+000	-8.462974e+001	-8.054382e+000	-8.425302e+001	-4.967915e+000	-1.384438e+002
2430227100	-3.862972e+000	-1.798630e+002	-8.096860e+000	-8.509870e+001	-8.063380e+000	-8.479280e+001	-4.965949e+000	-1.386304e+002
2440226800	-3.834974e+000	1.796370e+002	-8.126790e+000	-8.555762e+001	-8.091698e+000	-8.525094e+001	-4.972174e+000	-1.389464e+002
2450226500	-3.814288e+000	1.791977e+002	-8.151177e+000	-8.597891e+001	-8.130652e+000	-8.569106e+001	-4.971973e+000	-1.391577e+002
2460226200	-3.794309e+000	1.786837e+002	-8.186604e+000	-8.637231e+001	-8.167063e+000	-8.604690e+001	-4.968407e+000	-1.395138e+002
2470225900	-3.789797e+000	1.781377e+002	-8.228391e+000	-8.679199e+001	-8.215628e+000	-8.653476e+001	-4.967589e+000	-1.397385e+002
2480225600	-3.780495e+000	1.775939e+002	-8.271355e+000	-8.718782e+001	-8.253847e+000	-8.687968e+001	-4.980831e+000	-1.399913e+002
2490225300	-3.783552e+000	1.771282e+002	-8.294260e+000	-8.745658e+001	-8.272835e+000	-8.718120e+001	-4.974709e+000	-1.401444e+002
2500225000	-3.785222e+000	1.766598e+002	-8.315353e+000	-8.783384e+001	-8.300293e+000	-8.756177e+001	-4.967397e+000	-1.403163e+002
2510224700	-3.780228e+000	1.760984e+002	-8.366858e+000	-8.828640e+001	-8.344915e+000	-8.799602e+001	-4.963861e+000	-1.406529e+002
2520224400	-3.775998e+000	1.755543e+002	-8.403778e+000	-8.867716e+001	-8.364567e+000	-8.836622e+001	-4.957744e+000	-1.409276e+002
2530224100	-3.791488e+000	1.750526e+002	-8.463850e+000	-8.895651e+001	-8.422097e+000	-8.866568e+001	-4.969620e+000	-1.412182e+002
2540223800	-3.810709e+000	1.744798e+002	-8.512924e+000	-8.923218e+001	-8.477899e+000	-8.892202e+001	-4.983461e+000	-1.415015e+002
2550223500	-3.824635e+000	1.740578e+002	-8.558787e+000	-8.949031e+001	-8.513812e+000	-8.910643e+001	-4.999766e+000	-1.417972e+002
2560223200	-3.835441e+000	1.736868e+002	-8.578537e+000	-8.960637e+001	-8.545723e+000	-8.925046e+001	-5.008044e+000	-1.420824e+002
2570222900	-3.830292e+000	1.732617e+002	-8.614234e+000	-8.980262e+001	-8.573248e+000	-8.946573e+001	-5.037093e+000	-1.423491e+002
2580222600	-3.841406e+000	1.728951e+002	-8.626355e+000	-8.998828e+001	-8.590413e+000	-8.959969e+001	-5.048645e+000	-1.425574e+002
2590222300	-3.837145e+000	1.726108e+002	-8.625931e+000	-9.017270e+001	-8.587933e+000	-8.993712e+001	-5.056294e+000	-1.426950e+002
2600222000	-3.825325e+000	1.722993e+002	-8.628421e+000	-9.049018e+001	-8.586048e+000	-9.021796e+001	-5.055564e+000	-1.428178e+002
2610221700	-3.811342e+000	1.719630e+002	-8.637089e+000	-9.088281e+001	-8.589526e+000	-9.058939e+001	-5.046434e+000	-1.429761e+002
2620221400	-3.787606e+000	1.715268e+002	-8.635456e+000	-9.136352e+001	-8.605388e+000	-9.104169e+001	-5.049237e+000	-1.431926e+002
2630221100	-3.771159e+000	1.711139e+002	-8.663379e+000	-9.191747e+001	-8.636967e+000	-9.157726e+001	-5.043587e+000	-1.434270e+002
2640220800	-3.770824e+000	1.706700e+002	-8.696308e+000	-9.230783e+001	-8.677490e+000	-9.200361e+001	-5.030445e+000	-1.436378e+002
2650220500	-3.774687e+000	1.702434e+002	-8.749183e+000	-9.275184e+001	-8.716797e+000	-9.243920e+001	-5.021796e+000	-1.439650e+002
2660220200	-3.770192e+000	1.699297e+002	-8.774362e+000	-9.300455e+001	-8.755865e+000	-9.265145e+001	-5.037255e+000	-1.442244e+002
2670219900	-3.746873e+000	1.695858e+002	-8.783115e+000	-9.338329e+001	-8.772142e+000	-9.310453e+001	-5.028493e+000	-1.444894e+002
2680219600	-3.721185e+000	1.690880e+002	-8.808816e+000	-9.386339e+001	-8.793891e+000	-9.352770e+001	-5.027738e+000	-1.447082e+002
2690219300	-3.711462e+000	1.685643e+002	-8.846021e+000	-9.430402e+001	-8.818304e+000	-9.396521e+001	-5.032436e+000	-1.449895e+002
2700219000	-3.691938e+000	1.679706e+002	-8.895757e+000	-9.481053e+001	-8.846807e+000	-9.438711e+001	-5.033448e+000	-1.452510e+002
2710218700	-3.679491e+000	1.674583e+002	-8.931101e+000	-9.518143e+001	-8.894273e+000	-9.474240e+001	-5.044857e+000	-1.454915e+002
2720218400	-3.670994e+000	1.668834e+002	-8.979457e+000	-9.559181e+001	-8.945005e+000	-9.521077e+001	-5.057312e+000	-1.458007e+002
2730218100	-3.672732e+000	1.662868e+002	-9.037487e+000	-9.598677e+001	-8.993607e+000	-9.560433e+001	-5.049718e+000	-1.461583e+002
2740217800	-3.664891e+000	1.657066e+002	-9.075977e+000	-9.628503e+001	-9.038100e+000	-9.596149e+001	-5.061428e+000	-1.464718e+002
2750217500	-3.661874e+000	1.651809e+002	-9.127542e+000	-9.666769e+001	-9.087184e+000	-9.635442e+001	-5.064969e+000	-1.468043e+002
2760217200	-3.662542e+000	1.646479e+002	-9.179690e+000	-9.691460e+001	-9.148300e+000	-9.658177e+001	-5.081377e+000	-1.471701e+002
2770216900	-3.661346e+000	1.642028e+002	-9.212261e+000	-9.718675e+001	-9.197873e+000	-9.692011e+001	-5.085822e+000	-1.474509e+002
2780216600	-3.666324e+000	1.637187e+002	-9.275208e+000	-9.745186e+001	-9.240943e+000	-9.706800e+001	-5.099413e+000	-1.477161e+002
2790216300	-3.666109e+000	1.633243e+002	-9.294424e+000	-9.757415e+001	-9.264947e+000	-9.734851e+001	-5.107858e+000	-1.480276e+002
2800216000	-3.660470e+000	1.628593e+002	-9.331070e+000	-9.788465e+001	-9.308182e+000	-9.748462e+001	-5.137939e+000	-1.482079e+002
2810215700	-3.660392e+000	1.624026e+002	-9.344969e+000	-9.803102e+001	-9.328858e+000	-9.763235e+001	-5.150643e+000	-1.483134e+002
2820215400	-3.668185e+000	1.620886e+002	-9.349577e+000	-9.831180e+001	-9.326784e+000	-9.789856e+001	-5.157521e+000	-1.483601e+002
2830215100	-3.647239e+000	1.616838e+002	-9.356009e+000	-9.870256e+001	-9.333688e+000	-9.833055e+001	-5.142878e+000	-1.485279e+002
2840214800	-3.629933e+000	1.612236e+002	-9.376457e+000	-9.921326e+001	-9.350997e+000	-9.882366e+001	-5.139119e+000	-1.486809e+002
2850214500	-3.625778e+000	1.606523e+002	-9.396036e+000	-9.971964e+001	-9.385074e+000	-9.933311e+001	-5.133832e+000	-1.489527e+002
2860214200	-3.620568e+000	1.601276e+002	-9.437694e+000	-1.001631e+002	-9.421135e+000	-9.982475e+001	-5.125121e+000	-1.492590e+002
2870213900	-3.615979e+000	1.596112e+002	-9.491880e+000	-1.006803e+002	-9.464332e+000	-1.002168e+002	-5.120930e+000	-1.495293e+002
2880213600	-3.604562e+000	1.590644e+002	-9.534818e+000	-1.010759e+002	-9.501983e+000	-1.006291e+002	-5.127910e+000	-1.498826e+002
2890213300	-3.598806e+000	1.585091e+002	-9.587916e+000	-1.014212e+002	-9.554442e+000	-1.010256e+002	-5.126063e+000	-1.502672e+002
2900213000	-3.601739e+000	1.579189e+002	-9.634268e+000	-1.017506e+002	-9.601024e+000	-1.014237e+002	-5.126153e+000	-1.506281e+002
2910212700	-3.613948e+000	1.574072e+002	-9.693577e+000	-1.020657e+002	-9.656791e+000	-1.017765e+002	-5.138070e+000	-1.509368e+002
2920212400	-3.609620e+000	1.570231e+002	-9.724618e+000	-1.024152e+002	-9.689191e+000	-1.020545e+002	-5.150402e+000	-1.512648e+002
2930212100	-3.591064e+000	1.565370e+002	-9.763975e+000	-1.028397e+002	-9.733273e+000	-1.024877e+002	-5.156641e+000	-1.515721e+002
2940211800	-3.582718e+000	1.560692e+002	-9.807240e+000	-1.032772e+002	-9.776276e+000	-1.028111e+002	-5.157468e+000	-1.518474e+002
2950211500	-3.568870e+000	1.556148e+002	-9.859922e+000	-1.036099e+002	-9.837430e+000	-1.032260e+002	-5.160933e+000	-1.521268e+002
2960211200	-3.564167e+000	1.551783e+002	-9.901096e+000	-1.038553e+002	-9.889610e+000	-1.036278e+002	-5.169919e+000	-1.524209e+002
2970210900	-3.553015e+000	1.547073e+002	-9.955531e+000	-1.042104e+002	-9.930105e+000	-1.039002e+002	-5.176006e+000	-1.527379e+002
2980210600	-3.544748e+000	1.541958e+002	-9.982115e+000	-1.045682e+002	-9.974176e+000	-1.041480e+002	-5.178628e+000	-1.529528e+002
2990210300	-3.532496e+000	1.537594e+002	-1.002294e+001	-1.049442e+002	-1.001001e+001	-1.044869e+002	-5.194816e+000	-1.531955e+002
3000210000	-3.525032e+000	1.532196e+002	-1.007126e+001	-1.053030e+002	-1.005231e+001	-1.049540e+002	-5.196628e+000	-1.534566e+002
3010209700	-3.502491e+000	1.526934e+002	-1.011743e+001	-1.056710e+002	-1.010216e+001	-1.053065e+002	-5.219484e+000	-1.537015e+002
3020209400	-3.497199e+000	1.521486e+002	-1.017005e+001	-1.060516e+002	-1.014592e+001	-1.056744e+002	-5.232835e+000	-1.540122e+002
3030209100	-3.497398e+000	1.515472e+002	-1.022169e+001	-1.064043e+002	-1.020164e+001	-1.060018e+002	-5.243624e+000	-1.542787e+002
3040208800	-3.483624e+000	1.510172e+002	-1.027385e+001	-1.066352e+002	-1.023763e+001	-1.063843e+002	-5.265292e+000	-1.544756e+002
3050208500	-3.479452e+000	1.505064e+002	-1.030550e+001	-1.069287e+002	-1.027865e+001	-1.066349e+002	-5.265437e+000	-1.546256e+002
3060208200	-3.469401e+000	1.498462e+002	-1.034285e+001	-1.074191e+002	-1.030442e+001	-1.071039e+002	-5.257916e+000	-1.549022e+002
3070207900	-3.458999e+000	1.493068e+002	-1.039952e+001	-1.078401e+002	-1.035297e+001	-1.074490e+002	-5.250648e+000	-1.552312e+002
3080207600	-3.448978e+000	1.487169e+002	-1.044952e+001	-1.082192e+002	-1.040994e+001	-1.078971e+002	-5.242760e+000	-1.555755e+002
3090207300	-3.435413e+000	1.481525e+002	-1.049862e+001	-1.086178e+002	-1.046922e+001	-1.083549e+002	-5.243591e+000	-1.559722e+002
3100207000	-3.434817e+000	1.476184e+002	-1.056340e+001	-1.090207e+002	-1.053781e+001	-1.086113e+002	-5.256966e+000	-1.562913e+002
3110206700	-3.425855e+000	1.470585e+002	-1.061771e+001	-1.093960e+002	-1.059405e+001	-1.090157e+002	-5.254474e+000	-1.566180e+002
3120206400	-3.434475e+000	1.464497e+002	-1.068581e+001	-1.096817e+002	-1.066054e+001	-1.093518e+002	-5.263991e+000	-1.569503e+002
3130206100	-3.436692e+000	1.459402e+002	-1.075135e+001	-1.100453e+002	-1.071096e+001	-1.096534e+002	-5.263522e+000	-1.572505e+002
3140205800	-3.446592e+000	1.454212e+002	-1.080702e+001	-1.103253e+002	-1.079501e+001	-1.099768e+002	-5.285035e+000	-1.576146e+002
3150205500	-3.466840e+000	1.449292e+002	-1.086930e+001	-1.105497e+002	-1.083691e+001	-1.103089e+002	-5.291964e+000	-1.579051e+002
3160205200	-3.481445e+000	1.444999e+002	-1.091493e+001	-1.107909e+002	-1.089625e+001	-1.104954e+002	-5.308313e+000	-1.581614e+002
3170204900	-3.478727e+000	1.442144e+002	-1.094728e+001	-1.110994e+002	-1.092783e+001	-1.108175e+002	-5.317872e+000	-1.584445e+002
3180204600	-3.465683e+000	1.437961e+002	-1.098608e+001	-1.115128e+002	-1.096508e+001	-1.112724e+002	-5.332732e+000	-1.586983e+002
3190204300	-3.441135e+000	1.433346e+002	-1.103453e+001	-1.119751e+002	-1.102367e+001	-1.116346e+002	-5.344074e+000	-1.589157e+002
3200204000	-3.418314e+000	1.427910e+002	-1.109375e+001	-1.123526e+002	-1.107185e+001	-1.121117e+002	-5.345094e+000	-1.592676e+002
3210203700	-3.395562e+000	1.421987e+002	-1.115701e+001	-1.128136e+002	-1.111780e+001	-1.124859e+002	-5.346837e+000	-1.596014e+002
3220203400	-3.371104e+000	1.415893e+002	-1.121844e+001	-1.132637e+002	-1.117884e+001	-1.129064e+002	-5.354331e+000	-1.599567e+002
3230203100	-3.356836e+000	1.409471e+002	-1.128337e+001	-1.136475e+002	-1.123688e+001	-1.133219e+002	-5.358090e+000	-1.603243e+002
3240202800	-3.342222e+000	1.403620e+002	-1.135816e+001	-1.140433e+002	-1.132744e+001	-1.137155e+002	-5.382575e+000	-1.606968e+002
3250202500	-3.332581e+000	1.397503e+002	-1.142848e+001	-1.144420e+002	-1.139751e+001	-1.141297e+002	-5.386307e+000	-1.610544e+002
3260202200	-3.316436e+000	1.391368e+002	-1.150760e+001	-1.147822e+002	-1.147024e+001	-1.143569e+002	-5.398825e+000	-1.613617e+002
3270201900	-3.299138e+000	1.385348e+002	-1.157754e+001	-1.150702e+002	-1.155192e+001	-1.146869e+002	-5.410821e+000	-1.616502e+002
3280201600	-3.296264e+000	1.379326e+002	-1.165879e+001	-1.154594e+002	-1.162356e+001	-1.150496e+002	-5.425131e+000	-1.619668e+002
3290201300	-3.297191e+000	1.373889e+002	-1.172374e+001	-1.157843e+002	-1.170067e+001	-1.152873e+002	-5.422638e+000	-1.622174e+002
3300201000	-3.297522e+000	1.367672e+002	-1.180870e+001	-1.160316e+002	-1.178166e+001	-1.157023e+002	-5.433450e+000	-1.625068e+002
3310200700	-3.291486e+000	1.362163e+002	-1.188818e+001	-1.163554e+002	-1.185663e+001	-1.159620e+002	-5.432446e+000	-1.628818e+002
3320200400	-3.303452e+000	1.356381e+002	-1.196112e+001	-1.165644e+002	-1.194965e+001	-1.162268e+002	-5.441737e+000	-1.631743e+002
3330200100	-3.315210e+000	1.351037e+002	-1.205016e+001	-1.168071e+002	-1.202419e+001	-1.165038e+002	-5.459317e+000	-1.634685e+002
3340199800	-3.318871e+000	1.345888e+002	-1.211553e+001	-1.170211e+002	-1.209041e+001	-1.166252e+002	-5.479168e+000	-1.637554e+002
3350199500	-3.326837e+000	1.341050e+002	-1.217406e+001	-1.171775e+002	-1.215379e+001	-1.170326e+002	-5.493764e+000	-1.640375e+002
3360199200	-3.323033e+000	1.335465e+002	-1.222587e+001	-1.175268e+002	-1.219594e+001	-1.172935e+002	-5.498651e+000	-1.643088e+002
3370198900	-3.307533e+000	1.330014e+002	-1.227775e+001	-1.179346e+002	-1.224541e+001	-1.176590e+002	-5.494823e+000	-1.646776e+002
3380198600	-3.302704e+000	1.323927e+002	-1.236542e+001	-1.183327e+002	-1.232547e+001	-1.179108e+002	-5.501709e+000	-1.649798e+002
3390198300	-3.298874e+000	1.317814e+002	-1.244323e+001	-1.186816e+002	-1.238478e+001	-1.182308e+002	-5.514506e+000	-1.653560e+002
3400198000	-3.298515e+000	1.311607e+002	-1.252164e+001	-1.189659e+002	-1.247987e+001	-1.185532e+002	-5.525708e+000	-1.658262e+002
3410197700	-3.299556e+000	1.306297e+002	-1.260617e+001	-1.192975e+002	-1.256629e+001	-1.188157e+002	-5.543709e+000	-1.661713e+002
3420197400	-3.286813e+000	1.300986e+002	-1.267969e+001	-1.196168e+002	-1.264375e+001	-1.191053e+002	-5.561270e+000	-1.665621e+002
3430197100	-3.278011e+000	1.296311e+002	-1.275175e+001	-1.198727e+002	-1.271904e+001	-1.193125e+002	-5.566514e+000	-1.669296e+002
3440196800	-3.251934e+000	1.290580e+002	-1.283882e+001	-1.203096e+002	-1.281196e+001	-1.198024e+002	-5.586554e+000	-1.672894e+002
3450196500	-3.237926e+000	1.285059e+002	-1.292738e+001	-1.207365e+002	-1.288726e+001	-1.202370e+002	-5.584589e+000	-1.676711e+002
3460196200	-3.220404e+000	1.278984e+002	-1.303674e+001	-1.210612e+002	-1.299267e+001	-1.205454e+002	-5.595182e+000	-1.680261e+002
3470195900	-3.216354e+000	1.272921e+002	-1.313532e+001	-1.214205e+002	-1.309851e+001	-1.210523e+002	-5.614605e+000	-1.684413e+002
3480195600	-3.202925e+000	1.266841e+002	-1.323579e+001	-1.218292e+002	-1.321807e+001	-1.214033e+002	-5.636194e+000	-1.687453e+002
3490195300	-3.200664e+000	1.260273e+002	-1.338101e+001	-1.219933e+002	-1.335248e+001	-1.217745e+002	-5.648895e+000	-1.690771e+002
3500195000	-3.202187e+000	1.253845e+002	-1.350295e+001	-1.221584e+002	-1.347786e+001	-1.220963e+002	-5.680883e+000	-1.694393e+002
3510194700	-3.217272e+000	1.247161e+002	-1.362715e+001	-1.223084e+002	-1.360522e+001	-1.220883e+002	-5.696394e+000	-1.696822e+002
3520194400	-3.221366e+000	1.241003e+002	-1.374065e+001	-1.222365e+002	-1.367097e+001	-1.221229e+002	-5.704268e+000	-1.700690e+002
3530194100	-3.234119e+000	1.235001e+002	-1.383271e+001	-1.223203e+002	-1.376913e+001	-1.221697e+002	-5.706324e+000	-1.704045e+002
3540193800	-3.248253e+000	1.229709e+002	-1.390331e+001	-1.223580e+002	-1.384858e+001	-1.221565e+002	-5.717167e+000	-1.706800e+002
3550193500	-3.242659e+000	1.223736e+002	-1.399426e+001	-1.225239e+002	-1.390949e+001	-1.222537e+002	-5.721405e+000	-1.709221e+002
3560193200	-3.251205e+000	1.218028e+002	-1.409091e+001	-1.227018e+002	-1.401726e+001	-1.222980e+002	-5.756339e+000	-1.711796e+002
3570192900	-3.246245e+000	1.212750e+002	-1.414483e+001	-1.229082e+002	-1.410415e+001	-1.225130e+002	-5.770684e+000	-1.715115e+002
3580192600	-3.229790e+000	1.207273e+002	-1.423641e+001	-1.232295e+002	-1.419252e+001	-1.228030e+002	-5.774708e+000	-1.719317e+002
3590192300	-3.213689e+000	1.200982e+002	-1.434576e+001	-1.235140e+002	-1.429576e+001	-1.230990e+002	-5.784153e+000	-1.722527e+002
3600192000	-3.187493e+000	1.195062e+002	-1.445009e+001	-1.238419e+002	-1.441300e+001	-1.234390e+002	-5.787479e+000	-1.727193e+002
3610191700	-3.188078e+000	1.188677e+002	-1.460945e+001	-1.241514e+002	-1.455067e+001	-1.237632e+002	-5.811288e+000	-1.730776e+002
3620191400	-3.178647e+000	1.182364e+002	-1.472985e+001	-1.243705e+002	-1.469490e+001	-1.239765e+002	-5.826272e+000	-1.735062e+002
3630191100	-3.180109e+000	1.176039e+002	-1.486373e+001	-1.245106e+002	-1.483164e+001	-1.241366e+002	-5.842152e+000	-1.739488e+002
3640190800	-3.183856e+000	1.169789e+002	-1.498258e+001	-1.246188e+002	-1.497574e+001	-1.243705e+002	-5.863258e+000	-1.742850e+002
3650190500	-3.183775e+000	1.163176e+002	-1.515060e+001	-1.245957e+002	-1.508722e+001	-1.244794e+002	-5.873806e+000	-1.747289e+002
3660190200	-3.199254e+000	1.157572e+002	-1.527536e+001	-1.247479e+002	-1.524411e+001	-1.245337e+002	-5.901756e+000	-1.750289e+002
3670189900	-3.207401e+000	1.151613e+002	-1.539672e+001	-1.247784e+002	-1.537005e+001	-1.245960e+002	-5.916891e+000	-1.753831e+002
3680189600	-3.212601e+000	1.145629e+002	-1.554059e+001	-1.249202e+002	-1.547657e+001	-1.247935e+002	-5.932823e+000	-1.758007e+002
3690189300	-3.206787e+000	1.139027e+002	-1.570101e+001	-1.249922e+002	-1.561084e+001	-1.249455e+002	-5.948452e+000	-1.761979e+002
3700189000	-3.206150e+000	1.132829e+002	-1.585718e+001	-1.249471e+002	-1.574442e+001	-1.249151e+002	-5.955929e+000	-1.766178e+002
3710188700	-3.212306e+000	1.125263e+002	-1.603631e+001	-1.249467e+002	-1.593502e+001	-1.247435e+002	-5.977097e+000	-1.768828e+002
3720188400	-3.210749e+000	1.118588e+002	-1.622087e+001	-1.247585e+002	-1.612014e+001	-1.244541e+002	-5.999398e+000	-1.772543e+002
3730188100	-3.220067e+000	1.111315e+002	-1.638107e+001	-1.244212e+002	-1.630107e+001	-1.239492e+002	-6.042266e+000	-1.776025e+002
3740187800	-3.230062e+000	1.104977e+002	-1.653415e+001	-1.238374e+002	-1.645648e+001	-1.234463e+002	-6.075674e+000	-1.779321e+002
3750187500	-3.234135e+000	1.098872e+002	-1.662292e+001	-1.233204e+002	-1.656262e+001	-1.230027e+002	-6.110477e+000	-1.782340e+002
3760187200	-3.245391e+000	1.093243e+002	-1.673049e+001	-1.231053e+002	-1.667091e+001	-1.226757e+002	-6.134466e+000	-1.785109e+002
3770186900	-3.244473e+000	1.087581e+002	-1.683185e+001	-1.229385e+002	-1.679668e+001	-1.224298e+002	-6.157894e+000	-1.787267e+002
3780186600	-3.247154e+000	1.081536e+002	-1.697781e+001	-1.228316e+002	-1.691776e+001	-1.223408e+002	-6.178446e+000	-1.791048e+002
3790186300	-3.260156e+000	1.076125e+002	-1.710679e+001	-1.226840e+002	-1.704966e+001	-1.222329e+002	-6.191020e+000	-1.793634e+002
3800186000	-3.260545e+000	1.070854e+002	-1.722446e+001	-1.225280e+002	-1.717974e+001	-1.222831e+002	-6.203143e+000	-1.797261e+002
3810185700	-3.263338e+000	1.065078e+002	-1.737073e+001	-1.225131e+002	-1.733440e+001	-1.222339e+002	-6.210470e+000	1.799125e+002
3820185400	-3.263545e+000	1.059017e+002	-1.755129e+001	-1.224023e+002	-1.749705e+001	-1.221577e+002	-6.223358e+000	1.795525e+002
3830185100	-3.262937e+000	1.052420e+002	-1.774477e+001	-1.220380e+002	-1.769742e+001	-1.220358e+002	-6.239915e+000	1.791908e+002
3840184800	-3.263679e+000	1.045324e+002	-1.794020e+001	-1.218018e+002	-1.787206e+001	-1.218468e+002	-6.250415e+000	1.788017e+002
3850184500	-3.276485e+000	1.038671e+002	-1.815120e+001	-1.215464e+002	-1.804999e+001	-1.214202e+002	-6.261130e+000	1.783486e+002
3860184200	-3.283222e+000	1.031307e+002	-1.836115e+001	-1.209878e+002	-1.821901e+001	-1.208595e+002	-6.268624e+000	1.778876e+002
3870183900	-3.298609e+000	1.023735e+002	-1.856477e+001	-1.203183e+002	-1.843715e+001	-1.202035e+002	-6.292524e+000	1.774980e+002
3880183600	-3.306935e+000	1.016223e+002	-1.875836e+001	-1.195113e+002	-1.862313e+001	-1.192724e+002	-6.313322e+000	1.771129e+002
3890183300	-3.313132e+000	1.008566e+002	-1.897435e+001	-1.187654e+002	-1.888633e+001	-1.185335e+002	-6.354731e+000	1.767864e+002
3900183000	-3.328509e+000	1.001038e+002	-1.921262e+001	-1.176769e+002	-1.913474e+001	-1.175859e+002	-6.402225e+000	1.763835e+002
3910182700	-3.346389e+000	9.940762e+001	-1.941804e+001	-1.163913e+002	-1.932438e+001	-1.161419e+002	-6.439903e+000	1.760131e+002
3920182400	-3.355725e+000	9.869657e+001	-1.959405e+001	-1.150752e+002	-1.953956e+001	-1.146921e+002	-6.483214e+000	1.757175e+002
3930182100	-3.377012e+000	9.801932e+001	-1.978185e+001	-1.135560e+002	-1.969301e+001	-1.131612e+002	-6.521651e+000	1.753410e+002
3940181800	-3.387364e+000	9.734178e+001	-1.991016e+001	-1.120751e+002	-1.984495e+001	-1.117838e+002	-6.556158e+000	1.750343e+002
3950181500	-3.403475e+000	9.664667e+001	-2.007386e+001	-1.105541e+002	-1.995542e+001	-1.101275e+002	-6.598360e+000	1.746619e+002
3960181200	-3.432090e+000	9.600400e+001	-2.016466e+001	-1.085748e+002	-2.006210e+001	-1.084564e+002	-6.643272e+000	1.743446e+002
3970180900	-3.460976e+000	9.533736e+001	-2.021702e+001	-1.068104e+002	-2.013363e+001	-1.066416e+002	-6.683799e+000	1.741589e+002
3980180600	-3.492767e+000	9.470824e+001	-2.023158e+001	-1.055507e+002	-2.016918e+001	-1.053402e+002	-6.713730e+000	1.739287e+002
3990180300	-3.519316e+000	9.411273e+001	-2.025374e+001	-1.041827e+002	-2.018006e+001	-1.040058e+002	-6.742834e+000	1.737921e+002
4000180000	-3.547186e+000	9.350421e+001	-2.031936e+001	-1.030729e+002	-2.024345e+001	-1.030777e+002	-6.771975e+000	1.735220e+002
4010179700	-3.576457e+000	9.279341e+001	-2.041329e+001	-1.016195e+002	-2.030309e+001	-1.018164e+002	-6.779253e+000	1.732874e+002
4020179400	-3.613014e+000	9.210283e+001	-2.046007e+001	-1.003631e+002	-2.032251e+001	-1.003273e+002	-6.794816e+000	1.729538e+002
4030179100	-3.635838e+000	9.147085e+001	-2.052665e+001	-9.889245e+001	-2.037009e+001	-9.887876e+001	-6.804905e+000	1.726541e+002
4040178800	-3.656449e+000	9.074563e+001	-2.060099e+001	-9.757273e+001	-2.043038e+001	-9.753591e+001	-6.827556e+000	1.722663e+002
4050178500	-3.681126e+000	9.002493e+001	-2.064172e+001	-9.601575e+001	-2.051709e+001	-9.581550e+001	-6.848828e+000	1.720146e+002
4060178200	-3.701927e+000	8.926120e+001	-2.075397e+001	-9.410085e+001	-2.061162e+001	-9.407235e+001	-6.885003e+000	1.716548e+002
4070177900	-3.723692e+000	8.855933e+001	-2.080990e+001	-9.243962e+001	-2.068029e+001	-9.207370e+001	-6.916960e+000	1.713453e+002
4080177600	-3.743171e+000	8.788174e+001	-2.082264e+001	-9.015584e+001	-2.069045e+001	-8.984485e+001	-6.950347e+000	1.710273e+002
4090177300	-3.755959e+000	8.711541e+001	-2.079703e+001	-8.833568e+001	-2.067821e+001	-8.782020e+001	-6.992930e+000	1.706611e+002
4100177000	-3.780906e+000	8.639439e+001	-2.074944e+001	-8.626421e+001	-2.068188e+001	-8.579428e+001	-7.033403e+000	1.702954e+002
4110176700	-3.809566e+000	8.562029e+001	-2.071747e+001	-8.428487e+001	-2.062622e+001	-8.393386e+001	-7.067532e+000	1.699461e+002
4120176400	-3.843753e+000	8.492009e+001	-2.064537e+001	-8.213832e+001	-2.057124e+001	-8.164967e+001	-7.108065e+000	1.696036e+002
4130176100	-3.872643e+000	8.415454e+001	-2.056765e+001	-7.991875e+001	-2.046748e+001	-7.952544e+001	-7.146069e+000	1.692946e+002
4140175800	-3.904096e+000	8.334516e+001	-2.043580e+001	-7.775391e+001	-2.032804e+001	-7.732734e+001	-7.190523e+000	1.689480e+002
4150175500	-3.961360e+000	8.252483e+001	-2.023522e+001	-7.538957e+001	-2.014221e+001	-7.543543e+001	-7.249747e+000	1.686986e+002
4160175200	-4.010011e+000	8.178145e+001	-1.999595e+001	-7.338484e+001	-1.993032e+001	-7.337988e+001	-7.301209e+000	1.684540e+002
4170174900	-4.070238e+000	8.097255e+001	-1.975558e+001	-7.167068e+001	-1.965800e+001	-7.168546e+001	-7.372606e+000	1.682337e+002
4180174600	-4.128551e+000	8.013833e+001	-1.945122e+001	-7.020046e+001	-1.934558e+001	-7.025709e+001	-7.440647e+000	1.681307e+002
4190174300	-4.203898e+000	7.941688e+001	-1.913891e+001	-6.929740e+001	-1.901806e+001	-6.922054e+001	-7.480497e+000	1.680589e+002
4200174000	-4.266468e+000	7.865730e+001	-1.885850e+001	-6.860364e+001	-1.874323e+001	-6.848445e+001	-7.511626e+000	1.679903e+002
4210173700	-4.327098e+000	7.799264e+001	-1.863117e+001	-6.809097e+001	-1.848951e+001	-6.778759e+001	-7.543840e+000	1.679297e+002
4220173400	-4.383488e+000	7.720407e+001	-1.841457e+001	-6.755686e+001	-1.830858e+001	-6.735417e+001	-7.571014e+000	1.678651e+002
4230173100	-4.438604e+000	7.652529e+001	-1.823941e+001	-6.681937e+001	-1.815586e+001	-6.651242e+001	-7.590366e+000	1.677788e+002
4240172800	-4.490923e+000	7.573055e+001	-1.803630e+001	-6.613432e+001	-1.795805e+001	-6.591684e+001	-7.627788e+000	1.674732e+002
4250172500	-4.550291e+000	7.500730e+001	-1.782780e+001	-6.556766e+001	-1.776084e+001	-6.529883e+001	-7.672131e+000	1.672840e+002
4260172200	-4.613475e+000	7.422574e+001	-1.762606e+001	-6.512700e+001	-1.757452e+001	-6.476010e+001	-7.725180e+000	1.670780e+002
4270171900	-4.678210e+000	7.354879e+001	-1.742714e+001	-6.467497e+001	-1.737883e+001	-6.424901e+001	-7.753008e+000	1.668879e+002
4280171600	-4.736035e+000	7.282783e+001	-1.722521e+001	-6.426582e+001	-1.718399e+001	-6.403123e+001	-7.789120e+000	1.666933e+002
4290171300	-4.809705e+000	7.211756e+001	-1.704585e+001	-6.383895e+001	-1.701347e+001	-6.350460e+001	-7.828172e+000	1.666039e+002
4300171000	-4.878278e+000	7.138768e+001	-1.686412e+001	-6.341116e+001	-1.682492e+001	-6.304623e+001	-7.851129e+000	1.664414e+002
4310170700	-4.964346e+000	7.070152e+001	-1.666616e+001	-6.292041e+001	-1.661005e+001	-6.275846e+001	-7.882560e+000	1.663111e+002
4320170400	-5.042920e+000	7.004439e+001	-1.646361e+001	-6.246973e+001	-1.643062e+001	-6.240561e+001	-7.915770e+000	1.661919e+002
4330170100	-5.118749e+000	6.936765e+001	-1.626690e+001	-6.217590e+001	-1.621074e+001	-6.218720e+001	-7.948210e+000	1.659284e+002
4340169800	-5.190306e+000	6.856993e+001	-1.606970e+001	-6.193802e+001	-1.599329e+001	-6.188244e+001	-7.986312e+000	1.657091e+002
4350169500	-5.270056e+000	6.781939e+001	-1.587336e+001	-6.157848e+001	-1.578647e+001	-6.165914e+001	-8.028057e+000	1.655097e+002
4360169200	-5.346543e+000	6.701532e+001	-1.569460e+001	-6.124450e+001	-1.560633e+001	-6.110537e+001	-8.075834e+000	1.653333e+002
4370168900	-5.420299e+000	6.611140e+001	-1.546929e+001	-6.079095e+001	-1.539321e+001	-6.057097e+001	-8.139992e+000	1.652356e+002
4380168600	-5.512482e+000	6.522771e+001	-1.521839e+001	-6.049127e+001	-1.515740e+001	-6.010167e+001	-8.217285e+000	1.651840e+002
4390168300	-5.597360e+000	6.417247e+001	-1.495767e+001	-6.026672e+001	-1.487724e+001	-5.992210e+001	-8.303323e+000	1.651659e+002
4400168000	-5.702204e+000	6.328854e+001	-1.465778e+001	-6.033375e+001	-1.460517e+001	-5.999013e+001	-8.387504e+000	1.653873e+002
4410167700	-5.825144e+000	6.234124e+001	-1.437273e+001	-6.070256e+001	-1.434767e+001	-6.044059e+001	-8.449035e+000	1.656303e+002
4420167400	-5.956786e+000	6.157140e+001	-1.414854e+001	-6.128873e+001	-1.412389e+001	-6.097896e+001	-8.487569e+000	1.658600e+002
4430167100	-6.087344e+000	6.085309e+001	-1.393107e+001	-6.197705e+001	-1.393218e+001	-6.165589e+001	-8.506660e+000	1.659921e+002
4440166800	-6.220511e+000	6.015163e+001	-1.375793e+001	-6.257773e+001	-1.373825e+001	-6.224602e+001	-8.510298e+000	1.660582e+002
4450166500	-6.351034e+000	5.956299e+001	-1.359273e+001	-6.314686e+001	-1.358321e+001	-6.293221e+001	-8.532722e+000	1.660733e+002
4460166200	-6.482039e+000	5.893277e+001	-1.344798e+001	-6.363401e+001	-1.342395e+001	-6.339994e+001	-8.537236e+000	1.660358e+002
4470165900	-6.609093e+000	5.823469e+001	-1.328327e+001	-6.403716e+001	-1.327086e+001	-6.389198e+001	-8.558368e+000	1.660486e+002
4480165600	-6.762797e+000	5.749984e+001	-1.311601e+001	-6.437460e+001	-1.309876e+001	-6.436989e+001	-8.595485e+000	1.661047e+002
4490165300	-6.914642e+000	5.677054e+001	-1.293736e+001	-6.494231e+001	-1.290419e+001	-6.501358e+001	-8.622323e+000	1.662941e+002
4500165000	-7.077331e+000	5.610242e+001	-1.277146e+001	-6.568917e+001	-1.273793e+001	-6.551837e+001	-8.640385e+000	1.663844e+002
4510164700	-7.249715e+000	5.548384e+001	-1.263192e+001	-6.628189e+001	-1.258584e+001	-6.616170e+001	-8.645713e+000	1.665530e+002
4520164400	-7.418690e+000	5.479955e+001	-1.251007e+001	-6.695832e+001	-1.245003e+001	-6.672391e+001	-8.652382e+000	1.667111e+002
4530164100	-7.589292e+000	5.420836e+001	-1.238732e+001	-6.759901e+001	-1.234854e+001	-6.734178e+001	-8.659870e+000	1.669773e+002
4540163800	-7.750320e+000	5.361550e+001	-1.228354e+001	-6.814642e+001	-1.225845e+001	-6.789633e+001	-8.667967e+000	1.670881e+002
4550163500	-7.919498e+000	5.310741e+001	-1.218329e+001	-6.870495e+001	-1.215562e+001	-6.838783e+001	-8.673315e+000	1.672211e+002
4560163200	-8.092663e+000	5.263250e+001	-1.207699e+001	-6.912901e+001	-1.206578e+001	-6.885465e+001	-8.691160e+000	1.672174e+002
4570162900	-8.243368e+000	5.222824e+001	-1.198412e+001	-6.943047e+001	-1.197408e+001	-6.920931e+001	-8.715254e+000	1.670806e+002
4580162600	-8.366044e+000	5.177055e+001	-1.187504e+001	-6.973234e+001	-1.187584e+001	-6.956391e+001	-8.752226e+000	1.669798e+002
4590162300	-8.493066e+000	5.113164e+001	-1.175054e+001	-6.990820e+001	-1.174851e+001	-6.966831e+001	-8.802813e+000	1.669378e+002
4600162000	-8.627391e+000	5.028374e+001	-1.159342e+001	-7.005990e+001	-1.158886e+001	-6.990154e+001	-8.874375e+000	1.670015e+002
4610161700	-8.810733e+000	4.940401e+001	-1.141772e+001	-7.047362e+001	-1.141903e+001	-7.029848e+001	-8.922565e+000	1.673062e+002
4620161400	-9.020391e+000	4.850378e+001	-1.123842e+001	-7.097398e+001	-1.123795e+001	-7.081117e+001	-8.966541e+000	1.676600e+002
4630161100	-9.250420e+000	4.764333e+001	-1.104552e+001	-7.159609e+001	-1.103944e+001	-7.158459e+001	-8.982295e+000	1.681728e+002
4640160800	-9.533695e+000	4.689253e+001	-1.086922e+001	-7.251807e+001	-1.085143e+001	-7.244650e+001	-8.958146e+000	1.687353e+002
4650160500	-9.824502e+000	4.634818e+001	-1.072355e+001	-7.353023e+001	-1.069043e+001	-7.349574e+001	-8.912347e+000	1.691567e+002
4660160200	-1.012492e+001	4.587154e+001	-1.060657e+001	-7.465213e+001	-1.057763e+001	-7.439590e+001	-8.857367e+000	1.695154e+002
4670159900	-1.041639e+001	4.553531e+001	-1.051515e+001	-7.562083e+001	-1.048379e+001	-7.538921e+001	-8.801412e+000	1.697509e+002
4680159600	-1.072029e+001	4.522694e+001	-1.042543e+001	-7.651434e+001	-1.040158e+001	-7.627942e+001	-8.766716e+000	1.698851e+002
4690159300	-1.100241e+001	4.497517e+001	-1.034911e+001	-7.733120e+001	-1.033802e+001	-7.706652e+001	-8.734204e+000	1.700374e+002
4700159000	-1.128394e+001	4.462376e+001	-1.027152e+001	-7.808028e+001	-1.025372e+001	-7.787203e+001	-8.729950e+000	1.701562e+002
4710158700	-1.159595e+001	4.423426e+001	-1.018067e+001	-7.875924e+001	-1.015875e+001	-7.859734e+001	-8.729025e+000	1.703482e+002
4720158400	-1.192643e+001	4.399452e+001	-1.007050e+001	-7.971057e+001	-1.006698e+001	-7.948712e+001	-8.727857e+000	1.706835e+002
4730158100	-1.228061e+001	4.392116e+001	-9.983195e+000	-8.063231e+001	-9.992987e+000	-8.049152e+001	-8.703516e+000	1.709939e+002
4740157800	-1.263768e+001	4.416796e+001	-9.915982e+000	-8.166614e+001	-9.934547e+000	-8.147987e+001	-8.661885e+000	1.711471e+002
4750157500	-1.298701e+001	4.453824e+001	-9.872808e+000	-8.261507e+001	-9.877004e+000	-8.250757e+001	-8.628871e+000	1.711854e+002
4760157200	-1.334570e+001	4.523428e+001	-9.839662e+000	-8.353025e+001	-9.851526e+000	-8.337702e+001	-8.593553e+000	1.712680e+002
4770156900	-1.368414e+001	4.602234e+001	-9.811400e+000	-8.438554e+001	-9.825457e+000	-8.430395e+001	-8.564666e+000	1.712800e+002
4780156600	-1.399975e+001	4.719612e+001	-9.801864e+000	-8.512045e+001	-9.799762e+000	-8.504441e+001	-8.524448e+000	1.712807e+002
4790156300	-1.426185e+001	4.826416e+001	-9.799123e+000	-8.556156e+001	-9.795548e+000	-8.556458e+001	-8.479520e+000	1.711950e+002
4800156000	-1.447524e+001	4.927147e+001	-9.790580e+000	-8.590032e+001	-9.763323e+000	-8.578725e+001	-8.465697e+000	1.709687e+002
4810155700	-1.466422e+001	4.954797e+001	-9.741502e+000	-8.596314e+001	-9.700486e+000	-8.580986e+001	-8.488298e+000	1.710045e+002
4820155400	-1.495051e+001	4.903778e+001	-9.604108e+000	-8.616724e+001	-9.581025e+000	-8.592797e+001	-8.499546e+000	1.714777e+002
4830155100	-1.540951e+001	4.859086e+001	-9.461350e+000	-8.679607e+001	-9.437729e+000	-8.661409e+001	-8.456513e+000	1.720028e+002
4840154800	-1.595041e+001	4.876676e+001	-9.344176e+000	-8.777786e+001	-9.331851e+000	-8.757633e+001	-8.382475e+000	1.723913e+002
4850154500	-1.646482e+001	4.972023e+001	-9.285454e+000	-8.876639e+001	-9.266029e+000	-8.851809e+001	-8.321254e+000	1.725549e+002
4860154200	-1.695409e+001	5.062160e+001	-9.223649e+000	-8.949946e+001	-9.211694e+000	-8.932625e+001	-8.281117e+000	1.726492e+002
4870153900	-1.753373e+001	5.146387e+001	-9.138377e+000	-9.019432e+001	-9.138863e+000	-9.008599e+001	-8.268320e+000	1.728913e+002
4880153600	-1.821715e+001	5.302157e+001	-9.044500e+000	-9.113326e+001	-9.044041e+000	-9.100827e+001	-8.220801e+000	1.734214e+002
4890153300	-1.885245e+001	5.567959e+001	-8.959544e+000	-9.222258e+001	-8.970118e+000	-9.209932e+001	-8.128488e+000	1.736565e+002
4900153000	-1.942739e+001	5.937757e+001	-8.927054e+000	-9.329411e+001	-8.931607e+000	-9.325063e+001	-8.030368e+000	1.736846e+002
4910152700	-1.992693e+001	6.346095e+001	-8.900452e+000	-9.433765e+001	-8.915031e+000	-9.427193e+001	-7.954843e+000	1.735572e+002
4920152400	-2.031321e+001	6.775230e+001	-8.883824e+000	-9.526630e+001	-8.896037e+000	-9.526865e+001	-7.893965e+000	1.733124e+002
4930152100	-2.065933e+001	7.223418e+001	-8.878216e+000	-9.604209e+001	-8.871917e+000	-9.605204e+001	-7.851093e+000	1.730803e+002
4940151800	-2.103094e+001	7.728363e+001	-8.849687e+000	-9.684758e+001	-8.846202e+000	-9.685360e+001	-7.824930e+000	1.728766e+002
4950151500	-2.130406e+001	8.310554e+001	-8.817846e+000	-9.768995e+001	-8.794258e+000	-9.766602e+001	-7.788589e+000	1.728535e+002
4960151200	-2.139199e+001	8.995193e+001	-8.795312e+000	-9.863365e+001	-8.773209e+000	-9.851030e+001	-7.747048e+000	1.728245e+002
4970150900	-2.126176e+001	9.626166e+001	-8.784974e+000	-9.947484e+001	-8.759629e+000	-9.937641e+001	-7.707814e+000	1.727337e+002
4980150600	-2.097535e+001	1.019470e+002	-8.793722e+000	-1.003730e+002	-8.775479e+000	-1.001403e+002	-7.668463e+000	1.727946e+002
4990150300	-2.061589e+001	1.067141e+002	-8.801472e+000	-1.011393e+002	-8.785089e+000	-1.009650e+002	-7.619453e+000	1.728669e+002
5000150000	-2.016070e+001	1.107055e+002	-8.814287e+000	-1.018202e+002	-8.794822e+000	-1.016184e+002	-7.548554e+000	1.730324e+002
5010149700	-1.971456e+001	1.134569e+002	-8.837466e+000	-1.025280e+002	-8.816213e+000	-1.023841e+002	-7.466064e+000	1.729831e+002
5020149400	-1.935853e+001	1.151210e+002	-8.860326e+000	-1.030904e+002	-8.854719e+000	-1.029479e+002	-7.409077e+000	1.727980e+002
5030149100	-1.911886e+001	1.159963e+002	-8.889631e+000	-1.033600e+002	-8.878280e+000	-1.032789e+002	-7.390001e+000	1.725416e+002
5040148800	-1.915557e+001	1.169192e+002	-8.850436e+000	-1.033759e+002	-8.848332e+000	-1.033367e+002	-7.401532e+000	1.726076e+002
5050148500	-1.929445e+001	1.199939e+002	-8.743860e+000	-1.037457e+002	-8.746274e+000	-1.037071e+002	-7.365489e+000	1.729857e+002
5060148200	-1.915584e+001	1.246125e+002	-8.638586e+000	-1.046539e+002	-8.638663e+000	-1.046163e+002	-7.273528e+000	1.732043e+002
5070147900	-1.877217e+001	1.285974e+002	-8.592680e+000	-1.056874e+002	-8.599200e+000	-1.057172e+002	-7.178705e+000	1.730916e+002
5080147600	-1.828694e+001	1.314309e+002	-8.578957e+000	-1.067407e+002	-8.585134e+000	-1.068000e+002	-7.099748e+000	1.728425e+002
5090147300	-1.782769e+001	1.333294e+002	-8.590598e+000	-1.076340e+002	-8.583963e+000	-1.076833e+002	-7.041359e+000	1.725125e+002
5100147000	-1.747887e+001	1.348552e+002	-8.581393e+000	-1.083468e+002	-8.571583e+000	-1.083850e+002	-6.998632e+000	1.722279e+002
5110146700	-1.706630e+001	1.370376e+002	-8.568937e+000	-1.091281e+002	-8.546393e+000	-1.090584e+002	-6.966494e+000	1.720493e+002
5120146400	-1.659799e+001	1.387240e+002	-8.557711e+000	-1.099359e+002	-8.532968e+000	-1.099136e+002	-6.910387e+000	1.718715e+002
5130146100	-1.612551e+001	1.398688e+002	-8.559630e+000	-1.108444e+002	-8.528719e+000	-1.106588e+002	-6.867674e+000	1.716278e+002
5140145800	-1.567208e+001	1.408713e+002	-8.562071e+000	-1.116503e+002	-8.539605e+000	-1.114619e+002	-6.812417e+000	1.715573e+002
5150145500	-1.526055e+001	1.414646e+002	-8.582590e+000	-1.125569e+002	-8.545950e+000	-1.123864e+002	-6.741891e+000	1.712786e+002
5160145200	-1.486625e+001	1.417336e+002	-8.613913e+000	-1.134079e+002	-8.587021e+000	-1.132387e+002	-6.691289e+000	1.709451e+002
5170144900	-1.453992e+001	1.420278e+002	-8.661828e+000	-1.141096e+002	-8.637171e+000	-1.139518e+002	-6.652472e+000	1.706191e+002
5180144600	-1.421711e+001	1.422044e+002	-8.698183e+000	-1.147615e+002	-8.675981e+000	-1.146282e+002	-6.636516e+000	1.702579e+002
5190144300	-1.390016e+001	1.422645e+002	-8.734184e+000	-1.152781e+002	-8.726856e+000	-1.152274e+002	-6.645940e+000	1.700234e+002
5200144000	-1.364082e+001	1.420091e+002	-8.778832e+000	-1.156236e+002	-8.757336e+000	-1.156230e+002	-6.682125e+000	1.699404e+002
5210143700	-1.344084e+001	1.419144e+002	-8.762363e+000	-1.159517e+002	-8.753165e+000	-1.159597e+002	-6.690416e+000	1.703588e+002
5220143400	-1.320913e+001	1.419649e+002	-8.718414e+000	-1.164967e+002	-8.727291e+000	-1.165884e+002	-6.610847e+000	1.707346e+002
5230143100	-1.295597e+001	1.420194e+002	-8.696757e+000	-1.174201e+002	-8.704631e+000	-1.174654e+002	-6.507687e+000	1.707552e+002
5240142800	-1.269180e+001	1.416346e+002	-8.739166e+000	-1.183592e+002	-8.728404e+000	-1.183532e+002	-6.408274e+000	1.704248e+002
5250142500	-1.246960e+001	1.408754e+002	-8.797133e+000	-1.190966e+002	-8.797425e+000	-1.191659e+002	-6.354264e+000	1.698701e+002
5260142200	-1.233933e+001	1.401285e+002	-8.871179e+000	-1.194889e+002	-8.854663e+000	-1.195735e+002	-6.339400e+000	1.694168e+002
5270141900	-1.229555e+001	1.396279e+002	-8.910327e+000	-1.196467e+002	-8.887605e+000	-1.196109e+002	-6.347596e+000	1.691768e+002
5280141600	-1.230012e+001	1.400126e+002	-8.875486e+000	-1.196200e+002	-8.845283e+000	-1.195667e+002	-6.344293e+000	1.692542e+002
5290141300	-1.218351e+001	1.411827e+002	-8.782733e+000	-1.201106e+002	-8.747524e+000	-1.199805e+002	-6.295132e+000	1.694009e+002
5300141000	-1.191316e+001	1.422432e+002	-8.731240e+000	-1.211117e+002	-8.691951e+000	-1.208523e+002	-6.207959e+000	1.693688e+002
5310140700	-1.162506e+001	1.425317e+002	-8.731889e+000	-1.221544e+002	-8.703905e+000	-1.219953e+002	-6.134448e+000	1.690273e+002
5320140400	-1.137569e+001	1.423683e+002	-8.761935e+000	-1.231230e+002	-8.742937e+000	-1.228493e+002	-6.076885e+000	1.685734e+002
5330140100	-1.117430e+001	1.421274e+002	-8.827993e+000	-1.237669e+002	-8.796943e+000	-1.236740e+002	-6.051878e+000	1.681264e+002
5340139800	-1.101598e+001	1.420151e+002	-8.848487e+000	-1.243717e+002	-8.824970e+000	-1.242850e+002	-6.026338e+000	1.678317e+002
5350139500	-1.082106e+001	1.420995e+002	-8.873459e+000	-1.250325e+002	-8.840461e+000	-1.249817e+002	-5.994573e+000	1.676524e+002
5360139200	-1.062106e+001	1.420059e+002	-8.895829e+000	-1.258814e+002	-8.869929e+000	-1.258244e+002	-5.957009e+000	1.673631e+002
5370138900	-1.041622e+001	1.416387e+002	-8.954040e+000	-1.267028e+002	-8.933885e+000	-1.265992e+002	-5.933222e+000	1.669420e+002
5380138600	-1.023657e+001	1.410615e+002	-9.035471e+000	-1.273347e+002	-9.002299e+000	-1.273752e+002	-5.923478e+000	1.664725e+002
5390138300	-1.010409e+001	1.404820e+002	-9.106692e+000	-1.278745e+002	-9.114405e+000	-1.279608e+002	-5.912919e+000	1.661670e+002
5400138000	-9.977340e+000	1.399024e+002	-9.171825e+000	-1.282369e+002	-9.170343e+000	-1.284792e+002	-5.919352e+000	1.658748e+002
5410137700	-9.847625e+000	1.393050e+002	-9.246105e+000	-1.287251e+002	-9.234519e+000	-1.289219e+002	-5.916186e+000	1.655855e+002
5420137400	-9.757134e+000	1.386723e+002	-9.312254e+000	-1.291134e+002	-9.288402e+000	-1.291975e+002	-5.926401e+000	1.652587e+002
5430137100	-9.671810e+000	1.380214e+002	-9.382426e+000	-1.292452e+002	-9.363291e+000	-1.292954e+002	-5.966521e+000	1.650227e+002
5440136800	-9.635455e+000	1.374661e+002	-9.437086e+000	-1.291000e+002	-9.409914e+000	-1.291222e+002	-6.027107e+000	1.650007e+002
5450136500	-9.634616e+000	1.374087e+002	-9.407186e+000	-1.287384e+002	-9.376983e+000	-1.287509e+002	-6.075061e+000	1.655473e+002
5460136200	-9.558727e+000	1.379081e+002	-9.279779e+000	-1.291263e+002	-9.256767e+000	-1.289164e+002	-6.020154e+000	1.662712e+002
5470135900	-9.385432e+000	1.381404e+002	-9.210860e+000	-1.302581e+002	-9.179105e+000	-1.299484e+002	-5.880196e+000	1.664644e+002
5480135600	-9.194784e+000	1.376108e+002	-9.252909e+000	-1.314971e+002	-9.226203e+000	-1.312553e+002	-5.774111e+000	1.659212e+002
5490135300	-9.077433e+000	1.367817e+002	-9.359760e+000	-1.322872e+002	-9.345948e+000	-1.320908e+002	-5.728877e+000	1.652927e+002
5500135000	-9.037696e+000	1.359833e+002	-9.479927e+000	-1.326445e+002	-9.453579e+000	-1.324313e+002	-5.728997e+000	1.647594e+002
5510134700	-9.067309e+000	1.355891e+002	-9.551077e+000	-1.325438e+002	-9.520520e+000	-1.323827e+002	-5.752911e+000	1.645708e+002
5520134400	-9.102612e+000	1.357815e+002	-9.543863e+000	-1.324637e+002	-9.513238e+000	-1.323657e+002	-5.772999e+000	1.646070e+002
5530134100	-9.051822e+000	1.363162e+002	-9.483099e+000	-1.327669e+002	-9.454997e+000	-1.327465e+002	-5.746156e+000	1.647022e+002
5540133800	-8.910781e+000	1.367589e+002	-9.439379e+000	-1.336142e+002	-9.413078e+000	-1.336398e+002	-5.681775e+000	1.645856e+002
5550133500	-8.753328e+000	1.366804e+002	-9.469471e+000	-1.346797e+002	-9.443433e+000	-1.347369e+002	-5.615173e+000	1.642203e+002
5560133200	-8.619987e+000	1.361675e+002	-9.550605e+000	-1.354817e+002	-9.540402e+000	-1.356588e+002	-5.581656e+000	1.636750e+002
5570132900	-8.542851e+000	1.355423e+002	-9.642395e+000	-1.360768e+002	-9.640571e+000	-1.362134e+002	-5.595346e+000	1.631298e+002
5580132600	-8.484675e+000	1.351943e+002	-9.713315e+000	-1.363297e+002	-9.694409e+000	-1.364469e+002	-5.615021e+000	1.628188e+002
5590132300	-8.387095e+000	1.349660e+002	-9.766392e+000	-1.368009e+002	-9.723920e+000	-1.369075e+002	-5.606067e+000	1.625265e+002
5600132000	-8.277827e+000	1.344623e+002	-9.833450e+000	-1.374999e+002	-9.806638e+000	-1.374998e+002	-5.599293e+000	1.621568e+002
5610131700	-8.186827e+000	1.336551e+002	-9.980489e+000	-1.379711e+002	-9.943252e+000	-1.379623e+002	-5.621601e+000	1.616336e+002
5620131400	-8.149465e+000	1.328269e+002	-1.012786e+001	-1.380599e+002	-1.010900e+001	-1.379766e+002	-5.696253e+000	1.612671e+002
5630131100	-8.159352e+000	1.320155e+002	-1.029140e+001	-1.377632e+002	-1.024042e+001	-1.374963e+002	-5.781158e+000	1.610624e+002
5640130800	-8.217572e+000	1.315169e+002	-1.036900e+001	-1.369677e+002	-1.033302e+001	-1.367221e+002	-5.897155e+000	1.611677e+002
5650130500	-8.285804e+000	1.314717e+002	-1.034246e+001	-1.361666e+002	-1.031501e+001	-1.359554e+002	-5.964839e+000	1.616034e+002
5660130200	-8.309716e+000	1.317731e+002	-1.028409e+001	-1.358738e+002	-1.024158e+001	-1.357152e+002	-5.987436e+000	1.621427e+002
5670129900	-8.299811e+000	1.319576e+002	-1.023068e+001	-1.358447e+002	-1.019565e+001	-1.357329e+002	-5.969740e+000	1.623996e+002
5680129600	-8.307336e+000	1.320706e+002	-1.019624e+001	-1.357029e+002	-1.016090e+001	-1.356825e+002	-5.986137e+000	1.626753e+002
5690129300	-8.313698e+000	1.324598e+002	-1.008794e+001	-1.354325e+002	-1.006275e+001	-1.354529e+002	-5.997333e+000	1.632713e+002
5700129000	-8.261412e+000	1.333012e+002	-9.906635e+000	-1.357362e+002	-9.881263e+000	-1.357891e+002	-5.944953e+000	1.641639e+002
5710128700	-8.107330e+000	1.338475e+002	-9.759923e+000	-1.369936e+002	-9.732200e+000	-1.370354e+002	-5.777750e+000	1.644919e+002
5720128400	-7.910520e+000	1.335561e+002	-9.741495e+000	-1.387782e+002	-9.729344e+000	-1.389003e+002	-5.609012e+000	1.641225e+002
5730128100	-7.772364e+000	1.325456e+002	-9.877081e+000	-1.402176e+002	-9.863239e+000	-1.403629e+002	-5.529627e+000	1.633007e+002
5740127800	-7.756190e+000	1.313362e+002	-1.008365e+001	-1.407467e+002	-1.006015e+001	-1.408785e+002	-5.528861e+000	1.625379e+002
5750127500	-7.841122e+000	1.306383e+002	-1.023374e+001	-1.405201e+002	-1.019055e+001	-1.406010e+002	-5.572618e+000	1.620826e+002
5760127200	-7.925332e+000	1.305983e+002	-1.027656e+001	-1.400421e+002	-1.022806e+001	-1.399821e+002	-5.620679e+000	1.620352e+002
5770126900	-7.948379e+000	1.310229e+002	-1.025268e+001	-1.399463e+002	-1.020648e+001	-1.398900e+002	-5.629025e+000	1.621505e+002
5780126600	-7.902512e+000	1.312864e+002	-1.023567e+001	-1.402422e+002	-1.021274e+001	-1.401240e+002	-5.637295e+000	1.621988e+002
5790126300	-7.827014e+000	1.312986e+002	-1.026152e+001	-1.406826e+002	-1.023112e+001	-1.404908e+002	-5.631995e+000	1.620598e+002
5800126000	-7.772110e+000	1.309867e+002	-1.033338e+001	-1.410242e+002	-1.031415e+001	-1.408360e+002	-5.655955e+000	1.617756e+002
5810125700	-7.782232e+000	1.306830e+002	-1.041444e+001	-1.408830e+002	-1.038872e+001	-1.407068e+002	-5.718312e+000	1.616533e+002
5820125400	-7.798212e+000	1.307783e+002	-1.041069e+001	-1.405605e+002	-1.039226e+001	-1.403848e+002	-5.766876e+000	1.617309e+002
5830125100	-7.762209e+000	1.308318e+002	-1.040217e+001	-1.406588e+002	-1.038226e+001	-1.404670e+002	-5.779492e+000	1.618695e+002
5840124800	-7.745522e+000	1.305461e+002	-1.046792e+001	-1.406418e+002	-1.044049e+001	-1.405040e+002	-5.814408e+000	1.618563e+002
5850124500	-7.801435e+000	1.303010e+002	-1.052332e+001	-1.399931e+002	-1.048850e+001	-1.399025e+002	-5.902055e+000	1.621210e+002
5860124200	-7.905059e+000	1.306005e+002	-1.045730e+001	-1.389723e+002	-1.041768e+001	-1.389493e+002	-5.961683e+000	1.628570e+002
5870123900	-7.966494e+000	1.313654e+002	-1.028292e+001	-1.383434e+002	-1.023846e+001	-1.384483e+002	-5.956071e+000	1.638364e+002
5880123600	-7.953510e+000	1.323753e+002	-1.007239e+001	-1.384840e+002	-1.002705e+001	-1.386218e+002	-5.873151e+000	1.647605e+002
5890123300	-7.872978e+000	1.332617e+002	-9.876806e+000	-1.392028e+002	-9.854286e+000	-1.393992e+002	-5.741639e+000	1.652976e+002
5900123000	-7.726665e+000	1.338524e+002	-9.743853e+000	-1.403516e+002	-9.704447e+000	-1.404713e+002	-5.607436e+000	1.654712e+002
5910122700	-7.584591e+000	1.340013e+002	-9.693999e+000	-1.415860e+002	-9.647740e+000	-1.416276e+002	-5.480100e+000	1.653426e+002
5920122400	-7.474089e+000	1.338746e+002	-9.685765e+000	-1.426554e+002	-9.657931e+000	-1.425811e+002	-5.403571e+000	1.651612e+002
5930122100	-7.391924e+000	1.337097e+002	-9.695978e+000	-1.433168e+002	-9.666943e+000	-1.432262e+002	-5.360921e+000	1.650900e+002
5940121800	-7.292654e+000	1.337017e+002	-9.679401e+000	-1.441187e+002	-9.657654e+000	-1.439544e+002	-5.307511e+000	1.650619e+002
5950121500	-7.168738e+000	1.334661e+002	-9.677944e+000	-1.450371e+002	-9.648210e+000	-1.449121e+002	-5.240272e+000	1.649260e+002
5960121200	-7.066389e+000	1.328989e+002	-9.709057e+000	-1.460788e+002	-9.697359e+000	-1.459819e+002	-5.183216e+000	1.646351e+002
5970120900	-7.006755e+000	1.321945e+002	-9.806043e+000	-1.470637e+002	-9.787687e+000	-1.468933e+002	-5.140407e+000	1.640706e+002
5980120600	-6.998456e+000	1.313213e+002	-9.947282e+000	-1.476212e+002	-9.930684e+000	-1.475362e+002	-5.147518e+000	1.634995e+002
5990120300	-7.088947e+000	1.307299e+002	-1.009446e+001	-1.475374e+002	-1.005538e+001	-1.473801e+002	-5.195159e+000	1.630927e+002
6000120000	-7.190272e+000	1.308941e+002	-1.013115e+001	-1.469658e+002	-1.010461e+001	-1.469013e+002	-5.245002e+000	1.631413e+002
6010119700	-7.236702e+000	1.314306e+002	-1.010407e+001	-1.467190e+002	-1.006640e+001	-1.465674e+002	-5.270561e+000	1.633445e+002
6020119400	-7.221364e+000	1.320007e+002	-1.003705e+001	-1.466198e+002	-9.999162e+000	-1.466433e+002	-5.270395e+000	1.636367e+002
6030119100	-7.165011e+000	1.324743e+002	-9.952941e+000	-1.470149e+002	-9.907200e+000	-1.469716e+002	-5.235692e+000	1.638834e+002
6040118800	-7.086838e+000	1.326983e+002	-9.913120e+000	-1.475968e+002	-9.871009e+000	-1.476790e+002	-5.184005e+000	1.638990e+002
6050118500	-7.036594e+000	1.327105e+002	-9.907659e+000	-1.480191e+002	-9.881605e+000	-1.481698e+002	-5.155383e+000	1.639007e+002
6060118200	-6.993977e+000	1.326925e+002	-9.893081e+000	-1.483541e+002	-9.861564e+000	-1.484886e+002	-5.137182e+000	1.638994e+002
6070117900	-6.946351e+000	1.327137e+002	-9.891099e+000	-1.487782e+002	-9.850967e+000	-1.487484e+002	-5.097068e+000	1.640236e+002
6080117600	-6.914650e+000	1.326853e+002	-9.887856e+000	-1.490421e+002	-9.857599e+000	-1.489190e+002	-5.082012e+000	1.642273e+002
6090117300	-6.900356e+000	1.329251e+002	-9.837355e+000	-1.491725e+002	-9.821905e+000	-1.490954e+002	-5.051270e+000	1.645898e+002
6100117000	-6.842916e+000	1.331695e+002	-9.754825e+000	-1.496377e+002	-9.746402e+000	-1.494346e+002	-5.001130e+000	1.648787e+002
6110116700	-6.773211e+000	1.333758e+002	-9.688709e+000	-1.502646e+002	-9.685446e+000	-1.500993e+002	-4.926387e+000	1.649590e+002
6120116400	-6.681001e+000	1.334428e+002	-9.654654e+000	-1.510822e+002	-9.651919e+000	-1.509210e+002	-4.866519e+000	1.648424e+002
6130116100	-6.589513e+000	1.334033e+002	-9.643732e+000	-1.519486e+002	-9.630984e+000	-1.517731e+002	-4.815837e+000	1.647063e+002
6140115800	-6.503615e+000	1.332416e+002	-9.639545e+000	-1.527660e+002	-9.623190e+000	-1.525785e+002	-4.776610e+000	1.644116e+002
6150115500	-6.436696e+000	1.330613e+002	-9.664035e+000	-1.535829e+002	-9.633197e+000	-1.534206e+002	-4.744162e+000	1.641282e+002
6160115200	-6.364492e+000	1.328582e+002	-9.698493e+000	-1.542804e+002	-9.654501e+000	-1.541472e+002	-4.715540e+000	1.638893e+002
6170114900	-6.299298e+000	1.326139e+002	-9.716840e+000	-1.549228e+002	-9.693278e+000	-1.548380e+002	-4.699175e+000	1.637144e+002
6180114600	-6.245011e+000	1.323181e+002	-9.740130e+000	-1.556103e+002	-9.706117e+000	-1.555635e+002	-4.672378e+000	1.635614e+002
6190114300	-6.190420e+000	1.319731e+002	-9.784060e+000	-1.563576e+002	-9.742673e+000	-1.563401e+002	-4.639301e+000	1.633637e+002
6200114000	-6.136885e+000	1.314924e+002	-9.837385e+000	-1.569544e+002	-9.790507e+000	-1.570471e+002	-4.618433e+000	1.631212e+002
6210113700	-6.117573e+000	1.309378e+002	-9.903241e+000	-1.575748e+002	-9.856872e+000	-1.576789e+002	-4.605554e+000	1.628611e+002
6220113400	-6.116531e+000	1.303684e+002	-9.976268e+000	-1.581080e+002	-9.927722e+000	-1.581033e+002	-4.592305e+000	1.626656e+002
6230113100	-6.157427e+000	1.298197e+002	-1.006333e+001	-1.584252e+002	-1.001380e+001	-1.583022e+002	-4.583229e+000	1.624721e+002
6240112800	-6.219305e+000	1.295847e+002	-1.014373e+001	-1.585928e+002	-1.010835e+001	-1.583995e+002	-4.598806e+000	1.624046e+002
6250112500	-6.292616e+000	1.296235e+002	-1.019399e+001	-1.584243e+002	-1.017871e+001	-1.582430e+002	-4.618814e+000	1.625831e+002
6260112200	-6.331509e+000	1.299785e+002	-1.018605e+001	-1.582327e+002	-1.018343e+001	-1.581086e+002	-4.630945e+000	1.628095e+002
6270111900	-6.321117e+000	1.303948e+002	-1.015351e+001	-1.583019e+002	-1.014090e+001	-1.581951e+002	-4.622738e+000	1.629785e+002
6280111600	-6.273983e+000	1.307007e+002	-1.010595e+001	-1.586648e+002	-1.010348e+001	-1.583900e+002	-4.598631e+000	1.630452e+002
6290111300	-6.229251e+000	1.308619e+002	-1.009080e+001	-1.590868e+002	-1.007757e+001	-1.588715e+002	-4.579330e+000	1.630241e+002
6300111000	-6.179961e+000	1.310213e+002	-1.008580e+001	-1.595118e+002	-1.005624e+001	-1.593916e+002	-4.567773e+000	1.629979e+002
6310110700	-6.123367e+000	1.310518e+002	-1.006984e+001	-1.600469e+002	-1.003139e+001	-1.598690e+002	-4.549652e+000	1.629115e+002
6320110400	-6.069044e+000	1.309909e+002	-1.007540e+001	-1.605676e+002	-1.004362e+001	-1.603061e+002	-4.533040e+000	1.628821e+002
6330110100	-6.041352e+000	1.309397e+002	-1.008241e+001	-1.609638e+002	-1.003466e+001	-1.607864e+002	-4.512745e+000	1.628966e+002
6340109800	-5.982353e+000	1.308793e+002	-1.007200e+001	-1.614737e+002	-1.003627e+001	-1.612696e+002	-4.490635e+000	1.628668e+002
6350109500	-5.931932e+000	1.307900e+002	-1.006891e+001	-1.620825e+002	-1.001856e+001	-1.619134e+002	-4.461616e+000	1.627696e+002
6360109200	-5.881619e+000	1.306132e+002	-1.008709e+001	-1.626263e+002	-1.002987e+001	-1.626512e+002	-4.435851e+000	1.626974e+002
6370108900	-5.836086e+000	1.304229e+002	-1.010684e+001	-1.633546e+002	-1.005706e+001	-1.632708e+002	-4.403472e+000	1.625754e+002
6380108600	-5.795874e+000	1.301797e+002	-1.012900e+001	-1.638582e+002	-1.008731e+001	-1.638630e+002	-4.393470e+000	1.624600e+002
6390108300	-5.756244e+000	1.298117e+002	-1.016754e+001	-1.644163e+002	-1.012801e+001	-1.643295e+002	-4.359128e+000	1.623916e+002
6400108000	-5.719273e+000	1.294441e+002	-1.020785e+001	-1.648941e+002	-1.018783e+001	-1.648269e+002	-4.338601e+000	1.623474e+002
6410107700	-5.698619e+000	1.289906e+002	-1.025857e+001	-1.653972e+002	-1.024200e+001	-1.652095e+002	-4.329975e+000	1.623150e+002
6420107400	-5.679816e+000	1.285180e+002	-1.030841e+001	-1.658714e+002	-1.030099e+001	-1.657072e+002	-4.326160e+000	1.622767e+002
6430107100	-5.677997e+000	1.280317e+002	-1.035922e+001	-1.661863e+002	-1.035550e+001	-1.660485e+002	-4.318017e+000	1.622561e+002
6440106800	-5.708586e+000	1.274875e+002	-1.041677e+001	-1.664939e+002	-1.040598e+001	-1.662848e+002	-4.314423e+000	1.621782e+002
6450106500	-5.773585e+000	1.270572e+002	-1.045639e+001	-1.666494e+002	-1.044591e+001	-1.664658e+002	-4.314360e+000	1.621042e+002
6460106200	-5.843357e+000	1.269341e+002	-1.048125e+001	-1.668371e+002	-1.045848e+001	-1.666206e+002	-4.306524e+000	1.620283e+002
6470105900	-5.920954e+000	1.270458e+002	-1.049465e+001	-1.670590e+002	-1.047233e+001	-1.668743e+002	-4.308800e+000	1.619343e+002
6480105600	-5.955797e+000	1.272592e+002	-1.051887e+001	-1.673919e+002	-1.048238e+001	-1.672062e+002	-4.310618e+000	1.618328e+002
6490105300	-5.974050e+000	1.274790e+002	-1.055444e+001	-1.677372e+002	-1.051268e+001	-1.675365e+002	-4.323896e+000	1.618246e+002
6500105000	-5.981049e+000	1.276872e+002	-1.059485e+001	-1.679145e+002	-1.054576e+001	-1.677622e+002	-4.335744e+000	1.618400e+002
6510104700	-6.000173e+000	1.278327e+002	-1.062248e+001	-1.680053e+002	-1.056814e+001	-1.679033e+002	-4.345540e+000	1.619838e+002
6520104400	-6.009661e+000	1.280903e+002	-1.061291e+001	-1.679642e+002	-1.056612e+001	-1.679369e+002	-4.336831e+000	1.620533e+002
6530104100	-5.997839e+000	1.284902e+002	-1.057783e+001	-1.682477e+002	-1.052177e+001	-1.681806e+002	-4.306825e+000	1.621608e+002
6540103800	-5.944075e+000	1.287384e+002	-1.054727e+001	-1.687309e+002	-1.049216e+001	-1.685957e+002	-4.279180e+000	1.621579e+002
6550103500	-5.872996e+000	1.288310e+002	-1.053840e+001	-1.692854e+002	-1.049881e+001	-1.691314e+002	-4.251860e+000	1.621869e+002
6560103200	-5.798056e+000	1.286793e+002	-1.054020e+001	-1.698308e+002	-1.052986e+001	-1.696746e+002	-4.228702e+000	1.622144e+002
6570102900	-5.746333e+000	1.283946e+002	-1.056427e+001	-1.703680e+002	-1.055684e+001	-1.701643e+002	-4.214142e+000	1.622385e+002
6580102600	-5.697153e+000	1.280001e+002	-1.059557e+001	-1.707953e+002	-1.059997e+001	-1.706853e+002	-4.200303e+000	1.622934e+002
6590102300	-5.675688e+000	1.275277e+002	-1.063563e+001	-1.711630e+002	-1.062567e+001	-1.709956e+002	-4.195431e+000	1.622104e+002
6600102000	-5.679061e+000	1.269669e+002	-1.067477e+001	-1.715661e+002	-1.066046e+001	-1.713938e+002	-4.183492e+000	1.621605e+002
6610101700	-5.692753e+000	1.265853e+002	-1.071608e+001	-1.717595e+002	-1.069005e+001	-1.717047e+002	-4.177145e+000	1.621176e+002
6620101400	-5.731676e+000	1.261450e+002	-1.074301e+001	-1.720209e+002	-1.072477e+001	-1.718907e+002	-4.167590e+000	1.621125e+002
6630101100	-5.779539e+000	1.257669e+002	-1.077856e+001	-1.722732e+002	-1.075595e+001	-1.721346e+002	-4.163738e+000	1.620920e+002
6640100800	-5.847152e+000	1.254856e+002	-1.079993e+001	-1.724508e+002	-1.077456e+001	-1.721731e+002	-4.160984e+000	1.620823e+002
6650100500	-5.932841e+000	1.253860e+002	-1.081689e+001	-1.725358e+002	-1.077983e+001	-1.722937e+002	-4.153986e+000	1.621454e+002
6660100200	-6.029688e+000	1.254818e+002	-1.081200e+001	-1.725874e+002	-1.077278e+001	-1.724402e+002	-4.137570e+000	1.621393e+002
6670099900	-6.104494e+000	1.257638e+002	-1.079376e+001	-1.728437e+002	-1.074933e+001	-1.726795e+002	-4.125747e+000	1.621696e+002
6680099600	-6.162829e+000	1.262552e+002	-1.076476e+001	-1.730625e+002	-1.071698e+001	-1.730087e+002	-4.110107e+000	1.621566e+002
6690099300	-6.183978e+000	1.266976e+002	-1.074254e+001	-1.734841e+002	-1.070738e+001	-1.733362e+002	-4.097159e+000	1.620713e+002
6700099000	-6.182234e+000	1.271170e+002	-1.073197e+001	-1.739073e+002	-1.069209e+001	-1.738484e+002	-4.081297e+000	1.620115e+002
6710098700	-6.158207e+000	1.274490e+002	-1.073437e+001	-1.745066e+002	-1.070539e+001	-1.743502e+002	-4.070953e+000	1.620183e+002
6720098400	-6.114351e+000	1.276353e+002	-1.074030e+001	-1.750451e+002	-1.072994e+001	-1.748725e+002	-4.065353e+000	1.620621e+002
6730098100	-6.074966e+000	1.276985e+002	-1.077486e+001	-1.756677e+002	-1.075139e+001	-1.754854e+002	-4.061816e+000	1.620729e+002
6740097800	-6.028329e+000	1.276126e+002	-1.082144e+001	-1.761741e+002	-1.081205e+001	-1.760018e+002	-4.061251e+000	1.620671e+002
6750097500	-6.018310e+000	1.273101e+002	-1.088401e+001	-1.764799e+002	-1.086287e+001	-1.763337e+002	-4.069568e+000	1.620353e+002
6760097200	-6.033216e+000	1.270686e+002	-1.093784e+001	-1.766062e+002	-1.091575e+001	-1.763845e+002	-4.073360e+000	1.621464e+002
6770096900	-6.082152e+000	1.270105e+002	-1.096013e+001	-1.764953e+002	-1.094022e+001	-1.763341e+002	-4.068978e+000	1.622272e+002
6780096600	-6.118634e+000	1.272406e+002	-1.094100e+001	-1.765591e+002	-1.092103e+001	-1.763265e+002	-4.061698e+000	1.622940e+002
6790096300	-6.116678e+000	1.276239e+002	-1.090844e+001	-1.767900e+002	-1.088095e+001	-1.765847e+002	-4.048159e+000	1.622971e+002
6800096000	-6.082759e+000	1.278652e+002	-1.088695e+001	-1.771372e+002	-1.085111e+001	-1.769226e+002	-4.031899e+000	1.622711e+002
6810095700	-6.030533e+000	1.278638e+002	-1.087387e+001	-1.776708e+002	-1.084344e+001	-1.774118e+002	-4.016975e+000	1.623208e+002
6820095400	-6.006801e+000	1.277211e+002	-1.089147e+001	-1.780879e+002	-1.087030e+001	-1.778927e+002	-4.008795e+000	1.623208e+002
6830095100	-6.016867e+000	1.272888e+002	-1.092532e+001	-1.784852e+002	-1.088176e+001	-1.782434e+002	-3.997795e+000	1.623780e+002
6840094800	-6.070526e+000	1.270341e+002	-1.093981e+001	-1.786828e+002	-1.089267e+001	-1.784942e+002	-3.989243e+000	1.624183e+002
6850094500	-6.146093e+000	1.270378e+002	-1.093287e+001	-1.789195e+002	-1.088412e+001	-1.786804e+002	-3.973670e+000	1.623805e+002
6860094200	-6.216526e+000	1.272705e+002	-1.091954e+001	-1.792036e+002	-1.087737e+001	-1.789363e+002	-3.955543e+000	1.623827e+002
6870093900	-6.256277e+000	1.276160e+002	-1.089406e+001	-1.796008e+002	-1.086316e+001	-1.793092e+002	-3.941356e+000	1.623927e+002
6880093600	-6.273837e+000	1.279360e+002	-1.088630e+001	1.799805e+002	-1.086536e+001	-1.798156e+002	-3.923822e+000	1.624191e+002
6890093300	-6.276091e+000	1.282646e+002	-1.087753e+001	1.794890e+002	-1.087121e+001	1.796828e+002	-3.912171e+000	1.624389e+002
6900093000	-6.271556e+000	1.285297e+002	-1.088111e+001	1.789767e+002	-1.087026e+001	1.791849e+002	-3.908500e+000	1.624319e+002
6910092700	-6.256111e+000	1.286999e+002	-1.088297e+001	1.785476e+002	-1.088045e+001	1.787720e+002	-3.906478e+000	1.623907e+002
6920092400	-6.244469e+000	1.288409e+002	-1.089682e+001	1.780422e+002	-1.088058e+001	1.782390e+002	-3.903829e+000	1.624020e+002
6930092100	-6.209720e+000	1.289801e+002	-1.090634e+001	1.775381e+002	-1.088127e+001	1.777464e+002	-3.906009e+000	1.623778e+002
6940091800	-6.191596e+000	1.290500e+002	-1.091881e+001	1.770821e+002	-1.090146e+001	1.773202e+002	-3.904536e+000	1.623629e+002
6950091500	-6.166939e+000	1.291091e+002	-1.094668e+001	1.765444e+002	-1.091929e+001	1.767682e+002	-3.908418e+000	1.623631e+002
6960091200	-6.141211e+000	1.291584e+002	-1.097184e+001	1.761300e+002	-1.094947e+001	1.763558e+002	-3.906406e+000	1.623834e+002
6970090900	-6.130369e+000	1.291333e+002	-1.101098e+001	1.756596e+002	-1.099027e+001	1.759374e+002	-3.905120e+000	1.624067e+002
6980090600	-6.112245e+000	1.290369e+002	-1.104730e+001	1.753201e+002	-1.102053e+001	1.756358e+002	-3.912210e+000	1.624684e+002
6990090300	-6.121085e+000	1.289409e+002	-1.108806e+001	1.750715e+002	-1.104252e+001	1.753784e+002	-3.906563e+000	1.625937e+002
7000090000	-6.132783e+000	1.288515e+002	-1.110953e+001	1.748447e+002	-1.106543e+001	1.750787e+002	-3.897484e+000	1.626809e+002
7010089700	-6.163828e+000	1.289315e+002	-1.112374e+001	1.745781e+002	-1.108150e+001	1.748195e+002	-3.890631e+000	1.627427e+002
7020089400	-6.184991e+000	1.290312e+002	-1.112963e+001	1.744079e+002	-1.109560e+001	1.746730e+002	-3.886650e+000	1.628098e+002
7030089100	-6.203384e+000	1.291421e+002	-1.113979e+001	1.741405e+002	-1.111559e+001	1.744624e+002	-3.870035e+000	1.627987e+002
7040088800	-6.212887e+000	1.293043e+002	-1.114044e+001	1.739225e+002	-1.111082e+001	1.741509e+002	-3.853025e+000	1.629298e+002
7050088500	-6.205758e+000	1.294218e+002	-1.112461e+001	1.736605e+002	-1.111138e+001	1.737686e+002	-3.835804e+000	1.630190e+002
7060088200	-6.201914e+000	1.294463e+002	-1.111922e+001	1.731798e+002	-1.110632e+001	1.733374e+002	-3.824655e+000	1.630681e+002
7070087900	-6.201342e+000	1.294511e+002	-1.112396e+001	1.728010e+002	-1.109921e+001	1.729189e+002	-3.821107e+000	1.630298e+002
7080087600	-6.208341e+000	1.294725e+002	-1.111747e+001	1.723577e+002	-1.110565e+001	1.725162e+002	-3.819785e+000	1.630371e+002
7090087300	-6.220522e+000	1.295251e+002	-1.112774e+001	1.719134e+002	-1.109879e+001	1.720818e+002	-3.812981e+000	1.630869e+002
7100087000	-6.220932e+000	1.295709e+002	-1.113458e+001	1.715341e+002	-1.111821e+001	1.717553e+002	-3.810696e+000	1.630914e+002
7110086700	-6.245710e+000	1.296109e+002	-1.114860e+001	1.711541e+002	-1.112206e+001	1.713575e+002	-3.809351e+000	1.631170e+002
7120086400	-6.270188e+000	1.297845e+002	-1.114486e+001	1.707297e+002	-1.113037e+001	1.709276e+002	-3.810602e+000	1.631324e+002
7130086100	-6.275185e+000	1.300488e+002	-1.114815e+001	1.702676e+002	-1.112579e+001	1.705262e+002	-3.803410e+000	1.631719e+002
7140085800	-6.268740e+000	1.303143e+002	-1.115503e+001	1.698047e+002	-1.114216e+001	1.700574e+002	-3.801515e+000	1.632077e+002
7150085500	-6.251894e+000	1.304827e+002	-1.117464e+001	1.693217e+002	-1.114320e+001	1.696429e+002	-3.800539e+000	1.632827e+002
7160085200	-6.244331e+000	1.307140e+002	-1.120258e+001	1.689471e+002	-1.115637e+001	1.691887e+002	-3.791935e+000	1.633768e+002
7170084900	-6.229922e+000	1.307388e+002	-1.120486e+001	1.684750e+002	-1.116239e+001	1.687795e+002	-3.793943e+000	1.634630e+002
7180084600	-6.223230e+000	1.308443e+002	-1.123068e+001	1.679758e+002	-1.119938e+001	1.683114e+002	-3.790974e+000	1.634865e+002
7190084300	-6.214244e+000	1.308720e+002	-1.125859e+001	1.675616e+002	-1.122761e+001	1.678018e+002	-3.782008e+000	1.634968e+002
7200084000	-6.209201e+000	1.309112e+002	-1.128328e+001	1.671285e+002	-1.124695e+001	1.674040e+002	-3.769357e+000	1.635811e+002
7210083700	-6.194270e+000	1.308280e+002	-1.130591e+001	1.667080e+002	-1.128871e+001	1.668938e+002	-3.754542e+000	1.636406e+002
7220083400	-6.189573e+000	1.307373e+002	-1.133393e+001	1.663908e+002	-1.131934e+001	1.665318e+002	-3.751015e+000	1.636860e+002
7230083100	-6.188897e+000	1.305940e+002	-1.136402e+001	1.660942e+002	-1.133740e+001	1.662548e+002	-3.741164e+000	1.637665e+002
7240082800	-6.211422e+000	1.305516e+002	-1.137848e+001	1.658527e+002	-1.136434e+001	1.659105e+002	-3.737668e+000	1.638152e+002
7250082500	-6.229053e+000	1.305525e+002	-1.138847e+001	1.655983e+002	-1.137545e+001	1.656793e+002	-3.733903e+000	1.638380e+002
7260082200	-6.256402e+000	1.304981e+002	-1.141629e+001	1.651682e+002	-1.139666e+001	1.653496e+002	-3.733664e+000	1.638720e+002
7270081900	-6.284258e+000	1.305215e+002	-1.143279e+001	1.648055e+002	-1.141464e+001	1.649959e+002	-3.729435e+000	1.639206e+002
7280081600	-6.320770e+000	1.306548e+002	-1.146087e+001	1.645565e+002	-1.142931e+001	1.647693e+002	-3.729085e+000	1.639986e+002
7290081300	-6.349696e+000	1.308852e+002	-1.145618e+001	1.642616e+002	-1.143991e+001	1.645093e+002	-3.729837e+000	1.640762e+002
7300081000	-6.380692e+000	1.312170e+002	-1.146050e+001	1.639807e+002	-1.143793e+001	1.642506e+002	-3.719325e+000	1.641665e+002
7310080700	-6.379222e+000	1.315486e+002	-1.145595e+001	1.636690e+002	-1.144312e+001	1.638652e+002	-3.719488e+000	1.642175e+002
7320080400	-6.371253e+000	1.318419e+002	-1.146703e+001	1.632769e+002	-1.141223e+001	1.635340e+002	-3.709975e+000	1.644011e+002
7330080100	-6.360939e+000	1.321393e+002	-1.146151e+001	1.628367e+002	-1.141523e+001	1.632211e+002	-3.708851e+000	1.644686e+002
7340079800	-6.354893e+000	1.322529e+002	-1.147382e+001	1.624204e+002	-1.144023e+001	1.627204e+002	-3.707604e+000	1.645464e+002
7350079500	-6.335568e+000	1.324560e+002	-1.147187e+001	1.619242e+002	-1.144311e+001	1.622506e+002	-3.707308e+000	1.645992e+002
7360079200	-6.326013e+000	1.324822e+002	-1.148522e+001	1.614990e+002	-1.144945e+001	1.617530e+002	-3.688174e+000	1.646276e+002
7370078900	-6.317988e+000	1.324965e+002	-1.150087e+001	1.610351e+002	-1.146663e+001	1.611716e+002	-3.667222e+000	1.646296e+002
7380078600	-6.316055e+000	1.324945e+002	-1.152661e+001	1.605583e+002	-1.148447e+001	1.606856e+002	-3.656782e+000	1.646372e+002
7390078300	-6.309937e+000	1.325327e+002	-1.153900e+001	1.600668e+002	-1.151572e+001	1.602585e+002	-3.654768e+000	1.647122e+002
7400078000	-6.315159e+000	1.325631e+002	-1.155272e+001	1.596764e+002	-1.153507e+001	1.598398e+002	-3.653702e+000	1.647216e+002
7410077700	-6.306066e+000	1.325578e+002	-1.157701e+001	1.592421e+002	-1.156030e+001	1.594466e+002	-3.653271e+000	1.648151e+002
7420077400	-6.296707e+000	1.325680e+002	-1.160078e+001	1.588215e+002	-1.157682e+001	1.589819e+002	-3.650407e+000	1.648995e+002
7430077100	-6.289093e+000	1.326128e+002	-1.163114e+001	1.584449e+002	-1.160600e+001	1.586496e+002	-3.645473e+000	1.649492e+002
7440076800	-6.280314e+000	1.325422e+002	-1.164325e+001	1.579843e+002	-1.162748e+001	1.582968e+002	-3.640796e+000	1.650262e+002
7450076500	-6.288664e+000	1.325420e+002	-1.168241e+001	1.576992e+002	-1.165788e+001	1.579339e+002	-3.630608e+000	1.651004e+002
7460076200	-6.304647e+000	1.325004e+002	-1.171499e+001	1.572989e+002	-1.168511e+001	1.575892e+002	-3.627757e+000	1.651761e+002
7470075900	-6.319911e+000	1.325759e+002	-1.173910e+001	1.570280e+002	-1.170187e+001	1.572196e+002	-3.623706e+000	1.652738e+002
7480075600	-6.343952e+000	1.326841e+002	-1.175796e+001	1.566531e+002	-1.172866e+001	1.570276e+002	-3.613805e+000	1.653869e+002
7490075300	-6.364326e+000	1.328556e+002	-1.180385e+001	1.563467e+002	-1.174158e+001	1.566492e+002	-3.615368e+000	1.654998e+002
7500075000	-6.379562e+000	1.330689e+002	-1.180440e+001	1.560390e+002	-1.175750e+001	1.563039e+002	-3.613330e+000	1.655922e+002
7510074700	-6.386925e+000	1.332200e+002	-1.181132e+001	1.556476e+002	-1.177445e+001	1.559632e+002	-3.607630e+000	1.656522e+002
7520074400	-6.396285e+000	1.332905e+002	-1.182292e+001	1.553024e+002	-1.179185e+001	1.555768e+002	-3.596642e+000	1.656024e+002
7530074100	-6.405185e+000	1.333887e+002	-1.184476e+001	1.549259e+002	-1.180658e+001	1.551081e+002	-3.573022e+000	1.656097e+002
7540073800	-6.416111e+000	1.334637e+002	-1.185458e+001	1.545595e+002	-1.181202e+001	1.547378e+002	-3.561329e+000	1.656248e+002
7550073500	-6.429272e+000	1.334571e+002	-1.187151e+001	1.541606e+002	-1.183054e+001	1.543751e+002	-3.564896e+000	1.656884e+002
7560073200	-6.447178e+000	1.334929e+002	-1.187309e+001	1.538353e+002	-1.184952e+001	1.540410e+002	-3.565707e+000	1.657723e+002
7570072900	-6.469692e+000	1.336493e+002	-1.189062e+001	1.535203e+002	-1.187281e+001	1.536527e+002	-3.555706e+000	1.659173e+002
7580072600	-6.485144e+000	1.338636e+002	-1.190836e+001	1.531289e+002	-1.187313e+001	1.533576e+002	-3.555777e+000	1.659500e+002
7590072300	-6.493377e+000	1.341105e+002	-1.192583e+001	1.526808e+002	-1.189199e+001	1.528834e+002	-3.551308e+000	1.660351e+002
7600072000	-6.478240e+000	1.343494e+002	-1.193580e+001	1.522720e+002	-1.190003e+001	1.525417e+002	-3.547089e+000	1.661235e+002
7610071700	-6.460020e+000	1.344969e+002	-1.196399e+001	1.518822e+002	-1.191693e+001	1.520573e+002	-3.537604e+000	1.662264e+002
7620071400	-6.433949e+000	1.346197e+002	-1.198145e+001	1.514973e+002	-1.194173e+001	1.516707e+002	-3.527783e+000	1.663167e+002
7630071100	-6.418566e+000	1.347721e+002	-1.199794e+001	1.510853e+002	-1.195325e+001	1.513179e+002	-3.519673e+000	1.664122e+002
7640070800	-6.401801e+000	1.348275e+002	-1.202528e+001	1.506880e+002	-1.197357e+001	1.509738e+002	-3.507051e+000	1.665479e+002
7650070500	-6.390573e+000	1.348545e+002	-1.205349e+001	1.501780e+002	-1.201392e+001	1.506094e+002	-3.505495e+000	1.666821e+002
7660070200	-6.387037e+000	1.349183e+002	-1.207860e+001	1.498682e+002	-1.202357e+001	1.502079e+002	-3.497376e+000	1.667573e+002
7670069900	-6.383306e+000	1.349602e+002	-1.210336e+001	1.494676e+002	-1.205354e+001	1.496837e+002	-3.498638e+000	1.667611e+002
7680069600	-6.368827e+000	1.348662e+002	-1.212739e+001	1.491190e+002	-1.207448e+001	1.493415e+002	-3.482279e+000	1.667924e+002
7690069300	-6.373098e+000	1.347675e+002	-1.215292e+001	1.487790e+002	-1.211644e+001	1.488449e+002	-3.463414e+000	1.667877e+002
7700069000	-6.391819e+000	1.346364e+002	-1.219986e+001	1.483912e+002	-1.213486e+001	1.484728e+002	-3.453823e+000	1.667877e+002
7710068700	-6.418634e+000	1.344456e+002	-1.223687e+001	1.480779e+002	-1.218625e+001	1.481988e+002	-3.457513e+000	1.668586e+002
7720068400	-6.452941e+000	1.341873e+002	-1.226721e+001	1.478596e+002	-1.222164e+001	1.479349e+002	-3.451034e+000	1.669720e+002
7730068100	-6.515010e+000	1.340264e+002	-1.229030e+001	1.476745e+002	-1.225711e+001	1.478115e+002	-3.453337e+000	1.670539e+002
7740067800	-6.589750e+000	1.340686e+002	-1.231166e+001	1.475735e+002	-1.227837e+001	1.476812e+002	-3.444417e+000	1.671483e+002
7750067500	-6.663873e+000	1.342953e+002	-1.230182e+001	1.473346e+002	-1.227177e+001	1.474942e+002	-3.443987e+000	1.671038e+002
7760067200	-6.714224e+000	1.347018e+002	-1.229547e+001	1.471049e+002	-1.224898e+001	1.473018e+002	-3.437898e+000	1.671787e+002
7770066900	-6.719621e+000	1.351594e+002	-1.227054e+001	1.467519e+002	-1.222508e+001	1.469453e+002	-3.433180e+000	1.672377e+002
7780066600	-6.716722e+000	1.356275e+002	-1.226882e+001	1.463922e+002	-1.220887e+001	1.465139e+002	-3.431924e+000	1.672866e+002
7790066300	-6.698997e+000	1.359817e+002	-1.225675e+001	1.459422e+002	-1.221093e+001	1.461113e+002	-3.429405e+000	1.673468e+002
7800066000	-6.686942e+000	1.363469e+002	-1.226145e+001	1.454704e+002	-1.221599e+001	1.457481e+002	-3.418566e+000	1.674899e+002
7810065700	-6.654544e+000	1.366917e+002	-1.224433e+001	1.450354e+002	-1.221266e+001	1.452576e+002	-3.419102e+000	1.675766e+002
7820065400	-6.623935e+000	1.369557e+002	-1.225686e+001	1.444596e+002	-1.222225e+001	1.446113e+002	-3.428347e+000	1.676580e+002
7830065100	-6.586796e+000	1.371305e+002	-1.227146e+001	1.439316e+002	-1.223428e+001	1.440699e+002	-3.425513e+000	1.677213e+002
7840064800	-6.560273e+000	1.371883e+002	-1.230111e+001	1.433247e+002	-1.225979e+001	1.434700e+002	-3.407459e+000	1.677696e+002
7850064500	-6.543210e+000	1.371447e+002	-1.233496e+001	1.428930e+002	-1.227048e+001	1.430311e+002	-3.395239e+000	1.677425e+002
7860064200	-6.543727e+000	1.370581e+002	-1.236380e+001	1.423726e+002	-1.230130e+001	1.424979e+002	-3.391192e+000	1.679123e+002
7870063900	-6.543733e+000	1.369714e+002	-1.238058e+001	1.419849e+002	-1.232157e+001	1.420996e+002	-3.385120e+000	1.680426e+002
7880063600	-6.566136e+000	1.368838e+002	-1.241042e+001	1.416223e+002	-1.236162e+001	1.417198e+002	-3.378291e+000	1.681533e+002
7890063300	-6.579185e+000	1.368656e+002	-1.242009e+001	1.412838e+002	-1.238297e+001	1.414140e+002	-3.374519e+000	1.682754e+002
7900063000	-6.591610e+000	1.368733e+002	-1.242711e+001	1.409537e+002	-1.237850e+001	1.409708e+002	-3.379647e+000	1.683143e+002
7910062700	-6.596787e+000	1.368704e+002	-1.241598e+001	1.403998e+002	-1.237894e+001	1.405528e+002	-3.382800e+000	1.683937e+002
7920062400	-6.591549e+000	1.369419e+002	-1.242911e+001	1.398134e+002	-1.237198e+001	1.398330e+002	-3.386576e+000	1.684365e+002
7930062100	-6.581434e+000	1.369163e+002	-1.244575e+001	1.390518e+002	-1.237775e+001	1.391238e+002	-3.387807e+000	1.685392e+002
7940061800	-6.581675e+000	1.368876e+002	-1.248258e+001	1.383131e+002	-1.241490e+001	1.384627e+002	-3.388687e+000	1.686086e+002
7950061500	-6.580724e+000	1.368155e+002	-1.253113e+001	1.376327e+002	-1.247258e+001	1.377814e+002	-3.388974e+000	1.687532e+002
7960061200	-6.585339e+000	1.367745e+002	-1.260536e+001	1.370601e+002	-1.256064e+001	1.372922e+002	-3.377603e+000	1.689318e+002
7970060900	-6.599531e+000	1.368115e+002	-1.268744e+001	1.366599e+002	-1.264676e+001	1.369213e+002	-3.370531e+000	1.691019e+002
7980060600	-6.624345e+000	1.369934e+002	-1.273990e+001	1.364098e+002	-1.270951e+001	1.366062e+002	-3.369272e+000	1.692587e+002
7990060300	-6.643394e+000	1.372972e+002	-1.277660e+001	1.360640e+002	-1.273599e+001	1.362581e+002	-3.364770e+000	1.693299e+002
8000060000	-6.623683e+000	1.376165e+002	-1.280816e+001	1.357087e+002	-1.275924e+001	1.358442e+002	-3.341551e+000	1.693904e+002
8010059700	-6.604031e+000	1.377830e+002	-1.283787e+001	1.352489e+002	-1.277320e+001	1.353607e+002	-3.318427e+000	1.693810e+002
8020059400	-6.579035e+000	1.378269e+002	-1.288352e+001	1.347585e+002	-1.282701e+001	1.347941e+002	-3.303610e+000	1.694988e+002
8030059100	-6.562069e+000	1.377704e+002	-1.293707e+001	1.341683e+002	-1.286608e+001	1.342538e+002	-3.290342e+000	1.696293e+002
8040058800	-6.554013e+000	1.375938e+002	-1.299131e+001	1.336099e+002	-1.293373e+001	1.337307e+002	-3.288749e+000	1.697785e+002
8050058500	-6.552961e+000	1.373783e+002	-1.306996e+001	1.330736e+002	-1.299918e+001	1.331187e+002	-3.280853e+000	1.698887e+002
8060058200	-6.561862e+000	1.371040e+002	-1.312237e+001	1.326268e+002	-1.307253e+001	1.326595e+002	-3.277239e+000	1.700346e+002
8070057900	-6.571566e+000	1.367813e+002	-1.321156e+001	1.321386e+002	-1.316429e+001	1.322163e+002	-3.276607e+000	1.701617e+002
8080057600	-6.596001e+000	1.364755e+002	-1.330172e+001	1.316604e+002	-1.325141e+001	1.317746e+002	-3.270047e+000	1.702716e+002
8090057300	-6.619245e+000	1.361724e+002	-1.340528e+001	1.313822e+002	-1.333604e+001	1.314633e+002	-3.258252e+000	1.704029e+002
8100057000	-6.647601e+000	1.358212e+002	-1.350446e+001	1.312528e+002	-1.344563e+001	1.313398e+002	-3.243187e+000	1.705162e+002
8110056700	-6.690560e+000	1.355282e+002	-1.360790e+001	1.311758e+002	-1.354458e+001	1.312154e+002	-3.230063e+000	1.706304e+002
8120056400	-6.732621e+000	1.352425e+002	-1.370229e+001	1.310168e+002	-1.360975e+001	1.312404e+002	-3.203325e+000	1.707451e+002
8130056100	-6.793017e+000	1.349876e+002	-1.378687e+001	1.310906e+002	-1.373425e+001	1.312588e+002	-3.186705e+000	1.708855e+002
8140055800	-6.876390e+000	1.348165e+002	-1.387470e+001	1.311809e+002	-1.382620e+001	1.313081e+002	-3.161509e+000	1.710428e+002
8150055500	-6.969722e+000	1.349256e+002	-1.394713e+001	1.312435e+002	-1.390297e+001	1.313685e+002	-3.147493e+000	1.710914e+002
8160055200	-7.038588e+000	1.351304e+002	-1.399964e+001	1.316596e+002	-1.394207e+001	1.316589e+002	-3.123479e+000	1.711567e+002
8170054900	-7.090500e+000	1.353214e+002	-1.401551e+001	1.317166e+002	-1.395309e+001	1.319349e+002	-3.083186e+000	1.710947e+002
8180054600	-7.153609e+000	1.352232e+002	-1.403411e+001	1.317443e+002	-1.396561e+001	1.317722e+002	-3.057462e+000	1.709525e+002
8190054300	-7.257207e+000	1.350943e+002	-1.409824e+001	1.317168e+002	-1.401654e+001	1.317143e+002	-3.039001e+000	1.710741e+002
8200054000	-7.418214e+000	1.351015e+002	-1.415198e+001	1.318101e+002	-1.407262e+001	1.318861e+002	-3.024048e+000	1.711678e+002
8210053700	-7.584773e+000	1.356801e+002	-1.418630e+001	1.323549e+002	-1.411972e+001	1.324120e+002	-3.015030e+000	1.712661e+002
8220053400	-7.708221e+000	1.365128e+002	-1.415406e+001	1.327346e+002	-1.409397e+001	1.326622e+002	-3.005873e+000	1.713312e+002
8230053100	-7.777976e+000	1.374754e+002	-1.409255e+001	1.326888e+002	-1.403209e+001	1.328249e+002	-2.989909e+000	1.713504e+002
8240052800	-7.794006e+000	1.382975e+002	-1.405689e+001	1.324893e+002	-1.398535e+001	1.324681e+002	-2.992172e+000	1.713467e+002
8250052500	-7.781339e+000	1.388088e+002	-1.406447e+001	1.321600e+002	-1.399150e+001	1.322227e+002	-2.987776e+000	1.714207e+002
8260052200	-7.768915e+000	1.392385e+002	-1.409100e+001	1.317673e+002	-1.401014e+001	1.317748e+002	-2.977563e+000	1.714732e+002
8270051900	-7.747885e+000	1.394583e+002	-1.412682e+001	1.314554e+002	-1.406058e+001	1.316465e+002	-2.968434e+000	1.715164e+002
8280051600	-7.754681e+000	1.396665e+002	-1.418610e+001	1.314436e+002	-1.413072e+001	1.316628e+002	-2.954156e+000	1.715887e+002
8290051300	-7.783070e+000	1.397683e+002	-1.425961e+001	1.316274e+002	-1.419010e+001	1.319135e+002	-2.935202e+000	1.716787e+002
8300051000	-7.824504e+000	1.400245e+002	-1.427683e+001	1.320927e+002	-1.423737e+001	1.322045e+002	-2.903938e+000	1.717530e+002
8310050700	-7.866112e+000	1.405496e+002	-1.426908e+001	1.323949e+002	-1.423761e+001	1.325191e+002	-2.881073e+000	1.717592e+002
8320050400	-7.885730e+000	1.411191e+002	-1.423968e+001	1.326372e+002	-1.417593e+001	1.328041e+002	-2.859553e+000	1.717337e+002
8330050100	-7.900213e+000	1.416250e+002	-1.417558e+001	1.328197e+002	-1.410510e+001	1.328958e+002	-2.834568e+000	1.716191e+002
8340049800	-7.928382e+000	1.421759e+002	-1.412816e+001	1.327697e+002	-1.405456e+001	1.329237e+002	-2.796271e+000	1.714970e+002
8350049500	-7.959216e+000	1.428374e+002	-1.406753e+001	1.325906e+002	-1.398058e+001	1.326989e+002	-2.773565e+000	1.714571e+002
8360049200	-7.963360e+000	1.436747e+002	-1.399792e+001	1.324727e+002	-1.391449e+001	1.324451e+002	-2.760086e+000	1.714846e+002
8370048900	-7.943003e+000	1.443335e+002	-1.394156e+001	1.321140e+002	-1.385879e+001	1.321829e+002	-2.746564e+000	1.714755e+002
8380048600	-7.896933e+000	1.450036e+002	-1.389928e+001	1.317473e+002	-1.381989e+001	1.316702e+002	-2.750036e+000	1.714394e+002
8390048300	-7.848360e+000	1.453143e+002	-1.387703e+001	1.313277e+002	-1.380180e+001	1.313855e+002	-2.761381e+000	1.714992e+002
8400048000	-7.792606e+000	1.454358e+002	-1.385099e+001	1.308906e+002	-1.379788e+001	1.309410e+002	-2.753210e+000	1.715395e+002
8410047700	-7.745374e+000	1.454209e+002	-1.384280e+001	1.305381e+002	-1.379565e+001	1.305095e+002	-2.761080e+000	1.715307e+002
8420047400	-7.727617e+000	1.452637e+002	-1.384526e+001	1.301514e+002	-1.377968e+001	1.301353e+002	-2.758388e+000	1.715071e+002
8430047100	-7.735463e+000	1.450160e+002	-1.385430e+001	1.297867e+002	-1.378148e+001	1.298376e+002	-2.760046e+000	1.714939e+002
8440046800	-7.778387e+000	1.449018e+002	-1.388234e+001	1.294346e+002	-1.379004e+001	1.294865e+002	-2.756294e+000	1.714929e+002
8450046500	-7.846580e+000	1.450730e+002	-1.390863e+001	1.291697e+002	-1.380992e+001	1.293187e+002	-2.751297e+000	1.714602e+002
8460046200	-7.892921e+000	1.456181e+002	-1.391041e+001	1.290847e+002	-1.384971e+001	1.292338e+002	-2.741187e+000	1.714397e+002
8470045900	-7.873801e+000	1.462738e+002	-1.389041e+001	1.288884e+002	-1.385344e+001	1.289882e+002	-2.733674e+000	1.713851e+002
8480045600	-7.820501e+000	1.467142e+002	-1.386467e+001	1.287491e+002	-1.382747e+001	1.286516e+002	-2.717832e+000	1.713744e+002
8490045300	-7.778091e+000	1.469606e+002	-1.386191e+001	1.284258e+002	-1.381074e+001	1.284360e+002	-2.708492e+000	1.713143e+002
8500045000	-7.765033e+000	1.472248e+002	-1.391411e+001	1.282553e+002	-1.377710e+001	1.280749e+002	-2.680025e+000	1.711524e+002
8510044700	-7.773317e+000	1.473420e+002	-1.395810e+001	1.280386e+002	-1.374319e+001	1.281635e+002	-2.670084e+000	1.710664e+002
8520044400	-7.790622e+000	1.475438e+002	-1.396079e+001	1.280182e+002	-1.376770e+001	1.276422e+002	-2.639887e+000	1.711343e+002
8530044100	-7.866081e+000	1.477783e+002	-1.392262e+001	1.277922e+002	-1.375532e+001	1.271505e+002	-2.624559e+000	1.711898e+002
8540043800	-7.916772e+000	1.482221e+002	-1.385743e+001	1.274251e+002	-1.368836e+001	1.273222e+002	-2.618133e+000	1.712062e+002
8550043500	-7.948158e+000	1.487262e+002	-1.384764e+001	1.272221e+002	-1.365550e+001	1.272281e+002	-2.627835e+000	1.713196e+002
8560043200	-7.961846e+000	1.494028e+002	-1.379334e+001	1.270830e+002	-1.364035e+001	1.266217e+002	-2.627798e+000	1.713897e+002
8570042900	-7.975593e+000	1.497515e+002	-1.375356e+001	1.267996e+002	-1.359472e+001	1.263782e+002	-2.634836e+000	1.713711e+002
8580042600	-7.987328e+000	1.503764e+002	-1.372845e+001	1.264867e+002	-1.356270e+001	1.261042e+002	-2.626630e+000	1.714739e+002
8590042300	-7.954313e+000	1.506490e+002	-1.370894e+001	1.256904e+002	-1.355753e+001	1.261244e+002	-2.663129e+000	1.716576e+002
8600042000	-7.914135e+000	1.509430e+002	-1.367592e+001	1.254460e+002	-1.348002e+001	1.255522e+002	-2.663879e+000	1.715607e+002
8610041700	-7.902422e+000	1.513830e+002	-1.368945e+001	1.251972e+002	-1.350052e+001	1.252004e+002	-2.659168e+000	1.715858e+002
8620041400	-7.864959e+000	1.517624e+002	-1.364190e+001	1.248863e+002	-1.354156e+001	1.246353e+002	-2.675488e+000	1.716181e+002
8630041100	-7.815140e+000	1.520606e+002	-1.360652e+001	1.243784e+002	-1.354482e+001	1.242506e+002	-2.674159e+000	1.716691e+002
8640040800	-7.782801e+000	1.523942e+002	-1.363562e+001	1.240193e+002	-1.347018e+001	1.236682e+002	-2.674715e+000	1.715053e+002
8650040500	-7.720099e+000	1.527072e+002	-1.359248e+001	1.237471e+002	-1.347328e+001	1.232684e+002	-2.654638e+000	1.713771e+002
8660040200	-7.659530e+000	1.532175e+002	-1.356783e+001	1.230449e+002	-1.342806e+001	1.226386e+002	-2.634357e+000	1.713161e+002
8670039900	-7.607546e+000	1.536301e+002	-1.355546e+001	1.224999e+002	-1.339370e+001	1.223726e+002	-2.621496e+000	1.711791e+002
8680039600	-7.538370e+000	1.539778e+002	-1.353564e+001	1.220923e+002	-1.337497e+001	1.217933e+002	-2.609864e+000	1.711659e+002
8690039300	-7.492856e+000	1.543368e+002	-1.353123e+001	1.216970e+002	-1.335711e+001	1.212062e+002	-2.596098e+000	1.712939e+002
8700039000	-7.457945e+000	1.546651e+002	-1.353878e+001	1.210647e+002	-1.337621e+001	1.211490e+002	-2.612750e+000	1.712225e+002
8710038700	-7.408209e+000	1.548028e+002	-1.348983e+001	1.206318e+002	-1.336007e+001	1.202741e+002	-2.601580e+000	1.713622e+002
8720038400	-7.360248e+000	1.549385e+002	-1.353978e+001	1.201956e+002	-1.334298e+001	1.198889e+002	-2.603781e+000	1.714680e+002
8730038100	-7.324552e+000	1.551620e+002	-1.348846e+001	1.196672e+002	-1.334966e+001	1.195544e+002	-2.605871e+000	1.715967e+002
8740037800	-7.296898e+000	1.551760e+002	-1.348440e+001	1.191055e+002	-1.335318e+001	1.192861e+002	-2.629596e+000	1.717165e+002
8750037500	-7.273213e+000	1.552392e+002	-1.347791e+001	1.188658e+002	-1.335850e+001	1.188179e+002	-2.636045e+000	1.717874e+002
8760037200	-7.230465e+000	1.551749e+002	-1.345935e+001	1.184823e+002	-1.331515e+001	1.184862e+002	-2.649165e+000	1.718935e+002
8770036900	-7.191766e+000	1.553594e+002	-1.351084e+001	1.181484e+002	-1.335509e+001	1.181630e+002	-2.658558e+000	1.719343e+002
8780036600	-7.136980e+000	1.555408e+002	-1.351086e+001	1.175520e+002	-1.335490e+001	1.174719e+002	-2.657814e+000	1.719429e+002
8790036300	-7.099557e+000	1.553713e+002	-1.352773e+001	1.169915e+002	-1.340321e+001	1.167102e+002	-2.664782e+000	1.717938e+002
8800036000	-7.058073e+000	1.553568e+002	-1.348463e+001	1.164385e+002	-1.338107e+001	1.161319e+002	-2.651200e+000	1.718113e+002
8810035700	-7.013791e+000	1.554406e+002	-1.350289e+001	1.159240e+002	-1.337643e+001	1.156810e+002	-2.644439e+000	1.716232e+002
8820035400	-6.935024e+000	1.554783e+002	-1.350532e+001	1.154451e+002	-1.338357e+001	1.151411e+002	-2.624984e+000	1.716220e+002
8830035100	-6.906522e+000	1.556023e+002	-1.353306e+001	1.151632e+002	-1.334946e+001	1.146297e+002	-2.617747e+000	1.714809e+002
8840034800	-6.842398e+000	1.555122e+002	-1.353312e+001	1.145792e+002	-1.336459e+001	1.142803e+002	-2.587478e+000	1.715624e+002
8850034500	-6.807958e+000	1.555170e+002	-1.351236e+001	1.142242e+002	-1.339211e+001	1.139701e+002	-2.600265e+000	1.714481e+002
8860034200	-6.773454e+000	1.555491e+002	-1.352916e+001	1.133485e+002	-1.336047e+001	1.134747e+002	-2.587392e+000	1.715349e+002
8870033900	-6.738646e+000	1.554551e+002	-1.352562e+001	1.132570e+002	-1.333208e+001	1.130799e+002	-2.597962e+000	1.715735e+002
8880033600	-6.711155e+000	1.554222e+002	-1.352221e+001	1.126774e+002	-1.334491e+001	1.126026e+002	-2.578877e+000	1.717770e+002
8890033300	-6.685145e+000	1.555588e+002	-1.354887e+001	1.120924e+002	-1.338414e+001	1.120089e+002	-2.590716e+000	1.717792e+002
8900033000	-6.663655e+000	1.554151e+002	-1.352672e+001	1.118805e+002	-1.340263e+001	1.115451e+002	-2.608991e+000	1.719316e+002
8910032700	-6.634973e+000	1.553336e+002	-1.351981e+001	1.111437e+002	-1.339186e+001	1.111873e+002	-2.614565e+000	1.719936e+002
8920032400	-6.623842e+000	1.552668e+002	-1.355423e+001	1.109385e+002	-1.335075e+001	1.107140e+002	-2.633838e+000	1.721680e+002
8930032100	-6.604069e+000	1.551383e+002	-1.353480e+001	1.103727e+002	-1.341873e+001	1.101198e+002	-2.646677e+000	1.722727e+002
8940031800	-6.568431e+000	1.550682e+002	-1.361213e+001	1.098424e+002	-1.345515e+001	1.093650e+002	-2.651408e+000	1.723373e+002
8950031500	-6.548081e+000	1.548114e+002	-1.361489e+001	1.092539e+002	-1.344943e+001	1.090250e+002	-2.678697e+000	1.722334e+002
8960031200	-6.504310e+000	1.546873e+002	-1.364326e+001	1.087744e+002	-1.348989e+001	1.083047e+002	-2.678203e+000	1.722989e+002
8970030900	-6.480168e+000	1.544817e+002	-1.360900e+001	1.082157e+002	-1.344142e+001	1.081667e+002	-2.675467e+000	1.721761e+002
8980030600	-6.445864e+000	1.543770e+002	-1.360608e+001	1.080928e+002	-1.341477e+001	1.073006e+002	-2.652311e+000	1.721018e+002
8990030300	-6.430725e+000	1.542365e+002	-1.365279e+001	1.074811e+002	-1.348970e+001	1.067800e+002	-2.649620e+000	1.719585e+002
9000030000	-6.390152e+000	1.542456e+002	-1.366420e+001	1.067190e+002	-1.347884e+001	1.069534e+002	-2.638307e+000	1.720210e+002
9010029700	-6.390696e+000	1.541315e+002	-1.367604e+001	1.063709e+002	-1.349232e+001	1.060943e+002	-2.642740e+000	1.717564e+002
9020029400	-6.338553e+000	1.540594e+002	-1.366012e+001	1.057606e+002	-1.350536e+001	1.056638e+002	-2.643769e+000	1.717575e+002
9030029100	-6.330717e+000	1.539124e+002	-1.364557e+001	1.051674e+002	-1.353939e+001	1.051361e+002	-2.634238e+000	1.718645e+002
9040028800	-6.320605e+000	1.537730e+002	-1.371869e+001	1.049595e+002	-1.349407e+001	1.044967e+002	-2.623173e+000	1.719250e+002
9050028500	-6.312343e+000	1.536831e+002	-1.371049e+001	1.042827e+002	-1.357480e+001	1.045908e+002	-2.617586e+000	1.719584e+002
9060028200	-6.319772e+000	1.536128e+002	-1.377156e+001	1.035995e+002	-1.353548e+001	1.037283e+002	-2.615752e+000	1.720358e+002
9070027900	-6.312639e+000	1.535491e+002	-1.375823e+001	1.030801e+002	-1.360136e+001	1.029064e+002	-2.643489e+000	1.721515e+002
9080027600	-6.331813e+000	1.532341e+002	-1.380616e+001	1.026120e+002	-1.361056e+001	1.027481e+002	-2.650272e+000	1.722664e+002
9090027300	-6.335008e+000	1.531630e+002	-1.380945e+001	1.022494e+002	-1.364788e+001	1.020390e+002	-2.677631e+000	1.724300e+002
9100027000	-6.311209e+000	1.530184e+002	-1.382873e+001	1.013672e+002	-1.370165e+001	1.012838e+002	-2.700368e+000	1.724527e+002
9110026700	-6.326438e+000	1.527366e+002	-1.384176e+001	1.011147e+002	-1.371691e+001	1.004974e+002	-2.710527e+000	1.725778e+002
9120026400	-6.298965e+000	1.526231e+002	-1.390208e+001	1.006558e+002	-1.375806e+001	9.988745e+001	-2.716484e+000	1.725270e+002
9130026100	-6.298564e+000	1.523218e+002	-1.393069e+001	1.000226e+002	-1.380772e+001	9.959999e+001	-2.720304e+000	1.726049e+002
9140025800	-6.328637e+000	1.521138e+002	-1.397590e+001	9.966682e+001	-1.378524e+001	9.899288e+001	-2.727822e+000	1.724623e+002
9150025500	-6.307202e+000	1.520290e+002	-1.404258e+001	9.914886e+001	-1.385564e+001	9.852730e+001	-2.729557e+000	1.723927e+002
9160025200	-6.297206e+000	1.519422e+002	-1.404974e+001	9.854881e+001	-1.387900e+001	9.801683e+001	-2.724352e+000	1.723442e+002
9170024900	-6.289024e+000	1.519414e+002	-1.413683e+001	9.805345e+001	-1.390663e+001	9.759921e+001	-2.719013e+000	1.721881e+002
9180024600	-6.308380e+000	1.519357e+002	-1.416532e+001	9.727639e+001	-1.394950e+001	9.714807e+001	-2.714539e+000	1.721889e+002
9190024300	-6.260976e+000	1.517825e+002	-1.421908e+001	9.692046e+001	-1.396767e+001	9.675817e+001	-2.699230e+000	1.720913e+002
9200024000	-6.295874e+000	1.518348e+002	-1.426122e+001	9.658956e+001	-1.405332e+001	9.660986e+001	-2.710652e+000	1.722370e+002
9210023700	-6.294380e+000	1.520090e+002	-1.434067e+001	9.640341e+001	-1.412619e+001	9.622428e+001	-2.715853e+000	1.722585e+002
9220023400	-6.286782e+000	1.517975e+002	-1.433675e+001	9.575563e+001	-1.416427e+001	9.581656e+001	-2.727777e+000	1.724188e+002
9230023100	-6.294810e+000	1.519712e+002	-1.438142e+001	9.538621e+001	-1.425834e+001	9.536421e+001	-2.711048e+000	1.726344e+002
9240022800	-6.298797e+000	1.519634e+002	-1.446707e+001	9.488715e+001	-1.429681e+001	9.468182e+001	-2.731529e+000	1.727428e+002
9250022500	-6.312218e+000	1.519715e+002	-1.453817e+001	9.452914e+001	-1.434600e+001	9.422145e+001	-2.710180e+000	1.729922e+002
9260022200	-6.287656e+000	1.518983e+002	-1.460013e+001	9.430123e+001	-1.447177e+001	9.361534e+001	-2.736303e+000	1.730105e+002
9270021900	-6.282594e+000	1.518407e+002	-1.468680e+001	9.399902e+001	-1.448043e+001	9.347135e+001	-2.740487e+000	1.732358e+002
9280021600	-6.289662e+000	1.517012e+002	-1.472531e+001	9.388119e+001	-1.458874e+001	9.327290e+001	-2.730197e+000	1.735294e+002
9290021300	-6.260549e+000	1.517342e+002	-1.482311e+001	9.343659e+001	-1.461234e+001	9.356695e+001	-2.733530e+000	1.736442e+002
9300021000	-6.247540e+000	1.516336e+002	-1.483228e+001	9.359484e+001	-1.467554e+001	9.345286e+001	-2.725167e+000	1.736331e+002
9310020700	-6.187899e+000	1.515630e+002	-1.487231e+001	9.372783e+001	-1.469478e+001	9.312876e+001	-2.728142e+000	1.735621e+002
9320020400	-6.163326e+000	1.513559e+002	-1.494777e+001	9.343284e+001	-1.467893e+001	9.335247e+001	-2.763302e+000	1.736067e+002
9330020100	-6.117720e+000	1.513778e+002	-1.492116e+001	9.368772e+001	-1.472837e+001	9.334292e+001	-2.729907e+000	1.733426e+002
9340019800	-6.080481e+000	1.511975e+002	-1.492350e+001	9.355766e+001	-1.474509e+001	9.333148e+001	-2.723447e+000	1.732308e+002
9350019500	-6.050502e+000	1.509680e+002	-1.498687e+001	9.310857e+001	-1.475521e+001	9.311191e+001	-2.710202e+000	1.731886e+002
9360019200	-6.010921e+000	1.507594e+002	-1.495576e+001	9.310379e+001	-1.475074e+001	9.311905e+001	-2.721580e+000	1.731125e+002
9370018900	-5.975638e+000	1.506020e+002	-1.497380e+001	9.301483e+001	-1.479082e+001	9.294457e+001	-2.695823e+000	1.730775e+002
9380018600	-5.939188e+000	1.504949e+002	-1.500500e+001	9.258944e+001	-1.480094e+001	9.284350e+001	-2.699100e+000	1.731190e+002
9390018300	-5.922437e+000	1.502202e+002	-1.500039e+001	9.283939e+001	-1.478166e+001	9.261019e+001	-2.679764e+000	1.731068e+002
9400018000	-5.886732e+000	1.499368e+002	-1.496265e+001	9.220434e+001	-1.478548e+001	9.229786e+001	-2.683649e+000	1.732796e+002
9410017700	-5.901584e+000	1.496946e+002	-1.499559e+001	9.212780e+001	-1.478804e+001	9.213828e+001	-2.690367e+000	1.733202e+002
9420017400	-5.885917e+000	1.494309e+002	-1.498169e+001	9.205965e+001	-1.479174e+001	9.150543e+001	-2.684853e+000	1.733467e+002
9430017100	-5.860497e+000	1.489992e+002	-1.496889e+001	9.170467e+001	-1.482801e+001	9.149384e+001	-2.695328e+000	1.735107e+002
9440016800	-5.858241e+000	1.485446e+002	-1.495511e+001	9.128052e+001	-1.484949e+001	9.100515e+001	-2.680866e+000	1.738237e+002
9450016500	-5.840173e+000	1.483291e+002	-1.497061e+001	9.094862e+001	-1.481272e+001	9.067371e+001	-2.690680e+000	1.737744e+002
9460016200	-5.829488e+000	1.477911e+002	-1.499227e+001	9.049787e+001	-1.482950e+001	9.026517e+001	-2.694717e+000	1.739684e+002
9470015900	-5.825440e+000	1.474980e+002	-1.498665e+001	9.016276e+001	-1.481365e+001	9.018857e+001	-2.711458e+000	1.738649e+002
9480015600	-5.817835e+000	1.468516e+002	-1.497548e+001	9.010692e+001	-1.480022e+001	8.983285e+001	-2.719344e+000	1.739305e+002
9490015300	-5.801147e+000	1.464489e+002	-1.504765e+001	8.952867e+001	-1.482589e+001	8.956292e+001	-2.711187e+000	1.738032e+002
9500015000	-5.797657e+000	1.460757e+002	-1.501332e+001	8.920732e+001	-1.477268e+001	8.924496e+001	-2.744143e+000	1.736819e+002
9510014700	-5.798044e+000	1.456112e+002	-1.505236e+001	8.881263e+001	-1.486006e+001	8.884965e+001	-2.749987e+000	1.735607e+002
9520014400	-5.806654e+000	1.452388e+002	-1.503467e+001	8.856010e+001	-1.484714e+001	8.882493e+001	-2.751937e+000	1.733557e+002
9530014100	-5.791664e+000	1.447954e+002	-1.510463e+001	8.842614e+001	-1.488229e+001	8.846759e+001	-2.750930e+000	1.733762e+002
9540013800	-5.802370e+000	1.443115e+002	-1.507819e+001	8.787509e+001	-1.493350e+001	8.810674e+001	-2.727948e+000	1.733275e+002
9550013500	-5.774200e+000	1.440646e+002	-1.509523e+001	8.727026e+001	-1.486835e+001	8.763906e+001	-2.726952e+000	1.731588e+002
9560013200	-5.815293e+000	1.436788e+002	-1.511942e+001	8.737883e+001	-1.488612e+001	8.716196e+001	-2.726354e+000	1.732649e+002
9570012900	-5.823558e+000	1.433733e+002	-1.515040e+001	8.691889e+001	-1.495058e+001	8.680221e+001	-2.712178e+000	1.733354e+002
9580012600	-5.839271e+000	1.427727e+002	-1.513887e+001	8.676485e+001	-1.495177e+001	8.669230e+001	-2.733067e+000	1.734442e+002
9590012300	-5.871744e+000	1.423695e+002	-1.515161e+001	8.637515e+001	-1.499655e+001	8.622666e+001	-2.719167e+000	1.735502e+002
9600012000	-5.900630e+000	1.418021e+002	-1.511959e+001	8.621706e+001	-1.499684e+001	8.559912e+001	-2.707256e+000	1.736712e+002
9610011700	-5.913839e+000	1.414289e+002	-1.520208e+001	8.588849e+001	-1.497295e+001	8.591897e+001	-2.711406e+000	1.739719e+002
9620011400	-5.930781e+000	1.408200e+002	-1.517993e+001	8.561044e+001	-1.499413e+001	8.529259e+001	-2.716756e+000	1.741263e+002
9630011100	-5.943973e+000	1.403836e+002	-1.515452e+001	8.538313e+001	-1.496098e+001	8.523384e+001	-2.699887e+000	1.742149e+002
9640010800	-5.982403e+000	1.399010e+002	-1.517118e+001	8.474963e+001	-1.499369e+001	8.490476e+001	-2.730762e+000	1.740571e+002
9650010500	-5.979205e+000	1.392962e+002	-1.521604e+001	8.464440e+001	-1.497082e+001	8.485347e+001	-2.743937e+000	1.742035e+002
9660010200	-6.026581e+000	1.386688e+002	-1.517248e+001	8.454082e+001	-1.497188e+001	8.448355e+001	-2.770685e+000	1.739311e+002
9670009900	-6.021840e+000	1.381500e+002	-1.521726e+001	8.369068e+001	-1.497269e+001	8.403408e+001	-2.760381e+000	1.738900e+002
9680009600	-6.083606e+000	1.375580e+002	-1.517917e+001	8.366084e+001	-1.498164e+001	8.373145e+001	-2.775381e+000	1.737667e+002
9690009300	-6.082411e+000	1.369135e+002	-1.517492e+001	8.308264e+001	-1.501068e+001	8.347292e+001	-2.791088e+000	1.736840e+002
9700009000	-6.129056e+000	1.362629e+002	-1.515928e+001	8.254810e+001	-1.495768e+001	8.302932e+001	-2.776126e+000	1.737330e+002
9710008700	-6.183548e+000	1.356181e+002	-1.524592e+001	8.237490e+001	-1.498031e+001	8.234479e+001	-2.775539e+000	1.737424e+002
9720008400	-6.222751e+000	1.352020e+002	-1.518983e+001	8.150585e+001	-1.498945e+001	8.219641e+001	-2.761211e+000	1.736399e+002
9730008100	-6.277152e+000	1.345200e+002	-1.519192e+001	8.139333e+001	-1.498863e+001	8.164811e+001	-2.783177e+000	1.736766e+002
9740007800	-6.357930e+000	1.340661e+002	-1.521662e+001	8.092888e+001	-1.503395e+001	8.104872e+001	-2.761263e+000	1.738086e+002
9750007500	-6.422710e+000	1.331858e+002	-1.526451e+001	8.073661e+001	-1.504557e+001	8.033974e+001	-2.779257e+000	1.739470e+002
9760007200	-6.498693e+000	1.326190e+002	-1.520794e+001	8.029349e+001	-1.505799e+001	8.048172e+001	-2.755437e+000	1.739002e+002
9770006900	-6.565135e+000	1.320735e+002	-1.521627e+001	7.975309e+001	-1.501815e+001	7.990289e+001	-2.752163e+000	1.741303e+002
9780006600	-6.659659e+000	1.314295e+002	-1.525895e+001	7.944727e+001	-1.505368e+001	7.966204e+001	-2.726237e+000	1.740984e+002
9790006300	-6.765307e+000	1.309265e+002	-1.526545e+001	7.921182e+001	-1.505898e+001	7.945657e+001	-2.734175e+000	1.742874e+002
9800006000	-6.855105e+000	1.303798e+002	-1.527062e+001	7.857306e+001	-1.503222e+001	7.911115e+001	-2.727962e+000	1.741994e+002
9810005700	-6.946849e+000	1.298189e+002	-1.525520e+001	7.849495e+001	-1.502559e+001	7.845794e+001	-2.726903e+000	1.741514e+002
9820005400	-7.027517e+000	1.292828e+002	-1.527076e+001	7.788937e+001	-1.505093e+001	7.841163e+001	-2.764960e+000	1.741437e+002
9830005100	-7.132199e+000	1.287140e+002	-1.528262e+001	7.766039e+001	-1.506130e+001	7.779419e+001	-2.783097e+000	1.740045e+002
9840004800	-7.228358e+000	1.281906e+002	-1.530058e+001	7.693127e+001	-1.505151e+001	7.708399e+001	-2.798239e+000	1.737843e+002
9850004500	-7.327941e+000	1.279721e+002	-1.526182e+001	7.670311e+001	-1.504565e+001	7.705275e+001	-2.802144e+000	1.737378e+002
9860004200	-7.443724e+000	1.275374e+002	-1.525323e+001	7.590967e+001	-1.510168e+001	7.601492e+001	-2.811093e+000	1.736904e+002
9870003900	-7.552067e+000	1.269601e+002	-1.524685e+001	7.521560e+001	-1.507602e+001	7.569876e+001	-2.791629e+000	1.735520e+002
9880003600	-7.674452e+000	1.267015e+002	-1.527761e+001	7.509543e+001	-1.511063e+001	7.495679e+001	-2.831642e+000	1.735511e+002
9890003300	-7.788054e+000	1.263404e+002	-1.524508e+001	7.424754e+001	-1.510605e+001	7.434636e+001	-2.839321e+000	1.736112e+002
9900003000	-7.885536e+000	1.259717e+002	-1.530150e+001	7.347636e+001	-1.514185e+001	7.370478e+001	-2.809258e+000	1.736710e+002
9910002700	-8.033264e+000	1.256413e+002	-1.534755e+001	7.290599e+001	-1.517975e+001	7.313567e+001	-2.819424e+000	1.738647e+002
9920002400	-8.155523e+000	1.250994e+002	-1.535515e+001	7.251213e+001	-1.517175e+001	7.254565e+001	-2.818515e+000	1.737757e+002
9930002100	-8.340758e+000	1.245832e+002	-1.545776e+001	7.177731e+001	-1.518944e+001	7.210417e+001	-2.809905e+000	1.738125e+002
9940001800	-8.513152e+000	1.243577e+002	-1.546639e+001	7.099236e+001	-1.526364e+001	7.167746e+001	-2.787933e+000	1.739572e+002
9950001500	-8.677427e+000	1.241344e+002	-1.549479e+001	7.052474e+001	-1.529958e+001	7.094390e+001	-2.777075e+000	1.738249e+002
9960001200	-8.851212e+000	1.240792e+002	-1.561368e+001	7.003297e+001	-1.539072e+001	7.076927e+001	-2.807039e+000	1.737261e+002
9970000900	-9.017575e+000	1.237826e+002	-1.565261e+001	6.967075e+001	-1.537199e+001	7.000387e+001	-2.815263e+000	1.737274e+002
9980000600	-9.180697e+000	1.238373e+002	-1.568158e+001	6.929322e+001	-1.544519e+001	6.961047e+001	-2.810657e+000	1.736761e+002
9990000300	-9.359514e+000	1.237829e+002	-1.571665e+001	6.868735e+001	-1.554055e+001	6.908942e+001	-2.831969e+000	1.736665e+002
10000000000	-9.535378e+000	1.240157e+002	-1.584183e+001	6.840233e+001	-1.558679e+001	6.904078e+001	-2.865078e+000	1.735418e+002
