!Agilent Technologies,E5071C,MY46316587,B.13.01
!Date: Fri Dec 08 11:03:19 2017
!Data & Calibration Information:
!Freq	S11:SOLT2(ON)	S21:SOLT2(ON)	S12:SOLT2(ON)	S22:SOLT2(ON)
!PortZ  Port1:50+j0    Port2:50+j0
!Above PortZ is port z conversion or system Z0 setting when saving the data.
!When reading, reference impedance value at option line is always used.
# Hz S dB R 50
300000	-6.752950e-002	-3.896267e-001	-4.884569e+001	-1.175846e+002	-6.678398e+001	-1.541828e+002	-6.534759e-002	-1.546203e-001
10299700	-5.575139e-001	-2.228850e+000	-1.639152e+001	-1.128237e+002	-7.396891e+001	-1.256365e+002	-1.812062e-001	-2.661105e+000
20299400	-4.709787e-001	-3.170493e+000	-2.119169e+001	-1.083440e+002	-8.490827e+001	6.059017e+001	-2.553768e-001	-4.341799e+000
30299100	-4.793161e-001	-4.567027e+000	-1.877632e+001	-1.031542e+002	-7.811439e+001	7.260698e+001	-2.873315e-001	-6.034710e+000
40298800	-4.852417e-001	-5.958432e+000	-1.664729e+001	-1.005837e+002	-7.538381e+001	1.286533e+002	-3.109900e-001	-7.722078e+000
50298500	-4.913899e-001	-7.352631e+000	-1.478707e+001	-9.884494e+001	-6.805330e+001	8.352259e+001	-3.320132e-001	-9.413205e+000
60298200	-4.983265e-001	-8.765261e+000	-1.318277e+001	-9.810152e+001	-6.533348e+001	1.260023e+002	-3.520991e-001	-1.115330e+001
70297900	-5.032735e-001	-1.010377e+001	-1.184430e+001	-9.748286e+001	-6.831420e+001	1.610116e+002	-3.674291e-001	-1.286831e+001
80297600	-5.083257e-001	-1.144915e+001	-1.063276e+001	-9.759314e+001	-6.208341e+001	1.230625e+002	-3.892679e-001	-1.460837e+001
90297300	-5.169516e-001	-1.284225e+001	-9.566202e+000	-9.797575e+001	-6.592052e+001	1.307452e+002	-4.094976e-001	-1.634595e+001
100297000	-5.198759e-001	-1.416372e+001	-8.592639e+000	-9.845062e+001	-6.362170e+001	1.381033e+002	-4.309554e-001	-1.809263e+001
110296700	-5.301949e-001	-1.553765e+001	-7.662963e+000	-9.910222e+001	-6.144591e+001	1.401721e+002	-4.564756e-001	-1.984257e+001
120296400	-5.320515e-001	-1.693655e+001	-6.803849e+000	-9.978315e+001	-6.145452e+001	1.422248e+002	-4.834151e-001	-2.158122e+001
130296100	-5.412880e-001	-1.826232e+001	-6.022033e+000	-1.005399e+002	-6.075191e+001	1.434157e+002	-5.100138e-001	-2.332925e+001
140295800	-5.427369e-001	-1.966392e+001	-5.276464e+000	-1.010271e+002	-5.874405e+001	1.493030e+002	-5.398473e-001	-2.510406e+001
150295500	-5.470731e-001	-2.104849e+001	-4.559093e+000	-1.016468e+002	-5.859552e+001	1.519759e+002	-5.705230e-001	-2.685054e+001
160295200	-5.567478e-001	-2.242118e+001	-3.877206e+000	-1.026271e+002	-5.699532e+001	1.600138e+002	-6.040424e-001	-2.861552e+001
170294900	-5.596388e-001	-2.375955e+001	-3.256043e+000	-1.037569e+002	-5.518955e+001	1.546181e+002	-6.410535e-001	-3.034800e+001
180294600	-5.659603e-001	-2.509406e+001	-2.673588e+000	-1.049496e+002	-5.562762e+001	1.597270e+002	-6.803910e-001	-3.210020e+001
190294300	-5.753050e-001	-2.644311e+001	-2.119736e+000	-1.061751e+002	-5.339859e+001	1.615019e+002	-7.240095e-001	-3.383817e+001
200294000	-5.809058e-001	-2.774881e+001	-1.593223e+000	-1.073728e+002	-5.262141e+001	1.588630e+002	-7.709692e-001	-3.558286e+001
210293700	-5.902844e-001	-2.915261e+001	-1.071943e+000	-1.087359e+002	-5.133855e+001	1.600288e+002	-8.170618e-001	-3.736063e+001
220293400	-6.033013e-001	-3.048910e+001	-5.763797e-001	-1.101515e+002	-5.109410e+001	1.622621e+002	-8.683352e-001	-3.910633e+001
230293100	-6.032021e-001	-3.180668e+001	-9.357105e-002	-1.113835e+002	-4.960462e+001	1.589473e+002	-9.252158e-001	-4.084053e+001
240292800	-6.157969e-001	-3.318625e+001	3.510699e-001	-1.126939e+002	-4.875182e+001	1.651128e+002	-9.744415e-001	-4.259909e+001
250292500	-6.179694e-001	-3.447381e+001	8.195802e-001	-1.138178e+002	-4.765019e+001	1.626819e+002	-1.036688e+000	-4.430223e+001
260292200	-6.355424e-001	-3.584519e+001	1.271779e+000	-1.152920e+002	-4.709657e+001	1.606617e+002	-1.100601e+000	-4.603662e+001
270291900	-6.464360e-001	-3.718440e+001	1.702296e+000	-1.168820e+002	-4.643788e+001	1.642494e+002	-1.159793e+000	-4.773570e+001
280291600	-6.623730e-001	-3.852848e+001	2.079173e+000	-1.185385e+002	-4.551234e+001	1.624298e+002	-1.234356e+000	-4.946070e+001
290291300	-6.766667e-001	-3.985216e+001	2.438839e+000	-1.202407e+002	-4.470283e+001	1.616552e+002	-1.304090e+000	-5.123904e+001
300291000	-6.888777e-001	-4.111329e+001	2.794307e+000	-1.217798e+002	-4.399089e+001	1.607741e+002	-1.381837e+000	-5.291199e+001
310290700	-7.063432e-001	-4.236970e+001	3.130719e+000	-1.233436e+002	-4.337811e+001	1.623387e+002	-1.459637e+000	-5.457879e+001
320290400	-7.206406e-001	-4.371270e+001	3.466420e+000	-1.250793e+002	-4.252997e+001	1.585150e+002	-1.539661e+000	-5.630240e+001
330290100	-7.365978e-001	-4.502024e+001	3.794136e+000	-1.268108e+002	-4.212759e+001	1.597832e+002	-1.620926e+000	-5.799400e+001
340289800	-7.468435e-001	-4.627274e+001	4.102555e+000	-1.283057e+002	-4.116691e+001	1.583078e+002	-1.705986e+000	-5.966204e+001
350289500	-7.728999e-001	-4.757271e+001	4.405404e+000	-1.300178e+002	-4.070621e+001	1.598818e+002	-1.799807e+000	-6.135633e+001
360289200	-7.859207e-001	-4.887229e+001	4.693253e+000	-1.317426e+002	-4.037136e+001	1.561054e+002	-1.895994e+000	-6.300574e+001
370288900	-8.072159e-001	-5.019033e+001	4.968457e+000	-1.335021e+002	-3.974592e+001	1.569971e+002	-1.994171e+000	-6.460516e+001
380288600	-8.300751e-001	-5.145582e+001	5.221873e+000	-1.354168e+002	-3.907319e+001	1.545481e+002	-2.093453e+000	-6.633275e+001
390288300	-8.535654e-001	-5.267878e+001	5.465685e+000	-1.371915e+002	-3.858379e+001	1.542463e+002	-2.206455e+000	-6.794197e+001
400288000	-8.767758e-001	-5.393624e+001	5.696644e+000	-1.389758e+002	-3.808370e+001	1.526166e+002	-2.316684e+000	-6.956009e+001
410287700	-8.963272e-001	-5.520749e+001	5.927761e+000	-1.408516e+002	-3.753244e+001	1.523524e+002	-2.428489e+000	-7.119717e+001
420287400	-9.241141e-001	-5.644971e+001	6.163780e+000	-1.426025e+002	-3.700281e+001	1.516967e+002	-2.549021e+000	-7.279120e+001
430287100	-9.537324e-001	-5.762932e+001	6.374253e+000	-1.443674e+002	-3.671476e+001	1.512334e+002	-2.662311e+000	-7.438983e+001
440286800	-9.782232e-001	-5.879449e+001	6.586145e+000	-1.461389e+002	-3.628327e+001	1.500513e+002	-2.789747e+000	-7.591977e+001
450286500	-1.008219e+000	-6.003473e+001	6.777013e+000	-1.479044e+002	-3.563312e+001	1.482281e+002	-2.917202e+000	-7.749310e+001
460286200	-1.032897e+000	-6.127765e+001	6.955134e+000	-1.497020e+002	-3.524716e+001	1.476099e+002	-3.038983e+000	-7.899184e+001
470285900	-1.070160e+000	-6.245584e+001	7.122549e+000	-1.515766e+002	-3.483681e+001	1.458308e+002	-3.178358e+000	-8.056319e+001
480285600	-1.097112e+000	-6.360785e+001	7.285205e+000	-1.531450e+002	-3.444113e+001	1.452551e+002	-3.314951e+000	-8.216846e+001
490285300	-1.126876e+000	-6.480028e+001	7.457204e+000	-1.550454e+002	-3.402242e+001	1.438329e+002	-3.462423e+000	-8.362342e+001
500285000	-1.162948e+000	-6.595274e+001	7.595723e+000	-1.568643e+002	-3.363771e+001	1.427000e+002	-3.613950e+000	-8.513389e+001
510284700	-1.196416e+000	-6.708668e+001	7.755040e+000	-1.585239e+002	-3.333598e+001	1.418518e+002	-3.768974e+000	-8.657080e+001
520284400	-1.227506e+000	-6.824292e+001	7.903222e+000	-1.603704e+002	-3.291118e+001	1.404312e+002	-3.924776e+000	-8.803949e+001
530284100	-1.263463e+000	-6.934883e+001	8.040511e+000	-1.621498e+002	-3.249459e+001	1.388761e+002	-4.082881e+000	-8.944716e+001
540283800	-1.300276e+000	-7.045927e+001	8.163510e+000	-1.638535e+002	-3.221454e+001	1.380342e+002	-4.246744e+000	-9.085214e+001
550283500	-1.345424e+000	-7.155118e+001	8.281090e+000	-1.656194e+002	-3.186508e+001	1.372236e+002	-4.405971e+000	-9.226777e+001
560283200	-1.374600e+000	-7.264601e+001	8.399425e+000	-1.672848e+002	-3.146841e+001	1.359514e+002	-4.582209e+000	-9.365157e+001
570282900	-1.414312e+000	-7.374645e+001	8.510265e+000	-1.690445e+002	-3.116292e+001	1.349901e+002	-4.763328e+000	-9.496323e+001
580282600	-1.460370e+000	-7.480647e+001	8.607132e+000	-1.707998e+002	-3.093295e+001	1.339358e+002	-4.937203e+000	-9.631271e+001
590282300	-1.497379e+000	-7.584199e+001	8.699782e+000	-1.725007e+002	-3.061641e+001	1.325565e+002	-5.115006e+000	-9.765537e+001
600282000	-1.536018e+000	-7.685799e+001	8.788865e+000	-1.741927e+002	-3.027869e+001	1.320091e+002	-5.307873e+000	-9.895844e+001
610281700	-1.579930e+000	-7.789756e+001	8.885409e+000	-1.758530e+002	-3.006697e+001	1.306206e+002	-5.503371e+000	-1.002070e+002
620281400	-1.625520e+000	-7.894781e+001	8.973797e+000	-1.775531e+002	-2.972021e+001	1.295157e+002	-5.709948e+000	-1.014820e+002
630281100	-1.670540e+000	-7.992928e+001	9.049037e+000	-1.792044e+002	-2.945326e+001	1.279578e+002	-5.900683e+000	-1.027538e+002
640280800	-1.720047e+000	-8.091217e+001	9.120294e+000	1.791897e+002	-2.922230e+001	1.270358e+002	-6.115015e+000	-1.039509e+002
650280500	-1.764254e+000	-8.188919e+001	9.185562e+000	1.775995e+002	-2.898904e+001	1.264103e+002	-6.322863e+000	-1.051819e+002
660280200	-1.805172e+000	-8.283916e+001	9.246323e+000	1.760171e+002	-2.870010e+001	1.249022e+002	-6.536473e+000	-1.063732e+002
670279900	-1.850326e+000	-8.379280e+001	9.296377e+000	1.744474e+002	-2.846311e+001	1.239720e+002	-6.741200e+000	-1.075387e+002
680279600	-1.888273e+000	-8.472860e+001	9.349879e+000	1.730973e+002	-2.824872e+001	1.228568e+002	-6.950508e+000	-1.088839e+002
690279300	-1.931515e+000	-8.571452e+001	9.464832e+000	1.716114e+002	-2.797521e+001	1.217869e+002	-7.248831e+000	-1.102559e+002
700279000	-1.983433e+000	-8.665043e+001	9.511583e+000	1.699573e+002	-2.766314e+001	1.206196e+002	-7.501690e+000	-1.112489e+002
710278700	-2.032437e+000	-8.760572e+001	9.592419e+000	1.684345e+002	-2.746963e+001	1.193555e+002	-7.788715e+000	-1.125000e+002
720278400	-2.091237e+000	-8.850779e+001	9.637149e+000	1.667433e+002	-2.722454e+001	1.184631e+002	-8.053229e+000	-1.134042e+002
730278100	-2.146930e+000	-8.935535e+001	9.676605e+000	1.651921e+002	-2.703692e+001	1.172790e+002	-8.328699e+000	-1.143818e+002
740277800	-2.194532e+000	-9.022739e+001	9.712806e+000	1.637697e+002	-2.681934e+001	1.163384e+002	-8.607077e+000	-1.154673e+002
750277500	-2.243201e+000	-9.110751e+001	9.761803e+000	1.623214e+002	-2.660045e+001	1.150727e+002	-8.909116e+000	-1.165550e+002
760277200	-2.297343e+000	-9.199511e+001	9.813430e+000	1.607885e+002	-2.635712e+001	1.141032e+002	-9.230075e+000	-1.175701e+002
770276900	-2.352292e+000	-9.283639e+001	9.852577e+000	1.593234e+002	-2.619186e+001	1.128815e+002	-9.543715e+000	-1.184586e+002
780276600	-2.402456e+000	-9.366198e+001	9.890038e+000	1.578584e+002	-2.598193e+001	1.119168e+002	-9.884640e+000	-1.194324e+002
790276300	-2.458321e+000	-9.448810e+001	9.932594e+000	1.563604e+002	-2.578848e+001	1.109252e+002	-1.024822e+001	-1.203177e+002
800276000	-2.513602e+000	-9.531001e+001	9.962066e+000	1.549002e+002	-2.555680e+001	1.096324e+002	-1.061721e+001	-1.211633e+002
810275700	-2.572062e+000	-9.610226e+001	9.996910e+000	1.534769e+002	-2.538216e+001	1.085325e+002	-1.100816e+001	-1.219789e+002
820275400	-2.634269e+000	-9.685170e+001	1.002781e+001	1.520297e+002	-2.520145e+001	1.075824e+002	-1.143115e+001	-1.227641e+002
830275100	-2.689334e+000	-9.768004e+001	1.006255e+001	1.506119e+002	-2.503282e+001	1.064383e+002	-1.187422e+001	-1.234546e+002
840274800	-2.751216e+000	-9.842628e+001	1.009674e+001	1.492461e+002	-2.482970e+001	1.052769e+002	-1.234310e+001	-1.241762e+002
850274500	-2.808303e+000	-9.920601e+001	1.014668e+001	1.479193e+002	-2.464787e+001	1.041934e+002	-1.287935e+001	-1.249439e+002
860274200	-2.878923e+000	-9.999438e+001	1.019431e+001	1.462424e+002	-2.445599e+001	1.029837e+002	-1.350676e+001	-1.248517e+002
870273900	-2.944058e+000	-1.007025e+002	1.021248e+001	1.447663e+002	-2.430501e+001	1.019347e+002	-1.407342e+001	-1.247740e+002
880273600	-3.010336e+000	-1.014020e+002	1.024582e+001	1.433562e+002	-2.409967e+001	1.006631e+002	-1.470978e+001	-1.247077e+002
890273300	-3.082279e+000	-1.021285e+002	1.028266e+001	1.419333e+002	-2.394884e+001	9.952268e+001	-1.545885e+001	-1.243411e+002
900273000	-3.165715e+000	-1.027851e+002	1.032263e+001	1.402832e+002	-2.377467e+001	9.798303e+001	-1.628855e+001	-1.227171e+002
910272700	-3.238742e+000	-1.033655e+002	1.032602e+001	1.386474e+002	-2.366786e+001	9.682373e+001	-1.695515e+001	-1.203438e+002
920272400	-3.314140e+000	-1.040050e+002	1.032300e+001	1.371589e+002	-2.350397e+001	9.587469e+001	-1.765879e+001	-1.184652e+002
930272100	-3.382648e+000	-1.045948e+002	1.033857e+001	1.357433e+002	-2.338435e+001	9.433603e+001	-1.849218e+001	-1.160048e+002
940271800	-3.461019e+000	-1.051977e+002	1.035440e+001	1.342450e+002	-2.322235e+001	9.347502e+001	-1.936065e+001	-1.123496e+002
950271500	-3.535965e+000	-1.057684e+002	1.035679e+001	1.327272e+002	-2.309470e+001	9.233113e+001	-2.014205e+001	-1.072339e+002
960271200	-3.607891e+000	-1.063607e+002	1.035733e+001	1.312286e+002	-2.297308e+001	9.115479e+001	-2.093694e+001	-1.015104e+002
970270900	-3.685070e+000	-1.068995e+002	1.036686e+001	1.297625e+002	-2.283726e+001	8.971182e+001	-2.162572e+001	-9.380543e+001
980270600	-3.764314e+000	-1.074146e+002	1.036376e+001	1.283126e+002	-2.269032e+001	8.879340e+001	-2.213663e+001	-8.516489e+001
990270300	-3.841028e+000	-1.079201e+002	1.036790e+001	1.268014e+002	-2.260046e+001	8.738633e+001	-2.225432e+001	-7.509876e+001
1000270000	-3.923305e+000	-1.083388e+002	1.036402e+001	1.252898e+002	-2.247454e+001	8.636062e+001	-2.201012e+001	-6.529057e+001
1010269700	-4.000820e+000	-1.087755e+002	1.034689e+001	1.237393e+002	-2.238815e+001	8.520063e+001	-2.139088e+001	-5.715632e+001
1020269400	-4.077603e+000	-1.091632e+002	1.032834e+001	1.222327e+002	-2.229844e+001	8.396137e+001	-2.070491e+001	-5.054168e+001
1030269100	-4.160777e+000	-1.095614e+002	1.031013e+001	1.207872e+002	-2.220901e+001	8.265244e+001	-1.990744e+001	-4.501236e+001
1040268800	-4.233115e+000	-1.098673e+002	1.029375e+001	1.193520e+002	-2.208514e+001	8.124825e+001	-1.907213e+001	-4.048201e+001
1050268500	-4.313701e+000	-1.102200e+002	1.027145e+001	1.178832e+002	-2.202940e+001	8.025889e+001	-1.827391e+001	-3.711621e+001
1060268200	-4.391038e+000	-1.105352e+002	1.024505e+001	1.164002e+002	-2.193078e+001	7.904877e+001	-1.744863e+001	-3.445276e+001
1070267900	-4.468222e+000	-1.107893e+002	1.022274e+001	1.149378e+002	-2.183484e+001	7.788873e+001	-1.665887e+001	-3.260253e+001
1080267600	-4.551373e+000	-1.110578e+002	1.020141e+001	1.134619e+002	-2.176891e+001	7.686853e+001	-1.590284e+001	-3.129571e+001
1090267300	-4.625576e+000	-1.112664e+002	1.016322e+001	1.118797e+002	-2.170988e+001	7.548683e+001	-1.517364e+001	-3.089200e+001
1100267000	-4.694797e+000	-1.113945e+002	1.009929e+001	1.104322e+002	-2.167351e+001	7.457737e+001	-1.459468e+001	-3.133840e+001
1110266700	-4.755057e+000	-1.115966e+002	1.003865e+001	1.091035e+002	-2.162105e+001	7.363994e+001	-1.416924e+001	-3.108999e+001
1120266400	-4.821840e+000	-1.117716e+002	9.994771e+000	1.077786e+002	-2.155527e+001	7.248066e+001	-1.369327e+001	-3.080428e+001
1130266100	-4.887147e+000	-1.119459e+002	9.945801e+000	1.064015e+002	-2.149129e+001	7.128694e+001	-1.321492e+001	-3.081119e+001
1140265800	-4.943115e+000	-1.121056e+002	9.902975e+000	1.050687e+002	-2.144267e+001	7.025043e+001	-1.275050e+001	-3.096501e+001
1150265500	-5.010764e+000	-1.121998e+002	9.848072e+000	1.037144e+002	-2.139195e+001	6.931554e+001	-1.230370e+001	-3.136121e+001
1160265200	-5.069264e+000	-1.122876e+002	9.794579e+000	1.023572e+002	-2.137138e+001	6.835748e+001	-1.189964e+001	-3.187469e+001
1170264900	-5.123038e+000	-1.123952e+002	9.736477e+000	1.010688e+002	-2.130847e+001	6.743349e+001	-1.151884e+001	-3.251995e+001
1180264600	-5.176089e+000	-1.124690e+002	9.676495e+000	9.976068e+001	-2.123811e+001	6.647019e+001	-1.116538e+001	-3.309450e+001
1190264300	-5.227232e+000	-1.125585e+002	9.619901e+000	9.846110e+001	-2.123779e+001	6.534568e+001	-1.082575e+001	-3.376859e+001
1200264000	-5.278985e+000	-1.125902e+002	9.553696e+000	9.721393e+001	-2.119708e+001	6.417280e+001	-1.051380e+001	-3.442564e+001
1210263700	-5.318591e+000	-1.126387e+002	9.491111e+000	9.595305e+001	-2.117782e+001	6.341420e+001	-1.022490e+001	-3.518429e+001
1220263400	-5.361997e+000	-1.126375e+002	9.421949e+000	9.472312e+001	-2.116240e+001	6.240005e+001	-9.940665e+000	-3.597806e+001
1230263100	-5.403041e+000	-1.126787e+002	9.359088e+000	9.349432e+001	-2.112951e+001	6.160052e+001	-9.678741e+000	-3.678446e+001
1240262800	-5.438867e+000	-1.126371e+002	9.287427e+000	9.225815e+001	-2.111329e+001	6.071598e+001	-9.442150e+000	-3.760284e+001
1250262500	-5.474260e+000	-1.126886e+002	9.221263e+000	9.109294e+001	-2.109038e+001	5.985194e+001	-9.216174e+000	-3.843056e+001
1260262200	-5.506082e+000	-1.127421e+002	9.144180e+000	8.991074e+001	-2.106073e+001	5.900515e+001	-9.007469e+000	-3.913075e+001
1270261900	-5.538201e+000	-1.126754e+002	9.070605e+000	8.875712e+001	-2.100598e+001	5.801734e+001	-8.784870e+000	-3.997226e+001
1280261600	-5.569216e+000	-1.126939e+002	9.000961e+000	8.762372e+001	-2.101059e+001	5.716848e+001	-8.574750e+000	-4.079656e+001
1290261300	-5.596623e+000	-1.126789e+002	8.926787e+000	8.648647e+001	-2.099569e+001	5.675337e+001	-8.380591e+000	-4.160214e+001
1300261000	-5.614293e+000	-1.126531e+002	8.852585e+000	8.535249e+001	-2.097102e+001	5.590323e+001	-8.203813e+000	-4.243898e+001
1310260700	-5.636803e+000	-1.127048e+002	8.769273e+000	8.425730e+001	-2.097950e+001	5.511040e+001	-8.030622e+000	-4.330342e+001
1320260400	-5.666730e+000	-1.127090e+002	8.692794e+000	8.320682e+001	-2.092810e+001	5.447506e+001	-7.870201e+000	-4.409204e+001
1330260100	-5.677066e+000	-1.126591e+002	8.619619e+000	8.215113e+001	-2.090962e+001	5.357478e+001	-7.697233e+000	-4.486224e+001
1340259800	-5.702239e+000	-1.126446e+002	8.539579e+000	8.109314e+001	-2.089364e+001	5.277531e+001	-7.535728e+000	-4.564767e+001
1350259500	-5.716873e+000	-1.126491e+002	8.468642e+000	8.003539e+001	-2.089112e+001	5.198805e+001	-7.385503e+000	-4.638403e+001
1360259200	-5.726434e+000	-1.125899e+002	8.396553e+000	7.901725e+001	-2.088200e+001	5.124249e+001	-7.241406e+000	-4.718145e+001
1370258900	-5.744961e+000	-1.125608e+002	8.318825e+000	7.802599e+001	-2.086398e+001	5.064433e+001	-7.099303e+000	-4.796759e+001
1380258600	-5.757417e+000	-1.125502e+002	8.236552e+000	7.698531e+001	-2.086499e+001	5.006979e+001	-6.986602e+000	-4.873251e+001
1390258300	-5.764950e+000	-1.125375e+002	8.156855e+000	7.600705e+001	-2.084523e+001	4.928518e+001	-6.873177e+000	-4.948919e+001
1400258000	-5.769155e+000	-1.125241e+002	8.079826e+000	7.504267e+001	-2.083323e+001	4.845777e+001	-6.755850e+000	-5.024860e+001
1410257700	-5.778479e+000	-1.125265e+002	8.000376e+000	7.405062e+001	-2.081814e+001	4.790417e+001	-6.636787e+000	-5.098594e+001
1420257400	-5.792082e+000	-1.125599e+002	7.924958e+000	7.308801e+001	-2.083118e+001	4.722503e+001	-6.540087e+000	-5.167633e+001
1430257100	-5.790777e+000	-1.125371e+002	7.842505e+000	7.218553e+001	-2.082590e+001	4.653691e+001	-6.437468e+000	-5.240062e+001
1440256800	-5.784570e+000	-1.125417e+002	7.762985e+000	7.121495e+001	-2.081560e+001	4.592442e+001	-6.338779e+000	-5.318239e+001
1450256500	-5.790860e+000	-1.125651e+002	7.685823e+000	7.030752e+001	-2.081972e+001	4.529001e+001	-6.237282e+000	-5.387770e+001
1460256200	-5.788348e+000	-1.125634e+002	7.610207e+000	6.939585e+001	-2.080869e+001	4.483609e+001	-6.146337e+000	-5.458282e+001
1470255900	-5.784986e+000	-1.125834e+002	7.526219e+000	6.845966e+001	-2.082653e+001	4.425019e+001	-6.045876e+000	-5.533052e+001
1480255600	-5.774068e+000	-1.126120e+002	7.450596e+000	6.759316e+001	-2.079606e+001	4.366243e+001	-5.964986e+000	-5.600751e+001
1490255300	-5.778639e+000	-1.125759e+002	7.371756e+000	6.672322e+001	-2.078678e+001	4.302083e+001	-5.865785e+000	-5.670299e+001
1500255000	-5.778757e+000	-1.126449e+002	7.291010e+000	6.585714e+001	-2.077482e+001	4.238369e+001	-5.774561e+000	-5.734258e+001
1510254700	-5.772580e+000	-1.126157e+002	7.210307e+000	6.495925e+001	-2.074601e+001	4.198495e+001	-5.677825e+000	-5.801710e+001
1520254400	-5.763006e+000	-1.126364e+002	7.137372e+000	6.411635e+001	-2.075125e+001	4.130846e+001	-5.602928e+000	-5.865463e+001
1530254100	-5.755287e+000	-1.126466e+002	7.056965e+000	6.329510e+001	-2.072795e+001	4.072412e+001	-5.518082e+000	-5.934630e+001
1540253800	-5.752331e+000	-1.126768e+002	6.979281e+000	6.243945e+001	-2.076026e+001	4.026153e+001	-5.444901e+000	-5.994899e+001
1550253500	-5.748558e+000	-1.126799e+002	6.905798e+000	6.159264e+001	-2.074577e+001	3.973904e+001	-5.387446e+000	-6.063344e+001
1560253200	-5.741360e+000	-1.127208e+002	6.826687e+000	6.081451e+001	-2.075446e+001	3.914825e+001	-5.315777e+000	-6.128855e+001
1570252900	-5.733194e+000	-1.127339e+002	6.741453e+000	6.000623e+001	-2.074593e+001	3.846136e+001	-5.259248e+000	-6.189144e+001
1580252600	-5.720838e+000	-1.127864e+002	6.666073e+000	5.918694e+001	-2.072337e+001	3.803502e+001	-5.198613e+000	-6.250998e+001
1590252300	-5.709352e+000	-1.128584e+002	6.596305e+000	5.837577e+001	-2.075955e+001	3.752868e+001	-5.145255e+000	-6.314616e+001
1600252000	-5.698505e+000	-1.128765e+002	6.515149e+000	5.759438e+001	-2.073638e+001	3.720378e+001	-5.088701e+000	-6.376062e+001
1610251700	-5.691549e+000	-1.129855e+002	6.435627e+000	5.679938e+001	-2.071178e+001	3.664161e+001	-5.031362e+000	-6.433483e+001
1620251400	-5.677543e+000	-1.130429e+002	6.356986e+000	5.600252e+001	-2.072252e+001	3.602565e+001	-4.975391e+000	-6.491873e+001
1630251100	-5.668233e+000	-1.131277e+002	6.282229e+000	5.523196e+001	-2.073812e+001	3.538119e+001	-4.919822e+000	-6.555064e+001
1640250800	-5.656564e+000	-1.131674e+002	6.218317e+000	5.450371e+001	-2.073267e+001	3.492697e+001	-4.857598e+000	-6.612560e+001
1650250500	-5.648962e+000	-1.132309e+002	6.130947e+000	5.374508e+001	-2.074586e+001	3.462242e+001	-4.795963e+000	-6.669074e+001
1660250200	-5.630931e+000	-1.132695e+002	6.051953e+000	5.302484e+001	-2.073396e+001	3.427581e+001	-4.731109e+000	-6.722006e+001
1670249900	-5.622000e+000	-1.133289e+002	5.983039e+000	5.225048e+001	-2.069258e+001	3.368654e+001	-4.666005e+000	-6.778004e+001
1680249600	-5.606065e+000	-1.134048e+002	5.908940e+000	5.155361e+001	-2.069922e+001	3.342124e+001	-4.617071e+000	-6.841770e+001
1690249300	-5.592403e+000	-1.134923e+002	5.835181e+000	5.078850e+001	-2.071367e+001	3.282427e+001	-4.562949e+000	-6.895268e+001
1700249000	-5.581944e+000	-1.135659e+002	5.753934e+000	5.009183e+001	-2.070247e+001	3.236341e+001	-4.524828e+000	-6.952771e+001
1710248700	-5.564044e+000	-1.136768e+002	5.683192e+000	4.931754e+001	-2.071084e+001	3.198946e+001	-4.483385e+000	-7.008762e+001
1720248400	-5.551051e+000	-1.136883e+002	5.613147e+000	4.866857e+001	-2.070710e+001	3.162144e+001	-4.438630e+000	-7.057543e+001
1730248100	-5.541570e+000	-1.137897e+002	5.533079e+000	4.791911e+001	-2.071077e+001	3.110971e+001	-4.398717e+000	-7.111498e+001
1740247800	-5.523888e+000	-1.138604e+002	5.463124e+000	4.731713e+001	-2.071721e+001	3.060418e+001	-4.364328e+000	-7.164008e+001
1750247500	-5.508837e+000	-1.139636e+002	5.383023e+000	4.657732e+001	-2.072652e+001	3.016441e+001	-4.326619e+000	-7.220732e+001
1760247200	-5.499409e+000	-1.140683e+002	5.314460e+000	4.587097e+001	-2.071374e+001	2.972576e+001	-4.282437e+000	-7.275221e+001
1770246900	-5.483093e+000	-1.141581e+002	5.240473e+000	4.513804e+001	-2.073308e+001	2.916817e+001	-4.247372e+000	-7.329148e+001
1780246600	-5.464601e+000	-1.141956e+002	5.165134e+000	4.452029e+001	-2.070405e+001	2.881544e+001	-4.209394e+000	-7.381648e+001
1790246300	-5.454302e+000	-1.143310e+002	5.087742e+000	4.383113e+001	-2.070467e+001	2.832611e+001	-4.172190e+000	-7.430507e+001
1800246000	-5.434954e+000	-1.143777e+002	5.018316e+000	4.319193e+001	-2.072772e+001	2.798504e+001	-4.134052e+000	-7.484913e+001
1810245700	-5.415277e+000	-1.144881e+002	4.952634e+000	4.255758e+001	-2.071412e+001	2.761508e+001	-4.100359e+000	-7.536088e+001
1820245400	-5.395908e+000	-1.146127e+002	4.880224e+000	4.184518e+001	-2.072682e+001	2.731588e+001	-4.051244e+000	-7.584503e+001
1830245100	-5.387868e+000	-1.147482e+002	4.798206e+000	4.120090e+001	-2.067651e+001	2.674080e+001	-3.997798e+000	-7.631088e+001
1840244800	-5.372479e+000	-1.148819e+002	4.723877e+000	4.060184e+001	-2.068043e+001	2.640298e+001	-3.958607e+000	-7.674393e+001
1850244500	-5.362829e+000	-1.149854e+002	4.656553e+000	3.992820e+001	-2.067820e+001	2.585693e+001	-3.926835e+000	-7.725619e+001
1860244200	-5.349310e+000	-1.150872e+002	4.588762e+000	3.928050e+001	-2.072005e+001	2.572216e+001	-3.888347e+000	-7.768151e+001
1870243900	-5.332862e+000	-1.152041e+002	4.512749e+000	3.869721e+001	-2.070739e+001	2.519453e+001	-3.862694e+000	-7.817283e+001
1880243600	-5.319982e+000	-1.153152e+002	4.447130e+000	3.806855e+001	-2.072837e+001	2.494495e+001	-3.842608e+000	-7.867345e+001
1890243300	-5.301209e+000	-1.154886e+002	4.374227e+000	3.743236e+001	-2.070561e+001	2.451142e+001	-3.813432e+000	-7.908316e+001
1900243000	-5.283880e+000	-1.156223e+002	4.303562e+000	3.679054e+001	-2.071585e+001	2.422944e+001	-3.795130e+000	-7.957215e+001
1910242700	-5.270308e+000	-1.157148e+002	4.231912e+000	3.622260e+001	-2.070589e+001	2.382710e+001	-3.771800e+000	-8.002007e+001
1920242400	-5.251321e+000	-1.158960e+002	4.167609e+000	3.561436e+001	-2.072816e+001	2.342775e+001	-3.744707e+000	-8.053167e+001
1930242100	-5.235910e+000	-1.159920e+002	4.099116e+000	3.500000e+001	-2.073403e+001	2.316221e+001	-3.730077e+000	-8.099758e+001
1940241800	-5.218413e+000	-1.161457e+002	4.032126e+000	3.441623e+001	-2.072531e+001	2.244474e+001	-3.700617e+000	-8.144613e+001
1950241500	-5.198038e+000	-1.162198e+002	3.956323e+000	3.386313e+001	-2.075269e+001	2.203239e+001	-3.672974e+000	-8.197399e+001
1960241200	-5.192821e+000	-1.163659e+002	3.879005e+000	3.323614e+001	-2.075537e+001	2.172299e+001	-3.644155e+000	-8.243752e+001
1970240900	-5.172880e+000	-1.165047e+002	3.808479e+000	3.265526e+001	-2.075505e+001	2.133411e+001	-3.620643e+000	-8.290786e+001
1980240600	-5.150513e+000	-1.165980e+002	3.757014e+000	3.208320e+001	-2.074089e+001	2.111961e+001	-3.573665e+000	-8.340974e+001
1990240300	-5.134834e+000	-1.167193e+002	3.689305e+000	3.148022e+001	-2.070241e+001	2.072217e+001	-3.510202e+000	-8.388200e+001
2000240000	-5.117532e+000	-1.168686e+002	3.617416e+000	3.093007e+001	-2.071958e+001	2.055769e+001	-3.483831e+000	-8.422376e+001
2010239700	-5.110814e+000	-1.169876e+002	3.548742e+000	3.031535e+001	-2.071628e+001	2.032896e+001	-3.457911e+000	-8.460789e+001
2020239400	-5.084744e+000	-1.171256e+002	3.484860e+000	2.972844e+001	-2.070081e+001	1.996912e+001	-3.447337e+000	-8.500534e+001
2030239100	-5.076095e+000	-1.172486e+002	3.417777e+000	2.919284e+001	-2.070695e+001	1.948790e+001	-3.427588e+000	-8.536997e+001
2040238800	-5.065511e+000	-1.173370e+002	3.348049e+000	2.866510e+001	-2.072031e+001	1.917550e+001	-3.412933e+000	-8.576082e+001
2050238500	-5.053802e+000	-1.175947e+002	3.286501e+000	2.806087e+001	-2.072200e+001	1.882638e+001	-3.397650e+000	-8.622149e+001
2060238200	-5.038848e+000	-1.177182e+002	3.217994e+000	2.749505e+001	-2.074132e+001	1.868226e+001	-3.390036e+000	-8.660397e+001
2070237900	-5.027476e+000	-1.178823e+002	3.152578e+000	2.698693e+001	-2.073949e+001	1.824628e+001	-3.377260e+000	-8.693887e+001
2080237600	-5.012473e+000	-1.180692e+002	3.083714e+000	2.643328e+001	-2.076076e+001	1.782563e+001	-3.361091e+000	-8.739716e+001
2090237300	-4.995331e+000	-1.182591e+002	3.019564e+000	2.590359e+001	-2.077517e+001	1.748420e+001	-3.342411e+000	-8.777252e+001
2100237000	-4.977700e+000	-1.183831e+002	2.952624e+000	2.538373e+001	-2.076916e+001	1.732914e+001	-3.324651e+000	-8.822854e+001
2110236700	-4.965020e+000	-1.185948e+002	2.896383e+000	2.480341e+001	-2.079362e+001	1.690801e+001	-3.312277e+000	-8.863888e+001
2120236400	-4.956735e+000	-1.187192e+002	2.820988e+000	2.434848e+001	-2.080289e+001	1.659828e+001	-3.302307e+000	-8.909259e+001
2130236100	-4.930477e+000	-1.188645e+002	2.760025e+000	2.378573e+001	-2.079118e+001	1.635073e+001	-3.287431e+000	-8.951466e+001
2140235800	-4.910191e+000	-1.190421e+002	2.697909e+000	2.319667e+001	-2.075218e+001	1.593717e+001	-3.260979e+000	-8.992585e+001
2150235500	-4.904300e+000	-1.192398e+002	2.634407e+000	2.265573e+001	-2.074553e+001	1.568196e+001	-3.239293e+000	-9.037750e+001
2160235200	-4.881513e+000	-1.193326e+002	2.562261e+000	2.219832e+001	-2.072969e+001	1.531494e+001	-3.193496e+000	-9.078865e+001
2170234900	-4.871879e+000	-1.194512e+002	2.505593e+000	2.161765e+001	-2.070016e+001	1.502732e+001	-3.148156e+000	-9.111375e+001
2180234600	-4.851988e+000	-1.196208e+002	2.447221e+000	2.117133e+001	-2.072409e+001	1.471910e+001	-3.120681e+000	-9.146210e+001
2190234300	-4.834807e+000	-1.197475e+002	2.377019e+000	2.067095e+001	-2.074365e+001	1.437674e+001	-3.111134e+000	-9.182231e+001
2200234000	-4.827693e+000	-1.199942e+002	2.323475e+000	2.008916e+001	-2.077139e+001	1.414568e+001	-3.099750e+000	-9.214065e+001
2210233700	-4.819211e+000	-1.201447e+002	2.250590e+000	1.961385e+001	-2.076946e+001	1.407005e+001	-3.086848e+000	-9.248774e+001
2220233400	-4.800703e+000	-1.202504e+002	2.190939e+000	1.911489e+001	-2.078847e+001	1.389130e+001	-3.072960e+000	-9.287838e+001
2230233100	-4.800779e+000	-1.204706e+002	2.130565e+000	1.862166e+001	-2.075316e+001	1.368848e+001	-3.076452e+000	-9.328426e+001
2240232800	-4.776540e+000	-1.205914e+002	2.081169e+000	1.816606e+001	-2.074699e+001	1.327740e+001	-3.068394e+000	-9.364493e+001
2250232500	-4.770232e+000	-1.208323e+002	2.014178e+000	1.760156e+001	-2.071068e+001	1.306096e+001	-3.059688e+000	-9.396579e+001
2260232200	-4.751564e+000	-1.210080e+002	1.951936e+000	1.711695e+001	-2.072267e+001	1.243547e+001	-3.058504e+000	-9.428826e+001
2270231900	-4.734449e+000	-1.211530e+002	1.892519e+000	1.662281e+001	-2.072460e+001	1.194221e+001	-3.037049e+000	-9.469686e+001
2280231600	-4.720905e+000	-1.213500e+002	1.832875e+000	1.614844e+001	-2.076306e+001	1.160702e+001	-3.022556e+000	-9.503991e+001
2290231300	-4.706340e+000	-1.215829e+002	1.770791e+000	1.567743e+001	-2.079549e+001	1.132560e+001	-3.015430e+000	-9.547718e+001
2300231000	-4.698988e+000	-1.217747e+002	1.712074e+000	1.511620e+001	-2.082711e+001	1.122902e+001	-3.001502e+000	-9.585014e+001
2310230700	-4.690436e+000	-1.219984e+002	1.657698e+000	1.469413e+001	-2.080453e+001	1.092739e+001	-2.990526e+000	-9.619425e+001
2320230400	-4.674214e+000	-1.221191e+002	1.594710e+000	1.419940e+001	-2.082824e+001	1.091616e+001	-2.956746e+000	-9.655718e+001
2330230100	-4.652780e+000	-1.222566e+002	1.536238e+000	1.379271e+001	-2.079917e+001	1.067999e+001	-2.943127e+000	-9.691639e+001
2340229800	-4.646969e+000	-1.224420e+002	1.476072e+000	1.329423e+001	-2.079512e+001	1.050121e+001	-2.921278e+000	-9.732661e+001
2350229500	-4.642538e+000	-1.226403e+002	1.412814e+000	1.274504e+001	-2.075482e+001	1.032176e+001	-2.906150e+000	-9.770586e+001
2360229200	-4.632586e+000	-1.228256e+002	1.370446e+000	1.229544e+001	-2.070178e+001	9.980885e+000	-2.900339e+000	-9.802994e+001
2370228900	-4.622206e+000	-1.229724e+002	1.303169e+000	1.180839e+001	-2.067572e+001	9.624290e+000	-2.895992e+000	-9.833596e+001
2380228600	-4.610264e+000	-1.231614e+002	1.239524e+000	1.129377e+001	-2.067022e+001	8.921576e+000	-2.887479e+000	-9.860240e+001
2390228300	-4.593057e+000	-1.232984e+002	1.180414e+000	1.085152e+001	-2.067547e+001	8.585063e+000	-2.865370e+000	-9.886781e+001
2400228000	-4.581311e+000	-1.234686e+002	1.132885e+000	1.038058e+001	-2.072577e+001	8.276828e+000	-2.862846e+000	-9.929964e+001
2410227700	-4.568306e+000	-1.237464e+002	1.071718e+000	9.915794e+000	-2.074496e+001	8.008597e+000	-2.848815e+000	-9.959684e+001
2420227400	-4.552109e+000	-1.238916e+002	1.006527e+000	9.487994e+000	-2.078792e+001	7.730906e+000	-2.845327e+000	-9.999811e+001
2430227100	-4.530403e+000	-1.241056e+002	9.578423e-001	9.024983e+000	-2.080152e+001	7.290288e+000	-2.832595e+000	-1.003169e+002
2440226800	-4.521154e+000	-1.243173e+002	8.972056e-001	8.545633e+000	-2.081549e+001	7.137880e+000	-2.832665e+000	-1.007029e+002
2450226500	-4.505120e+000	-1.244968e+002	8.390480e-001	8.160066e+000	-2.077494e+001	7.142302e+000	-2.821167e+000	-1.010366e+002
2460226200	-4.492733e+000	-1.247111e+002	7.838810e-001	7.694449e+000	-2.084562e+001	6.754081e+000	-2.814770e+000	-1.014178e+002
2470225900	-4.482426e+000	-1.249347e+002	7.328309e-001	7.187693e+000	-2.079996e+001	6.670048e+000	-2.806470e+000	-1.016870e+002
2480225600	-4.473572e+000	-1.251172e+002	6.701316e-001	6.744174e+000	-2.076924e+001	6.119645e+000	-2.796178e+000	-1.019867e+002
2490225300	-4.461235e+000	-1.252375e+002	6.148876e-001	6.318946e+000	-2.077464e+001	5.864976e+000	-2.772472e+000	-1.022836e+002
2500225000	-4.450768e+000	-1.255325e+002	5.757211e-001	5.885347e+000	-2.078934e+001	5.475195e+000	-2.751131e+000	-1.026148e+002
2510224700	-4.451101e+000	-1.257143e+002	5.032502e-001	5.329699e+000	-2.082797e+001	5.260055e+000	-2.743281e+000	-1.029836e+002
2520224400	-4.441405e+000	-1.259162e+002	4.540402e-001	4.932705e+000	-2.079838e+001	5.163725e+000	-2.725234e+000	-1.033318e+002
2530224100	-4.430099e+000	-1.260445e+002	3.858610e-001	4.588649e+000	-2.084617e+001	5.233290e+000	-2.729593e+000	-1.036897e+002
2540223800	-4.437236e+000	-1.262863e+002	3.345515e-001	4.093133e+000	-2.081401e+001	4.888398e+000	-2.727969e+000	-1.039804e+002
2550223500	-4.435399e+000	-1.264866e+002	2.841621e-001	3.565647e+000	-2.079131e+001	4.918447e+000	-2.722025e+000	-1.043294e+002
2560223200	-4.420273e+000	-1.266513e+002	2.318199e-001	3.284473e+000	-2.078403e+001	4.719531e+000	-2.720766e+000	-1.046803e+002
2570222900	-4.404497e+000	-1.268472e+002	1.816968e-001	2.834080e+000	-2.075352e+001	4.314854e+000	-2.724804e+000	-1.049552e+002
2580222600	-4.394465e+000	-1.270827e+002	1.409991e-001	2.373317e+000	-2.070612e+001	4.024481e+000	-2.716707e+000	-1.052784e+002
2590222300	-4.381787e+000	-1.272601e+002	8.114316e-002	1.953525e+000	-2.070367e+001	3.555068e+000	-2.713204e+000	-1.055318e+002
2600222000	-4.369423e+000	-1.275077e+002	3.109368e-002	1.492293e+000	-2.069909e+001	2.854850e+000	-2.695224e+000	-1.057939e+002
2610221700	-4.363398e+000	-1.276628e+002	-3.877106e-002	9.965357e-001	-2.068849e+001	2.354554e+000	-2.685998e+000	-1.061139e+002
2620221400	-4.337408e+000	-1.279441e+002	-6.947132e-002	6.073564e-001	-2.073029e+001	2.117484e+000	-2.674979e+000	-1.064261e+002
2630221100	-4.325534e+000	-1.281489e+002	-1.304423e-001	1.115914e-001	-2.077454e+001	1.545810e+000	-2.664049e+000	-1.067622e+002
2640220800	-4.315522e+000	-1.282854e+002	-1.856157e-001	-2.596686e-001	-2.081305e+001	1.333782e+000	-2.647941e+000	-1.071078e+002
2650220500	-4.313592e+000	-1.285371e+002	-2.410666e-001	-7.896986e-001	-2.080380e+001	1.168916e+000	-2.635332e+000	-1.074757e+002
2660220200	-4.302485e+000	-1.286490e+002	-2.921190e-001	-1.159719e+000	-2.086224e+001	8.455200e-001	-2.636364e+000	-1.077445e+002
2670219900	-4.283835e+000	-1.288426e+002	-3.353782e-001	-1.547073e+000	-2.085181e+001	4.986016e-001	-2.620344e+000	-1.081134e+002
2680219600	-4.283380e+000	-1.290243e+002	-3.894478e-001	-2.016270e+000	-2.085694e+001	4.310069e-001	-2.608134e+000	-1.084038e+002
2690219300	-4.270947e+000	-1.292494e+002	-4.435838e-001	-2.405378e+000	-2.085975e+001	1.773022e-001	-2.603482e+000	-1.087685e+002
2700219000	-4.268104e+000	-1.295104e+002	-4.962499e-001	-2.864508e+000	-2.088387e+001	1.022323e-001	-2.601311e+000	-1.090561e+002
2710218700	-4.254084e+000	-1.297082e+002	-5.474048e-001	-3.260083e+000	-2.087564e+001	4.949261e-002	-2.601768e+000	-1.093131e+002
2720218400	-4.251350e+000	-1.299676e+002	-5.932594e-001	-3.660507e+000	-2.088201e+001	-2.152103e-001	-2.601990e+000	-1.096375e+002
2730218100	-4.254191e+000	-1.302222e+002	-6.584505e-001	-4.102279e+000	-2.085979e+001	-4.450895e-001	-2.591654e+000	-1.100159e+002
2740217800	-4.242461e+000	-1.304897e+002	-6.959770e-001	-4.479619e+000	-2.090628e+001	-8.711636e-001	-2.591462e+000	-1.103242e+002
2750217500	-4.243967e+000	-1.307464e+002	-7.524462e-001	-4.980792e+000	-2.093272e+001	-8.530334e-001	-2.590027e+000	-1.106698e+002
2760217200	-4.234756e+000	-1.309660e+002	-8.019339e-001	-5.318875e+000	-2.089487e+001	-7.590966e-001	-2.594005e+000	-1.110400e+002
2770216900	-4.224198e+000	-1.312546e+002	-8.412403e-001	-5.718032e+000	-2.087517e+001	-1.035922e+000	-2.587552e+000	-1.113729e+002
2780216600	-4.224465e+000	-1.314900e+002	-8.988770e-001	-6.219775e+000	-2.083621e+001	-1.217745e+000	-2.588262e+000	-1.117091e+002
2790216300	-4.204593e+000	-1.316391e+002	-9.474759e-001	-6.508465e+000	-2.083220e+001	-1.500809e+000	-2.584052e+000	-1.120796e+002
2800216000	-4.200211e+000	-1.318762e+002	-9.895247e-001	-6.985003e+000	-2.081421e+001	-1.790347e+000	-2.593008e+000	-1.122892e+002
2810215700	-4.182587e+000	-1.321168e+002	-1.023828e+000	-7.356018e+000	-2.077438e+001	-2.307308e+000	-2.585958e+000	-1.125005e+002
2820215400	-4.182353e+000	-1.322748e+002	-1.076086e+000	-7.821648e+000	-2.073094e+001	-2.887111e+000	-2.575711e+000	-1.127222e+002
2830215100	-4.165190e+000	-1.324794e+002	-1.127050e+000	-8.191309e+000	-2.077678e+001	-3.387446e+000	-2.555821e+000	-1.130130e+002
2840214800	-4.144936e+000	-1.327210e+002	-1.170732e+000	-8.627694e+000	-2.080318e+001	-3.964675e+000	-2.545547e+000	-1.132600e+002
2850214500	-4.135537e+000	-1.329620e+002	-1.210492e+000	-9.058791e+000	-2.079543e+001	-4.168798e+000	-2.546016e+000	-1.136006e+002
2860214200	-4.137216e+000	-1.331423e+002	-1.269582e+000	-9.490405e+000	-2.085025e+001	-4.421710e+000	-2.528136e+000	-1.138965e+002
2870213900	-4.133211e+000	-1.334305e+002	-1.321549e+000	-9.977043e+000	-2.087576e+001	-4.768107e+000	-2.515995e+000	-1.141969e+002
2880213600	-4.126420e+000	-1.336901e+002	-1.359260e+000	-1.039058e+001	-2.090426e+001	-5.018281e+000	-2.508087e+000	-1.145329e+002
2890213300	-4.121532e+000	-1.338965e+002	-1.424755e+000	-1.074463e+001	-2.089478e+001	-5.202818e+000	-2.503930e+000	-1.149476e+002
2900213000	-4.121415e+000	-1.341155e+002	-1.478776e+000	-1.111881e+001	-2.094834e+001	-5.441525e+000	-2.496411e+000	-1.152931e+002
2910212700	-4.109864e+000	-1.343829e+002	-1.525191e+000	-1.157555e+001	-2.091845e+001	-5.629929e+000	-2.496000e+000	-1.156146e+002
2920212400	-4.108089e+000	-1.346237e+002	-1.576444e+000	-1.199569e+001	-2.095421e+001	-5.761014e+000	-2.498897e+000	-1.160285e+002
2930212100	-4.100116e+000	-1.349142e+002	-1.618676e+000	-1.245286e+001	-2.099485e+001	-6.138837e+000	-2.500680e+000	-1.163888e+002
2940211800	-4.088888e+000	-1.351713e+002	-1.675158e+000	-1.280943e+001	-2.098960e+001	-6.316403e+000	-2.495993e+000	-1.166939e+002
2950211500	-4.073089e+000	-1.354210e+002	-1.728953e+000	-1.316483e+001	-2.101357e+001	-6.403672e+000	-2.501843e+000	-1.170092e+002
2960211200	-4.058823e+000	-1.356475e+002	-1.769469e+000	-1.348341e+001	-2.100804e+001	-6.496204e+000	-2.500222e+000	-1.173246e+002
2970210900	-4.051716e+000	-1.358998e+002	-1.817290e+000	-1.394184e+001	-2.099242e+001	-6.620153e+000	-2.493799e+000	-1.176840e+002
2980210600	-4.042486e+000	-1.362095e+002	-1.849964e+000	-1.434445e+001	-2.098892e+001	-7.016365e+000	-2.483503e+000	-1.179897e+002
2990210300	-4.033818e+000	-1.363580e+002	-1.900110e+000	-1.472909e+001	-2.100897e+001	-6.956494e+000	-2.491175e+000	-1.182531e+002
3000210000	-4.029195e+000	-1.366574e+002	-1.948841e+000	-1.513826e+001	-2.100617e+001	-7.306705e+000	-2.483564e+000	-1.185592e+002
3010209700	-4.021611e+000	-1.368862e+002	-1.997604e+000	-1.556580e+001	-2.097434e+001	-7.445319e+000	-2.495158e+000	-1.188276e+002
3020209400	-4.015489e+000	-1.371126e+002	-2.034590e+000	-1.593641e+001	-2.095801e+001	-7.736737e+000	-2.490898e+000	-1.191520e+002
3030209100	-4.026255e+000	-1.373940e+002	-2.088844e+000	-1.635280e+001	-2.095395e+001	-8.004144e+000	-2.489595e+000	-1.193983e+002
3040208800	-4.016445e+000	-1.375696e+002	-2.135833e+000	-1.669393e+001	-2.091614e+001	-8.346833e+000	-2.494142e+000	-1.196107e+002
3050208500	-4.013470e+000	-1.377936e+002	-2.180758e+000	-1.704506e+001	-2.090102e+001	-9.016118e+000	-2.479542e+000	-1.198454e+002
3060208200	-4.011780e+000	-1.380892e+002	-2.222370e+000	-1.757008e+001	-2.091067e+001	-9.399448e+000	-2.472929e+000	-1.201848e+002
3070207900	-4.009239e+000	-1.383933e+002	-2.274122e+000	-1.800124e+001	-2.093358e+001	-9.777401e+000	-2.457397e+000	-1.204934e+002
3080207600	-3.995317e+000	-1.387039e+002	-2.321621e+000	-1.834785e+001	-2.098822e+001	-1.012016e+001	-2.450649e+000	-1.208982e+002
3090207300	-3.991584e+000	-1.389958e+002	-2.357553e+000	-1.878692e+001	-2.101746e+001	-1.026258e+001	-2.453090e+000	-1.212255e+002
3100207000	-3.982028e+000	-1.392055e+002	-2.419441e+000	-1.917840e+001	-2.105751e+001	-1.037337e+001	-2.452704e+000	-1.215568e+002
3110206700	-3.974381e+000	-1.394508e+002	-2.460271e+000	-1.960412e+001	-2.106347e+001	-1.071769e+001	-2.447657e+000	-1.219344e+002
3120206400	-3.971505e+000	-1.397626e+002	-2.512628e+000	-1.997743e+001	-2.106487e+001	-1.079562e+001	-2.449507e+000	-1.222980e+002
3130206100	-3.948338e+000	-1.399887e+002	-2.557645e+000	-2.032388e+001	-2.110650e+001	-1.115849e+001	-2.437448e+000	-1.226099e+002
3140205800	-3.943239e+000	-1.402361e+002	-2.592338e+000	-2.072432e+001	-2.110762e+001	-1.141893e+001	-2.446493e+000	-1.229564e+002
3150205500	-3.940573e+000	-1.404689e+002	-2.640776e+000	-2.118739e+001	-2.109066e+001	-1.154702e+001	-2.441374e+000	-1.233133e+002
3160205200	-3.927168e+000	-1.406492e+002	-2.689366e+000	-2.157499e+001	-2.112371e+001	-1.173226e+001	-2.440815e+000	-1.235899e+002
3170204900	-3.916077e+000	-1.408826e+002	-2.735988e+000	-2.191629e+001	-2.114639e+001	-1.219130e+001	-2.437852e+000	-1.239243e+002
3180204600	-3.910861e+000	-1.411939e+002	-2.775936e+000	-2.234223e+001	-2.109358e+001	-1.241634e+001	-2.441422e+000	-1.242345e+002
3190204300	-3.906850e+000	-1.414502e+002	-2.826267e+000	-2.276405e+001	-2.114725e+001	-1.276145e+001	-2.435564e+000	-1.244686e+002
3200204000	-3.902758e+000	-1.416544e+002	-2.877750e+000	-2.312152e+001	-2.113498e+001	-1.300777e+001	-2.430386e+000	-1.248262e+002
3210203700	-3.903336e+000	-1.419623e+002	-2.914270e+000	-2.355580e+001	-2.114817e+001	-1.298946e+001	-2.423869e+000	-1.251721e+002
3220203400	-3.893744e+000	-1.422452e+002	-2.953038e+000	-2.390664e+001	-2.115941e+001	-1.322147e+001	-2.421898e+000	-1.254828e+002
3230203100	-3.892878e+000	-1.425707e+002	-3.007195e+000	-2.432768e+001	-2.115458e+001	-1.313290e+001	-2.428667e+000	-1.258467e+002
3240202800	-3.884856e+000	-1.429011e+002	-3.057927e+000	-2.467537e+001	-2.114013e+001	-1.347600e+001	-2.438314e+000	-1.261813e+002
3250202500	-3.891103e+000	-1.431742e+002	-3.107697e+000	-2.508228e+001	-2.117295e+001	-1.385855e+001	-2.436867e+000	-1.265141e+002
3260202200	-3.874620e+000	-1.434650e+002	-3.152188e+000	-2.539606e+001	-2.118475e+001	-1.386081e+001	-2.444289e+000	-1.268028e+002
3270201900	-3.863193e+000	-1.438314e+002	-3.189217e+000	-2.569364e+001	-2.118155e+001	-1.387375e+001	-2.447194e+000	-1.271304e+002
3280201600	-3.864648e+000	-1.440737e+002	-3.230997e+000	-2.625449e+001	-2.116349e+001	-1.449536e+001	-2.446371e+000	-1.274139e+002
3290201300	-3.851399e+000	-1.443358e+002	-3.269270e+000	-2.663955e+001	-2.117998e+001	-1.496821e+001	-2.431428e+000	-1.277007e+002
3300201000	-3.846172e+000	-1.446361e+002	-3.320141e+000	-2.705309e+001	-2.121139e+001	-1.512898e+001	-2.426424e+000	-1.280321e+002
3310200700	-3.834517e+000	-1.449096e+002	-3.351593e+000	-2.742464e+001	-2.123058e+001	-1.548807e+001	-2.412802e+000	-1.283954e+002
3320200400	-3.827730e+000	-1.451608e+002	-3.407642e+000	-2.784995e+001	-2.123416e+001	-1.549252e+001	-2.409187e+000	-1.287279e+002
3330200100	-3.828760e+000	-1.453988e+002	-3.449760e+000	-2.824273e+001	-2.123733e+001	-1.593640e+001	-2.408804e+000	-1.290451e+002
3340199800	-3.809736e+000	-1.456212e+002	-3.489576e+000	-2.856669e+001	-2.123137e+001	-1.601229e+001	-2.412191e+000	-1.293437e+002
3350199500	-3.806942e+000	-1.458613e+002	-3.532448e+000	-2.898626e+001	-2.122180e+001	-1.646681e+001	-2.413689e+000	-1.297197e+002
3360199200	-3.799769e+000	-1.461126e+002	-3.585106e+000	-2.934941e+001	-2.124743e+001	-1.678556e+001	-2.406939e+000	-1.299575e+002
3370198900	-3.796772e+000	-1.463315e+002	-3.631561e+000	-2.971892e+001	-2.122694e+001	-1.709808e+001	-2.392330e+000	-1.303020e+002
3380198600	-3.793566e+000	-1.466039e+002	-3.681824e+000	-3.006110e+001	-2.125930e+001	-1.697007e+001	-2.391251e+000	-1.305853e+002
3390198300	-3.792586e+000	-1.469086e+002	-3.726443e+000	-3.051664e+001	-2.123820e+001	-1.742783e+001	-2.386062e+000	-1.308928e+002
3400198000	-3.789520e+000	-1.471895e+002	-3.761513e+000	-3.091501e+001	-2.129844e+001	-1.796594e+001	-2.385915e+000	-1.313073e+002
3410197700	-3.786957e+000	-1.474337e+002	-3.811873e+000	-3.135787e+001	-2.130381e+001	-1.795474e+001	-2.395512e+000	-1.316439e+002
3420197400	-3.770342e+000	-1.477705e+002	-3.845758e+000	-3.171110e+001	-2.134300e+001	-1.833209e+001	-2.401516e+000	-1.319933e+002
3430197100	-3.766350e+000	-1.480941e+002	-3.903804e+000	-3.216147e+001	-2.137152e+001	-1.846837e+001	-2.403622e+000	-1.323414e+002
3440196800	-3.755351e+000	-1.484324e+002	-3.943439e+000	-3.258016e+001	-2.139229e+001	-1.890231e+001	-2.407169e+000	-1.327549e+002
3450196500	-3.744711e+000	-1.487512e+002	-3.997788e+000	-3.302152e+001	-2.142114e+001	-1.886239e+001	-2.406477e+000	-1.331359e+002
3460196200	-3.734824e+000	-1.490787e+002	-4.052083e+000	-3.335634e+001	-2.142846e+001	-1.903931e+001	-2.407762e+000	-1.335097e+002
3470195900	-3.734337e+000	-1.493949e+002	-4.096499e+000	-3.376051e+001	-2.145596e+001	-1.943153e+001	-2.413933e+000	-1.339156e+002
3480195600	-3.715342e+000	-1.496578e+002	-4.139701e+000	-3.402478e+001	-2.149651e+001	-1.947095e+001	-2.419789e+000	-1.342467e+002
3490195300	-3.716724e+000	-1.499665e+002	-4.200948e+000	-3.442007e+001	-2.149548e+001	-1.973358e+001	-2.426413e+000	-1.345708e+002
3500195000	-3.709218e+000	-1.502243e+002	-4.228924e+000	-3.476086e+001	-2.146859e+001	-1.970003e+001	-2.425154e+000	-1.348811e+002
3510194700	-3.704900e+000	-1.505433e+002	-4.267920e+000	-3.508462e+001	-2.146596e+001	-1.991556e+001	-2.422333e+000	-1.351370e+002
3520194400	-3.698089e+000	-1.507352e+002	-4.318395e+000	-3.540798e+001	-2.142318e+001	-1.977477e+001	-2.405403e+000	-1.354946e+002
3530194100	-3.697959e+000	-1.510269e+002	-4.355664e+000	-3.581190e+001	-2.137764e+001	-1.983907e+001	-2.387242e+000	-1.357984e+002
3540193800	-3.698716e+000	-1.512057e+002	-4.398925e+000	-3.619885e+001	-2.138038e+001	-2.015205e+001	-2.383387e+000	-1.360423e+002
3550193500	-3.696492e+000	-1.514777e+002	-4.440683e+000	-3.652083e+001	-2.134262e+001	-2.041700e+001	-2.377681e+000	-1.362732e+002
3560193200	-3.691308e+000	-1.517994e+002	-4.477506e+000	-3.702652e+001	-2.137477e+001	-2.097622e+001	-2.392024e+000	-1.365923e+002
3570192900	-3.684522e+000	-1.520665e+002	-4.518398e+000	-3.742401e+001	-2.137947e+001	-2.154690e+001	-2.389455e+000	-1.368723e+002
3580192600	-3.677759e+000	-1.523822e+002	-4.559743e+000	-3.785055e+001	-2.140959e+001	-2.196026e+001	-2.386749e+000	-1.372338e+002
3590192300	-3.664361e+000	-1.527307e+002	-4.608694e+000	-3.826368e+001	-2.146806e+001	-2.248177e+001	-2.392860e+000	-1.375930e+002
3600192000	-3.648911e+000	-1.530628e+002	-4.654313e+000	-3.862671e+001	-2.150339e+001	-2.278528e+001	-2.382705e+000	-1.379783e+002
3610191700	-3.649976e+000	-1.534053e+002	-4.711924e+000	-3.910784e+001	-2.156974e+001	-2.303820e+001	-2.396003e+000	-1.383713e+002
3620191400	-3.633876e+000	-1.536558e+002	-4.762405e+000	-3.947010e+001	-2.160194e+001	-2.312050e+001	-2.394408e+000	-1.388384e+002
3630191100	-3.629156e+000	-1.539593e+002	-4.799477e+000	-3.984815e+001	-2.159455e+001	-2.329818e+001	-2.393332e+000	-1.392251e+002
3640190800	-3.610374e+000	-1.542582e+002	-4.841499e+000	-4.020072e+001	-2.162731e+001	-2.362196e+001	-2.397608e+000	-1.396184e+002
3650190500	-3.602601e+000	-1.545721e+002	-4.902236e+000	-4.052694e+001	-2.163921e+001	-2.384767e+001	-2.389648e+000	-1.400154e+002
3660190200	-3.596026e+000	-1.548179e+002	-4.945154e+000	-4.094991e+001	-2.164623e+001	-2.400074e+001	-2.394553e+000	-1.403602e+002
3670189900	-3.593741e+000	-1.551292e+002	-4.988103e+000	-4.131091e+001	-2.167959e+001	-2.422105e+001	-2.391017e+000	-1.407105e+002
3680189600	-3.586436e+000	-1.553851e+002	-5.043400e+000	-4.171916e+001	-2.165644e+001	-2.425987e+001	-2.383890e+000	-1.411133e+002
3690189300	-3.581468e+000	-1.557107e+002	-5.091693e+000	-4.201691e+001	-2.163762e+001	-2.436794e+001	-2.383479e+000	-1.414724e+002
3700189000	-3.577462e+000	-1.559589e+002	-5.150453e+000	-4.237953e+001	-2.166230e+001	-2.410984e+001	-2.367448e+000	-1.417716e+002
3710188700	-3.576525e+000	-1.563593e+002	-5.191026e+000	-4.275095e+001	-2.170270e+001	-2.406197e+001	-2.372269e+000	-1.420091e+002
3720188400	-3.575452e+000	-1.566425e+002	-5.239475e+000	-4.304658e+001	-2.171671e+001	-2.405828e+001	-2.376807e+000	-1.423163e+002
3730188100	-3.578282e+000	-1.569717e+002	-5.272722e+000	-4.342948e+001	-2.171298e+001	-2.409305e+001	-2.390476e+000	-1.426574e+002
3740187800	-3.582214e+000	-1.572835e+002	-5.316721e+000	-4.374030e+001	-2.168856e+001	-2.435523e+001	-2.401116e+000	-1.429533e+002
3750187500	-3.569308e+000	-1.575533e+002	-5.348902e+000	-4.395442e+001	-2.161958e+001	-2.472004e+001	-2.410443e+000	-1.432724e+002
3760187200	-3.573661e+000	-1.578631e+002	-5.397887e+000	-4.439689e+001	-2.161850e+001	-2.495180e+001	-2.417872e+000	-1.435992e+002
3770186900	-3.557247e+000	-1.580945e+002	-5.422811e+000	-4.480867e+001	-2.160613e+001	-2.556024e+001	-2.428606e+000	-1.438827e+002
3780186600	-3.550189e+000	-1.583988e+002	-5.464043e+000	-4.522393e+001	-2.157953e+001	-2.611920e+001	-2.427040e+000	-1.442772e+002
3790186300	-3.536570e+000	-1.585976e+002	-5.510310e+000	-4.575573e+001	-2.159127e+001	-2.692132e+001	-2.424218e+000	-1.445974e+002
3800186000	-3.513726e+000	-1.589196e+002	-5.553344e+000	-4.613847e+001	-2.163685e+001	-2.766231e+001	-2.411352e+000	-1.449750e+002
3810185700	-3.495523e+000	-1.592476e+002	-5.597266e+000	-4.665201e+001	-2.169786e+001	-2.813484e+001	-2.400321e+000	-1.453706e+002
3820185400	-3.484509e+000	-1.595230e+002	-5.655242e+000	-4.700904e+001	-2.175953e+001	-2.832208e+001	-2.385276e+000	-1.457149e+002
3830185100	-3.467273e+000	-1.597838e+002	-5.704272e+000	-4.734538e+001	-2.179793e+001	-2.862219e+001	-2.375783e+000	-1.461279e+002
3840184800	-3.450582e+000	-1.601230e+002	-5.755168e+000	-4.774756e+001	-2.184583e+001	-2.856755e+001	-2.360633e+000	-1.465386e+002
3850184500	-3.454747e+000	-1.604076e+002	-5.825358e+000	-4.812797e+001	-2.185449e+001	-2.887972e+001	-2.350602e+000	-1.469269e+002
3860184200	-3.447568e+000	-1.607140e+002	-5.869036e+000	-4.849313e+001	-2.189487e+001	-2.858825e+001	-2.334894e+000	-1.473353e+002
3870183900	-3.452689e+000	-1.610066e+002	-5.925926e+000	-4.889215e+001	-2.193007e+001	-2.849047e+001	-2.332710e+000	-1.476946e+002
3880183600	-3.451605e+000	-1.613079e+002	-5.980764e+000	-4.927283e+001	-2.196679e+001	-2.839326e+001	-2.333406e+000	-1.480074e+002
3890183300	-3.442200e+000	-1.616492e+002	-6.026786e+000	-4.956063e+001	-2.202658e+001	-2.869419e+001	-2.353951e+000	-1.483336e+002
3900183000	-3.442634e+000	-1.620011e+002	-6.079091e+000	-4.988164e+001	-2.207545e+001	-2.852659e+001	-2.372922e+000	-1.486621e+002
3910182700	-3.446856e+000	-1.623365e+002	-6.130305e+000	-5.022937e+001	-2.208278e+001	-2.863563e+001	-2.383583e+000	-1.490216e+002
3920182400	-3.442235e+000	-1.626337e+002	-6.169339e+000	-5.048967e+001	-2.207810e+001	-2.872483e+001	-2.396454e+000	-1.493469e+002
3930182100	-3.435859e+000	-1.629587e+002	-6.224362e+000	-5.084981e+001	-2.207407e+001	-2.860065e+001	-2.397692e+000	-1.497498e+002
3940181800	-3.422804e+000	-1.632750e+002	-6.266009e+000	-5.113123e+001	-2.208346e+001	-2.874110e+001	-2.404511e+000	-1.501147e+002
3950181500	-3.414757e+000	-1.636051e+002	-6.307806e+000	-5.150671e+001	-2.206655e+001	-2.861892e+001	-2.411902e+000	-1.505052e+002
3960181200	-3.406218e+000	-1.638724e+002	-6.350844e+000	-5.170339e+001	-2.198161e+001	-2.866802e+001	-2.418325e+000	-1.508905e+002
3970180900	-3.403259e+000	-1.641546e+002	-6.384924e+000	-5.205387e+001	-2.191819e+001	-2.891760e+001	-2.431368e+000	-1.512043e+002
3980180600	-3.393111e+000	-1.644097e+002	-6.413112e+000	-5.242782e+001	-2.184855e+001	-2.954134e+001	-2.422430e+000	-1.515046e+002
3990180300	-3.379224e+000	-1.645642e+002	-6.458453e+000	-5.277751e+001	-2.179620e+001	-3.033686e+001	-2.418600e+000	-1.517981e+002
4000180000	-3.365169e+000	-1.648292e+002	-6.493029e+000	-5.319992e+001	-2.175315e+001	-3.110734e+001	-2.408211e+000	-1.521095e+002
4010179700	-3.353378e+000	-1.650160e+002	-6.537930e+000	-5.364399e+001	-2.179145e+001	-3.182723e+001	-2.387734e+000	-1.523983e+002
4020179400	-3.337355e+000	-1.652815e+002	-6.570125e+000	-5.412821e+001	-2.178767e+001	-3.255447e+001	-2.369117e+000	-1.527332e+002
4030179100	-3.325768e+000	-1.655249e+002	-6.624602e+000	-5.457943e+001	-2.188854e+001	-3.284276e+001	-2.354308e+000	-1.530185e+002
4040178800	-3.315790e+000	-1.658057e+002	-6.681505e+000	-5.514735e+001	-2.195019e+001	-3.332061e+001	-2.340400e+000	-1.533825e+002
4050178500	-3.309215e+000	-1.661272e+002	-6.745858e+000	-5.553193e+001	-2.208869e+001	-3.351149e+001	-2.337160e+000	-1.536641e+002
4060178200	-3.292221e+000	-1.664966e+002	-6.808354e+000	-5.586331e+001	-2.218460e+001	-3.375855e+001	-2.332570e+000	-1.540713e+002
4070177900	-3.283620e+000	-1.668519e+002	-6.850761e+000	-5.629457e+001	-2.228163e+001	-3.387268e+001	-2.341002e+000	-1.544763e+002
4080177600	-3.281887e+000	-1.671849e+002	-6.933175e+000	-5.665006e+001	-2.236867e+001	-3.392209e+001	-2.348708e+000	-1.548188e+002
4090177300	-3.270862e+000	-1.675301e+002	-6.988845e+000	-5.699270e+001	-2.241093e+001	-3.380651e+001	-2.353083e+000	-1.552309e+002
4100177000	-3.268937e+000	-1.679008e+002	-7.034352e+000	-5.724710e+001	-2.248849e+001	-3.379170e+001	-2.362620e+000	-1.556864e+002
4110176700	-3.262020e+000	-1.682983e+002	-7.099733e+000	-5.764177e+001	-2.250177e+001	-3.354889e+001	-2.365099e+000	-1.560747e+002
4120176400	-3.257899e+000	-1.685972e+002	-7.160005e+000	-5.790804e+001	-2.256065e+001	-3.329150e+001	-2.370863e+000	-1.564962e+002
4130176100	-3.247007e+000	-1.689233e+002	-7.217577e+000	-5.814236e+001	-2.254198e+001	-3.293158e+001	-2.366945e+000	-1.568576e+002
4140175800	-3.242072e+000	-1.692485e+002	-7.269786e+000	-5.833914e+001	-2.254069e+001	-3.279603e+001	-2.364844e+000	-1.572843e+002
4150175500	-3.242764e+000	-1.695690e+002	-7.313479e+000	-5.861071e+001	-2.249823e+001	-3.259732e+001	-2.372870e+000	-1.577099e+002
4160175200	-3.242148e+000	-1.697589e+002	-7.372883e+000	-5.873236e+001	-2.240926e+001	-3.237131e+001	-2.375776e+000	-1.580521e+002
4170174900	-3.244648e+000	-1.700003e+002	-7.403372e+000	-5.907935e+001	-2.227967e+001	-3.227975e+001	-2.384562e+000	-1.583910e+002
4180174600	-3.238945e+000	-1.701765e+002	-7.419918e+000	-5.913508e+001	-2.210017e+001	-3.229841e+001	-2.390955e+000	-1.586546e+002
4190174300	-3.241346e+000	-1.703640e+002	-7.456132e+000	-5.952706e+001	-2.199112e+001	-3.307292e+001	-2.388465e+000	-1.588338e+002
4200174000	-3.229293e+000	-1.704992e+002	-7.464787e+000	-5.991307e+001	-2.189997e+001	-3.383031e+001	-2.381533e+000	-1.589936e+002
4210173700	-3.216915e+000	-1.706514e+002	-7.500793e+000	-6.045185e+001	-2.188495e+001	-3.513678e+001	-2.368284e+000	-1.591671e+002
4220173400	-3.198319e+000	-1.709168e+002	-7.530585e+000	-6.098653e+001	-2.197466e+001	-3.611382e+001	-2.361073e+000	-1.594801e+002
4230173100	-3.188620e+000	-1.711938e+002	-7.592839e+000	-6.141858e+001	-2.209576e+001	-3.660108e+001	-2.360256e+000	-1.597518e+002
4240172800	-3.171912e+000	-1.714782e+002	-7.629567e+000	-6.190266e+001	-2.216512e+001	-3.751908e+001	-2.354297e+000	-1.601158e+002
4250172500	-3.155562e+000	-1.717630e+002	-7.683724e+000	-6.232659e+001	-2.222902e+001	-3.824254e+001	-2.354907e+000	-1.604268e+002
4260172200	-3.132051e+000	-1.720985e+002	-7.731902e+000	-6.284873e+001	-2.233471e+001	-3.899176e+001	-2.355558e+000	-1.608364e+002
4270171900	-3.111986e+000	-1.724436e+002	-7.792498e+000	-6.335038e+001	-2.246149e+001	-3.929391e+001	-2.345726e+000	-1.611930e+002
4280171600	-3.094233e+000	-1.727666e+002	-7.852889e+000	-6.375884e+001	-2.255812e+001	-3.967356e+001	-2.336223e+000	-1.616291e+002
4290171300	-3.084249e+000	-1.731328e+002	-7.926257e+000	-6.411937e+001	-2.266568e+001	-3.977479e+001	-2.328886e+000	-1.619959e+002
4300171000	-3.067774e+000	-1.734711e+002	-7.992526e+000	-6.446204e+001	-2.276555e+001	-3.979213e+001	-2.314675e+000	-1.624169e+002
4310170700	-3.061713e+000	-1.738012e+002	-8.069241e+000	-6.486095e+001	-2.284086e+001	-3.959635e+001	-2.300895e+000	-1.628280e+002
4320170400	-3.045474e+000	-1.740865e+002	-8.150680e+000	-6.514113e+001	-2.290985e+001	-3.945619e+001	-2.300808e+000	-1.632971e+002
4330170100	-3.035258e+000	-1.743719e+002	-8.213849e+000	-6.536907e+001	-2.294542e+001	-3.914957e+001	-2.282067e+000	-1.636899e+002
4340169800	-3.024854e+000	-1.746697e+002	-8.280333e+000	-6.557555e+001	-2.296041e+001	-3.845187e+001	-2.266328e+000	-1.640981e+002
4350169500	-3.024146e+000	-1.749957e+002	-8.343199e+000	-6.585834e+001	-2.297042e+001	-3.783157e+001	-2.270795e+000	-1.644299e+002
4360169200	-3.034398e+000	-1.752813e+002	-8.413022e+000	-6.605227e+001	-2.298008e+001	-3.709416e+001	-2.274953e+000	-1.647341e+002
4370168900	-3.040450e+000	-1.755696e+002	-8.475975e+000	-6.614682e+001	-2.293660e+001	-3.635473e+001	-2.296545e+000	-1.651016e+002
4380168600	-3.058608e+000	-1.757993e+002	-8.515349e+000	-6.623252e+001	-2.281799e+001	-3.568134e+001	-2.316147e+000	-1.653588e+002
4390168300	-3.072477e+000	-1.760364e+002	-8.541369e+000	-6.628250e+001	-2.266093e+001	-3.589145e+001	-2.343539e+000	-1.656413e+002
4400168000	-3.069563e+000	-1.761649e+002	-8.535780e+000	-6.644514e+001	-2.244406e+001	-3.663826e+001	-2.360856e+000	-1.658034e+002
4410167700	-3.057113e+000	-1.762865e+002	-8.523000e+000	-6.680357e+001	-2.234742e+001	-3.796522e+001	-2.376030e+000	-1.659232e+002
4420167400	-3.038188e+000	-1.764684e+002	-8.545469e+000	-6.735619e+001	-2.233783e+001	-3.977205e+001	-2.365222e+000	-1.661819e+002
4430167100	-3.009350e+000	-1.766806e+002	-8.575214e+000	-6.800902e+001	-2.239785e+001	-4.108239e+001	-2.350961e+000	-1.664737e+002
4440166800	-2.985045e+000	-1.769809e+002	-8.629513e+000	-6.855404e+001	-2.250570e+001	-4.182718e+001	-2.327775e+000	-1.667988e+002
4450166500	-2.964081e+000	-1.772654e+002	-8.704214e+000	-6.903886e+001	-2.263101e+001	-4.260614e+001	-2.311136e+000	-1.672795e+002
4460166200	-2.946428e+000	-1.775851e+002	-8.779217e+000	-6.951650e+001	-2.273894e+001	-4.289635e+001	-2.300162e+000	-1.676814e+002
4470165900	-2.926878e+000	-1.778443e+002	-8.830470e+000	-6.977781e+001	-2.279402e+001	-4.315244e+001	-2.294242e+000	-1.680329e+002
4480165600	-2.907550e+000	-1.780860e+002	-8.885815e+000	-7.024190e+001	-2.280510e+001	-4.369738e+001	-2.284547e+000	-1.683758e+002
4490165300	-2.889292e+000	-1.783613e+002	-8.944238e+000	-7.065279e+001	-2.286720e+001	-4.410489e+001	-2.259320e+000	-1.686363e+002
4500165000	-2.875758e+000	-1.786009e+002	-9.008742e+000	-7.113105e+001	-2.296998e+001	-4.418217e+001	-2.235562e+000	-1.689556e+002
4510164700	-2.856415e+000	-1.788922e+002	-9.084465e+000	-7.154464e+001	-2.312489e+001	-4.462468e+001	-2.216625e+000	-1.692837e+002
4520164400	-2.842784e+000	-1.791873e+002	-9.161964e+000	-7.188216e+001	-2.321316e+001	-4.443437e+001	-2.210547e+000	-1.696042e+002
4530164100	-2.841084e+000	-1.794797e+002	-9.231207e+000	-7.228729e+001	-2.338452e+001	-4.424267e+001	-2.212485e+000	-1.698892e+002
4540163800	-2.832929e+000	-1.797347e+002	-9.325441e+000	-7.257608e+001	-2.351667e+001	-4.397305e+001	-2.210156e+000	-1.702465e+002
4550163500	-2.824626e+000	1.799690e+002	-9.418838e+000	-7.270960e+001	-2.358979e+001	-4.346865e+001	-2.211162e+000	-1.706405e+002
4560163200	-2.832907e+000	1.796147e+002	-9.485227e+000	-7.300135e+001	-2.363883e+001	-4.270686e+001	-2.223423e+000	-1.710528e+002
4570162900	-2.833316e+000	1.793091e+002	-9.560690e+000	-7.302620e+001	-2.364969e+001	-4.178962e+001	-2.236265e+000	-1.714479e+002
4580162600	-2.840299e+000	1.789940e+002	-9.632989e+000	-7.306121e+001	-2.356267e+001	-4.112229e+001	-2.256179e+000	-1.719124e+002
4590162300	-2.846471e+000	1.787110e+002	-9.671998e+000	-7.295442e+001	-2.344683e+001	-4.041225e+001	-2.283015e+000	-1.722061e+002
4600162000	-2.856899e+000	1.785104e+002	-9.686588e+000	-7.289900e+001	-2.319788e+001	-4.009055e+001	-2.307787e+000	-1.724956e+002
4610161700	-2.857457e+000	1.783793e+002	-9.673152e+000	-7.312917e+001	-2.299158e+001	-4.110868e+001	-2.322350e+000	-1.727076e+002
4620161400	-2.845403e+000	1.782421e+002	-9.665987e+000	-7.353580e+001	-2.285683e+001	-4.243885e+001	-2.319810e+000	-1.728524e+002
4630161100	-2.819581e+000	1.781325e+002	-9.682218e+000	-7.394463e+001	-2.282579e+001	-4.410183e+001	-2.289917e+000	-1.729978e+002
4640160800	-2.796759e+000	1.779491e+002	-9.708610e+000	-7.455367e+001	-2.285552e+001	-4.531739e+001	-2.257635e+000	-1.731418e+002
4650160500	-2.770131e+000	1.777408e+002	-9.762597e+000	-7.525427e+001	-2.299433e+001	-4.629361e+001	-2.220825e+000	-1.734195e+002
4660160200	-2.745933e+000	1.775601e+002	-9.827603e+000	-7.582264e+001	-2.314664e+001	-4.700405e+001	-2.195648e+000	-1.737176e+002
4670159900	-2.722133e+000	1.773059e+002	-9.905757e+000	-7.620247e+001	-2.326639e+001	-4.728440e+001	-2.173317e+000	-1.740453e+002
4680159600	-2.708009e+000	1.770606e+002	-9.975593e+000	-7.664999e+001	-2.341029e+001	-4.728205e+001	-2.165254e+000	-1.744028e+002
4690159300	-2.696272e+000	1.768169e+002	-1.006531e+001	-7.694517e+001	-2.350348e+001	-4.747015e+001	-2.165162e+000	-1.747712e+002
4700159000	-2.679285e+000	1.765639e+002	-1.012061e+001	-7.717107e+001	-2.353022e+001	-4.769562e+001	-2.165677e+000	-1.750754e+002
4710158700	-2.678167e+000	1.763454e+002	-1.017901e+001	-7.753548e+001	-2.358433e+001	-4.789838e+001	-2.174620e+000	-1.753943e+002
4720158400	-2.666095e+000	1.761033e+002	-1.021759e+001	-7.793276e+001	-2.362611e+001	-4.814882e+001	-2.175711e+000	-1.756488e+002
4730158100	-2.650160e+000	1.758343e+002	-1.028502e+001	-7.830558e+001	-2.373015e+001	-4.872830e+001	-2.169567e+000	-1.759689e+002
4740157800	-2.641421e+000	1.755404e+002	-1.036659e+001	-7.872910e+001	-2.387496e+001	-4.874527e+001	-2.162336e+000	-1.763575e+002
4750157500	-2.630725e+000	1.752832e+002	-1.045985e+001	-7.905383e+001	-2.401838e+001	-4.878505e+001	-2.160842e+000	-1.767011e+002
4760157200	-2.621006e+000	1.750035e+002	-1.054087e+001	-7.935236e+001	-2.413181e+001	-4.847883e+001	-2.171911e+000	-1.770550e+002
4770156900	-2.615178e+000	1.746678e+002	-1.062689e+001	-7.958230e+001	-2.419123e+001	-4.809203e+001	-2.172814e+000	-1.774329e+002
4780156600	-2.615677e+000	1.743617e+002	-1.072724e+001	-7.967392e+001	-2.425702e+001	-4.735028e+001	-2.166199e+000	-1.777541e+002
4790156300	-2.607871e+000	1.741223e+002	-1.081473e+001	-7.966286e+001	-2.431011e+001	-4.595148e+001	-2.160936e+000	-1.780658e+002
4800156000	-2.612187e+000	1.738994e+002	-1.088899e+001	-7.957626e+001	-2.419410e+001	-4.484957e+001	-2.165645e+000	-1.783660e+002
4810155700	-2.614772e+000	1.737018e+002	-1.092335e+001	-7.928999e+001	-2.401326e+001	-4.386733e+001	-2.174093e+000	-1.785558e+002
4820155400	-2.613176e+000	1.735753e+002	-1.090110e+001	-7.931980e+001	-2.377826e+001	-4.420477e+001	-2.184546e+000	-1.786342e+002
4830155100	-2.606627e+000	1.735191e+002	-1.088847e+001	-7.967444e+001	-2.361701e+001	-4.564749e+001	-2.179485e+000	-1.787785e+002
4840154800	-2.589060e+000	1.733942e+002	-1.090531e+001	-8.018847e+001	-2.363645e+001	-4.719135e+001	-2.161234e+000	-1.789540e+002
4850154500	-2.573049e+000	1.732015e+002	-1.096914e+001	-8.073117e+001	-2.370454e+001	-4.785137e+001	-2.148539e+000	-1.792053e+002
4860154200	-2.561359e+000	1.730500e+002	-1.100430e+001	-8.109062e+001	-2.373124e+001	-4.865792e+001	-2.147161e+000	-1.794318e+002
4870153900	-2.547574e+000	1.729203e+002	-1.102743e+001	-8.147396e+001	-2.376380e+001	-4.979984e+001	-2.144763e+000	-1.796505e+002
4880153600	-2.531893e+000	1.726981e+002	-1.108603e+001	-8.209410e+001	-2.387572e+001	-5.090329e+001	-2.122155e+000	-1.798433e+002
4890153300	-2.510836e+000	1.724659e+002	-1.115159e+001	-8.256697e+001	-2.406097e+001	-5.146228e+001	-2.101265e+000	1.798866e+002
4900153000	-2.502438e+000	1.722314e+002	-1.124125e+001	-8.302336e+001	-2.418531e+001	-5.173328e+001	-2.079414e+000	1.794835e+002
4910152700	-2.487976e+000	1.720089e+002	-1.133202e+001	-8.331107e+001	-2.433292e+001	-5.183726e+001	-2.075392e+000	1.791391e+002
4920152400	-2.472897e+000	1.717507e+002	-1.138959e+001	-8.353821e+001	-2.440497e+001	-5.158396e+001	-2.065532e+000	1.787326e+002
4930152100	-2.466446e+000	1.715175e+002	-1.147149e+001	-8.379483e+001	-2.441918e+001	-5.104496e+001	-2.065523e+000	1.783730e+002
4940151800	-2.459076e+000	1.712900e+002	-1.153064e+001	-8.410536e+001	-2.444566e+001	-5.098630e+001	-2.060842e+000	1.780625e+002
4950151500	-2.441548e+000	1.710873e+002	-1.159905e+001	-8.436421e+001	-2.452993e+001	-5.119000e+001	-2.052358e+000	1.778359e+002
4960151200	-2.425940e+000	1.708824e+002	-1.167406e+001	-8.465628e+001	-2.462259e+001	-5.122916e+001	-2.045385e+000	1.775930e+002
4970150900	-2.409680e+000	1.706432e+002	-1.175873e+001	-8.491545e+001	-2.476002e+001	-5.094470e+001	-2.049757e+000	1.773273e+002
4980150600	-2.403270e+000	1.704413e+002	-1.184864e+001	-8.519617e+001	-2.481526e+001	-5.033010e+001	-2.060964e+000	1.770725e+002
4990150300	-2.391218e+000	1.702143e+002	-1.192763e+001	-8.524841e+001	-2.485768e+001	-5.039376e+001	-2.072480e+000	1.768123e+002
5000150000	-2.382823e+000	1.700082e+002	-1.200750e+001	-8.539630e+001	-2.489868e+001	-4.984409e+001	-2.067408e+000	1.767282e+002
5010149700	-2.382570e+000	1.697822e+002	-1.207693e+001	-8.553126e+001	-2.494692e+001	-4.952100e+001	-2.063201e+000	1.765446e+002
5020149400	-2.380306e+000	1.696076e+002	-1.214020e+001	-8.550452e+001	-2.492856e+001	-4.876987e+001	-2.060230e+000	1.763168e+002
5030149100	-2.388880e+000	1.694682e+002	-1.220408e+001	-8.543035e+001	-2.481601e+001	-4.845246e+001	-2.061192e+000	1.760751e+002
5040148800	-2.391952e+000	1.694016e+002	-1.219474e+001	-8.531083e+001	-2.462085e+001	-4.850167e+001	-2.078076e+000	1.759154e+002
5050148500	-2.388440e+000	1.693084e+002	-1.217625e+001	-8.572301e+001	-2.449349e+001	-5.019408e+001	-2.066201e+000	1.757785e+002
5060148200	-2.376906e+000	1.691963e+002	-1.220295e+001	-8.633922e+001	-2.455297e+001	-5.150562e+001	-2.034309e+000	1.755905e+002
5070147900	-2.355846e+000	1.690342e+002	-1.226964e+001	-8.681345e+001	-2.469099e+001	-5.239131e+001	-2.011632e+000	1.753083e+002
5080147600	-2.341755e+000	1.687678e+002	-1.234402e+001	-8.727914e+001	-2.482097e+001	-5.275943e+001	-1.993202e+000	1.750120e+002
5090147300	-2.333734e+000	1.685891e+002	-1.242826e+001	-8.756235e+001	-2.492154e+001	-5.261053e+001	-1.981698e+000	1.746899e+002
5100147000	-2.321711e+000	1.683850e+002	-1.246827e+001	-8.777183e+001	-2.495946e+001	-5.252825e+001	-1.969729e+000	1.743634e+002
5110146700	-2.307287e+000	1.682567e+002	-1.253845e+001	-8.803655e+001	-2.499980e+001	-5.268709e+001	-1.966061e+000	1.741506e+002
5120146400	-2.291758e+000	1.680908e+002	-1.260220e+001	-8.829891e+001	-2.506616e+001	-5.296436e+001	-1.952566e+000	1.739996e+002
5130146100	-2.282469e+000	1.678608e+002	-1.268404e+001	-8.876053e+001	-2.519432e+001	-5.311731e+001	-1.938381e+000	1.738020e+002
5140145800	-2.265930e+000	1.676982e+002	-1.276098e+001	-8.906923e+001	-2.533589e+001	-5.316881e+001	-1.931341e+000	1.735964e+002
5150145500	-2.245232e+000	1.675009e+002	-1.285820e+001	-8.938299e+001	-2.546005e+001	-5.287780e+001	-1.918706e+000	1.733064e+002
5160145200	-2.235019e+000	1.672730e+002	-1.295162e+001	-8.956097e+001	-2.558138e+001	-5.237530e+001	-1.914770e+000	1.729511e+002
5170144900	-2.230999e+000	1.671504e+002	-1.304594e+001	-8.964960e+001	-2.564305e+001	-5.203318e+001	-1.915472e+000	1.726490e+002
5180144600	-2.224893e+000	1.669723e+002	-1.312752e+001	-8.980510e+001	-2.565954e+001	-5.103720e+001	-1.932720e+000	1.723056e+002
5190144300	-2.213685e+000	1.668283e+002	-1.318835e+001	-8.973627e+001	-2.567098e+001	-5.097798e+001	-1.953215e+000	1.720673e+002
5200144000	-2.216641e+000	1.667092e+002	-1.326574e+001	-8.967024e+001	-2.559560e+001	-5.005807e+001	-1.984123e+000	1.718450e+002
5210143700	-2.206100e+000	1.665657e+002	-1.327606e+001	-8.962839e+001	-2.548605e+001	-5.060914e+001	-1.998450e+000	1.718796e+002
5220143400	-2.203298e+000	1.663728e+002	-1.329855e+001	-8.998283e+001	-2.551162e+001	-5.135073e+001	-1.984045e+000	1.718801e+002
5230143100	-2.191641e+000	1.661920e+002	-1.335633e+001	-9.041107e+001	-2.560144e+001	-5.226298e+001	-1.956189e+000	1.717402e+002
5240142800	-2.192826e+000	1.659779e+002	-1.342925e+001	-9.072381e+001	-2.572705e+001	-5.182285e+001	-1.920999e+000	1.715216e+002
5250142500	-2.183403e+000	1.658457e+002	-1.352654e+001	-9.076458e+001	-2.584306e+001	-5.105639e+001	-1.900211e+000	1.712003e+002
5260142200	-2.183741e+000	1.656507e+002	-1.360784e+001	-9.071569e+001	-2.580538e+001	-5.022031e+001	-1.900711e+000	1.709212e+002
5270141900	-2.195596e+000	1.655167e+002	-1.364376e+001	-9.063488e+001	-2.564931e+001	-4.985869e+001	-1.902741e+000	1.707274e+002
5280141600	-2.190975e+000	1.654630e+002	-1.363723e+001	-9.070277e+001	-2.547359e+001	-5.046739e+001	-1.901639e+000	1.707108e+002
5290141300	-2.170442e+000	1.653819e+002	-1.363756e+001	-9.118661e+001	-2.547993e+001	-5.197370e+001	-1.879242e+000	1.706447e+002
5300141000	-2.143113e+000	1.652587e+002	-1.368925e+001	-9.179663e+001	-2.565253e+001	-5.267725e+001	-1.855795e+000	1.705429e+002
5310140700	-2.127449e+000	1.650813e+002	-1.379311e+001	-9.232384e+001	-2.583799e+001	-5.312693e+001	-1.837096e+000	1.702935e+002
5320140400	-2.113525e+000	1.648726e+002	-1.388051e+001	-9.264170e+001	-2.601367e+001	-5.277648e+001	-1.820696e+000	1.700063e+002
5330140100	-2.109104e+000	1.647647e+002	-1.399594e+001	-9.265793e+001	-2.610441e+001	-5.242301e+001	-1.828835e+000	1.696659e+002
5340139800	-2.092518e+000	1.646406e+002	-1.406559e+001	-9.275493e+001	-2.614731e+001	-5.191494e+001	-1.828192e+000	1.693896e+002
5350139500	-2.095923e+000	1.645190e+002	-1.414779e+001	-9.307783e+001	-2.621822e+001	-5.219657e+001	-1.826702e+000	1.692123e+002
5360139200	-2.078180e+000	1.644209e+002	-1.423025e+001	-9.331256e+001	-2.637327e+001	-5.209045e+001	-1.817747e+000	1.689389e+002
5370138900	-2.066065e+000	1.642464e+002	-1.432885e+001	-9.344564e+001	-2.649261e+001	-5.127175e+001	-1.825246e+000	1.686861e+002
5380138600	-2.062056e+000	1.640966e+002	-1.441988e+001	-9.348095e+001	-2.654390e+001	-5.087103e+001	-1.830531e+000	1.684084e+002
5390138300	-2.054931e+000	1.639656e+002	-1.450529e+001	-9.352725e+001	-2.660637e+001	-5.030248e+001	-1.836393e+000	1.681829e+002
5400138000	-2.055244e+000	1.637868e+002	-1.459843e+001	-9.349032e+001	-2.665861e+001	-4.960434e+001	-1.832590e+000	1.678901e+002
5410137700	-2.051502e+000	1.636339e+002	-1.470295e+001	-9.353774e+001	-2.671050e+001	-4.866181e+001	-1.831775e+000	1.676796e+002
5420137400	-2.049754e+000	1.634559e+002	-1.475870e+001	-9.333110e+001	-2.667510e+001	-4.741378e+001	-1.830059e+000	1.674674e+002
5430137100	-2.048488e+000	1.633425e+002	-1.483622e+001	-9.295297e+001	-2.650461e+001	-4.614354e+001	-1.851064e+000	1.672728e+002
5440136800	-2.050263e+000	1.631643e+002	-1.486308e+001	-9.260791e+001	-2.632807e+001	-4.528080e+001	-1.873103e+000	1.671299e+002
5450136500	-2.054658e+000	1.631433e+002	-1.483408e+001	-9.221303e+001	-2.595449e+001	-4.559907e+001	-1.917835e+000	1.673063e+002
5460136200	-2.045781e+000	1.630966e+002	-1.475516e+001	-9.276403e+001	-2.584639e+001	-4.785877e+001	-1.908972e+000	1.676517e+002
5470135900	-2.025037e+000	1.629806e+002	-1.478803e+001	-9.363746e+001	-2.607005e+001	-4.946582e+001	-1.858657e+000	1.677865e+002
5480135600	-2.012766e+000	1.628065e+002	-1.490762e+001	-9.431739e+001	-2.636354e+001	-5.007619e+001	-1.814337e+000	1.674758e+002
5490135300	-2.010546e+000	1.626353e+002	-1.504569e+001	-9.438377e+001	-2.656542e+001	-4.914427e+001	-1.795811e+000	1.671963e+002
5500135000	-2.007308e+000	1.625251e+002	-1.514815e+001	-9.419805e+001	-2.655867e+001	-4.756437e+001	-1.798672e+000	1.668257e+002
5510134700	-2.010259e+000	1.624550e+002	-1.521820e+001	-9.390707e+001	-2.644429e+001	-4.670691e+001	-1.801404e+000	1.666207e+002
5520134400	-2.012411e+000	1.624306e+002	-1.522646e+001	-9.397205e+001	-2.633471e+001	-4.729291e+001	-1.813895e+000	1.664937e+002
5530134100	-1.991684e+000	1.624496e+002	-1.522994e+001	-9.419725e+001	-2.629848e+001	-4.834348e+001	-1.817050e+000	1.664269e+002
5540133800	-1.977714e+000	1.623275e+002	-1.528387e+001	-9.472958e+001	-2.646139e+001	-4.931320e+001	-1.792205e+000	1.662711e+002
5550133500	-1.970350e+000	1.622077e+002	-1.539922e+001	-9.525119e+001	-2.666421e+001	-4.931860e+001	-1.772218e+000	1.660282e+002
5560133200	-1.958675e+000	1.620261e+002	-1.552407e+001	-9.545825e+001	-2.688669e+001	-4.820880e+001	-1.757809e+000	1.656969e+002
5570132900	-1.962244e+000	1.618829e+002	-1.562533e+001	-9.529040e+001	-2.688838e+001	-4.717752e+001	-1.761274e+000	1.653626e+002
5580132600	-1.957699e+000	1.617660e+002	-1.570844e+001	-9.515861e+001	-2.693894e+001	-4.601013e+001	-1.760994e+000	1.651899e+002
5590132300	-1.950449e+000	1.616588e+002	-1.580043e+001	-9.515439e+001	-2.690960e+001	-4.561109e+001	-1.745074e+000	1.649348e+002
5600132000	-1.943276e+000	1.615005e+002	-1.589175e+001	-9.531725e+001	-2.697173e+001	-4.445343e+001	-1.743008e+000	1.647852e+002
5610131700	-1.940574e+000	1.613153e+002	-1.602244e+001	-9.503786e+001	-2.710595e+001	-4.266164e+001	-1.749800e+000	1.645532e+002
5620131400	-1.937512e+000	1.612102e+002	-1.614821e+001	-9.449534e+001	-2.698334e+001	-4.043241e+001	-1.779294e+000	1.643642e+002
5630131100	-1.941107e+000	1.610232e+002	-1.624596e+001	-9.380178e+001	-2.677166e+001	-3.867214e+001	-1.808152e+000	1.642188e+002
5640130800	-1.948866e+000	1.609049e+002	-1.625511e+001	-9.299110e+001	-2.643680e+001	-3.770853e+001	-1.854019e+000	1.641147e+002
5650130500	-1.955399e+000	1.609180e+002	-1.620873e+001	-9.235209e+001	-2.609191e+001	-3.792755e+001	-1.883992e+000	1.641393e+002
5660130200	-1.951526e+000	1.609246e+002	-1.618216e+001	-9.237081e+001	-2.590937e+001	-3.923156e+001	-1.903731e+000	1.641641e+002
5670129900	-1.943800e+000	1.608570e+002	-1.619300e+001	-9.235590e+001	-2.583734e+001	-3.947527e+001	-1.903996e+000	1.640404e+002
5680129600	-1.953370e+000	1.608109e+002	-1.621871e+001	-9.192825e+001	-2.560344e+001	-3.928537e+001	-1.925113e+000	1.639519e+002
5690129300	-1.954953e+000	1.607538e+002	-1.614433e+001	-9.146790e+001	-2.533208e+001	-3.994426e+001	-1.960708e+000	1.640071e+002
5700129000	-1.954291e+000	1.609302e+002	-1.598662e+001	-9.154867e+001	-2.502527e+001	-4.223816e+001	-1.984219e+000	1.642989e+002
5710128700	-1.934783e+000	1.609071e+002	-1.589907e+001	-9.275878e+001	-2.511787e+001	-4.566288e+001	-1.938681e+000	1.645718e+002
5720128400	-1.914754e+000	1.608020e+002	-1.598681e+001	-9.421180e+001	-2.549894e+001	-4.785965e+001	-1.866945e+000	1.645303e+002
5730128100	-1.904168e+000	1.606402e+002	-1.618577e+001	-9.482419e+001	-2.590218e+001	-4.707424e+001	-1.812080e+000	1.642329e+002
5740127800	-1.908258e+000	1.604486e+002	-1.636532e+001	-9.460965e+001	-2.606059e+001	-4.484665e+001	-1.792856e+000	1.638763e+002
5750127500	-1.918038e+000	1.603868e+002	-1.643001e+001	-9.403759e+001	-2.590677e+001	-4.336576e+001	-1.797599e+000	1.636002e+002
5760127200	-1.919398e+000	1.603568e+002	-1.644475e+001	-9.360337e+001	-2.574191e+001	-4.320203e+001	-1.804588e+000	1.635186e+002
5770126900	-1.911073e+000	1.603455e+002	-1.645367e+001	-9.372304e+001	-2.572539e+001	-4.343947e+001	-1.807836e+000	1.635370e+002
5780126600	-1.897950e+000	1.602914e+002	-1.650100e+001	-9.387696e+001	-2.577533e+001	-4.376489e+001	-1.817114e+000	1.635087e+002
5790126300	-1.891892e+000	1.601756e+002	-1.658878e+001	-9.410290e+001	-2.579619e+001	-4.335701e+001	-1.810969e+000	1.634039e+002
5800126000	-1.883858e+000	1.600412e+002	-1.671573e+001	-9.383755e+001	-2.589941e+001	-4.205028e+001	-1.817954e+000	1.631703e+002
5810125700	-1.891005e+000	1.599593e+002	-1.679117e+001	-9.315482e+001	-2.574398e+001	-4.063106e+001	-1.844636e+000	1.629317e+002
5820125400	-1.894715e+000	1.599652e+002	-1.679649e+001	-9.252540e+001	-2.548833e+001	-4.013909e+001	-1.878600e+000	1.627324e+002
5830125100	-1.888013e+000	1.598797e+002	-1.682223e+001	-9.230129e+001	-2.535702e+001	-4.017512e+001	-1.886934e+000	1.626599e+002
5840124800	-1.891089e+000	1.598066e+002	-1.685715e+001	-9.175075e+001	-2.521728e+001	-3.946324e+001	-1.907100e+000	1.625032e+002
5850124500	-1.901223e+000	1.598002e+002	-1.686623e+001	-9.064798e+001	-2.485154e+001	-3.852370e+001	-1.956054e+000	1.623073e+002
5860124200	-1.918440e+000	1.598390e+002	-1.674874e+001	-8.967804e+001	-2.439017e+001	-3.866943e+001	-2.012992e+000	1.623643e+002
5870123900	-1.920613e+000	1.599413e+002	-1.650635e+001	-8.926240e+001	-2.391688e+001	-4.100185e+001	-2.064285e+000	1.626513e+002
5880123600	-1.922701e+000	1.600938e+002	-1.626937e+001	-8.975800e+001	-2.360335e+001	-4.388039e+001	-2.069569e+000	1.631034e+002
5890123300	-1.903016e+000	1.602401e+002	-1.610855e+001	-9.085321e+001	-2.355054e+001	-4.751347e+001	-2.037248e+000	1.635100e+002
5900123000	-1.873309e+000	1.602906e+002	-1.604540e+001	-9.239953e+001	-2.364392e+001	-5.037963e+001	-1.980325e+000	1.637486e+002
5910122700	-1.846277e+000	1.602707e+002	-1.610062e+001	-9.375647e+001	-2.396002e+001	-5.229617e+001	-1.917983e+000	1.638549e+002
5920122400	-1.837248e+000	1.601648e+002	-1.618363e+001	-9.436954e+001	-2.419669e+001	-5.282183e+001	-1.871880e+000	1.638477e+002
5930122100	-1.833779e+000	1.600862e+002	-1.625914e+001	-9.475669e+001	-2.427708e+001	-5.297624e+001	-1.868988e+000	1.638621e+002
5940121800	-1.824509e+000	1.600900e+002	-1.626452e+001	-9.519571e+001	-2.431444e+001	-5.389920e+001	-1.855434e+000	1.639561e+002
5950121500	-1.807229e+000	1.601009e+002	-1.629292e+001	-9.584491e+001	-2.440273e+001	-5.532661e+001	-1.831850e+000	1.640179e+002
5960121200	-1.788179e+000	1.599690e+002	-1.637080e+001	-9.693100e+001	-2.463931e+001	-5.633258e+001	-1.798794e+000	1.640206e+002
5970120900	-1.781831e+000	1.598198e+002	-1.656977e+001	-9.739403e+001	-2.500144e+001	-5.637133e+001	-1.759951e+000	1.637415e+002
5980120600	-1.775479e+000	1.597124e+002	-1.674971e+001	-9.736480e+001	-2.520986e+001	-5.486173e+001	-1.745541e+000	1.633962e+002
5990120300	-1.784948e+000	1.596137e+002	-1.682440e+001	-9.658017e+001	-2.517380e+001	-5.287828e+001	-1.755713e+000	1.630335e+002
6000120000	-1.789190e+000	1.596843e+002	-1.683853e+001	-9.600290e+001	-2.491889e+001	-5.219608e+001	-1.777053e+000	1.629140e+002
6010119700	-1.790339e+000	1.597347e+002	-1.681213e+001	-9.575568e+001	-2.472580e+001	-5.256007e+001	-1.800143e+000	1.628847e+002
6020119400	-1.771644e+000	1.597474e+002	-1.675415e+001	-9.590008e+001	-2.457338e+001	-5.348482e+001	-1.806550e+000	1.629583e+002
6030119100	-1.761742e+000	1.597757e+002	-1.672347e+001	-9.626407e+001	-2.451229e+001	-5.477340e+001	-1.801584e+000	1.629955e+002
6040118800	-1.748712e+000	1.597766e+002	-1.673376e+001	-9.672281e+001	-2.457236e+001	-5.550375e+001	-1.783546e+000	1.629604e+002
6050118500	-1.754428e+000	1.597506e+002	-1.676383e+001	-9.671673e+001	-2.455947e+001	-5.568163e+001	-1.777640e+000	1.629386e+002
6060118200	-1.746893e+000	1.597151e+002	-1.674099e+001	-9.682507e+001	-2.445999e+001	-5.611685e+001	-1.768807e+000	1.629003e+002
6070117900	-1.741657e+000	1.597235e+002	-1.672934e+001	-9.703744e+001	-2.445680e+001	-5.685840e+001	-1.761349e+000	1.630143e+002
6080117600	-1.730209e+000	1.597537e+002	-1.671888e+001	-9.716296e+001	-2.436494e+001	-5.742971e+001	-1.759120e+000	1.631706e+002
6090117300	-1.723946e+000	1.598152e+002	-1.665150e+001	-9.743986e+001	-2.425516e+001	-5.861614e+001	-1.760010e+000	1.634408e+002
6100117000	-1.707014e+000	1.598369e+002	-1.659272e+001	-9.820626e+001	-2.421944e+001	-6.061557e+001	-1.752124e+000	1.636900e+002
6110116700	-1.694639e+000	1.598112e+002	-1.659622e+001	-9.919342e+001	-2.431591e+001	-6.243347e+001	-1.718820e+000	1.638455e+002
6120116400	-1.677232e+000	1.597996e+002	-1.663449e+001	-1.001059e+002	-2.443505e+001	-6.400226e+001	-1.688539e+000	1.638563e+002
6130116100	-1.655397e+000	1.597762e+002	-1.671104e+001	-1.009527e+002	-2.463670e+001	-6.535393e+001	-1.661824e+000	1.638153e+002
6140115800	-1.635937e+000	1.597078e+002	-1.678144e+001	-1.015276e+002	-2.483991e+001	-6.613408e+001	-1.632035e+000	1.636377e+002
6150115500	-1.630962e+000	1.595987e+002	-1.687457e+001	-1.022754e+002	-2.501970e+001	-6.678597e+001	-1.616915e+000	1.634521e+002
6160115200	-1.617109e+000	1.595943e+002	-1.698636e+001	-1.026121e+002	-2.520261e+001	-6.681826e+001	-1.591753e+000	1.633371e+002
6170114900	-1.608750e+000	1.594890e+002	-1.706212e+001	-1.030029e+002	-2.531695e+001	-6.730083e+001	-1.586288e+000	1.632609e+002
6180114600	-1.596834e+000	1.594619e+002	-1.713968e+001	-1.033595e+002	-2.546961e+001	-6.754134e+001	-1.569124e+000	1.631388e+002
6190114300	-1.590855e+000	1.593949e+002	-1.722776e+001	-1.038149e+002	-2.558956e+001	-6.805199e+001	-1.551550e+000	1.630349e+002
6200114000	-1.582821e+000	1.593313e+002	-1.734020e+001	-1.041192e+002	-2.576130e+001	-6.813428e+001	-1.529593e+000	1.628765e+002
6210113700	-1.581985e+000	1.592101e+002	-1.742149e+001	-1.044242e+002	-2.593769e+001	-6.798395e+001	-1.517569e+000	1.627349e+002
6220113400	-1.578527e+000	1.591503e+002	-1.755610e+001	-1.046111e+002	-2.616972e+001	-6.760631e+001	-1.502526e+000	1.626275e+002
6230113100	-1.578542e+000	1.590700e+002	-1.768615e+001	-1.043598e+002	-2.633549e+001	-6.626817e+001	-1.475216e+000	1.625037e+002
6240112800	-1.585135e+000	1.590584e+002	-1.776696e+001	-1.039843e+002	-2.637715e+001	-6.494957e+001	-1.478497e+000	1.624888e+002
6250112500	-1.593631e+000	1.590518e+002	-1.779465e+001	-1.034230e+002	-2.624257e+001	-6.398099e+001	-1.497406e+000	1.625692e+002
6260112200	-1.590155e+000	1.591058e+002	-1.774748e+001	-1.032848e+002	-2.609086e+001	-6.415680e+001	-1.517098e+000	1.626648e+002
6270111900	-1.578114e+000	1.591648e+002	-1.772870e+001	-1.035188e+002	-2.596344e+001	-6.496122e+001	-1.514287e+000	1.627319e+002
6280111600	-1.564094e+000	1.591287e+002	-1.774480e+001	-1.039436e+002	-2.601108e+001	-6.556233e+001	-1.501853e+000	1.627646e+002
6290111300	-1.560976e+000	1.591190e+002	-1.777656e+001	-1.041377e+002	-2.602868e+001	-6.610201e+001	-1.499251e+000	1.627151e+002
6300111000	-1.547041e+000	1.591609e+002	-1.783030e+001	-1.043801e+002	-2.598672e+001	-6.658881e+001	-1.501787e+000	1.626683e+002
6310110700	-1.543358e+000	1.591423e+002	-1.782751e+001	-1.046939e+002	-2.602008e+001	-6.715895e+001	-1.498138e+000	1.625812e+002
6320110400	-1.531680e+000	1.591353e+002	-1.785579e+001	-1.050356e+002	-2.605658e+001	-6.787510e+001	-1.480828e+000	1.626050e+002
6330110100	-1.528740e+000	1.591296e+002	-1.789569e+001	-1.053401e+002	-2.610152e+001	-6.856261e+001	-1.472610e+000	1.625718e+002
6340109800	-1.512574e+000	1.591142e+002	-1.792221e+001	-1.058402e+002	-2.617266e+001	-6.915102e+001	-1.463381e+000	1.625630e+002
6350109500	-1.507106e+000	1.591059e+002	-1.797604e+001	-1.062466e+002	-2.625183e+001	-7.006178e+001	-1.448014e+000	1.624998e+002
6360109200	-1.497099e+000	1.590606e+002	-1.803594e+001	-1.065400e+002	-2.637587e+001	-7.084407e+001	-1.436226e+000	1.624851e+002
6370108900	-1.495205e+000	1.590299e+002	-1.811456e+001	-1.071238e+002	-2.647837e+001	-7.119794e+001	-1.415538e+000	1.623861e+002
6380108600	-1.492749e+000	1.590397e+002	-1.817616e+001	-1.073173e+002	-2.661005e+001	-7.148372e+001	-1.406370e+000	1.623406e+002
6390108300	-1.485150e+000	1.589590e+002	-1.826749e+001	-1.076608e+002	-2.672596e+001	-7.173060e+001	-1.384143e+000	1.623942e+002
6400108000	-1.478805e+000	1.589510e+002	-1.832098e+001	-1.078901e+002	-2.684963e+001	-7.186624e+001	-1.369625e+000	1.624251e+002
6410107700	-1.473739e+000	1.588919e+002	-1.840398e+001	-1.081511e+002	-2.697746e+001	-7.184923e+001	-1.364838e+000	1.624579e+002
6420107400	-1.468584e+000	1.588538e+002	-1.845743e+001	-1.084707e+002	-2.711766e+001	-7.180267e+001	-1.361854e+000	1.624368e+002
6430107100	-1.459154e+000	1.588234e+002	-1.853365e+001	-1.086573e+002	-2.724466e+001	-7.222207e+001	-1.352978e+000	1.624275e+002
6440106800	-1.454870e+000	1.587406e+002	-1.862504e+001	-1.089551e+002	-2.736086e+001	-7.215902e+001	-1.345911e+000	1.623486e+002
6450106500	-1.457932e+000	1.586960e+002	-1.868753e+001	-1.090268e+002	-2.749685e+001	-7.191932e+001	-1.335187e+000	1.622659e+002
6460106200	-1.452386e+000	1.587159e+002	-1.879641e+001	-1.091635e+002	-2.764970e+001	-7.166145e+001	-1.335334e+000	1.621700e+002
6470105900	-1.459509e+000	1.586495e+002	-1.891894e+001	-1.092673e+002	-2.779728e+001	-7.065116e+001	-1.333075e+000	1.620769e+002
6480105600	-1.459679e+000	1.586350e+002	-1.902889e+001	-1.089745e+002	-2.789371e+001	-6.975333e+001	-1.324604e+000	1.620065e+002
6490105300	-1.462504e+000	1.586389e+002	-1.910170e+001	-1.087505e+002	-2.792164e+001	-6.880661e+001	-1.328856e+000	1.619263e+002
6500105000	-1.461482e+000	1.587230e+002	-1.914460e+001	-1.085159e+002	-2.783727e+001	-6.761659e+001	-1.334440e+000	1.618510e+002
6510104700	-1.468468e+000	1.587229e+002	-1.916777e+001	-1.081334e+002	-2.773705e+001	-6.720522e+001	-1.343587e+000	1.618507e+002
6520104400	-1.463038e+000	1.587535e+002	-1.914576e+001	-1.080851e+002	-2.758955e+001	-6.708034e+001	-1.342299e+000	1.617933e+002
6530104100	-1.459000e+000	1.588054e+002	-1.914569e+001	-1.082213e+002	-2.754919e+001	-6.767363e+001	-1.336164e+000	1.618392e+002
6540103800	-1.451807e+000	1.588071e+002	-1.914274e+001	-1.083434e+002	-2.748932e+001	-6.828405e+001	-1.333996e+000	1.618344e+002
6550103500	-1.444855e+000	1.588323e+002	-1.914561e+001	-1.086137e+002	-2.744042e+001	-6.919124e+001	-1.323839e+000	1.619596e+002
6560103200	-1.437179e+000	1.588410e+002	-1.915706e+001	-1.090644e+002	-2.749582e+001	-7.001253e+001	-1.315190e+000	1.620522e+002
6570102900	-1.430023e+000	1.588100e+002	-1.917838e+001	-1.093674e+002	-2.759015e+001	-7.085624e+001	-1.311475e+000	1.620847e+002
6580102600	-1.419291e+000	1.588048e+002	-1.922703e+001	-1.097847e+002	-2.769564e+001	-7.124541e+001	-1.301929e+000	1.621423e+002
6590102300	-1.415525e+000	1.587588e+002	-1.929355e+001	-1.099833e+002	-2.780946e+001	-7.186842e+001	-1.296835e+000	1.621371e+002
6600102000	-1.412970e+000	1.586859e+002	-1.934873e+001	-1.105157e+002	-2.793417e+001	-7.206682e+001	-1.286985e+000	1.621009e+002
6610101700	-1.409324e+000	1.587170e+002	-1.942038e+001	-1.108241e+002	-2.803101e+001	-7.246168e+001	-1.278268e+000	1.620230e+002
6620101400	-1.410039e+000	1.586967e+002	-1.950630e+001	-1.108751e+002	-2.818915e+001	-7.215734e+001	-1.269001e+000	1.620155e+002
6630101100	-1.407085e+000	1.586291e+002	-1.957392e+001	-1.110640e+002	-2.835656e+001	-7.252949e+001	-1.265440e+000	1.619691e+002
6640100800	-1.409225e+000	1.585938e+002	-1.966056e+001	-1.113524e+002	-2.846179e+001	-7.231288e+001	-1.262755e+000	1.619259e+002
6650100500	-1.411641e+000	1.586363e+002	-1.973568e+001	-1.114219e+002	-2.856169e+001	-7.175814e+001	-1.256475e+000	1.619056e+002
6660100200	-1.422069e+000	1.586233e+002	-1.982811e+001	-1.112299e+002	-2.867493e+001	-7.158932e+001	-1.249810e+000	1.618989e+002
6670099900	-1.425939e+000	1.586380e+002	-1.989026e+001	-1.112469e+002	-2.871464e+001	-7.105272e+001	-1.246072e+000	1.618513e+002
6680099600	-1.433482e+000	1.587083e+002	-1.998160e+001	-1.112764e+002	-2.882100e+001	-7.016101e+001	-1.244565e+000	1.618186e+002
6690099300	-1.432819e+000	1.587437e+002	-2.002409e+001	-1.112236e+002	-2.883206e+001	-6.964771e+001	-1.235011e+000	1.618066e+002
6700099000	-1.433222e+000	1.587811e+002	-2.007314e+001	-1.111476e+002	-2.888055e+001	-6.945451e+001	-1.229241e+000	1.617924e+002
6710098700	-1.432288e+000	1.587970e+002	-2.012366e+001	-1.111403e+002	-2.893319e+001	-6.916060e+001	-1.229250e+000	1.618693e+002
6720098400	-1.423005e+000	1.588248e+002	-2.017440e+001	-1.111427e+002	-2.888818e+001	-6.874214e+001	-1.226342e+000	1.618761e+002
6730098100	-1.420675e+000	1.587856e+002	-2.018759e+001	-1.111636e+002	-2.889780e+001	-6.842659e+001	-1.228217e+000	1.619173e+002
6740097800	-1.418369e+000	1.588045e+002	-2.024011e+001	-1.112833e+002	-2.892189e+001	-6.807574e+001	-1.226143e+000	1.618914e+002
6750097500	-1.420359e+000	1.587568e+002	-2.032709e+001	-1.111523e+002	-2.894633e+001	-6.754477e+001	-1.227415e+000	1.618243e+002
6760097200	-1.418174e+000	1.587795e+002	-2.036558e+001	-1.109280e+002	-2.892694e+001	-6.714602e+001	-1.230255e+000	1.618392e+002
6770096900	-1.423923e+000	1.588185e+002	-2.036765e+001	-1.105737e+002	-2.877732e+001	-6.661247e+001	-1.235679e+000	1.618197e+002
6780096600	-1.417765e+000	1.588764e+002	-2.034431e+001	-1.103503e+002	-2.863167e+001	-6.677973e+001	-1.241721e+000	1.618290e+002
6790096300	-1.413940e+000	1.589334e+002	-2.030734e+001	-1.106639e+002	-2.853547e+001	-6.755664e+001	-1.240191e+000	1.618378e+002
6800096000	-1.403459e+000	1.589950e+002	-2.028686e+001	-1.109242e+002	-2.855245e+001	-6.849061e+001	-1.236077e+000	1.618659e+002
6810095700	-1.392877e+000	1.590252e+002	-2.034425e+001	-1.114116e+002	-2.860522e+001	-6.959829e+001	-1.227491e+000	1.619349e+002
6820095400	-1.389330e+000	1.590275e+002	-2.036671e+001	-1.118410e+002	-2.878888e+001	-7.050211e+001	-1.220382e+000	1.619463e+002
6830095100	-1.388441e+000	1.590211e+002	-2.047192e+001	-1.122296e+002	-2.890315e+001	-7.044886e+001	-1.212800e+000	1.619751e+002
6840094800	-1.392850e+000	1.590345e+002	-2.056558e+001	-1.124744e+002	-2.903560e+001	-7.080858e+001	-1.208603e+000	1.619739e+002
6850094500	-1.394082e+000	1.590728e+002	-2.060451e+001	-1.124647e+002	-2.914985e+001	-7.070113e+001	-1.198516e+000	1.619675e+002
6860094200	-1.401044e+000	1.591185e+002	-2.065971e+001	-1.126909e+002	-2.923694e+001	-7.017763e+001	-1.187617e+000	1.619773e+002
6870093900	-1.400964e+000	1.591549e+002	-2.070638e+001	-1.127669e+002	-2.927141e+001	-6.972903e+001	-1.187755e+000	1.620151e+002
6880093600	-1.402647e+000	1.591948e+002	-2.075079e+001	-1.127883e+002	-2.932583e+001	-6.929188e+001	-1.185605e+000	1.620511e+002
6890093300	-1.402656e+000	1.592315e+002	-2.076765e+001	-1.126896e+002	-2.928296e+001	-6.897380e+001	-1.184030e+000	1.620767e+002
6900093000	-1.402724e+000	1.592329e+002	-2.081255e+001	-1.129254e+002	-2.929988e+001	-6.908597e+001	-1.179946e+000	1.620788e+002
6910092700	-1.397116e+000	1.592505e+002	-2.084242e+001	-1.129010e+002	-2.933854e+001	-6.882561e+001	-1.179767e+000	1.620685e+002
6920092400	-1.397958e+000	1.592680e+002	-2.090896e+001	-1.130305e+002	-2.937099e+001	-6.892977e+001	-1.178293e+000	1.620426e+002
6930092100	-1.390165e+000	1.592787e+002	-2.094175e+001	-1.132527e+002	-2.938332e+001	-6.935256e+001	-1.179131e+000	1.620513e+002
6940091800	-1.390082e+000	1.592876e+002	-2.098894e+001	-1.132455e+002	-2.946568e+001	-6.900749e+001	-1.178825e+000	1.620288e+002
6950091500	-1.382204e+000	1.593020e+002	-2.102528e+001	-1.135646e+002	-2.952003e+001	-6.903337e+001	-1.179696e+000	1.620283e+002
6960091200	-1.377348e+000	1.593172e+002	-2.109959e+001	-1.134417e+002	-2.948570e+001	-6.870139e+001	-1.174846e+000	1.620333e+002
6970090900	-1.377556e+000	1.593189e+002	-2.114158e+001	-1.136233e+002	-2.956415e+001	-6.830641e+001	-1.175072e+000	1.620418e+002
6980090600	-1.373446e+000	1.593395e+002	-2.119728e+001	-1.136501e+002	-2.958300e+001	-6.856342e+001	-1.173558e+000	1.620387e+002
6990090300	-1.373548e+000	1.593815e+002	-2.124061e+001	-1.133929e+002	-2.959900e+001	-6.783176e+001	-1.171800e+000	1.620485e+002
7000090000	-1.372483e+000	1.594073e+002	-2.127815e+001	-1.135156e+002	-2.957231e+001	-6.729050e+001	-1.171854e+000	1.620926e+002
7010089700	-1.372396e+000	1.594514e+002	-2.131359e+001	-1.134688e+002	-2.952915e+001	-6.784473e+001	-1.168954e+000	1.621189e+002
7020089400	-1.376602e+000	1.594949e+002	-2.134393e+001	-1.135657e+002	-2.948905e+001	-6.764621e+001	-1.166651e+000	1.621614e+002
7030089100	-1.375870e+000	1.595293e+002	-2.131505e+001	-1.134997e+002	-2.946729e+001	-6.800601e+001	-1.164075e+000	1.621896e+002
7040088800	-1.375938e+000	1.595832e+002	-2.133796e+001	-1.136173e+002	-2.946105e+001	-6.889232e+001	-1.162646e+000	1.622425e+002
7050088500	-1.376688e+000	1.596208e+002	-2.132298e+001	-1.139494e+002	-2.946083e+001	-6.922629e+001	-1.161965e+000	1.623045e+002
7060088200	-1.374174e+000	1.596290e+002	-2.136426e+001	-1.143583e+002	-2.959863e+001	-6.966428e+001	-1.162041e+000	1.623200e+002
7070087900	-1.373686e+000	1.596346e+002	-2.142245e+001	-1.144714e+002	-2.959787e+001	-7.004035e+001	-1.161038e+000	1.623119e+002
7080087600	-1.373179e+000	1.596466e+002	-2.145555e+001	-1.148528e+002	-2.971131e+001	-6.997065e+001	-1.161359e+000	1.623520e+002
7090087300	-1.377115e+000	1.596452e+002	-2.151434e+001	-1.149646e+002	-2.982159e+001	-6.986063e+001	-1.158685e+000	1.623755e+002
7100087000	-1.374809e+000	1.596788e+002	-2.153592e+001	-1.152141e+002	-2.986112e+001	-7.000401e+001	-1.156684e+000	1.623906e+002
7110086700	-1.373260e+000	1.597031e+002	-2.160595e+001	-1.153495e+002	-2.990513e+001	-7.001606e+001	-1.154213e+000	1.623892e+002
7120086400	-1.370161e+000	1.597460e+002	-2.164335e+001	-1.154788e+002	-2.997213e+001	-6.959068e+001	-1.150961e+000	1.624164e+002
7130086100	-1.374880e+000	1.597749e+002	-2.171274e+001	-1.156698e+002	-3.005421e+001	-6.936862e+001	-1.146878e+000	1.624339e+002
7140085800	-1.369976e+000	1.597869e+002	-2.175650e+001	-1.155826e+002	-3.005478e+001	-6.979829e+001	-1.145325e+000	1.624626e+002
7150085500	-1.364684e+000	1.598619e+002	-2.182574e+001	-1.157954e+002	-3.014585e+001	-6.917191e+001	-1.139473e+000	1.624542e+002
7160085200	-1.364432e+000	1.598920e+002	-2.183014e+001	-1.158759e+002	-3.007447e+001	-6.895110e+001	-1.137073e+000	1.624971e+002
7170084900	-1.365237e+000	1.599108e+002	-2.189674e+001	-1.159574e+002	-3.010400e+001	-6.889360e+001	-1.138421e+000	1.625367e+002
7180084600	-1.367885e+000	1.599174e+002	-2.196599e+001	-1.161015e+002	-3.013188e+001	-6.867033e+001	-1.140033e+000	1.625464e+002
7190084300	-1.366372e+000	1.599504e+002	-2.200624e+001	-1.160182e+002	-3.018556e+001	-6.902635e+001	-1.140738e+000	1.625502e+002
7200084000	-1.367005e+000	1.599755e+002	-2.203104e+001	-1.161466e+002	-3.025283e+001	-6.847830e+001	-1.142603e+000	1.625778e+002
7210083700	-1.371754e+000	1.599840e+002	-2.207460e+001	-1.162189e+002	-3.022931e+001	-6.854352e+001	-1.138743e+000	1.625622e+002
7220083400	-1.375235e+000	1.600244e+002	-2.206754e+001	-1.162688e+002	-3.020971e+001	-6.893121e+001	-1.140591e+000	1.625821e+002
7230083100	-1.373578e+000	1.600183e+002	-2.209616e+001	-1.163236e+002	-3.019310e+001	-6.902256e+001	-1.138016e+000	1.626423e+002
7240082800	-1.376440e+000	1.600727e+002	-2.209640e+001	-1.164855e+002	-3.021303e+001	-6.898863e+001	-1.141065e+000	1.626610e+002
7250082500	-1.374568e+000	1.600869e+002	-2.214122e+001	-1.165449e+002	-3.026795e+001	-6.938640e+001	-1.138426e+000	1.627063e+002
7260082200	-1.378450e+000	1.601343e+002	-2.218019e+001	-1.169560e+002	-3.034658e+001	-6.907527e+001	-1.138212e+000	1.627244e+002
7270081900	-1.378060e+000	1.601695e+002	-2.225324e+001	-1.171170e+002	-3.037131e+001	-6.981892e+001	-1.137462e+000	1.627404e+002
7280081600	-1.374914e+000	1.601561e+002	-2.228388e+001	-1.171794e+002	-3.043555e+001	-6.979605e+001	-1.134247e+000	1.628121e+002
7290081300	-1.374378e+000	1.602327e+002	-2.232437e+001	-1.172326e+002	-3.049587e+001	-6.956101e+001	-1.135683e+000	1.628462e+002
7300081000	-1.375648e+000	1.602653e+002	-2.235816e+001	-1.176105e+002	-3.049047e+001	-6.986136e+001	-1.130393e+000	1.629214e+002
7310080700	-1.377644e+000	1.603087e+002	-2.243176e+001	-1.175270e+002	-3.063191e+001	-6.968071e+001	-1.132686e+000	1.629244e+002
7320080400	-1.378557e+000	1.603437e+002	-2.245476e+001	-1.176460e+002	-3.061348e+001	-6.900255e+001	-1.128403e+000	1.630003e+002
7330080100	-1.378406e+000	1.604065e+002	-2.248829e+001	-1.176951e+002	-3.058135e+001	-6.915466e+001	-1.130582e+000	1.630458e+002
7340079800	-1.382626e+000	1.604405e+002	-2.254359e+001	-1.179440e+002	-3.065428e+001	-6.871072e+001	-1.135069e+000	1.630729e+002
7350079500	-1.383299e+000	1.604746e+002	-2.254411e+001	-1.179315e+002	-3.066913e+001	-6.885169e+001	-1.136842e+000	1.631137e+002
7360079200	-1.385809e+000	1.605023e+002	-2.258119e+001	-1.180503e+002	-3.056407e+001	-6.878113e+001	-1.135279e+000	1.631311e+002
7370078900	-1.386751e+000	1.605153e+002	-2.262749e+001	-1.182705e+002	-3.070272e+001	-6.993893e+001	-1.129690e+000	1.630575e+002
7380078600	-1.392531e+000	1.605479e+002	-2.269068e+001	-1.184393e+002	-3.074351e+001	-6.948206e+001	-1.130900e+000	1.630674e+002
7390078300	-1.391282e+000	1.605624e+002	-2.268634e+001	-1.187219e+002	-3.077018e+001	-6.957147e+001	-1.129464e+000	1.631043e+002
7400078000	-1.398358e+000	1.605850e+002	-2.269952e+001	-1.188875e+002	-3.082320e+001	-6.961530e+001	-1.127589e+000	1.631020e+002
7410077700	-1.398598e+000	1.605775e+002	-2.278269e+001	-1.190083e+002	-3.086251e+001	-6.943127e+001	-1.132552e+000	1.631712e+002
7420077400	-1.400061e+000	1.605923e+002	-2.281674e+001	-1.191213e+002	-3.094318e+001	-6.905771e+001	-1.124752e+000	1.632031e+002
7430077100	-1.396630e+000	1.606209e+002	-2.285900e+001	-1.191915e+002	-3.096265e+001	-6.940810e+001	-1.126318e+000	1.632301e+002
7440076800	-1.393984e+000	1.606263e+002	-2.289720e+001	-1.193214e+002	-3.105507e+001	-6.966075e+001	-1.121616e+000	1.632720e+002
7450076500	-1.395994e+000	1.606484e+002	-2.293086e+001	-1.194801e+002	-3.107095e+001	-6.897012e+001	-1.121375e+000	1.633085e+002
7460076200	-1.398246e+000	1.606769e+002	-2.299009e+001	-1.196047e+002	-3.100621e+001	-6.904606e+001	-1.118697e+000	1.633734e+002
7470075900	-1.396371e+000	1.607054e+002	-2.309209e+001	-1.196259e+002	-3.104041e+001	-6.895717e+001	-1.116902e+000	1.633907e+002
7480075600	-1.397146e+000	1.607485e+002	-2.312159e+001	-1.197864e+002	-3.120010e+001	-6.919184e+001	-1.117566e+000	1.634515e+002
7490075300	-1.396101e+000	1.607856e+002	-2.312877e+001	-1.200432e+002	-3.124186e+001	-6.859651e+001	-1.121412e+000	1.635316e+002
7500075000	-1.403930e+000	1.608113e+002	-2.320650e+001	-1.201410e+002	-3.117107e+001	-6.935104e+001	-1.127099e+000	1.635598e+002
7510074700	-1.403599e+000	1.608735e+002	-2.321090e+001	-1.206223e+002	-3.136056e+001	-6.892749e+001	-1.127490e+000	1.636084e+002
7520074400	-1.418302e+000	1.609081e+002	-2.324726e+001	-1.205622e+002	-3.121475e+001	-6.906236e+001	-1.123887e+000	1.635351e+002
7530074100	-1.416061e+000	1.609524e+002	-2.331137e+001	-1.207424e+002	-3.133811e+001	-6.840524e+001	-1.119899e+000	1.634596e+002
7540073800	-1.423512e+000	1.610245e+002	-2.337844e+001	-1.206594e+002	-3.143252e+001	-6.838102e+001	-1.124291e+000	1.634934e+002
7550073500	-1.431247e+000	1.610261e+002	-2.337246e+001	-1.207989e+002	-3.143398e+001	-6.825341e+001	-1.128095e+000	1.635136e+002
7560073200	-1.437059e+000	1.610670e+002	-2.337838e+001	-1.208953e+002	-3.145043e+001	-6.792357e+001	-1.128544e+000	1.635329e+002
7570072900	-1.436775e+000	1.610752e+002	-2.345646e+001	-1.207377e+002	-3.141809e+001	-6.784583e+001	-1.127114e+000	1.636288e+002
7580072600	-1.439572e+000	1.611345e+002	-2.343296e+001	-1.208933e+002	-3.141979e+001	-6.741924e+001	-1.130678e+000	1.636415e+002
7590072300	-1.441721e+000	1.611627e+002	-2.347523e+001	-1.210405e+002	-3.143291e+001	-6.760131e+001	-1.128763e+000	1.636997e+002
7600072000	-1.439037e+000	1.611640e+002	-2.350554e+001	-1.211663e+002	-3.142420e+001	-6.745044e+001	-1.128767e+000	1.637686e+002
7610071700	-1.439862e+000	1.611915e+002	-2.356975e+001	-1.213492e+002	-3.148064e+001	-6.821477e+001	-1.122461e+000	1.637967e+002
7620071400	-1.433411e+000	1.611968e+002	-2.358699e+001	-1.215981e+002	-3.144177e+001	-6.807343e+001	-1.122618e+000	1.638576e+002
7630071100	-1.433787e+000	1.612275e+002	-2.360047e+001	-1.216426e+002	-3.154032e+001	-6.801471e+001	-1.122189e+000	1.639000e+002
7640070800	-1.435819e+000	1.612719e+002	-2.368082e+001	-1.219727e+002	-3.158287e+001	-6.791397e+001	-1.117580e+000	1.639586e+002
7650070500	-1.440781e+000	1.613099e+002	-2.372195e+001	-1.221451e+002	-3.161824e+001	-6.844189e+001	-1.121091e+000	1.640520e+002
7660070200	-1.443753e+000	1.613682e+002	-2.379420e+001	-1.224256e+002	-3.163283e+001	-6.835096e+001	-1.124388e+000	1.640726e+002
7670069900	-1.449886e+000	1.614437e+002	-2.381764e+001	-1.225986e+002	-3.178638e+001	-6.770829e+001	-1.133528e+000	1.640349e+002
7680069600	-1.452648e+000	1.614642e+002	-2.384443e+001	-1.226413e+002	-3.174142e+001	-6.764933e+001	-1.130177e+000	1.640121e+002
7690069300	-1.454374e+000	1.615460e+002	-2.387565e+001	-1.226684e+002	-3.180097e+001	-6.790320e+001	-1.126672e+000	1.639239e+002
7700069000	-1.460122e+000	1.615893e+002	-2.396780e+001	-1.229000e+002	-3.171883e+001	-6.813792e+001	-1.131195e+000	1.639183e+002
7710068700	-1.458433e+000	1.616065e+002	-2.396045e+001	-1.230551e+002	-3.187712e+001	-6.741795e+001	-1.141545e+000	1.639643e+002
7720068400	-1.474768e+000	1.615928e+002	-2.400464e+001	-1.231020e+002	-3.182197e+001	-6.752627e+001	-1.143139e+000	1.640593e+002
7730068100	-1.476184e+000	1.615742e+002	-2.404513e+001	-1.230385e+002	-3.185272e+001	-6.777612e+001	-1.149295e+000	1.640958e+002
7740067800	-1.481199e+000	1.616230e+002	-2.405661e+001	-1.232996e+002	-3.189192e+001	-6.732653e+001	-1.149754e+000	1.641845e+002
7750067500	-1.490641e+000	1.616452e+002	-2.408911e+001	-1.234113e+002	-3.192482e+001	-6.759400e+001	-1.153424e+000	1.641678e+002
7760067200	-1.496755e+000	1.616721e+002	-2.411697e+001	-1.236103e+002	-3.191621e+001	-6.747340e+001	-1.148748e+000	1.642471e+002
7770066900	-1.497444e+000	1.616599e+002	-2.410867e+001	-1.236031e+002	-3.194736e+001	-6.710800e+001	-1.143855e+000	1.642821e+002
7780066600	-1.495948e+000	1.616655e+002	-2.418344e+001	-1.239272e+002	-3.194550e+001	-6.760282e+001	-1.144195e+000	1.642907e+002
7790066300	-1.494451e+000	1.616670e+002	-2.420878e+001	-1.239892e+002	-3.205836e+001	-6.799563e+001	-1.143236e+000	1.643012e+002
7800066000	-1.496372e+000	1.617741e+002	-2.427859e+001	-1.243362e+002	-3.212798e+001	-6.755145e+001	-1.146681e+000	1.643577e+002
7810065700	-1.501949e+000	1.617947e+002	-2.430635e+001	-1.247399e+002	-3.216515e+001	-6.772863e+001	-1.148171e+000	1.644081e+002
7820065400	-1.507686e+000	1.618796e+002	-2.435671e+001	-1.248013e+002	-3.228074e+001	-6.786601e+001	-1.162806e+000	1.644230e+002
7830065100	-1.514107e+000	1.619023e+002	-2.440032e+001	-1.251333e+002	-3.226197e+001	-6.701755e+001	-1.166947e+000	1.644037e+002
7840064800	-1.520058e+000	1.620009e+002	-2.446320e+001	-1.250421e+002	-3.228065e+001	-6.671979e+001	-1.160042e+000	1.643686e+002
7850064500	-1.523094e+000	1.620891e+002	-2.453563e+001	-1.252373e+002	-3.224638e+001	-6.697994e+001	-1.159672e+000	1.642819e+002
7860064200	-1.529280e+000	1.621766e+002	-2.451706e+001	-1.252216e+002	-3.229013e+001	-6.660900e+001	-1.165765e+000	1.643322e+002
7870063900	-1.534238e+000	1.621606e+002	-2.458592e+001	-1.254677e+002	-3.228779e+001	-6.644191e+001	-1.173410e+000	1.643856e+002
7880063600	-1.536712e+000	1.621981e+002	-2.461865e+001	-1.257852e+002	-3.235811e+001	-6.653650e+001	-1.177433e+000	1.644226e+002
7890063300	-1.538113e+000	1.621937e+002	-2.462405e+001	-1.259054e+002	-3.231524e+001	-6.707809e+001	-1.176268e+000	1.645266e+002
7900063000	-1.541569e+000	1.621742e+002	-2.468773e+001	-1.258698e+002	-3.242202e+001	-6.651057e+001	-1.185811e+000	1.645736e+002
7910062700	-1.556489e+000	1.621505e+002	-2.472839e+001	-1.262786e+002	-3.245098e+001	-6.660984e+001	-1.186587e+000	1.646178e+002
7920062400	-1.557253e+000	1.621657e+002	-2.477295e+001	-1.264457e+002	-3.248248e+001	-6.701952e+001	-1.189893e+000	1.646198e+002
7930062100	-1.557298e+000	1.620934e+002	-2.483482e+001	-1.268174e+002	-3.256967e+001	-6.693649e+001	-1.192697e+000	1.646761e+002
7940061800	-1.566075e+000	1.621417e+002	-2.484207e+001	-1.268748e+002	-3.258879e+001	-6.604044e+001	-1.191797e+000	1.646724e+002
7950061500	-1.572332e+000	1.620847e+002	-2.489737e+001	-1.270046e+002	-3.268335e+001	-6.686891e+001	-1.193227e+000	1.646935e+002
7960061200	-1.572801e+000	1.621094e+002	-2.494039e+001	-1.271897e+002	-3.275944e+001	-6.614367e+001	-1.195277e+000	1.646935e+002
7970060900	-1.576167e+000	1.621407e+002	-2.499838e+001	-1.273755e+002	-3.277195e+001	-6.572221e+001	-1.197185e+000	1.647521e+002
7980060600	-1.588464e+000	1.621918e+002	-2.505035e+001	-1.274847e+002	-3.289491e+001	-6.600609e+001	-1.207250e+000	1.648042e+002
7990060300	-1.596918e+000	1.622667e+002	-2.511479e+001	-1.276033e+002	-3.287762e+001	-6.583826e+001	-1.217125e+000	1.647978e+002
8000060000	-1.602938e+000	1.624131e+002	-2.511017e+001	-1.277417e+002	-3.288478e+001	-6.584671e+001	-1.213260e+000	1.647269e+002
8010059700	-1.605245e+000	1.624852e+002	-2.516026e+001	-1.279441e+002	-3.284101e+001	-6.496706e+001	-1.208410e+000	1.645789e+002
8020059400	-1.612024e+000	1.625703e+002	-2.520178e+001	-1.282211e+002	-3.303811e+001	-6.547081e+001	-1.212020e+000	1.646119e+002
8030059100	-1.620371e+000	1.626340e+002	-2.524442e+001	-1.283938e+002	-3.302822e+001	-6.505221e+001	-1.214031e+000	1.646255e+002
8040058800	-1.632243e+000	1.626630e+002	-2.524676e+001	-1.288475e+002	-3.310888e+001	-6.479915e+001	-1.218893e+000	1.646749e+002
8050058500	-1.640097e+000	1.626883e+002	-2.536003e+001	-1.289692e+002	-3.312436e+001	-6.415140e+001	-1.229337e+000	1.646701e+002
8060058200	-1.653488e+000	1.627586e+002	-2.538064e+001	-1.294601e+002	-3.327910e+001	-6.432419e+001	-1.234830e+000	1.647467e+002
8070057900	-1.658941e+000	1.627835e+002	-2.540762e+001	-1.296039e+002	-3.326405e+001	-6.421581e+001	-1.246980e+000	1.647253e+002
8080057600	-1.665108e+000	1.627815e+002	-2.549078e+001	-1.298789e+002	-3.328940e+001	-6.398256e+001	-1.255288e+000	1.647358e+002
8090057300	-1.672774e+000	1.627599e+002	-2.553524e+001	-1.301263e+002	-3.338374e+001	-6.300118e+001	-1.259778e+000	1.647304e+002
8100057000	-1.674678e+000	1.627267e+002	-2.562340e+001	-1.302199e+002	-3.336870e+001	-6.261604e+001	-1.263044e+000	1.647119e+002
8110056700	-1.681794e+000	1.627373e+002	-2.567552e+001	-1.304356e+002	-3.335042e+001	-6.187156e+001	-1.278870e+000	1.647300e+002
8120056400	-1.682908e+000	1.627439e+002	-2.578453e+001	-1.304644e+002	-3.347752e+001	-6.151278e+001	-1.281266e+000	1.647672e+002
8130056100	-1.684010e+000	1.627255e+002	-2.582105e+001	-1.305155e+002	-3.355761e+001	-6.020808e+001	-1.292699e+000	1.648181e+002
8140055800	-1.686056e+000	1.627733e+002	-2.591821e+001	-1.303881e+002	-3.351943e+001	-6.000966e+001	-1.297917e+000	1.648859e+002
8150055500	-1.693065e+000	1.627987e+002	-2.596275e+001	-1.308073e+002	-3.360173e+001	-6.143360e+001	-1.312150e+000	1.648899e+002
8160055200	-1.695602e+000	1.628204e+002	-2.594551e+001	-1.307526e+002	-3.351328e+001	-6.058200e+001	-1.323304e+000	1.649121e+002
8170054900	-1.704927e+000	1.628646e+002	-2.600331e+001	-1.314830e+002	-3.366269e+001	-6.042048e+001	-1.313817e+000	1.648397e+002
8180054600	-1.718476e+000	1.629221e+002	-2.604128e+001	-1.318665e+002	-3.382593e+001	-5.984956e+001	-1.313445e+000	1.647237e+002
8190054300	-1.722672e+000	1.629974e+002	-2.617302e+001	-1.323442e+002	-3.389477e+001	-5.921811e+001	-1.313682e+000	1.648162e+002
8200054000	-1.738281e+000	1.630078e+002	-2.633018e+001	-1.325179e+002	-3.401812e+001	-5.674685e+001	-1.317982e+000	1.648693e+002
8210053700	-1.753404e+000	1.631005e+002	-2.644683e+001	-1.325940e+002	-3.415116e+001	-5.534037e+001	-1.333996e+000	1.649112e+002
8220053400	-1.768726e+000	1.631144e+002	-2.658116e+001	-1.328159e+002	-3.391951e+001	-5.370465e+001	-1.352025e+000	1.649810e+002
8230053100	-1.781578e+000	1.631926e+002	-2.667089e+001	-1.323967e+002	-3.385358e+001	-5.288768e+001	-1.355915e+000	1.649992e+002
8240052800	-1.796301e+000	1.632362e+002	-2.674962e+001	-1.322958e+002	-3.378865e+001	-5.204782e+001	-1.375594e+000	1.650558e+002
8250052500	-1.802039e+000	1.632442e+002	-2.683021e+001	-1.321151e+002	-3.363069e+001	-5.173975e+001	-1.384584e+000	1.651050e+002
8260052200	-1.815697e+000	1.632669e+002	-2.692203e+001	-1.321946e+002	-3.357720e+001	-5.046811e+001	-1.392642e+000	1.651353e+002
8270051900	-1.815997e+000	1.632304e+002	-2.703975e+001	-1.320218e+002	-3.352494e+001	-4.976103e+001	-1.398957e+000	1.651367e+002
8280051600	-1.827611e+000	1.632300e+002	-2.712305e+001	-1.320563e+002	-3.351972e+001	-4.933271e+001	-1.406435e+000	1.651418e+002
8290051300	-1.827035e+000	1.632130e+002	-2.726827e+001	-1.322624e+002	-3.361319e+001	-4.799560e+001	-1.419346e+000	1.651592e+002
8300051000	-1.832299e+000	1.631383e+002	-2.749573e+001	-1.318301e+002	-3.339957e+001	-4.651692e+001	-1.424981e+000	1.651723e+002
8310050700	-1.833539e+000	1.631755e+002	-2.762888e+001	-1.314866e+002	-3.338415e+001	-4.440110e+001	-1.442737e+000	1.652080e+002
8320050400	-1.847129e+000	1.631863e+002	-2.780781e+001	-1.305136e+002	-3.304428e+001	-4.359396e+001	-1.457463e+000	1.652087e+002
8330050100	-1.854573e+000	1.632048e+002	-2.791894e+001	-1.295220e+002	-3.272225e+001	-4.096122e+001	-1.473687e+000	1.651523e+002
8340049800	-1.868847e+000	1.632037e+002	-2.806456e+001	-1.282100e+002	-3.230822e+001	-4.077048e+001	-1.476629e+000	1.651252e+002
8350049500	-1.884956e+000	1.632729e+002	-2.814639e+001	-1.268076e+002	-3.195409e+001	-3.946341e+001	-1.486118e+000	1.651885e+002
8360049200	-1.908937e+000	1.633612e+002	-2.806856e+001	-1.249602e+002	-3.155541e+001	-3.951976e+001	-1.496008e+000	1.653729e+002
8370048900	-1.924828e+000	1.634085e+002	-2.798888e+001	-1.234834e+002	-3.117761e+001	-4.083609e+001	-1.502689e+000	1.655479e+002
8380048600	-1.954648e+000	1.635112e+002	-2.786597e+001	-1.222610e+002	-3.081740e+001	-4.209773e+001	-1.526530e+000	1.656758e+002
8390048300	-1.979996e+000	1.635931e+002	-2.768233e+001	-1.210107e+002	-3.048563e+001	-4.337287e+001	-1.545262e+000	1.659036e+002
8400048000	-1.998581e+000	1.636259e+002	-2.752571e+001	-1.204133e+002	-3.029639e+001	-4.509339e+001	-1.546150e+000	1.660773e+002
8410047700	-2.022063e+000	1.637123e+002	-2.727570e+001	-1.202319e+002	-3.010160e+001	-4.653594e+001	-1.555787e+000	1.662501e+002
8420047400	-2.033027e+000	1.638165e+002	-2.713824e+001	-1.202746e+002	-3.000453e+001	-4.876034e+001	-1.550229e+000	1.663677e+002
8430047100	-2.047381e+000	1.638574e+002	-2.696097e+001	-1.209760e+002	-2.999290e+001	-5.084853e+001	-1.542223e+000	1.664471e+002
8440046800	-2.051272e+000	1.639261e+002	-2.690712e+001	-1.217507e+002	-3.001562e+001	-5.197579e+001	-1.528396e+000	1.664947e+002
8450046500	-2.057781e+000	1.639205e+002	-2.686544e+001	-1.222574e+002	-3.014653e+001	-5.268119e+001	-1.524504e+000	1.664674e+002
8460046200	-2.071837e+000	1.639644e+002	-2.698650e+001	-1.226406e+002	-3.021011e+001	-5.238908e+001	-1.519841e+000	1.664332e+002
8470045900	-2.071735e+000	1.639740e+002	-2.694987e+001	-1.227606e+002	-3.005093e+001	-5.229780e+001	-1.522019e+000	1.664153e+002
8480045600	-2.089952e+000	1.640418e+002	-2.693963e+001	-1.225059e+002	-3.003938e+001	-5.367203e+001	-1.518652e+000	1.664212e+002
8490045300	-2.097682e+000	1.641282e+002	-2.684919e+001	-1.223321e+002	-2.991866e+001	-5.348124e+001	-1.523843e+000	1.664006e+002
8500045000	-2.122314e+000	1.643712e+002	-2.694932e+001	-1.214816e+002	-2.991230e+001	-5.246857e+001	-1.492516e+000	1.662842e+002
8510044700	-2.138885e+000	1.644897e+002	-2.698661e+001	-1.213234e+002	-2.978724e+001	-5.421785e+001	-1.490992e+000	1.662031e+002
8520044400	-2.137473e+000	1.646456e+002	-2.685025e+001	-1.210475e+002	-2.928187e+001	-5.483828e+001	-1.481754e+000	1.663193e+002
8530044100	-2.167168e+000	1.647765e+002	-2.675718e+001	-1.212749e+002	-2.915333e+001	-5.506553e+001	-1.483671e+000	1.663853e+002
8540043800	-2.184374e+000	1.649824e+002	-2.655638e+001	-1.206409e+002	-2.912648e+001	-5.691457e+001	-1.495953e+000	1.664700e+002
8550043500	-2.187995e+000	1.650318e+002	-2.653743e+001	-1.210332e+002	-2.886606e+001	-5.660335e+001	-1.515271e+000	1.666672e+002
8560043200	-2.202588e+000	1.651997e+002	-2.631098e+001	-1.204017e+002	-2.859204e+001	-5.849984e+001	-1.520701e+000	1.668667e+002
8570042900	-2.230812e+000	1.651858e+002	-2.595710e+001	-1.210570e+002	-2.846845e+001	-6.102538e+001	-1.527910e+000	1.669621e+002
8580042600	-2.251449e+000	1.653753e+002	-2.586829e+001	-1.215662e+002	-2.842481e+001	-6.250168e+001	-1.516222e+000	1.671730e+002
8590042300	-2.248422e+000	1.654335e+002	-2.569544e+001	-1.227946e+002	-2.830118e+001	-6.518751e+001	-1.541592e+000	1.674241e+002
8600042000	-2.249766e+000	1.654839e+002	-2.559066e+001	-1.231652e+002	-2.853855e+001	-6.645288e+001	-1.532867e+000	1.673785e+002
8610041700	-2.266270e+000	1.655268e+002	-2.538859e+001	-1.246923e+002	-2.868055e+001	-7.004743e+001	-1.527603e+000	1.675041e+002
8620041400	-2.265536e+000	1.654870e+002	-2.533213e+001	-1.256560e+002	-2.875395e+001	-7.085652e+001	-1.539568e+000	1.675140e+002
8630041100	-2.264300e+000	1.654432e+002	-2.543244e+001	-1.276469e+002	-2.877845e+001	-7.241553e+001	-1.526065e+000	1.674779e+002
8640040800	-2.290206e+000	1.655926e+002	-2.542842e+001	-1.281371e+002	-2.894723e+001	-7.292084e+001	-1.525043e+000	1.674061e+002
8650040500	-2.272612e+000	1.655974e+002	-2.531607e+001	-1.290875e+002	-2.895485e+001	-7.356931e+001	-1.498118e+000	1.672505e+002
8660040200	-2.261901e+000	1.658045e+002	-2.532975e+001	-1.311843e+002	-2.923036e+001	-7.623939e+001	-1.469344e+000	1.671083e+002
8670039900	-2.277655e+000	1.658040e+002	-2.533681e+001	-1.312602e+002	-2.932428e+001	-7.574264e+001	-1.473660e+000	1.669241e+002
8680039600	-2.270270e+000	1.659410e+002	-2.540893e+001	-1.333302e+002	-2.927687e+001	-7.670249e+001	-1.453380e+000	1.668173e+002
8690039300	-2.275947e+000	1.660122e+002	-2.547729e+001	-1.330295e+002	-2.942588e+001	-7.848219e+001	-1.451423e+000	1.668802e+002
8700039000	-2.291194e+000	1.661689e+002	-2.559080e+001	-1.344921e+002	-2.972992e+001	-7.838456e+001	-1.450108e+000	1.667784e+002
8710038700	-2.312940e+000	1.663509e+002	-2.556099e+001	-1.347290e+002	-2.980730e+001	-7.828660e+001	-1.464685e+000	1.668286e+002
8720038400	-2.322934e+000	1.663886e+002	-2.577087e+001	-1.352558e+002	-2.979358e+001	-7.796451e+001	-1.483247e+000	1.669360e+002
8730038100	-2.323549e+000	1.666067e+002	-2.572036e+001	-1.347777e+002	-2.971120e+001	-7.835178e+001	-1.515058e+000	1.669841e+002
8740037800	-2.341190e+000	1.667144e+002	-2.569599e+001	-1.348025e+002	-2.957322e+001	-7.736773e+001	-1.533166e+000	1.671828e+002
8750037500	-2.367523e+000	1.667116e+002	-2.559887e+001	-1.356850e+002	-2.975856e+001	-7.787001e+001	-1.540128e+000	1.672919e+002
8760037200	-2.378858e+000	1.667175e+002	-2.554894e+001	-1.357890e+002	-2.939313e+001	-8.087637e+001	-1.567583e+000	1.673582e+002
8770036900	-2.373248e+000	1.668832e+002	-2.560555e+001	-1.365299e+002	-2.943581e+001	-8.239755e+001	-1.573020e+000	1.674145e+002
8780036600	-2.398845e+000	1.669087e+002	-2.545470e+001	-1.367383e+002	-2.977587e+001	-8.388332e+001	-1.586450e+000	1.674534e+002
8790036300	-2.414372e+000	1.668975e+002	-2.545847e+001	-1.381882e+002	-2.965481e+001	-8.524997e+001	-1.577870e+000	1.673546e+002
8800036000	-2.415474e+000	1.669857e+002	-2.551152e+001	-1.397763e+002	-2.977481e+001	-8.629944e+001	-1.560938e+000	1.672984e+002
8810035700	-2.403208e+000	1.670826e+002	-2.548683e+001	-1.404643e+002	-2.994890e+001	-8.708663e+001	-1.547851e+000	1.671831e+002
8820035400	-2.405230e+000	1.670352e+002	-2.545161e+001	-1.410174e+002	-3.006439e+001	-8.754296e+001	-1.532676e+000	1.670353e+002
8830035100	-2.416507e+000	1.672314e+002	-2.551085e+001	-1.421132e+002	-3.006137e+001	-8.849451e+001	-1.535326e+000	1.668910e+002
8840034800	-2.413244e+000	1.672159e+002	-2.563334e+001	-1.424184e+002	-3.034357e+001	-9.024014e+001	-1.515029e+000	1.668698e+002
8850034500	-2.413678e+000	1.673810e+002	-2.559127e+001	-1.425486e+002	-3.055138e+001	-8.926533e+001	-1.529195e+000	1.667332e+002
8860034200	-2.415731e+000	1.675331e+002	-2.556377e+001	-1.442473e+002	-3.044461e+001	-9.177075e+001	-1.514537e+000	1.668025e+002
8870033900	-2.417805e+000	1.676157e+002	-2.574618e+001	-1.449561e+002	-3.053828e+001	-9.158504e+001	-1.523617e+000	1.668372e+002
8880033600	-2.433918e+000	1.676485e+002	-2.571364e+001	-1.457310e+002	-3.053076e+001	-9.172292e+001	-1.527285e+000	1.668871e+002
8890033300	-2.444032e+000	1.678819e+002	-2.572544e+001	-1.463798e+002	-3.049033e+001	-9.220658e+001	-1.544644e+000	1.668674e+002
8900033000	-2.454894e+000	1.679319e+002	-2.568395e+001	-1.470458e+002	-3.060373e+001	-9.255660e+001	-1.564868e+000	1.670194e+002
8910032700	-2.453741e+000	1.679140e+002	-2.572502e+001	-1.487807e+002	-3.086624e+001	-9.498579e+001	-1.568139e+000	1.669616e+002
8920032400	-2.482278e+000	1.681279e+002	-2.574644e+001	-1.484803e+002	-3.091177e+001	-9.449718e+001	-1.600296e+000	1.671102e+002
8930032100	-2.492735e+000	1.681455e+002	-2.591641e+001	-1.490682e+002	-3.100538e+001	-9.511908e+001	-1.616085e+000	1.671432e+002
8940031800	-2.488437e+000	1.682870e+002	-2.598550e+001	-1.502758e+002	-3.125897e+001	-9.773452e+001	-1.627778e+000	1.670985e+002
8950031500	-2.494969e+000	1.681437e+002	-2.598530e+001	-1.505164e+002	-3.144347e+001	-9.785912e+001	-1.647859e+000	1.669761e+002
8960031200	-2.492912e+000	1.682722e+002	-2.596252e+001	-1.511648e+002	-3.156533e+001	-9.816252e+001	-1.660804e+000	1.669438e+002
8970030900	-2.499309e+000	1.683431e+002	-2.603932e+001	-1.520178e+002	-3.147102e+001	-9.815886e+001	-1.663848e+000	1.668601e+002
8980030600	-2.492880e+000	1.684060e+002	-2.600699e+001	-1.527826e+002	-3.156860e+001	-9.687111e+001	-1.653970e+000	1.666341e+002
8990030300	-2.491721e+000	1.684902e+002	-2.618461e+001	-1.531899e+002	-3.166703e+001	-9.796534e+001	-1.673555e+000	1.664623e+002
9000030000	-2.503206e+000	1.685723e+002	-2.612317e+001	-1.543537e+002	-3.172970e+001	-9.941218e+001	-1.652013e+000	1.665068e+002
9010029700	-2.503374e+000	1.687902e+002	-2.619049e+001	-1.543343e+002	-3.183335e+001	-1.009488e+002	-1.669874e+000	1.662696e+002
9020029400	-2.498481e+000	1.688244e+002	-2.611554e+001	-1.552237e+002	-3.181813e+001	-1.011501e+002	-1.672641e+000	1.661813e+002
9030029100	-2.499583e+000	1.690975e+002	-2.625034e+001	-1.558357e+002	-3.196833e+001	-1.012916e+002	-1.680932e+000	1.662415e+002
9040028800	-2.494540e+000	1.690768e+002	-2.625888e+001	-1.575430e+002	-3.223822e+001	-1.024651e+002	-1.664830e+000	1.662898e+002
9050028500	-2.509241e+000	1.690869e+002	-2.624393e+001	-1.575431e+002	-3.228497e+001	-1.028359e+002	-1.675526e+000	1.662768e+002
9060028200	-2.524101e+000	1.692463e+002	-2.648523e+001	-1.590514e+002	-3.239926e+001	-1.052065e+002	-1.689435e+000	1.662401e+002
9070027900	-2.538698e+000	1.694351e+002	-2.649311e+001	-1.597792e+002	-3.256697e+001	-1.043857e+002	-1.710142e+000	1.662853e+002
9080027600	-2.548609e+000	1.694689e+002	-2.668023e+001	-1.614130e+002	-3.272611e+001	-1.051702e+002	-1.740765e+000	1.663325e+002
9090027300	-2.562376e+000	1.695286e+002	-2.663915e+001	-1.616483e+002	-3.304570e+001	-1.077403e+002	-1.758657e+000	1.664740e+002
9100027000	-2.552571e+000	1.697134e+002	-2.666302e+001	-1.622712e+002	-3.326026e+001	-1.079283e+002	-1.793337e+000	1.663511e+002
9110026700	-2.560547e+000	1.696274e+002	-2.688013e+001	-1.636747e+002	-3.314612e+001	-1.075772e+002	-1.807242e+000	1.663639e+002
9120026400	-2.561442e+000	1.696695e+002	-2.683670e+001	-1.637994e+002	-3.337515e+001	-1.062378e+002	-1.814310e+000	1.662957e+002
9130026100	-2.559999e+000	1.697056e+002	-2.694892e+001	-1.651435e+002	-3.352724e+001	-1.086681e+002	-1.816517e+000	1.663419e+002
9140025800	-2.591918e+000	1.696721e+002	-2.700649e+001	-1.648705e+002	-3.360156e+001	-1.096528e+002	-1.835701e+000	1.661012e+002
9150025500	-2.580524e+000	1.698340e+002	-2.713198e+001	-1.652626e+002	-3.422746e+001	-1.099432e+002	-1.843563e+000	1.659335e+002
9160025200	-2.568361e+000	1.698918e+002	-2.721544e+001	-1.667986e+002	-3.439899e+001	-1.071512e+002	-1.857857e+000	1.658083e+002
9170024900	-2.565290e+000	1.700376e+002	-2.729547e+001	-1.674055e+002	-3.466703e+001	-1.085104e+002	-1.869209e+000	1.656191e+002
9180024600	-2.564979e+000	1.700599e+002	-2.763441e+001	-1.679785e+002	-3.431831e+001	-1.073393e+002	-1.874354e+000	1.655451e+002
9190024300	-2.524222e+000	1.702574e+002	-2.750849e+001	-1.680568e+002	-3.443859e+001	-1.065345e+002	-1.877058e+000	1.654442e+002
9200024000	-2.568800e+000	1.702870e+002	-2.775498e+001	-1.683578e+002	-3.477583e+001	-1.057884e+002	-1.903813e+000	1.654397e+002
9210023700	-2.565099e+000	1.705116e+002	-2.788068e+001	-1.692339e+002	-3.454407e+001	-1.029760e+002	-1.933927e+000	1.655343e+002
9220023400	-2.566805e+000	1.704809e+002	-2.783427e+001	-1.694162e+002	-3.475310e+001	-1.025926e+002	-1.952198e+000	1.656153e+002
9230023100	-2.585937e+000	1.706279e+002	-2.814411e+001	-1.697808e+002	-3.475713e+001	-1.045996e+002	-1.954312e+000	1.656906e+002
9240022800	-2.600737e+000	1.708810e+002	-2.812245e+001	-1.693952e+002	-3.469459e+001	-1.011984e+002	-1.995598e+000	1.658928e+002
9250022500	-2.586045e+000	1.708905e+002	-2.809875e+001	-1.701163e+002	-3.463686e+001	-1.028648e+002	-1.994983e+000	1.659902e+002
9260022200	-2.605402e+000	1.710423e+002	-2.831742e+001	-1.698576e+002	-3.455469e+001	-1.027718e+002	-2.028021e+000	1.661086e+002
9270021900	-2.585334e+000	1.710725e+002	-2.819607e+001	-1.694837e+002	-3.465382e+001	-1.031270e+002	-2.054334e+000	1.662546e+002
9280021600	-2.602121e+000	1.712202e+002	-2.837196e+001	-1.690242e+002	-3.441146e+001	-1.017810e+002	-2.048401e+000	1.665036e+002
9290021300	-2.590666e+000	1.712976e+002	-2.830402e+001	-1.698409e+002	-3.392697e+001	-1.029311e+002	-2.067321e+000	1.665239e+002
9300021000	-2.615741e+000	1.714028e+002	-2.825757e+001	-1.695539e+002	-3.389491e+001	-1.057844e+002	-2.068950e+000	1.665419e+002
9310020700	-2.562026e+000	1.714254e+002	-2.835507e+001	-1.689044e+002	-3.426635e+001	-1.032623e+002	-2.085655e+000	1.665298e+002
9320020400	-2.582387e+000	1.713505e+002	-2.827263e+001	-1.698357e+002	-3.397037e+001	-1.070639e+002	-2.118452e+000	1.665824e+002
9330020100	-2.563162e+000	1.715104e+002	-2.827215e+001	-1.703947e+002	-3.379976e+001	-1.082710e+002	-2.101919e+000	1.663712e+002
9340019800	-2.550171e+000	1.715922e+002	-2.806315e+001	-1.708924e+002	-3.372299e+001	-1.101867e+002	-2.101117e+000	1.664228e+002
9350019500	-2.550751e+000	1.717180e+002	-2.816278e+001	-1.709587e+002	-3.352099e+001	-1.117867e+002	-2.103136e+000	1.662349e+002
9360019200	-2.540599e+000	1.716951e+002	-2.814202e+001	-1.711906e+002	-3.331632e+001	-1.139897e+002	-2.112442e+000	1.662154e+002
9370018900	-2.512552e+000	1.717728e+002	-2.812960e+001	-1.730664e+002	-3.376240e+001	-1.136973e+002	-2.113497e+000	1.662721e+002
9380018600	-2.528751e+000	1.719457e+002	-2.808871e+001	-1.730582e+002	-3.402393e+001	-1.164356e+002	-2.096086e+000	1.663553e+002
9390018300	-2.498821e+000	1.719068e+002	-2.798096e+001	-1.739089e+002	-3.367179e+001	-1.178232e+002	-2.109150e+000	1.662861e+002
9400018000	-2.503857e+000	1.719066e+002	-2.813327e+001	-1.747467e+002	-3.359567e+001	-1.193888e+002	-2.118326e+000	1.664890e+002
9410017700	-2.501693e+000	1.720836e+002	-2.790863e+001	-1.759923e+002	-3.374098e+001	-1.223242e+002	-2.116482e+000	1.665711e+002
9420017400	-2.493278e+000	1.721536e+002	-2.799769e+001	-1.771027e+002	-3.386815e+001	-1.243480e+002	-2.118917e+000	1.665226e+002
9430017100	-2.476308e+000	1.721800e+002	-2.796290e+001	-1.773909e+002	-3.414294e+001	-1.254602e+002	-2.136381e+000	1.666799e+002
9440016800	-2.501553e+000	1.720454e+002	-2.798918e+001	-1.787458e+002	-3.407192e+001	-1.278148e+002	-2.127901e+000	1.669029e+002
9450016500	-2.488497e+000	1.722534e+002	-2.806189e+001	-1.794711e+002	-3.429944e+001	-1.301889e+002	-2.137892e+000	1.667781e+002
9460016200	-2.475438e+000	1.722808e+002	-2.811469e+001	1.789567e+002	-3.411034e+001	-1.327091e+002	-2.147051e+000	1.669486e+002
9470015900	-2.475819e+000	1.723810e+002	-2.818912e+001	1.781390e+002	-3.446821e+001	-1.332646e+002	-2.168127e+000	1.668383e+002
9480015600	-2.470666e+000	1.721526e+002	-2.808023e+001	1.784208e+002	-3.453843e+001	-1.334336e+002	-2.169079e+000	1.668403e+002
9490015300	-2.459454e+000	1.720756e+002	-2.803092e+001	1.774124e+002	-3.453466e+001	-1.364899e+002	-2.177480e+000	1.666493e+002
9500015000	-2.456748e+000	1.721722e+002	-2.797355e+001	1.750716e+002	-3.471419e+001	-1.372097e+002	-2.209599e+000	1.665227e+002
9510014700	-2.441800e+000	1.721726e+002	-2.811693e+001	1.733709e+002	-3.478766e+001	-1.390338e+002	-2.223646e+000	1.662755e+002
9520014400	-2.435509e+000	1.721614e+002	-2.818170e+001	1.735138e+002	-3.511211e+001	-1.418801e+002	-2.226856e+000	1.661594e+002
9530014100	-2.425286e+000	1.722287e+002	-2.811358e+001	1.729484e+002	-3.496730e+001	-1.459023e+002	-2.228387e+000	1.661095e+002
9540013800	-2.418397e+000	1.720771e+002	-2.811793e+001	1.712801e+002	-3.530230e+001	-1.452457e+002	-2.231857e+000	1.660624e+002
9550013500	-2.373303e+000	1.722063e+002	-2.819046e+001	1.701920e+002	-3.538470e+001	-1.484187e+002	-2.224572e+000	1.659056e+002
9560013200	-2.408217e+000	1.722451e+002	-2.821983e+001	1.695836e+002	-3.560247e+001	-1.507379e+002	-2.239255e+000	1.659626e+002
9570012900	-2.379305e+000	1.723053e+002	-2.844061e+001	1.681632e+002	-3.537639e+001	-1.519474e+002	-2.232012e+000	1.659795e+002
9580012600	-2.376560e+000	1.722090e+002	-2.833416e+001	1.674965e+002	-3.580240e+001	-1.533497e+002	-2.245147e+000	1.660217e+002
9590012300	-2.394182e+000	1.722326e+002	-2.819465e+001	1.664516e+002	-3.575606e+001	-1.574634e+002	-2.255912e+000	1.660728e+002
9600012000	-2.393134e+000	1.720821e+002	-2.830853e+001	1.650276e+002	-3.579621e+001	-1.591905e+002	-2.263082e+000	1.661771e+002
9610011700	-2.387751e+000	1.722435e+002	-2.833616e+001	1.645645e+002	-3.583567e+001	-1.612888e+002	-2.265212e+000	1.663973e+002
9620011400	-2.386345e+000	1.720081e+002	-2.846487e+001	1.635071e+002	-3.614394e+001	-1.638237e+002	-2.293658e+000	1.664133e+002
9630011100	-2.386020e+000	1.721459e+002	-2.847709e+001	1.620615e+002	-3.669858e+001	-1.652486e+002	-2.277988e+000	1.664402e+002
9640010800	-2.364929e+000	1.721010e+002	-2.867312e+001	1.597408e+002	-3.636834e+001	-1.677496e+002	-2.318311e+000	1.663066e+002
9650010500	-2.335428e+000	1.718696e+002	-2.853965e+001	1.592332e+002	-3.656133e+001	-1.722914e+002	-2.335053e+000	1.664165e+002
9660010200	-2.363383e+000	1.718999e+002	-2.857704e+001	1.576355e+002	-3.649345e+001	-1.748111e+002	-2.373859e+000	1.661571e+002
9670009900	-2.340591e+000	1.717330e+002	-2.865147e+001	1.564766e+002	-3.693836e+001	-1.773803e+002	-2.372020e+000	1.661175e+002
9680009600	-2.360446e+000	1.716641e+002	-2.892663e+001	1.573603e+002	-3.713220e+001	-1.780438e+002	-2.400798e+000	1.659468e+002
9690009300	-2.334144e+000	1.715898e+002	-2.874904e+001	1.555262e+002	-3.679778e+001	-1.799566e+002	-2.406649e+000	1.658487e+002
9700009000	-2.336735e+000	1.715544e+002	-2.884981e+001	1.531464e+002	-3.723913e+001	1.796688e+002	-2.408093e+000	1.657756e+002
9710008700	-2.345752e+000	1.713869e+002	-2.888762e+001	1.533255e+002	-3.739864e+001	1.719139e+002	-2.432241e+000	1.658344e+002
9720008400	-2.337677e+000	1.714919e+002	-2.889009e+001	1.520798e+002	-3.756268e+001	1.692899e+002	-2.419421e+000	1.656853e+002
9730008100	-2.336704e+000	1.714491e+002	-2.880423e+001	1.509765e+002	-3.701934e+001	1.699423e+002	-2.430663e+000	1.657447e+002
9740007800	-2.342270e+000	1.715046e+002	-2.892772e+001	1.512677e+002	-3.751738e+001	1.624159e+002	-2.440512e+000	1.657612e+002
9750007500	-2.334008e+000	1.712286e+002	-2.908972e+001	1.493527e+002	-3.736420e+001	1.630811e+002	-2.442985e+000	1.659802e+002
9760007200	-2.329765e+000	1.711388e+002	-2.903481e+001	1.474727e+002	-3.722453e+001	1.584776e+002	-2.441796e+000	1.658592e+002
9770006900	-2.323253e+000	1.710555e+002	-2.891784e+001	1.463735e+002	-3.739773e+001	1.553370e+002	-2.434436e+000	1.660500e+002
9780006600	-2.318887e+000	1.710556e+002	-2.894187e+001	1.453100e+002	-3.714361e+001	1.546967e+002	-2.425154e+000	1.660800e+002
9790006300	-2.357832e+000	1.709559e+002	-2.900938e+001	1.442447e+002	-3.731493e+001	1.508291e+002	-2.433726e+000	1.662094e+002
9800006000	-2.352520e+000	1.709115e+002	-2.915468e+001	1.421451e+002	-3.704527e+001	1.463234e+002	-2.436958e+000	1.660610e+002
9810005700	-2.364046e+000	1.708957e+002	-2.894249e+001	1.408039e+002	-3.698738e+001	1.438877e+002	-2.440566e+000	1.660942e+002
9820005400	-2.338672e+000	1.705422e+002	-2.904859e+001	1.394594e+002	-3.607362e+001	1.421465e+002	-2.477235e+000	1.659717e+002
9830005100	-2.368289e+000	1.704074e+002	-2.903605e+001	1.386914e+002	-3.704718e+001	1.397096e+002	-2.497269e+000	1.658493e+002
9840004800	-2.378099e+000	1.702213e+002	-2.918443e+001	1.377428e+002	-3.679481e+001	1.356073e+002	-2.509756e+000	1.656360e+002
9850004500	-2.368604e+000	1.703458e+002	-2.907516e+001	1.358379e+002	-3.614262e+001	1.316222e+002	-2.506349e+000	1.656293e+002
9860004200	-2.369760e+000	1.703138e+002	-2.904655e+001	1.337889e+002	-3.606591e+001	1.289740e+002	-2.522958e+000	1.654448e+002
9870003900	-2.376009e+000	1.700216e+002	-2.900795e+001	1.315375e+002	-3.601917e+001	1.226148e+002	-2.502038e+000	1.653277e+002
9880003600	-2.376077e+000	1.700426e+002	-2.913029e+001	1.306860e+002	-3.602472e+001	1.202261e+002	-2.539539e+000	1.652146e+002
9890003300	-2.422505e+000	1.699137e+002	-2.898568e+001	1.290394e+002	-3.536391e+001	1.171356e+002	-2.548788e+000	1.651889e+002
9900003000	-2.432128e+000	1.698335e+002	-2.911931e+001	1.272658e+002	-3.515918e+001	1.116322e+002	-2.523212e+000	1.651849e+002
9910002700	-2.433691e+000	1.698820e+002	-2.923160e+001	1.244930e+002	-3.532573e+001	1.097811e+002	-2.526507e+000	1.653066e+002
9920002400	-2.419112e+000	1.696242e+002	-2.925087e+001	1.236768e+002	-3.505729e+001	1.046683e+002	-2.533337e+000	1.652771e+002
9930002100	-2.484984e+000	1.693430e+002	-2.925953e+001	1.201182e+002	-3.523107e+001	1.016249e+002	-2.532281e+000	1.652321e+002
9940001800	-2.483899e+000	1.693866e+002	-2.948002e+001	1.188548e+002	-3.481522e+001	9.481853e+001	-2.512347e+000	1.651779e+002
9950001500	-2.499632e+000	1.692101e+002	-2.930730e+001	1.177967e+002	-3.434263e+001	9.509390e+001	-2.513647e+000	1.650076e+002
9960001200	-2.521170e+000	1.692795e+002	-2.957682e+001	1.135291e+002	-3.459051e+001	8.966483e+001	-2.551180e+000	1.648307e+002
9970000900	-2.551220e+000	1.690725e+002	-2.968651e+001	1.137232e+002	-3.412414e+001	8.816681e+001	-2.555356e+000	1.647303e+002
9980000600	-2.572414e+000	1.691363e+002	-2.977873e+001	1.108059e+002	-3.376301e+001	8.512762e+001	-2.564150e+000	1.647077e+002
9990000300	-2.618910e+000	1.688036e+002	-2.978117e+001	1.070011e+002	-3.380421e+001	7.938676e+001	-2.581841e+000	1.645575e+002
10000000000	-2.641986e+000	1.689609e+002	-2.984583e+001	1.057857e+002	-3.390437e+001	7.893542e+001	-2.627977e+000	1.644372e+002

!Noise Parameters
!Freq  NFmin(dB)  Mag(GammaOpt)  Ang(GammaOpt)(deg)  rn(normalized)
6.5e+008 1.157547 0.59754 65.674 0.29852
7e+008   1.1026  0.50415 71.747 0.23561
7.5e+008 1.0756  0.50766 71.973 0.22922
8e+008   1.1039  0.48849 75.469 0.2363
8.5e+008 1.0858  0.49531 79.263 0.22021
9e+008   1.1275  0.45786 81.107 0.21476
9.5e+008 1.1523  0.46925 83.565 0.2268
1e+009   1.1857  0.44817 88.855 0.19845
