!Agilent Technologies,E5071C,MY46316587,B.13.01
!Date: Wed Dec 06 10:53:41 2017
!Data & Calibration Information:
!Freq	S11:SOLT2(ON)	S21:SOLT2(ON)	S12:SOLT2(ON)	S22:SOLT2(ON)
!PortZ  Port1:50+j0    Port2:50+j0
!Above PortZ is port z conversion or system Z0 setting when saving the data.
!When reading, reference impedance value at option line is always used.
# Hz S RI R 50
300000	9.517196e-001	-2.029387e-003	-1.528339e-004	1.086638e-003	-5.611247e-004	5.295532e-004	9.944660e-001	-1.796783e-003
10299700	9.425305e-001	-6.981828e-002	3.882181e-003	4.805165e-002	3.988291e-003	4.910398e-002	9.888269e-001	-5.360373e-002
20299400	9.230925e-001	-1.270833e-001	1.475222e-002	9.357797e-002	1.484805e-002	9.512597e-002	9.783660e-001	-1.032557e-001
30299100	9.004760e-001	-1.785590e-001	3.222239e-002	1.362509e-001	3.250986e-002	1.375116e-001	9.629313e-001	-1.507976e-001
40298800	8.730763e-001	-2.254605e-001	5.501509e-002	1.752343e-001	5.499382e-002	1.762668e-001	9.412232e-001	-1.950053e-001
50298500	8.429810e-001	-2.670289e-001	8.172125e-002	2.095984e-001	8.194388e-002	2.104928e-001	9.168616e-001	-2.341471e-001
60298200	8.097705e-001	-3.040372e-001	1.113348e-001	2.381874e-001	1.119208e-001	2.396074e-001	8.889576e-001	-2.687954e-001
70297900	7.745797e-001	-3.341331e-001	1.435644e-001	2.624812e-001	1.433572e-001	2.626227e-001	8.584363e-001	-2.984018e-001
80297600	7.391989e-001	-3.595792e-001	1.759148e-001	2.812340e-001	1.766369e-001	2.813489e-001	8.273003e-001	-3.236506e-001
90297300	7.025416e-001	-3.815066e-001	2.097837e-001	2.951919e-001	2.095009e-001	2.950862e-001	7.967056e-001	-3.445390e-001
100297000	6.680034e-001	-3.975344e-001	2.418768e-001	3.044217e-001	2.415504e-001	3.047483e-001	7.657416e-001	-3.606114e-001
110296700	6.332652e-001	-4.107356e-001	2.731935e-001	3.098181e-001	2.730019e-001	3.099595e-001	7.360778e-001	-3.741581e-001
120296400	6.016555e-001	-4.189747e-001	3.023178e-001	3.125863e-001	3.025552e-001	3.126835e-001	7.079093e-001	-3.835569e-001
130296100	5.714438e-001	-4.245480e-001	3.303954e-001	3.130292e-001	3.300039e-001	3.122728e-001	6.808017e-001	-3.899114e-001
140295800	5.420284e-001	-4.283644e-001	3.564120e-001	3.101334e-001	3.566705e-001	3.105587e-001	6.547739e-001	-3.959227e-001
150295500	5.150131e-001	-4.312785e-001	3.805430e-001	3.063513e-001	3.808720e-001	3.065001e-001	6.309307e-001	-3.999747e-001
160295200	4.905061e-001	-4.311699e-001	4.026951e-001	3.002468e-001	4.030668e-001	3.006673e-001	6.086919e-001	-4.018329e-001
170294900	4.678369e-001	-4.298463e-001	4.242157e-001	2.927758e-001	4.240081e-001	2.937244e-001	5.881760e-001	-4.033054e-001
180294600	4.469839e-001	-4.275442e-001	4.430316e-001	2.860896e-001	4.430243e-001	2.858039e-001	5.699842e-001	-4.028032e-001
190294300	4.266536e-001	-4.254335e-001	4.608598e-001	2.770864e-001	4.605276e-001	2.768953e-001	5.526212e-001	-4.033467e-001
200294000	4.093847e-001	-4.210283e-001	4.769128e-001	2.685813e-001	4.763305e-001	2.685369e-001	5.367726e-001	-4.022791e-001
210293700	3.911638e-001	-4.187254e-001	4.914592e-001	2.590524e-001	4.914845e-001	2.587442e-001	5.214511e-001	-4.011787e-001
220293400	3.766455e-001	-4.133777e-001	5.042199e-001	2.506891e-001	5.044272e-001	2.502286e-001	5.080354e-001	-3.989406e-001
230293100	3.620551e-001	-4.101941e-001	5.169693e-001	2.395123e-001	5.174863e-001	2.396273e-001	4.948759e-001	-3.970577e-001
240292800	3.485905e-001	-4.058394e-001	5.278564e-001	2.296165e-001	5.287682e-001	2.299647e-001	4.827539e-001	-3.952775e-001
250292500	3.371167e-001	-4.018499e-001	5.382080e-001	2.203265e-001	5.387886e-001	2.204602e-001	4.714351e-001	-3.930712e-001
260292200	3.255121e-001	-3.980728e-001	5.475179e-001	2.103305e-001	5.483624e-001	2.103643e-001	4.612704e-001	-3.912961e-001
270291900	3.155972e-001	-3.939548e-001	5.563980e-001	2.009558e-001	5.568466e-001	2.008358e-001	4.521902e-001	-3.894951e-001
280291600	3.056583e-001	-3.899858e-001	5.648266e-001	1.908913e-001	5.644054e-001	1.908019e-001	4.431434e-001	-3.879413e-001
290291300	2.966185e-001	-3.867779e-001	5.718877e-001	1.811241e-001	5.719809e-001	1.811019e-001	4.347224e-001	-3.864605e-001
300291000	2.882284e-001	-3.830898e-001	5.781527e-001	1.718044e-001	5.784388e-001	1.714472e-001	4.263686e-001	-3.847583e-001
310290700	2.805214e-001	-3.781761e-001	5.839941e-001	1.635351e-001	5.844348e-001	1.633473e-001	4.193810e-001	-3.830861e-001
320290400	2.736796e-001	-3.751192e-001	5.898793e-001	1.550331e-001	5.896633e-001	1.542481e-001	4.122707e-001	-3.815759e-001
330290100	2.674656e-001	-3.713258e-001	5.942993e-001	1.464155e-001	5.948005e-001	1.459382e-001	4.056022e-001	-3.803774e-001
340289800	2.614632e-001	-3.683277e-001	5.988152e-001	1.382356e-001	5.994632e-001	1.376267e-001	3.993068e-001	-3.790976e-001
350289500	2.547160e-001	-3.657812e-001	6.033032e-001	1.286535e-001	6.036041e-001	1.284826e-001	3.932496e-001	-3.779868e-001
360289200	2.482915e-001	-3.637176e-001	6.070065e-001	1.195785e-001	6.073670e-001	1.193669e-001	3.871721e-001	-3.774814e-001
370288900	2.431664e-001	-3.613088e-001	6.104709e-001	1.113306e-001	6.110589e-001	1.111974e-001	3.820609e-001	-3.769312e-001
380288600	2.372555e-001	-3.591622e-001	6.133673e-001	1.023206e-001	6.138847e-001	1.027176e-001	3.765277e-001	-3.770286e-001
390288300	2.329890e-001	-3.563390e-001	6.160951e-001	9.665071e-002	6.165571e-001	9.580217e-002	3.722367e-001	-3.766276e-001
400288000	2.287871e-001	-3.540645e-001	6.182962e-001	8.816074e-002	6.189807e-001	8.831758e-002	3.676775e-001	-3.766602e-001
410287700	2.232805e-001	-3.529751e-001	6.207855e-001	7.997978e-002	6.215486e-001	8.000453e-002	3.630038e-001	-3.771094e-001
420287400	2.193346e-001	-3.511977e-001	6.231445e-001	7.203724e-002	6.237241e-001	7.230892e-002	3.593204e-001	-3.763004e-001
430287100	2.145705e-001	-3.495223e-001	6.249157e-001	6.435663e-002	6.260090e-001	6.506731e-002	3.554228e-001	-3.761837e-001
440286800	2.121543e-001	-3.468471e-001	6.262856e-001	5.874021e-002	6.275687e-001	5.875904e-002	3.518783e-001	-3.753662e-001
450286500	2.088853e-001	-3.456789e-001	6.279699e-001	5.171092e-002	6.290595e-001	5.166833e-002	3.479393e-001	-3.757683e-001
460286200	2.048352e-001	-3.445061e-001	6.295102e-001	4.428002e-002	6.308631e-001	4.444047e-002	3.439152e-001	-3.766138e-001
470285900	2.009263e-001	-3.435224e-001	6.305151e-001	3.742956e-002	6.313547e-001	3.765630e-002	3.404885e-001	-3.763686e-001
480285600	1.977995e-001	-3.423273e-001	6.317109e-001	3.121915e-002	6.328466e-001	3.098760e-002	3.370187e-001	-3.770083e-001
490285300	1.954747e-001	-3.409013e-001	6.322930e-001	2.552604e-002	6.332895e-001	2.509551e-002	3.341356e-001	-3.779288e-001
500285000	1.919176e-001	-3.397716e-001	6.335173e-001	1.859547e-002	6.341178e-001	1.883446e-002	3.300510e-001	-3.785378e-001
510284700	1.894168e-001	-3.392130e-001	6.337322e-001	1.211375e-002	6.350161e-001	1.228056e-002	3.267310e-001	-3.797381e-001
520284400	1.859158e-001	-3.383643e-001	6.344801e-001	5.807264e-003	6.355421e-001	5.866571e-003	3.228745e-001	-3.800525e-001
530284100	1.842490e-001	-3.379778e-001	6.347139e-001	1.952244e-005	6.358905e-001	1.643912e-004	3.196333e-001	-3.807252e-001
540283800	1.804467e-001	-3.378172e-001	6.347268e-001	-6.010481e-003	6.358394e-001	-5.957927e-003	3.166590e-001	-3.818000e-001
550283500	1.779546e-001	-3.372229e-001	6.344505e-001	-1.185618e-002	6.358255e-001	-1.193825e-002	3.131455e-001	-3.832472e-001
560283200	1.751579e-001	-3.371213e-001	6.344630e-001	-1.781194e-002	6.360008e-001	-1.770546e-002	3.100501e-001	-3.843188e-001
570282900	1.721591e-001	-3.367374e-001	6.343154e-001	-2.335680e-002	6.356278e-001	-2.357582e-002	3.077302e-001	-3.858531e-001
580282600	1.700232e-001	-3.367803e-001	6.339884e-001	-2.888060e-002	6.354541e-001	-2.903034e-002	3.050521e-001	-3.874430e-001
590282300	1.676597e-001	-3.363547e-001	6.335830e-001	-3.375180e-002	6.353426e-001	-3.442444e-002	3.024288e-001	-3.886102e-001
600282000	1.649329e-001	-3.365617e-001	6.330479e-001	-3.908836e-002	6.350378e-001	-3.976414e-002	2.999797e-001	-3.901873e-001
610281700	1.630676e-001	-3.360692e-001	6.331872e-001	-4.398615e-002	6.342107e-001	-4.467440e-002	2.977381e-001	-3.918405e-001
620281400	1.605032e-001	-3.361961e-001	6.324484e-001	-4.907504e-002	6.336103e-001	-4.982387e-002	2.953591e-001	-3.929470e-001
630281100	1.581157e-001	-3.356828e-001	6.320029e-001	-5.431437e-002	6.337194e-001	-5.508420e-002	2.924014e-001	-3.937811e-001
640280800	1.564766e-001	-3.356380e-001	6.312357e-001	-5.963903e-002	6.328620e-001	-6.009261e-002	2.900668e-001	-3.953659e-001
650280500	1.543349e-001	-3.357093e-001	6.304809e-001	-6.500208e-002	6.319351e-001	-6.560081e-002	2.871655e-001	-3.967804e-001
660280200	1.518671e-001	-3.357221e-001	6.296618e-001	-6.966539e-002	6.312680e-001	-7.051655e-002	2.842976e-001	-3.980188e-001
670279900	1.500660e-001	-3.363764e-001	6.285096e-001	-7.429295e-002	6.304762e-001	-7.507195e-002	2.816515e-001	-3.995100e-001
680279600	1.484637e-001	-3.353239e-001	6.280093e-001	-7.898146e-002	6.297189e-001	-7.983129e-002	2.788931e-001	-4.014552e-001
690279300	1.461645e-001	-3.350244e-001	6.269165e-001	-8.371224e-002	6.282769e-001	-8.442773e-002	2.763974e-001	-4.036095e-001
700279000	1.444728e-001	-3.358194e-001	6.258871e-001	-8.896363e-002	6.274918e-001	-8.919010e-002	2.734814e-001	-4.058580e-001
710278700	1.425415e-001	-3.358498e-001	6.245557e-001	-9.352465e-002	6.265303e-001	-9.363996e-002	2.704096e-001	-4.068601e-001
720278400	1.407879e-001	-3.360631e-001	6.236415e-001	-9.718361e-002	6.253613e-001	-9.802169e-002	2.671487e-001	-4.083816e-001
730278100	1.401299e-001	-3.364947e-001	6.227298e-001	-1.011743e-001	6.239691e-001	-1.017346e-001	2.640992e-001	-4.099711e-001
740277800	1.379776e-001	-3.370863e-001	6.216542e-001	-1.056155e-001	6.229940e-001	-1.061764e-001	2.609698e-001	-4.118095e-001
750277500	1.361015e-001	-3.378000e-001	6.202042e-001	-1.094595e-001	6.221273e-001	-1.098555e-001	2.577957e-001	-4.135654e-001
760277200	1.342933e-001	-3.385224e-001	6.189005e-001	-1.139297e-001	6.207046e-001	-1.140874e-001	2.550395e-001	-4.157794e-001
770276900	1.329692e-001	-3.393827e-001	6.177793e-001	-1.173627e-001	6.194896e-001	-1.183195e-001	2.523469e-001	-4.174281e-001
780276600	1.310883e-001	-3.402709e-001	6.165908e-001	-1.215761e-001	6.181053e-001	-1.220980e-001	2.501201e-001	-4.198869e-001
790276300	1.291987e-001	-3.414779e-001	6.155411e-001	-1.256868e-001	6.168454e-001	-1.264627e-001	2.484655e-001	-4.215452e-001
800276000	1.271162e-001	-3.421070e-001	6.141594e-001	-1.290412e-001	6.154095e-001	-1.301445e-001	2.452626e-001	-4.239451e-001
810275700	1.253616e-001	-3.427382e-001	6.132982e-001	-1.329058e-001	6.146747e-001	-1.339299e-001	2.429362e-001	-4.249385e-001
820275400	1.240748e-001	-3.433813e-001	6.122412e-001	-1.367017e-001	6.134091e-001	-1.377119e-001	2.404564e-001	-4.270372e-001
830275100	1.218174e-001	-3.442743e-001	6.108054e-001	-1.405131e-001	6.122897e-001	-1.411198e-001	2.377021e-001	-4.276216e-001
840274800	1.201367e-001	-3.445529e-001	6.093467e-001	-1.445593e-001	6.110008e-001	-1.452741e-001	2.349980e-001	-4.292696e-001
850274500	1.189023e-001	-3.458668e-001	6.082610e-001	-1.482340e-001	6.099061e-001	-1.490781e-001	2.331611e-001	-4.310978e-001
860274200	1.170156e-001	-3.467994e-001	6.067428e-001	-1.523583e-001	6.084103e-001	-1.526626e-001	2.297706e-001	-4.324666e-001
870273900	1.143796e-001	-3.475117e-001	6.053158e-001	-1.558729e-001	6.067944e-001	-1.565889e-001	2.277493e-001	-4.336171e-001
880273600	1.127075e-001	-3.483558e-001	6.033379e-001	-1.592922e-001	6.054177e-001	-1.606891e-001	2.251706e-001	-4.359511e-001
890273300	1.114456e-001	-3.492952e-001	6.023208e-001	-1.632194e-001	6.039115e-001	-1.636432e-001	2.218404e-001	-4.379206e-001
900273000	1.096883e-001	-3.503836e-001	6.009115e-001	-1.664055e-001	6.021225e-001	-1.678671e-001	2.199372e-001	-4.395826e-001
910272700	1.082817e-001	-3.506597e-001	5.994001e-001	-1.696873e-001	6.008145e-001	-1.710460e-001	2.168140e-001	-4.414051e-001
920272400	1.063426e-001	-3.517496e-001	5.978599e-001	-1.734067e-001	5.993907e-001	-1.750713e-001	2.142570e-001	-4.430310e-001
930272100	1.045762e-001	-3.530384e-001	5.961915e-001	-1.773503e-001	5.974344e-001	-1.785799e-001	2.110162e-001	-4.447353e-001
940271800	1.022804e-001	-3.539503e-001	5.941764e-001	-1.801119e-001	5.958590e-001	-1.816540e-001	2.081817e-001	-4.466702e-001
950271500	1.008294e-001	-3.543406e-001	5.926851e-001	-1.839520e-001	5.941480e-001	-1.848850e-001	2.057310e-001	-4.484468e-001
960271200	9.893703e-002	-3.558044e-001	5.910071e-001	-1.870171e-001	5.920846e-001	-1.879096e-001	2.028170e-001	-4.505120e-001
970270900	9.702195e-002	-3.563793e-001	5.891068e-001	-1.902321e-001	5.900424e-001	-1.915922e-001	2.006615e-001	-4.524338e-001
980270600	9.429173e-002	-3.565343e-001	5.869482e-001	-1.931073e-001	5.882910e-001	-1.946719e-001	1.979437e-001	-4.545935e-001
990270300	9.247541e-002	-3.582709e-001	5.856318e-001	-1.962780e-001	5.867079e-001	-1.979194e-001	1.964319e-001	-4.570047e-001
1000270000	9.087446e-002	-3.588945e-001	5.837407e-001	-1.993040e-001	5.846222e-001	-2.009132e-001	1.937417e-001	-4.593148e-001
1010269700	8.866886e-002	-3.597760e-001	5.817634e-001	-2.025078e-001	5.831707e-001	-2.039663e-001	1.918414e-001	-4.608699e-001
1020269400	8.704436e-002	-3.604629e-001	5.798020e-001	-2.055452e-001	5.813728e-001	-2.068234e-001	1.884985e-001	-4.626381e-001
1030269100	8.491873e-002	-3.620087e-001	5.781179e-001	-2.088476e-001	5.797091e-001	-2.097617e-001	1.868402e-001	-4.637180e-001
1040268800	8.323264e-002	-3.626392e-001	5.765157e-001	-2.118380e-001	5.775817e-001	-2.134929e-001	1.835157e-001	-4.657742e-001
1050268500	8.134196e-002	-3.633737e-001	5.744391e-001	-2.149550e-001	5.755560e-001	-2.158530e-001	1.807668e-001	-4.669621e-001
1060268200	8.003730e-002	-3.648076e-001	5.722124e-001	-2.180577e-001	5.737972e-001	-2.188960e-001	1.788267e-001	-4.694926e-001
1070267900	7.877011e-002	-3.655179e-001	5.708671e-001	-2.204699e-001	5.721673e-001	-2.216567e-001	1.759271e-001	-4.703789e-001
1080267600	7.650226e-002	-3.666363e-001	5.688452e-001	-2.232075e-001	5.701080e-001	-2.247507e-001	1.737963e-001	-4.719492e-001
1090267300	7.495509e-002	-3.675038e-001	5.671088e-001	-2.257035e-001	5.679536e-001	-2.271566e-001	1.702962e-001	-4.737419e-001
1100267000	7.296690e-002	-3.682507e-001	5.647854e-001	-2.288770e-001	5.660964e-001	-2.306639e-001	1.672549e-001	-4.752115e-001
1110266700	7.109349e-002	-3.687055e-001	5.625483e-001	-2.317970e-001	5.640319e-001	-2.330080e-001	1.643840e-001	-4.768649e-001
1120266400	6.956398e-002	-3.696537e-001	5.601697e-001	-2.345880e-001	5.623322e-001	-2.358520e-001	1.611621e-001	-4.787420e-001
1130266100	6.769064e-002	-3.712016e-001	5.579240e-001	-2.374926e-001	5.600404e-001	-2.387893e-001	1.582664e-001	-4.803559e-001
1140265800	6.576596e-002	-3.713887e-001	5.563652e-001	-2.398803e-001	5.581012e-001	-2.412463e-001	1.552718e-001	-4.818164e-001
1150265500	6.380592e-002	-3.728668e-001	5.541228e-001	-2.429678e-001	5.562387e-001	-2.435118e-001	1.527451e-001	-4.836597e-001
1160265200	6.206920e-002	-3.728209e-001	5.521394e-001	-2.446934e-001	5.539047e-001	-2.461187e-001	1.493716e-001	-4.855982e-001
1170264900	6.007077e-002	-3.741288e-001	5.499927e-001	-2.474870e-001	5.519706e-001	-2.485601e-001	1.466348e-001	-4.877041e-001
1180264600	5.849691e-002	-3.748628e-001	5.479687e-001	-2.500450e-001	5.498156e-001	-2.511209e-001	1.446040e-001	-4.897113e-001
1190264300	5.638443e-002	-3.762511e-001	5.457742e-001	-2.524791e-001	5.479318e-001	-2.538596e-001	1.417028e-001	-4.915277e-001
1200264000	5.445771e-002	-3.766847e-001	5.439926e-001	-2.549151e-001	5.459179e-001	-2.561314e-001	1.398770e-001	-4.933121e-001
1210263700	5.276347e-002	-3.770002e-001	5.418800e-001	-2.572075e-001	5.435572e-001	-2.585154e-001	1.370637e-001	-4.947964e-001
1220263400	5.168165e-002	-3.778353e-001	5.400378e-001	-2.593030e-001	5.416364e-001	-2.607497e-001	1.346082e-001	-4.959737e-001
1230263100	4.971058e-002	-3.784743e-001	5.380390e-001	-2.618575e-001	5.396903e-001	-2.632911e-001	1.322888e-001	-4.977438e-001
1240262800	4.793623e-002	-3.796952e-001	5.362426e-001	-2.640728e-001	5.376490e-001	-2.656709e-001	1.295523e-001	-4.989421e-001
1250262500	4.604728e-002	-3.805936e-001	5.336053e-001	-2.662657e-001	5.351063e-001	-2.679685e-001	1.263676e-001	-5.005364e-001
1260262200	4.481791e-002	-3.812968e-001	5.320098e-001	-2.682734e-001	5.333136e-001	-2.704104e-001	1.240373e-001	-5.013592e-001
1270261900	4.313814e-002	-3.828457e-001	5.298566e-001	-2.708881e-001	5.314734e-001	-2.728720e-001	1.210295e-001	-5.028902e-001
1280261600	4.160076e-002	-3.833597e-001	5.274536e-001	-2.731553e-001	5.293994e-001	-2.752154e-001	1.185504e-001	-5.046923e-001
1290261300	3.956860e-002	-3.843185e-001	5.253536e-001	-2.753786e-001	5.267080e-001	-2.778328e-001	1.154499e-001	-5.064723e-001
1300261000	3.783063e-002	-3.850140e-001	5.231319e-001	-2.772753e-001	5.243651e-001	-2.798226e-001	1.123351e-001	-5.075041e-001
1310260700	3.646085e-002	-3.855916e-001	5.210884e-001	-2.794429e-001	5.220212e-001	-2.818180e-001	1.090879e-001	-5.087187e-001
1320260400	3.451991e-002	-3.868406e-001	5.186108e-001	-2.817353e-001	5.199935e-001	-2.839046e-001	1.061565e-001	-5.100504e-001
1330260100	3.283239e-002	-3.875093e-001	5.165225e-001	-2.838681e-001	5.179678e-001	-2.860334e-001	1.031273e-001	-5.118412e-001
1340259800	3.053642e-002	-3.879498e-001	5.143072e-001	-2.857294e-001	5.152206e-001	-2.881859e-001	9.981017e-002	-5.135995e-001
1350259500	2.932897e-002	-3.887771e-001	5.124038e-001	-2.878825e-001	5.131293e-001	-2.901390e-001	9.718445e-002	-5.149239e-001
1360259200	2.651498e-002	-3.891429e-001	5.095742e-001	-2.895267e-001	5.108838e-001	-2.915807e-001	9.469741e-002	-5.163034e-001
1370258900	2.475451e-002	-3.893899e-001	5.074100e-001	-2.910684e-001	5.090233e-001	-2.936471e-001	9.212999e-002	-5.179440e-001
1380258600	2.338338e-002	-3.902252e-001	5.054431e-001	-2.934107e-001	5.063175e-001	-2.951666e-001	8.913932e-002	-5.196107e-001
1390258300	2.138420e-002	-3.914005e-001	5.030667e-001	-2.949467e-001	5.038117e-001	-2.970952e-001	8.686312e-002	-5.210724e-001
1400258000	1.926596e-002	-3.914638e-001	5.008525e-001	-2.968765e-001	5.016631e-001	-2.991111e-001	8.440446e-002	-5.221677e-001
1410257700	1.806425e-002	-3.918567e-001	4.991189e-001	-2.985250e-001	4.999888e-001	-3.008324e-001	8.250246e-002	-5.234991e-001
1420257400	1.672747e-002	-3.933163e-001	4.968276e-001	-3.010516e-001	4.979015e-001	-3.026604e-001	7.937728e-002	-5.244043e-001
1430257100	1.481195e-002	-3.939603e-001	4.943029e-001	-3.029186e-001	4.956782e-001	-3.045565e-001	7.652783e-002	-5.253732e-001
1440256800	1.263468e-002	-3.945279e-001	4.921575e-001	-3.041787e-001	4.933227e-001	-3.061135e-001	7.354829e-002	-5.266240e-001
1450256500	1.141438e-002	-3.949782e-001	4.900173e-001	-3.062238e-001	4.905032e-001	-3.080651e-001	7.060452e-002	-5.275111e-001
1460256200	9.701180e-003	-3.959655e-001	4.875425e-001	-3.077321e-001	4.888156e-001	-3.101149e-001	6.807767e-002	-5.283025e-001
1470255900	7.730262e-003	-3.967681e-001	4.853265e-001	-3.096622e-001	4.864648e-001	-3.117934e-001	6.488781e-002	-5.294307e-001
1480255600	7.251999e-003	-3.971900e-001	4.833432e-001	-3.114249e-001	4.843577e-001	-3.133011e-001	6.239363e-002	-5.305878e-001
1490255300	4.607171e-003	-3.978900e-001	4.808436e-001	-3.132284e-001	4.819911e-001	-3.152839e-001	5.885937e-002	-5.317554e-001
1500255000	3.009745e-003	-3.982558e-001	4.783771e-001	-3.147648e-001	4.796561e-001	-3.169428e-001	5.621705e-002	-5.328363e-001
1510254700	3.762621e-004	-3.991065e-001	4.755507e-001	-3.164910e-001	4.766805e-001	-3.185564e-001	5.204428e-002	-5.340439e-001
1520254400	-5.629852e-004	-3.998005e-001	4.740573e-001	-3.184462e-001	4.744899e-001	-3.199827e-001	4.917159e-002	-5.351345e-001
1530254100	-2.919737e-003	-4.009476e-001	4.712860e-001	-3.200087e-001	4.721113e-001	-3.217274e-001	4.641913e-002	-5.369419e-001
1540253800	-5.161375e-003	-4.010366e-001	4.687960e-001	-3.212939e-001	4.698059e-001	-3.233677e-001	4.306863e-002	-5.391218e-001
1550253500	-6.687396e-003	-4.016310e-001	4.666342e-001	-3.227428e-001	4.672415e-001	-3.246191e-001	4.058040e-002	-5.400676e-001
1560253200	-8.148105e-003	-4.017707e-001	4.649096e-001	-3.239387e-001	4.651062e-001	-3.259562e-001	3.813364e-002	-5.412696e-001
1570252900	-9.778284e-003	-4.022986e-001	4.627288e-001	-3.255799e-001	4.627372e-001	-3.273909e-001	3.560340e-002	-5.422621e-001
1580252600	-1.144049e-002	-4.025229e-001	4.601362e-001	-3.267237e-001	4.610902e-001	-3.285628e-001	3.429512e-002	-5.433434e-001
1590252300	-1.332455e-002	-4.031312e-001	4.577453e-001	-3.276533e-001	4.587094e-001	-3.304584e-001	3.197198e-002	-5.447592e-001
1600252000	-1.547675e-002	-4.035046e-001	4.554942e-001	-3.295362e-001	4.560499e-001	-3.314819e-001	2.950563e-002	-5.451749e-001
1610251700	-1.716089e-002	-4.031968e-001	4.534609e-001	-3.305850e-001	4.545400e-001	-3.331491e-001	2.773665e-002	-5.465556e-001
1620251400	-1.891099e-002	-4.037589e-001	4.507020e-001	-3.319943e-001	4.518983e-001	-3.349111e-001	2.477338e-002	-5.473493e-001
1630251100	-2.049482e-002	-4.036632e-001	4.488993e-001	-3.334478e-001	4.495320e-001	-3.359428e-001	2.238809e-002	-5.477322e-001
1640250800	-2.272571e-002	-4.040052e-001	4.463867e-001	-3.348301e-001	4.467284e-001	-3.373920e-001	1.912097e-002	-5.480696e-001
1650250500	-2.444052e-002	-4.049293e-001	4.439700e-001	-3.365813e-001	4.445630e-001	-3.393385e-001	1.705557e-002	-5.491582e-001
1660250200	-2.544865e-002	-4.057472e-001	4.417633e-001	-3.380647e-001	4.423320e-001	-3.404224e-001	1.330971e-002	-5.497822e-001
1670249900	-2.796503e-002	-4.061085e-001	4.391994e-001	-3.397679e-001	4.395533e-001	-3.419976e-001	9.271175e-003	-5.508774e-001
1680249600	-2.954250e-002	-4.061627e-001	4.364354e-001	-3.409321e-001	4.372562e-001	-3.430428e-001	6.244586e-003	-5.513735e-001
1690249300	-3.181597e-002	-4.069279e-001	4.341538e-001	-3.424979e-001	4.354981e-001	-3.442531e-001	3.813677e-003	-5.521911e-001
1700249000	-3.408263e-002	-4.070527e-001	4.314499e-001	-3.434579e-001	4.330944e-001	-3.456244e-001	-1.937278e-004	-5.533420e-001
1710248700	-3.569904e-002	-4.078773e-001	4.290708e-001	-3.447878e-001	4.301761e-001	-3.468520e-001	-3.519192e-003	-5.541073e-001
1720248400	-3.720043e-002	-4.083257e-001	4.266688e-001	-3.457075e-001	4.273941e-001	-3.471810e-001	-6.625957e-003	-5.548741e-001
1730248100	-3.875838e-002	-4.081337e-001	4.249362e-001	-3.466366e-001	4.248087e-001	-3.492556e-001	-1.039859e-002	-5.567150e-001
1740247800	-4.102344e-002	-4.089201e-001	4.219046e-001	-3.476231e-001	4.221863e-001	-3.494229e-001	-1.294211e-002	-5.572304e-001
1750247500	-4.241628e-002	-4.087542e-001	4.193284e-001	-3.484253e-001	4.193742e-001	-3.503370e-001	-1.609555e-002	-5.577694e-001
1760247200	-4.475730e-002	-4.091416e-001	4.166981e-001	-3.492301e-001	4.172607e-001	-3.508799e-001	-1.858020e-002	-5.589725e-001
1770246900	-4.619727e-002	-4.095789e-001	4.143457e-001	-3.501926e-001	4.153300e-001	-3.524557e-001	-1.971998e-002	-5.604605e-001
1780246600	-4.762681e-002	-4.095052e-001	4.120175e-001	-3.512642e-001	4.128826e-001	-3.534435e-001	-2.253412e-002	-5.614163e-001
1790246300	-4.994190e-002	-4.090997e-001	4.097552e-001	-3.519376e-001	4.103926e-001	-3.547316e-001	-2.513168e-002	-5.620190e-001
1800246000	-5.150510e-002	-4.088998e-001	4.071839e-001	-3.526028e-001	4.077571e-001	-3.554489e-001	-2.765903e-002	-5.623186e-001
1810245700	-5.330306e-002	-4.085687e-001	4.050769e-001	-3.534788e-001	4.056386e-001	-3.566179e-001	-3.003897e-002	-5.631410e-001
1820245400	-5.524738e-002	-4.086579e-001	4.025067e-001	-3.545164e-001	4.028430e-001	-3.568617e-001	-3.289576e-002	-5.631675e-001
1830245100	-5.665812e-002	-4.092486e-001	4.004669e-001	-3.558032e-001	4.004526e-001	-3.580411e-001	-3.578326e-002	-5.632106e-001
1840244800	-5.910420e-002	-4.088752e-001	3.977953e-001	-3.568401e-001	3.978365e-001	-3.591906e-001	-3.913504e-002	-5.638767e-001
1850244500	-6.046203e-002	-4.087498e-001	3.960683e-001	-3.573042e-001	3.954749e-001	-3.606076e-001	-4.215623e-002	-5.640500e-001
1860244200	-6.249396e-002	-4.091283e-001	3.931285e-001	-3.587711e-001	3.933397e-001	-3.612164e-001	-4.586779e-002	-5.639481e-001
1870243900	-6.479570e-002	-4.095673e-001	3.902516e-001	-3.601893e-001	3.905476e-001	-3.623419e-001	-4.954669e-002	-5.638034e-001
1880243600	-6.645721e-002	-4.095475e-001	3.880749e-001	-3.601938e-001	3.882338e-001	-3.626716e-001	-5.275031e-002	-5.638119e-001
1890243300	-6.850996e-002	-4.098834e-001	3.848286e-001	-3.611063e-001	3.856383e-001	-3.634911e-001	-5.664294e-002	-5.639126e-001
1900243000	-7.054062e-002	-4.100944e-001	3.818422e-001	-3.620739e-001	3.833193e-001	-3.638666e-001	-5.983803e-002	-5.640734e-001
1910242700	-7.225658e-002	-4.099229e-001	3.794098e-001	-3.621055e-001	3.803071e-001	-3.646492e-001	-6.377498e-002	-5.642277e-001
1920242400	-7.397523e-002	-4.095766e-001	3.765150e-001	-3.627307e-001	3.774897e-001	-3.649500e-001	-6.739027e-002	-5.649446e-001
1930242100	-7.609106e-002	-4.098729e-001	3.741466e-001	-3.632683e-001	3.746724e-001	-3.653261e-001	-7.055709e-002	-5.652993e-001
1940241800	-7.802325e-002	-4.092741e-001	3.713826e-001	-3.634198e-001	3.714760e-001	-3.658711e-001	-7.442059e-002	-5.662770e-001
1950241500	-7.992936e-002	-4.093582e-001	3.683999e-001	-3.641304e-001	3.686453e-001	-3.662292e-001	-7.723328e-002	-5.666313e-001
1960241200	-8.160515e-002	-4.089184e-001	3.661036e-001	-3.644215e-001	3.666625e-001	-3.664269e-001	-8.001697e-002	-5.668607e-001
1970240900	-8.331079e-002	-4.086585e-001	3.635025e-001	-3.648505e-001	3.641031e-001	-3.673120e-001	-8.231731e-002	-5.675674e-001
1980240600	-8.476598e-002	-4.075646e-001	3.608438e-001	-3.646093e-001	3.617375e-001	-3.669092e-001	-8.546482e-002	-5.671086e-001
1990240300	-8.671582e-002	-4.070640e-001	3.585576e-001	-3.647269e-001	3.591583e-001	-3.675728e-001	-8.784232e-002	-5.671958e-001
2000240000	-8.887971e-002	-4.066789e-001	3.559002e-001	-3.651315e-001	3.571854e-001	-3.674499e-001	-8.995977e-002	-5.668608e-001
2010239700	-9.043415e-002	-4.056579e-001	3.534270e-001	-3.648095e-001	3.541755e-001	-3.673292e-001	-9.280917e-002	-5.660708e-001
2020239400	-9.211253e-002	-4.047092e-001	3.507956e-001	-3.650242e-001	3.514915e-001	-3.677550e-001	-9.592074e-002	-5.655207e-001
2030239100	-9.386201e-002	-4.044412e-001	3.482288e-001	-3.652067e-001	3.489288e-001	-3.675269e-001	-9.901866e-002	-5.647491e-001
2040238800	-9.608521e-002	-4.040925e-001	3.457085e-001	-3.658869e-001	3.455244e-001	-3.678961e-001	-1.035131e-001	-5.640741e-001
2050238500	-9.763713e-002	-4.032713e-001	3.432375e-001	-3.657581e-001	3.434468e-001	-3.677738e-001	-1.066623e-001	-5.628661e-001
2060238200	-9.935519e-002	-4.027038e-001	3.399762e-001	-3.654025e-001	3.409255e-001	-3.677977e-001	-1.104086e-001	-5.613030e-001
2070237900	-1.006050e-001	-4.023545e-001	3.375531e-001	-3.655476e-001	3.382522e-001	-3.675125e-001	-1.146502e-001	-5.603118e-001
2080237600	-1.031752e-001	-4.019025e-001	3.340745e-001	-3.651883e-001	3.355852e-001	-3.674138e-001	-1.182915e-001	-5.589517e-001
2090237300	-1.045690e-001	-4.010487e-001	3.314323e-001	-3.651286e-001	3.335572e-001	-3.665231e-001	-1.220401e-001	-5.576209e-001
2100237000	-1.062240e-001	-4.001127e-001	3.291706e-001	-3.644340e-001	3.305566e-001	-3.660289e-001	-1.257854e-001	-5.560047e-001
2110236700	-1.078573e-001	-3.995259e-001	3.265239e-001	-3.636221e-001	3.279284e-001	-3.651246e-001	-1.298798e-001	-5.546176e-001
2120236400	-1.098555e-001	-3.981802e-001	3.234448e-001	-3.631133e-001	3.252300e-001	-3.645580e-001	-1.341108e-001	-5.538976e-001
2130236100	-1.114067e-001	-3.970216e-001	3.212185e-001	-3.622078e-001	3.223078e-001	-3.642752e-001	-1.375099e-001	-5.530401e-001
2140235800	-1.124632e-001	-3.953118e-001	3.188723e-001	-3.612241e-001	3.199122e-001	-3.635634e-001	-1.407036e-001	-5.528948e-001
2150235500	-1.142226e-001	-3.944767e-001	3.167945e-001	-3.604311e-001	3.179466e-001	-3.620171e-001	-1.436818e-001	-5.519284e-001
2160235200	-1.163820e-001	-3.923200e-001	3.140382e-001	-3.591163e-001	3.153399e-001	-3.611402e-001	-1.469544e-001	-5.497793e-001
2170234900	-1.178017e-001	-3.917730e-001	3.121430e-001	-3.577817e-001	3.126899e-001	-3.596184e-001	-1.498828e-001	-5.483307e-001
2180234600	-1.186672e-001	-3.899560e-001	3.099459e-001	-3.567882e-001	3.108136e-001	-3.582718e-001	-1.521471e-001	-5.463091e-001
2190234300	-1.203170e-001	-3.882107e-001	3.075155e-001	-3.552713e-001	3.087630e-001	-3.564313e-001	-1.549426e-001	-5.441287e-001
2200234000	-1.219643e-001	-3.864938e-001	3.051048e-001	-3.530993e-001	3.065841e-001	-3.550966e-001	-1.572856e-001	-5.420494e-001
2210233700	-1.223798e-001	-3.843624e-001	3.034831e-001	-3.515987e-001	3.048702e-001	-3.529632e-001	-1.592324e-001	-5.393330e-001
2220233400	-1.230608e-001	-3.830176e-001	3.021983e-001	-3.499583e-001	3.029875e-001	-3.512883e-001	-1.615694e-001	-5.356446e-001
2230233100	-1.241859e-001	-3.814899e-001	2.999373e-001	-3.483024e-001	3.011001e-001	-3.498216e-001	-1.643107e-001	-5.323631e-001
2240232800	-1.252983e-001	-3.795760e-001	2.988989e-001	-3.466269e-001	2.993117e-001	-3.484389e-001	-1.663720e-001	-5.285988e-001
2250232500	-1.257198e-001	-3.776767e-001	2.970257e-001	-3.449193e-001	2.984144e-001	-3.459416e-001	-1.682365e-001	-5.244552e-001
2260232200	-1.253102e-001	-3.756337e-001	2.967352e-001	-3.420067e-001	2.972423e-001	-3.439884e-001	-1.704134e-001	-5.199660e-001
2270231900	-1.256776e-001	-3.735268e-001	2.956511e-001	-3.401809e-001	2.958713e-001	-3.419704e-001	-1.734426e-001	-5.160374e-001
2280231600	-1.262324e-001	-3.714642e-001	2.942280e-001	-3.379920e-001	2.961646e-001	-3.394335e-001	-1.743355e-001	-5.114607e-001
2290231300	-1.253822e-001	-3.695456e-001	2.939392e-001	-3.353084e-001	2.956998e-001	-3.372269e-001	-1.759535e-001	-5.074627e-001
2300231000	-1.253457e-001	-3.679359e-001	2.939915e-001	-3.331336e-001	2.955321e-001	-3.349164e-001	-1.767229e-001	-5.033952e-001
2310230700	-1.250646e-001	-3.660906e-001	2.936404e-001	-3.315113e-001	2.954911e-001	-3.326222e-001	-1.776778e-001	-4.994897e-001
2320230400	-1.247070e-001	-3.646414e-001	2.936389e-001	-3.293362e-001	2.961532e-001	-3.305568e-001	-1.778299e-001	-4.965168e-001
2330230100	-1.233073e-001	-3.627932e-001	2.947158e-001	-3.275846e-001	2.963162e-001	-3.284054e-001	-1.771970e-001	-4.928525e-001
2340229800	-1.225479e-001	-3.617201e-001	2.957685e-001	-3.256458e-001	2.971947e-001	-3.268138e-001	-1.765625e-001	-4.902114e-001
2350229500	-1.220174e-001	-3.600088e-001	2.964877e-001	-3.241993e-001	2.987030e-001	-3.252442e-001	-1.748229e-001	-4.869248e-001
2360229200	-1.204569e-001	-3.590948e-001	2.982739e-001	-3.225606e-001	2.999293e-001	-3.238805e-001	-1.726562e-001	-4.845938e-001
2370228900	-1.191675e-001	-3.582568e-001	2.999602e-001	-3.214514e-001	3.017564e-001	-3.223447e-001	-1.700637e-001	-4.823250e-001
2380228600	-1.175134e-001	-3.576701e-001	3.018827e-001	-3.205815e-001	3.036676e-001	-3.224386e-001	-1.672256e-001	-4.803628e-001
2390228300	-1.160326e-001	-3.566555e-001	3.041186e-001	-3.198970e-001	3.057656e-001	-3.216568e-001	-1.639839e-001	-4.778109e-001
2400228000	-1.143553e-001	-3.571465e-001	3.060277e-001	-3.200361e-001	3.080698e-001	-3.210203e-001	-1.602189e-001	-4.764103e-001
2410227700	-1.129672e-001	-3.566612e-001	3.078700e-001	-3.198483e-001	3.095148e-001	-3.216424e-001	-1.572824e-001	-4.742791e-001
2420227400	-1.116512e-001	-3.573365e-001	3.097950e-001	-3.210648e-001	3.119940e-001	-3.218780e-001	-1.533567e-001	-4.731796e-001
2430227100	-1.102927e-001	-3.579529e-001	3.116070e-001	-3.218666e-001	3.131019e-001	-3.235987e-001	-1.504460e-001	-4.723864e-001
2440226800	-1.086965e-001	-3.590718e-001	3.138331e-001	-3.229430e-001	3.151113e-001	-3.248468e-001	-1.470603e-001	-4.723514e-001
2450226500	-1.075485e-001	-3.598813e-001	3.147790e-001	-3.245612e-001	3.167334e-001	-3.264808e-001	-1.452695e-001	-4.718400e-001
2460226200	-1.063436e-001	-3.608475e-001	3.163235e-001	-3.262393e-001	3.176818e-001	-3.281490e-001	-1.426070e-001	-4.711924e-001
2470225900	-1.058018e-001	-3.618344e-001	3.173830e-001	-3.280908e-001	3.190085e-001	-3.298782e-001	-1.406329e-001	-4.720598e-001
2480225600	-1.049240e-001	-3.630684e-001	3.189114e-001	-3.297217e-001	3.202814e-001	-3.318111e-001	-1.391825e-001	-4.725665e-001
2490225300	-1.046290e-001	-3.646202e-001	3.189780e-001	-3.321611e-001	3.206790e-001	-3.338014e-001	-1.381079e-001	-4.739579e-001
2500225000	-1.041203e-001	-3.663458e-001	3.200436e-001	-3.343870e-001	3.217103e-001	-3.360940e-001	-1.369000e-001	-4.759732e-001
2510224700	-1.042371e-001	-3.676483e-001	3.203919e-001	-3.368066e-001	3.215506e-001	-3.382084e-001	-1.365989e-001	-4.778075e-001
2520224400	-1.039070e-001	-3.689513e-001	3.201130e-001	-3.391556e-001	3.217180e-001	-3.411572e-001	-1.359082e-001	-4.804177e-001
2530224100	-1.045546e-001	-3.703002e-001	3.205478e-001	-3.416094e-001	3.214742e-001	-3.432596e-001	-1.347521e-001	-4.835215e-001
2540223800	-1.052678e-001	-3.714349e-001	3.200843e-001	-3.440701e-001	3.216291e-001	-3.462273e-001	-1.335344e-001	-4.862256e-001
2550223500	-1.054244e-001	-3.730167e-001	3.199012e-001	-3.459733e-001	3.214434e-001	-3.485043e-001	-1.326632e-001	-4.895400e-001
2560223200	-1.064061e-001	-3.739784e-001	3.197970e-001	-3.485314e-001	3.207468e-001	-3.506918e-001	-1.320890e-001	-4.922176e-001
2570222900	-1.070839e-001	-3.750860e-001	3.190291e-001	-3.508246e-001	3.204648e-001	-3.524286e-001	-1.318366e-001	-4.946614e-001
2580222600	-1.077902e-001	-3.762205e-001	3.179476e-001	-3.526527e-001	3.197795e-001	-3.547823e-001	-1.310787e-001	-4.969930e-001
2590222300	-1.083223e-001	-3.768204e-001	3.170913e-001	-3.547943e-001	3.192643e-001	-3.570139e-001	-1.307392e-001	-4.991233e-001
2600222000	-1.095605e-001	-3.782943e-001	3.160300e-001	-3.571285e-001	3.182433e-001	-3.594043e-001	-1.305086e-001	-5.014838e-001
2610221700	-1.106117e-001	-3.791465e-001	3.152400e-001	-3.598969e-001	3.175020e-001	-3.616440e-001	-1.304269e-001	-5.032340e-001
2620221400	-1.109013e-001	-3.798434e-001	3.146249e-001	-3.610890e-001	3.159767e-001	-3.638065e-001	-1.310502e-001	-5.049038e-001
2630221100	-1.121438e-001	-3.808800e-001	3.131003e-001	-3.639670e-001	3.151389e-001	-3.657210e-001	-1.312419e-001	-5.064124e-001
2640220800	-1.134740e-001	-3.819113e-001	3.117432e-001	-3.658636e-001	3.139829e-001	-3.684379e-001	-1.321695e-001	-5.075965e-001
2650220500	-1.148335e-001	-3.825643e-001	3.106479e-001	-3.676010e-001	3.121356e-001	-3.703726e-001	-1.334461e-001	-5.091453e-001
2660220200	-1.160904e-001	-3.833932e-001	3.090745e-001	-3.699755e-001	3.110057e-001	-3.721662e-001	-1.354857e-001	-5.101462e-001
2670219900	-1.179118e-001	-3.845208e-001	3.078486e-001	-3.716443e-001	3.090535e-001	-3.740125e-001	-1.378204e-001	-5.119195e-001
2680219600	-1.184983e-001	-3.854139e-001	3.061280e-001	-3.727851e-001	3.069153e-001	-3.755860e-001	-1.404954e-001	-5.128882e-001
2690219300	-1.203358e-001	-3.864090e-001	3.039486e-001	-3.745485e-001	3.047143e-001	-3.776923e-001	-1.435718e-001	-5.148195e-001
2700219000	-1.216930e-001	-3.865516e-001	3.021569e-001	-3.764725e-001	3.029808e-001	-3.784384e-001	-1.457156e-001	-5.164945e-001
2710218700	-1.229833e-001	-3.873915e-001	3.004518e-001	-3.776022e-001	3.010932e-001	-3.801887e-001	-1.472394e-001	-5.186701e-001
2720218400	-1.241909e-001	-3.879990e-001	2.987520e-001	-3.791317e-001	2.993014e-001	-3.816147e-001	-1.495970e-001	-5.209154e-001
2730218100	-1.257073e-001	-3.885335e-001	2.965223e-001	-3.809526e-001	2.976217e-001	-3.828065e-001	-1.508615e-001	-5.230216e-001
2740217800	-1.269149e-001	-3.886623e-001	2.946176e-001	-3.824224e-001	2.955643e-001	-3.841087e-001	-1.524857e-001	-5.242242e-001
2750217500	-1.285365e-001	-3.884303e-001	2.927414e-001	-3.834724e-001	2.944972e-001	-3.856375e-001	-1.530717e-001	-5.265326e-001
2760217200	-1.297760e-001	-3.885639e-001	2.916576e-001	-3.843514e-001	2.927867e-001	-3.863737e-001	-1.543297e-001	-5.276188e-001
2770216900	-1.307004e-001	-3.885299e-001	2.904832e-001	-3.856247e-001	2.911333e-001	-3.872110e-001	-1.549777e-001	-5.291061e-001
2780216600	-1.323356e-001	-3.878472e-001	2.881063e-001	-3.873390e-001	2.894296e-001	-3.876352e-001	-1.563176e-001	-5.297530e-001
2790216300	-1.334469e-001	-3.877031e-001	2.864331e-001	-3.889234e-001	2.879658e-001	-3.889079e-001	-1.574337e-001	-5.308439e-001
2800216000	-1.350482e-001	-3.875385e-001	2.847183e-001	-3.897309e-001	2.860913e-001	-3.902827e-001	-1.586551e-001	-5.313583e-001
2810215700	-1.367924e-001	-3.874648e-001	2.822287e-001	-3.911871e-001	2.843266e-001	-3.912365e-001	-1.597258e-001	-5.325025e-001
2820215400	-1.382558e-001	-3.874344e-001	2.812085e-001	-3.928289e-001	2.824642e-001	-3.923878e-001	-1.617083e-001	-5.327351e-001
2830215100	-1.397914e-001	-3.876990e-001	2.789173e-001	-3.938057e-001	2.804241e-001	-3.939841e-001	-1.635351e-001	-5.325206e-001
2840214800	-1.424877e-001	-3.874438e-001	2.770541e-001	-3.948968e-001	2.785112e-001	-3.954157e-001	-1.661928e-001	-5.326571e-001
2850214500	-1.437468e-001	-3.878602e-001	2.748216e-001	-3.964235e-001	2.766736e-001	-3.970992e-001	-1.690830e-001	-5.324606e-001
2860214200	-1.451967e-001	-3.880939e-001	2.727881e-001	-3.966919e-001	2.750097e-001	-3.970960e-001	-1.720871e-001	-5.326035e-001
2870213900	-1.472347e-001	-3.884143e-001	2.710853e-001	-3.984731e-001	2.720865e-001	-3.986911e-001	-1.750796e-001	-5.326043e-001
2880213600	-1.484803e-001	-3.888147e-001	2.693171e-001	-3.988712e-001	2.695811e-001	-3.994447e-001	-1.779638e-001	-5.332064e-001
2890213300	-1.499380e-001	-3.889534e-001	2.670704e-001	-3.998644e-001	2.683509e-001	-4.003623e-001	-1.807963e-001	-5.340023e-001
2900213000	-1.511838e-001	-3.890253e-001	2.652586e-001	-4.008047e-001	2.666103e-001	-4.008676e-001	-1.834293e-001	-5.346175e-001
2910212700	-1.528332e-001	-3.891971e-001	2.631648e-001	-4.013763e-001	2.640269e-001	-4.020753e-001	-1.859151e-001	-5.357192e-001
2920212400	-1.536413e-001	-3.886224e-001	2.616568e-001	-4.019047e-001	2.618036e-001	-4.024168e-001	-1.880946e-001	-5.366543e-001
2930212100	-1.550608e-001	-3.887367e-001	2.596214e-001	-4.026109e-001	2.603940e-001	-4.042203e-001	-1.898203e-001	-5.380879e-001
2940211800	-1.563343e-001	-3.878876e-001	2.573808e-001	-4.030498e-001	2.590005e-001	-4.046035e-001	-1.909070e-001	-5.390494e-001
2950211500	-1.578958e-001	-3.875264e-001	2.559526e-001	-4.045549e-001	2.567529e-001	-4.056440e-001	-1.922189e-001	-5.396133e-001
2960211200	-1.597029e-001	-3.870872e-001	2.544215e-001	-4.056886e-001	2.547542e-001	-4.066944e-001	-1.933815e-001	-5.404566e-001
2970210900	-1.614331e-001	-3.859507e-001	2.524750e-001	-4.058058e-001	2.530983e-001	-4.073737e-001	-1.950789e-001	-5.411349e-001
2980210600	-1.637185e-001	-3.855461e-001	2.501108e-001	-4.063892e-001	2.504975e-001	-4.082435e-001	-1.963302e-001	-5.410186e-001
2990210300	-1.650881e-001	-3.845550e-001	2.491546e-001	-4.074385e-001	2.484205e-001	-4.083173e-001	-1.978135e-001	-5.409096e-001
3000210000	-1.670224e-001	-3.843653e-001	2.472112e-001	-4.085140e-001	2.465735e-001	-4.097313e-001	-1.994097e-001	-5.403039e-001
3010209700	-1.689742e-001	-3.836318e-001	2.449029e-001	-4.093307e-001	2.439824e-001	-4.103680e-001	-2.018338e-001	-5.400195e-001
3020209400	-1.705669e-001	-3.835344e-001	2.428228e-001	-4.093750e-001	2.424014e-001	-4.116335e-001	-2.035131e-001	-5.395659e-001
3030209100	-1.724613e-001	-3.831726e-001	2.410279e-001	-4.104473e-001	2.402060e-001	-4.130868e-001	-2.055449e-001	-5.391453e-001
3040208800	-1.739749e-001	-3.830121e-001	2.389992e-001	-4.109092e-001	2.378005e-001	-4.133730e-001	-2.076748e-001	-5.385531e-001
3050208500	-1.754088e-001	-3.825070e-001	2.373066e-001	-4.115745e-001	2.350757e-001	-4.144562e-001	-2.109478e-001	-5.372442e-001
3060208200	-1.770252e-001	-3.828797e-001	2.355261e-001	-4.120227e-001	2.335272e-001	-4.150709e-001	-2.137444e-001	-5.370848e-001
3070207900	-1.789666e-001	-3.826598e-001	2.329608e-001	-4.124759e-001	2.308710e-001	-4.151123e-001	-2.167903e-001	-5.361871e-001
3080207600	-1.807499e-001	-3.817334e-001	2.312391e-001	-4.134635e-001	2.285698e-001	-4.158104e-001	-2.203599e-001	-5.362495e-001
3090207300	-1.820972e-001	-3.817130e-001	2.283603e-001	-4.132970e-001	2.265444e-001	-4.164790e-001	-2.231778e-001	-5.357560e-001
3100207000	-1.835270e-001	-3.807897e-001	2.268717e-001	-4.144372e-001	2.233506e-001	-4.172577e-001	-2.263157e-001	-5.360438e-001
3110206700	-1.847618e-001	-3.797885e-001	2.253550e-001	-4.139131e-001	2.220272e-001	-4.174450e-001	-2.285840e-001	-5.362925e-001
3120206400	-1.862681e-001	-3.789170e-001	2.227934e-001	-4.148841e-001	2.199508e-001	-4.173014e-001	-2.307017e-001	-5.361868e-001
3130206100	-1.874417e-001	-3.780718e-001	2.207565e-001	-4.148425e-001	2.188956e-001	-4.178059e-001	-2.328067e-001	-5.365177e-001
3140205800	-1.891509e-001	-3.769526e-001	2.189759e-001	-4.153454e-001	2.165061e-001	-4.183054e-001	-2.344090e-001	-5.369773e-001
3150205500	-1.908277e-001	-3.756077e-001	2.164733e-001	-4.154334e-001	2.144361e-001	-4.180868e-001	-2.361299e-001	-5.373220e-001
3160205200	-1.920801e-001	-3.742014e-001	2.151019e-001	-4.158765e-001	2.123239e-001	-4.183507e-001	-2.380266e-001	-5.366745e-001
3170204900	-1.942852e-001	-3.730290e-001	2.130274e-001	-4.164257e-001	2.109963e-001	-4.186537e-001	-2.392431e-001	-5.369335e-001
3180204600	-1.958365e-001	-3.719055e-001	2.112754e-001	-4.167950e-001	2.092376e-001	-4.186417e-001	-2.404334e-001	-5.366042e-001
3190204300	-1.976105e-001	-3.707556e-001	2.089087e-001	-4.169749e-001	2.072723e-001	-4.187063e-001	-2.418405e-001	-5.365135e-001
3200204000	-1.994383e-001	-3.698717e-001	2.069268e-001	-4.170131e-001	2.050357e-001	-4.195289e-001	-2.440369e-001	-5.358841e-001
3210203700	-2.007602e-001	-3.693171e-001	2.054488e-001	-4.182258e-001	2.036431e-001	-4.204411e-001	-2.459550e-001	-5.354172e-001
3220203400	-2.023471e-001	-3.685808e-001	2.036089e-001	-4.183335e-001	2.017471e-001	-4.209922e-001	-2.478877e-001	-5.343698e-001
3230203100	-2.042229e-001	-3.682054e-001	2.008707e-001	-4.187715e-001	1.994316e-001	-4.215695e-001	-2.497708e-001	-5.331552e-001
3240202800	-2.057182e-001	-3.674361e-001	1.987365e-001	-4.190405e-001	1.974399e-001	-4.220449e-001	-2.526315e-001	-5.317414e-001
3250202500	-2.070702e-001	-3.669062e-001	1.968417e-001	-4.196718e-001	1.954089e-001	-4.217651e-001	-2.555027e-001	-5.306464e-001
3260202200	-2.083948e-001	-3.662098e-001	1.940463e-001	-4.198802e-001	1.933159e-001	-4.219972e-001	-2.582884e-001	-5.289862e-001
3270201900	-2.099901e-001	-3.656321e-001	1.917438e-001	-4.200276e-001	1.913868e-001	-4.222414e-001	-2.615803e-001	-5.277589e-001
3280201600	-2.116369e-001	-3.643933e-001	1.903988e-001	-4.199414e-001	1.887056e-001	-4.218575e-001	-2.646408e-001	-5.271433e-001
3290201300	-2.130043e-001	-3.635660e-001	1.877069e-001	-4.205988e-001	1.866641e-001	-4.216719e-001	-2.678902e-001	-5.260597e-001
3300201000	-2.149016e-001	-3.622380e-001	1.859314e-001	-4.207964e-001	1.844250e-001	-4.219449e-001	-2.707184e-001	-5.254922e-001
3310200700	-2.163357e-001	-3.608997e-001	1.832830e-001	-4.206363e-001	1.827232e-001	-4.220427e-001	-2.733848e-001	-5.251809e-001
3320200400	-2.179244e-001	-3.598204e-001	1.815881e-001	-4.204914e-001	1.812966e-001	-4.217998e-001	-2.756267e-001	-5.250955e-001
3330200100	-2.201273e-001	-3.587366e-001	1.794039e-001	-4.198489e-001	1.795106e-001	-4.216626e-001	-2.770749e-001	-5.247391e-001
3340199800	-2.217636e-001	-3.572474e-001	1.778038e-001	-4.205788e-001	1.776516e-001	-4.218784e-001	-2.791452e-001	-5.245216e-001
3350199500	-2.238428e-001	-3.561297e-001	1.758070e-001	-4.203330e-001	1.758945e-001	-4.216842e-001	-2.804591e-001	-5.240989e-001
3360199200	-2.253342e-001	-3.549410e-001	1.735528e-001	-4.200987e-001	1.737474e-001	-4.214340e-001	-2.822031e-001	-5.241595e-001
3370198900	-2.270743e-001	-3.537875e-001	1.715343e-001	-4.197835e-001	1.716830e-001	-4.213362e-001	-2.834895e-001	-5.239237e-001
3380198600	-2.289572e-001	-3.524034e-001	1.692589e-001	-4.197643e-001	1.699252e-001	-4.215707e-001	-2.850839e-001	-5.233190e-001
3390198300	-2.302746e-001	-3.513393e-001	1.672374e-001	-4.198858e-001	1.681260e-001	-4.220045e-001	-2.865790e-001	-5.224305e-001
3400198000	-2.321046e-001	-3.504632e-001	1.659155e-001	-4.198674e-001	1.660004e-001	-4.213244e-001	-2.877795e-001	-5.211285e-001
3410197700	-2.328805e-001	-3.490717e-001	1.637539e-001	-4.199356e-001	1.640646e-001	-4.214952e-001	-2.893305e-001	-5.195077e-001
3420197400	-2.343010e-001	-3.480229e-001	1.621622e-001	-4.203928e-001	1.624414e-001	-4.212264e-001	-2.908249e-001	-5.176603e-001
3430197100	-2.359747e-001	-3.467388e-001	1.598874e-001	-4.203738e-001	1.606039e-001	-4.215696e-001	-2.935302e-001	-5.158976e-001
3440196800	-2.366566e-001	-3.455096e-001	1.579216e-001	-4.203794e-001	1.588269e-001	-4.215519e-001	-2.953588e-001	-5.133834e-001
3450196500	-2.387099e-001	-3.435581e-001	1.555496e-001	-4.198771e-001	1.561261e-001	-4.207564e-001	-2.978283e-001	-5.108077e-001
3460196200	-2.399378e-001	-3.419129e-001	1.538784e-001	-4.193799e-001	1.543339e-001	-4.211301e-001	-3.012209e-001	-5.085816e-001
3470195900	-2.421791e-001	-3.406150e-001	1.513265e-001	-4.183873e-001	1.515525e-001	-4.205029e-001	-3.040282e-001	-5.055260e-001
3480195600	-2.440358e-001	-3.382884e-001	1.496697e-001	-4.180809e-001	1.495974e-001	-4.199430e-001	-3.070346e-001	-5.029724e-001
3490195300	-2.460630e-001	-3.365811e-001	1.468480e-001	-4.172463e-001	1.472505e-001	-4.192212e-001	-3.100690e-001	-5.010558e-001
3500195000	-2.479688e-001	-3.345226e-001	1.452244e-001	-4.161068e-001	1.447751e-001	-4.177022e-001	-3.126930e-001	-4.990599e-001
3510194700	-2.495182e-001	-3.326612e-001	1.434941e-001	-4.154625e-001	1.432692e-001	-4.165004e-001	-3.150574e-001	-4.969848e-001
3520194400	-2.510641e-001	-3.304634e-001	1.417674e-001	-4.140431e-001	1.416098e-001	-4.155220e-001	-3.161754e-001	-4.949866e-001
3530194100	-2.526015e-001	-3.284135e-001	1.407363e-001	-4.129966e-001	1.401163e-001	-4.144708e-001	-3.168521e-001	-4.933307e-001
3540193800	-2.540877e-001	-3.263705e-001	1.388921e-001	-4.116531e-001	1.400131e-001	-4.134201e-001	-3.172771e-001	-4.915775e-001
3550193500	-2.549356e-001	-3.239520e-001	1.385175e-001	-4.105597e-001	1.384939e-001	-4.119812e-001	-3.163482e-001	-4.901388e-001
3560193200	-2.556373e-001	-3.217828e-001	1.383780e-001	-4.093095e-001	1.376003e-001	-4.108691e-001	-3.156440e-001	-4.890017e-001
3570192900	-2.561516e-001	-3.190215e-001	1.378937e-001	-4.084975e-001	1.374844e-001	-4.102633e-001	-3.144112e-001	-4.878801e-001
3580192600	-2.565209e-001	-3.167962e-001	1.381651e-001	-4.075463e-001	1.379321e-001	-4.092824e-001	-3.112919e-001	-4.863039e-001
3590192300	-2.563051e-001	-3.149248e-001	1.391597e-001	-4.070218e-001	1.379614e-001	-4.083624e-001	-3.088260e-001	-4.855597e-001
3600192000	-2.557353e-001	-3.133600e-001	1.392458e-001	-4.072923e-001	1.389709e-001	-4.092443e-001	-3.063669e-001	-4.854565e-001
3610191700	-2.551046e-001	-3.118618e-001	1.398899e-001	-4.080498e-001	1.391947e-001	-4.098304e-001	-3.035770e-001	-4.858771e-001
3620191400	-2.548360e-001	-3.105548e-001	1.398806e-001	-4.098093e-001	1.392819e-001	-4.113332e-001	-3.023588e-001	-4.862923e-001
3630191100	-2.546983e-001	-3.093077e-001	1.393041e-001	-4.115521e-001	1.393631e-001	-4.130878e-001	-3.018298e-001	-4.877309e-001
3640190800	-2.547689e-001	-3.083187e-001	1.383551e-001	-4.131606e-001	1.392390e-001	-4.148657e-001	-3.025090e-001	-4.889965e-001
3650190500	-2.553669e-001	-3.076705e-001	1.371654e-001	-4.146521e-001	1.382752e-001	-4.170398e-001	-3.047292e-001	-4.900117e-001
3660190200	-2.559085e-001	-3.069376e-001	1.356492e-001	-4.167726e-001	1.355254e-001	-4.188706e-001	-3.078524e-001	-4.913612e-001
3670189900	-2.567492e-001	-3.049013e-001	1.335658e-001	-4.192034e-001	1.335180e-001	-4.196851e-001	-3.115940e-001	-4.932594e-001
3680189600	-2.575723e-001	-3.044053e-001	1.309792e-001	-4.206193e-001	1.310884e-001	-4.213300e-001	-3.153226e-001	-4.946077e-001
3690189300	-2.586607e-001	-3.025065e-001	1.284457e-001	-4.213916e-001	1.286064e-001	-4.222924e-001	-3.201758e-001	-4.959388e-001
3700189000	-2.593559e-001	-3.010449e-001	1.262727e-001	-4.224056e-001	1.255726e-001	-4.234585e-001	-3.243889e-001	-4.976076e-001
3710188700	-2.595377e-001	-2.993454e-001	1.236855e-001	-4.222848e-001	1.234718e-001	-4.239598e-001	-3.282100e-001	-4.986765e-001
3720188400	-2.593331e-001	-2.979614e-001	1.214971e-001	-4.228017e-001	1.209132e-001	-4.238351e-001	-3.321735e-001	-5.001876e-001
3730188100	-2.590519e-001	-2.966482e-001	1.192870e-001	-4.218651e-001	1.188952e-001	-4.240835e-001	-3.354408e-001	-5.013962e-001
3740187800	-2.577186e-001	-2.956678e-001	1.170854e-001	-4.229654e-001	1.171248e-001	-4.243202e-001	-3.385998e-001	-5.024024e-001
3750187500	-2.562766e-001	-2.951039e-001	1.147930e-001	-4.224909e-001	1.150434e-001	-4.240426e-001	-3.409448e-001	-5.026792e-001
3760187200	-2.541676e-001	-2.957213e-001	1.128123e-001	-4.224345e-001	1.131780e-001	-4.244352e-001	-3.428334e-001	-5.034112e-001
3770186900	-2.523637e-001	-2.965450e-001	1.113310e-001	-4.224240e-001	1.111464e-001	-4.241080e-001	-3.454246e-001	-5.031284e-001
3780186600	-2.510096e-001	-2.990540e-001	1.092624e-001	-4.228932e-001	1.097159e-001	-4.241888e-001	-3.474249e-001	-5.024045e-001
3790186300	-2.503148e-001	-3.020787e-001	1.079102e-001	-4.233567e-001	1.078213e-001	-4.249602e-001	-3.498866e-001	-5.009035e-001
3800186000	-2.512321e-001	-3.051357e-001	1.064080e-001	-4.234070e-001	1.059735e-001	-4.250822e-001	-3.523204e-001	-4.991941e-001
3810185700	-2.532264e-001	-3.086021e-001	1.044357e-001	-4.242524e-001	1.041932e-001	-4.258601e-001	-3.545059e-001	-4.970289e-001
3820185400	-2.563150e-001	-3.112786e-001	1.025145e-001	-4.250020e-001	1.025009e-001	-4.265443e-001	-3.574482e-001	-4.943510e-001
3830185100	-2.604359e-001	-3.135589e-001	1.003814e-001	-4.262734e-001	1.003939e-001	-4.269155e-001	-3.609517e-001	-4.911655e-001
3840184800	-2.654738e-001	-3.148644e-001	9.769673e-002	-4.260458e-001	9.770025e-002	-4.276311e-001	-3.641639e-001	-4.886033e-001
3850184500	-2.702125e-001	-3.146935e-001	9.573588e-002	-4.267799e-001	9.535989e-002	-4.280140e-001	-3.677721e-001	-4.864573e-001
3860184200	-2.751327e-001	-3.144849e-001	9.338439e-002	-4.269494e-001	9.267347e-002	-4.282276e-001	-3.720714e-001	-4.839857e-001
3870183900	-2.801391e-001	-3.136009e-001	9.085087e-002	-4.269608e-001	9.034719e-002	-4.277003e-001	-3.757814e-001	-4.823688e-001
3880183600	-2.847727e-001	-3.119129e-001	8.770524e-002	-4.261167e-001	8.725897e-002	-4.281128e-001	-3.796733e-001	-4.817400e-001
3890183300	-2.889708e-001	-3.108844e-001	8.542140e-002	-4.256647e-001	8.463204e-002	-4.273311e-001	-3.831268e-001	-4.805283e-001
3900183000	-2.926829e-001	-3.095013e-001	8.372493e-002	-4.258941e-001	8.259669e-002	-4.270926e-001	-3.862787e-001	-4.798782e-001
3910182700	-2.960877e-001	-3.079145e-001	8.071547e-002	-4.253226e-001	8.034441e-002	-4.266329e-001	-3.890236e-001	-4.801397e-001
3920182400	-2.990885e-001	-3.061286e-001	7.831350e-002	-4.250592e-001	7.858099e-002	-4.266177e-001	-3.913421e-001	-4.796220e-001
3930182100	-3.018195e-001	-3.042783e-001	7.617593e-002	-4.247424e-001	7.680531e-002	-4.265034e-001	-3.932825e-001	-4.795568e-001
3940181800	-3.041399e-001	-3.020566e-001	7.503750e-002	-4.240572e-001	7.412174e-002	-4.256896e-001	-3.952361e-001	-4.786726e-001
3950181500	-3.062438e-001	-3.002180e-001	7.268826e-002	-4.242120e-001	7.252684e-002	-4.257445e-001	-3.961737e-001	-4.787294e-001
3960181200	-3.083243e-001	-2.980394e-001	7.088890e-002	-4.237522e-001	7.067447e-002	-4.251570e-001	-3.976885e-001	-4.774502e-001
3970180900	-3.104618e-001	-2.956193e-001	6.882758e-002	-4.237437e-001	6.815891e-002	-4.250873e-001	-3.985584e-001	-4.760228e-001
3980180600	-3.123165e-001	-2.934023e-001	6.615415e-002	-4.239321e-001	6.568379e-002	-4.254018e-001	-3.997038e-001	-4.746093e-001
3990180300	-3.143596e-001	-2.911804e-001	6.447846e-002	-4.234783e-001	6.364655e-002	-4.250244e-001	-4.014138e-001	-4.721879e-001
4000180000	-3.169792e-001	-2.888142e-001	6.229756e-002	-4.228440e-001	6.063867e-002	-4.251444e-001	-4.032647e-001	-4.694958e-001
4010179700	-3.189192e-001	-2.865457e-001	5.998849e-002	-4.229092e-001	5.896875e-002	-4.244946e-001	-4.055809e-001	-4.662734e-001
4020179400	-3.214441e-001	-2.847770e-001	5.666910e-002	-4.234438e-001	5.708758e-002	-4.236404e-001	-4.087154e-001	-4.628103e-001
4030179100	-3.238156e-001	-2.822133e-001	5.513897e-002	-4.225006e-001	5.496231e-002	-4.233699e-001	-4.115633e-001	-4.596463e-001
4040178800	-3.267580e-001	-2.806175e-001	5.258543e-002	-4.220499e-001	5.290343e-002	-4.230768e-001	-4.151383e-001	-4.568273e-001
4050178500	-3.288615e-001	-2.787033e-001	5.048339e-002	-4.210029e-001	4.998575e-002	-4.219560e-001	-4.186767e-001	-4.546670e-001
4060178200	-3.316428e-001	-2.761876e-001	4.840965e-002	-4.202515e-001	4.828706e-002	-4.219959e-001	-4.219952e-001	-4.525613e-001
4070177900	-3.338199e-001	-2.746616e-001	4.647708e-002	-4.198025e-001	4.603491e-002	-4.210360e-001	-4.259362e-001	-4.512064e-001
4080177600	-3.363066e-001	-2.730900e-001	4.352564e-002	-4.192370e-001	4.302730e-002	-4.209307e-001	-4.294564e-001	-4.505280e-001
4090177300	-3.386994e-001	-2.710763e-001	4.141632e-002	-4.186775e-001	4.109031e-002	-4.201110e-001	-4.324883e-001	-4.497306e-001
4100177000	-3.403740e-001	-2.691077e-001	3.966926e-002	-4.175378e-001	3.921752e-002	-4.195658e-001	-4.358866e-001	-4.490869e-001
4110176700	-3.422932e-001	-2.671618e-001	3.818286e-002	-4.175057e-001	3.716137e-002	-4.190094e-001	-4.378914e-001	-4.487248e-001
4120176400	-3.442299e-001	-2.648773e-001	3.569457e-002	-4.167264e-001	3.573660e-002	-4.181088e-001	-4.404000e-001	-4.479728e-001
4130176100	-3.461326e-001	-2.628857e-001	3.350008e-002	-4.164700e-001	3.309803e-002	-4.175210e-001	-4.417483e-001	-4.476051e-001
4140175800	-3.478562e-001	-2.604527e-001	3.233382e-002	-4.151234e-001	3.149497e-002	-4.163815e-001	-4.434624e-001	-4.468978e-001
4150175500	-3.494350e-001	-2.583938e-001	2.989326e-002	-4.143958e-001	2.975323e-002	-4.159198e-001	-4.448723e-001	-4.455713e-001
4160175200	-3.510026e-001	-2.562339e-001	2.757313e-002	-4.141144e-001	2.757112e-002	-4.156959e-001	-4.461532e-001	-4.441196e-001
4170174900	-3.528677e-001	-2.535991e-001	2.588423e-002	-4.134185e-001	2.541022e-002	-4.145947e-001	-4.469511e-001	-4.419228e-001
4180174600	-3.545525e-001	-2.509305e-001	2.424685e-002	-4.130910e-001	2.294165e-002	-4.145529e-001	-4.484749e-001	-4.393388e-001
4190174300	-3.566634e-001	-2.489653e-001	2.165763e-002	-4.120478e-001	2.114538e-002	-4.137094e-001	-4.499893e-001	-4.363801e-001
4200174000	-3.586449e-001	-2.467623e-001	1.908996e-002	-4.114778e-001	1.903976e-002	-4.134531e-001	-4.526894e-001	-4.330324e-001
4210173700	-3.607045e-001	-2.444389e-001	1.708451e-002	-4.105516e-001	1.659042e-002	-4.125178e-001	-4.548100e-001	-4.291318e-001
4220173400	-3.628646e-001	-2.422836e-001	1.512944e-002	-4.101131e-001	1.532647e-002	-4.113859e-001	-4.576966e-001	-4.256338e-001
4230173100	-3.648792e-001	-2.397972e-001	1.339571e-002	-4.086758e-001	1.313532e-002	-4.105746e-001	-4.617464e-001	-4.218897e-001
4240172800	-3.671077e-001	-2.379152e-001	1.120762e-002	-4.075637e-001	1.082885e-002	-4.092657e-001	-4.655587e-001	-4.185975e-001
4250172500	-3.688728e-001	-2.357668e-001	9.224726e-003	-4.064813e-001	9.262043e-003	-4.078175e-001	-4.685422e-001	-4.152202e-001
4260172200	-3.713047e-001	-2.337955e-001	7.204264e-003	-4.057739e-001	7.056596e-003	-4.067740e-001	-4.726252e-001	-4.127425e-001
4270171900	-3.731204e-001	-2.317848e-001	5.067179e-003	-4.043492e-001	4.620924e-003	-4.058426e-001	-4.764481e-001	-4.108676e-001
4280171600	-3.748819e-001	-2.292111e-001	3.116093e-003	-4.025477e-001	2.257461e-003	-4.045557e-001	-4.792946e-001	-4.087754e-001
4290171300	-3.760363e-001	-2.271150e-001	2.201017e-003	-4.020638e-001	6.105297e-004	-4.034354e-001	-4.819982e-001	-4.072479e-001
4300171000	-3.777877e-001	-2.246931e-001	7.590998e-005	-4.008482e-001	-7.939470e-004	-4.025314e-001	-4.839551e-001	-4.059444e-001
4310170700	-3.787693e-001	-2.224230e-001	-1.008848e-003	-3.992317e-001	-1.554326e-003	-4.014188e-001	-4.854406e-001	-4.047009e-001
4320170400	-3.799948e-001	-2.203073e-001	-2.161206e-003	-3.984175e-001	-2.764067e-003	-3.999097e-001	-4.868380e-001	-4.033895e-001
4330170100	-3.809929e-001	-2.184666e-001	-3.272132e-003	-3.975576e-001	-4.254543e-003	-3.992711e-001	-4.880444e-001	-4.020610e-001
4340169800	-3.825478e-001	-2.160926e-001	-4.944576e-003	-3.973906e-001	-5.024654e-003	-3.985573e-001	-4.892274e-001	-4.007375e-001
4350169500	-3.837133e-001	-2.139525e-001	-6.386705e-003	-3.967560e-001	-6.392613e-003	-3.980784e-001	-4.896321e-001	-3.999754e-001
4360169200	-3.857195e-001	-2.117340e-001	-7.713485e-003	-3.958291e-001	-8.003426e-003	-3.975366e-001	-4.907359e-001	-3.982253e-001
4370168900	-3.868171e-001	-2.097524e-001	-9.822921e-003	-3.952381e-001	-1.058499e-002	-3.974928e-001	-4.918750e-001	-3.963280e-001
4380168600	-3.890155e-001	-2.075755e-001	-1.128936e-002	-3.952191e-001	-1.193097e-002	-3.967041e-001	-4.934559e-001	-3.940311e-001
4390168300	-3.910739e-001	-2.052675e-001	-1.309377e-002	-3.942520e-001	-1.390718e-002	-3.961574e-001	-4.945324e-001	-3.909572e-001
4400168000	-3.930491e-001	-2.033049e-001	-1.493470e-002	-3.937319e-001	-1.570513e-002	-3.960309e-001	-4.967869e-001	-3.880374e-001
4410167700	-3.948603e-001	-2.014729e-001	-1.657041e-002	-3.929455e-001	-1.716026e-002	-3.949528e-001	-4.994782e-001	-3.849002e-001
4420167400	-3.969231e-001	-1.996943e-001	-1.845312e-002	-3.925154e-001	-1.948161e-002	-3.943491e-001	-5.020936e-001	-3.807747e-001
4430167100	-3.986262e-001	-1.976354e-001	-1.967257e-002	-3.913656e-001	-2.076243e-002	-3.932777e-001	-5.050636e-001	-3.776272e-001
4440166800	-4.006469e-001	-1.960810e-001	-2.207454e-002	-3.910626e-001	-2.314205e-002	-3.919539e-001	-5.080334e-001	-3.743113e-001
4450166500	-4.022497e-001	-1.943784e-001	-2.400500e-002	-3.900891e-001	-2.467331e-002	-3.912707e-001	-5.115420e-001	-3.720229e-001
4460166200	-4.044570e-001	-1.924655e-001	-2.563403e-002	-3.890592e-001	-2.687366e-002	-3.904067e-001	-5.143568e-001	-3.690257e-001
4470165900	-4.062568e-001	-1.904264e-001	-2.762341e-002	-3.883881e-001	-2.856025e-002	-3.894900e-001	-5.175046e-001	-3.676775e-001
4480165600	-4.080970e-001	-1.885790e-001	-2.945476e-002	-3.875877e-001	-3.059231e-002	-3.885478e-001	-5.202706e-001	-3.658700e-001
4490165300	-4.099040e-001	-1.864219e-001	-3.087044e-002	-3.864390e-001	-3.237828e-002	-3.874259e-001	-5.225934e-001	-3.647838e-001
4500165000	-4.120382e-001	-1.841869e-001	-3.275297e-002	-3.857094e-001	-3.384516e-002	-3.868855e-001	-5.248066e-001	-3.636344e-001
4510164700	-4.136112e-001	-1.818536e-001	-3.431444e-002	-3.844197e-001	-3.564136e-002	-3.860317e-001	-5.270539e-001	-3.623685e-001
4520164400	-4.156180e-001	-1.794142e-001	-3.616334e-002	-3.833566e-001	-3.750501e-002	-3.844812e-001	-5.292027e-001	-3.611843e-001
4530164100	-4.173347e-001	-1.766161e-001	-3.811272e-002	-3.823726e-001	-3.868797e-002	-3.831709e-001	-5.309422e-001	-3.597377e-001
4540163800	-4.188217e-001	-1.741619e-001	-3.959465e-002	-3.813119e-001	-4.038753e-002	-3.827059e-001	-5.326439e-001	-3.585756e-001
4550163500	-4.210852e-001	-1.718410e-001	-4.130762e-002	-3.803013e-001	-4.215461e-002	-3.816622e-001	-5.341417e-001	-3.567276e-001
4560163200	-4.222540e-001	-1.696779e-001	-4.319344e-002	-3.797209e-001	-4.357809e-002	-3.808197e-001	-5.357350e-001	-3.549380e-001
4570162900	-4.239381e-001	-1.672726e-001	-4.489518e-002	-3.795141e-001	-4.549239e-002	-3.799752e-001	-5.368929e-001	-3.527377e-001
4580162600	-4.260649e-001	-1.652573e-001	-4.651817e-002	-3.781511e-001	-4.692629e-002	-3.793410e-001	-5.386954e-001	-3.502012e-001
4590162300	-4.277321e-001	-1.631240e-001	-4.880147e-002	-3.779190e-001	-4.909456e-002	-3.788792e-001	-5.404634e-001	-3.472882e-001
4600162000	-4.298229e-001	-1.614194e-001	-5.022439e-002	-3.770678e-001	-5.118640e-002	-3.783448e-001	-5.426380e-001	-3.443678e-001
4610161700	-4.317339e-001	-1.592628e-001	-5.284177e-002	-3.761725e-001	-5.310210e-002	-3.770447e-001	-5.449885e-001	-3.406194e-001
4620161400	-4.338218e-001	-1.572639e-001	-5.446231e-002	-3.748079e-001	-5.515849e-002	-3.759770e-001	-5.477645e-001	-3.369436e-001
4630161100	-4.356186e-001	-1.552510e-001	-5.622404e-002	-3.733656e-001	-5.691442e-002	-3.747101e-001	-5.508990e-001	-3.334293e-001
4640160800	-4.377951e-001	-1.531261e-001	-5.834812e-002	-3.724314e-001	-5.856435e-002	-3.728686e-001	-5.541043e-001	-3.299440e-001
4650160500	-4.395740e-001	-1.507851e-001	-6.066806e-002	-3.705737e-001	-6.094004e-002	-3.719735e-001	-5.569623e-001	-3.266973e-001
4660160200	-4.414598e-001	-1.483619e-001	-6.254059e-002	-3.691954e-001	-6.261532e-002	-3.705969e-001	-5.601391e-001	-3.239382e-001
4670159900	-4.434871e-001	-1.461535e-001	-6.371279e-002	-3.677734e-001	-6.443766e-002	-3.689212e-001	-5.625240e-001	-3.217619e-001
4680159600	-4.452775e-001	-1.437741e-001	-6.583616e-002	-3.664328e-001	-6.588569e-002	-3.683373e-001	-5.652017e-001	-3.198670e-001
4690159300	-4.469054e-001	-1.409920e-001	-6.690143e-002	-3.651707e-001	-6.776784e-002	-3.671108e-001	-5.677280e-001	-3.181410e-001
4700159000	-4.488415e-001	-1.385482e-001	-6.822669e-002	-3.641678e-001	-6.961959e-002	-3.663804e-001	-5.700040e-001	-3.166130e-001
4710158700	-4.509559e-001	-1.361407e-001	-7.016218e-002	-3.632388e-001	-7.057136e-002	-3.651435e-001	-5.722269e-001	-3.154672e-001
4720158400	-4.532456e-001	-1.335144e-001	-7.222730e-002	-3.621946e-001	-7.267332e-002	-3.636350e-001	-5.741082e-001	-3.146129e-001
4730158100	-4.548514e-001	-1.315144e-001	-7.351708e-002	-3.611751e-001	-7.429473e-002	-3.623270e-001	-5.765188e-001	-3.132522e-001
4740157800	-4.573519e-001	-1.288425e-001	-7.537953e-002	-3.598661e-001	-7.569125e-002	-3.612813e-001	-5.777219e-001	-3.122582e-001
4750157500	-4.592781e-001	-1.262108e-001	-7.748410e-002	-3.589215e-001	-7.745363e-002	-3.596836e-001	-5.795757e-001	-3.101712e-001
4760157200	-4.612819e-001	-1.238681e-001	-7.904040e-002	-3.577647e-001	-7.991902e-002	-3.590562e-001	-5.817748e-001	-3.077282e-001
4770156900	-4.634694e-001	-1.214252e-001	-8.106682e-002	-3.563894e-001	-8.172128e-002	-3.579986e-001	-5.831977e-001	-3.050765e-001
4780156600	-4.655452e-001	-1.185695e-001	-8.331438e-002	-3.548827e-001	-8.368584e-002	-3.566896e-001	-5.849325e-001	-3.019416e-001
4790156300	-4.674491e-001	-1.162489e-001	-8.553657e-002	-3.534299e-001	-8.551919e-002	-3.554375e-001	-5.865188e-001	-2.981359e-001
4800156000	-4.694665e-001	-1.143532e-001	-8.718674e-002	-3.517689e-001	-8.746051e-002	-3.540728e-001	-5.887992e-001	-2.937548e-001
4810155700	-4.714760e-001	-1.115700e-001	-8.898529e-002	-3.499852e-001	-8.937956e-002	-3.523749e-001	-5.908993e-001	-2.891569e-001
4820155400	-4.731905e-001	-1.091873e-001	-9.057022e-002	-3.487297e-001	-9.149469e-002	-3.503591e-001	-5.936920e-001	-2.845331e-001
4830155100	-4.752235e-001	-1.066149e-001	-9.233315e-002	-3.471385e-001	-9.291268e-002	-3.482996e-001	-5.960619e-001	-2.804703e-001
4840154800	-4.768158e-001	-1.043213e-001	-9.427542e-002	-3.452284e-001	-9.556326e-002	-3.468599e-001	-5.991189e-001	-2.764074e-001
4850154500	-4.788370e-001	-1.011158e-001	-9.562007e-002	-3.432643e-001	-9.611905e-002	-3.447635e-001	-6.013994e-001	-2.731514e-001
4860154200	-4.808318e-001	-9.838305e-002	-9.741016e-002	-3.415644e-001	-9.861563e-002	-3.429613e-001	-6.048141e-001	-2.696277e-001
4870153900	-4.824119e-001	-9.580175e-002	-9.839617e-002	-3.402346e-001	-9.959735e-002	-3.414598e-001	-6.073757e-001	-2.672491e-001
4880153600	-4.842115e-001	-9.263146e-002	-9.978077e-002	-3.380690e-001	-1.008545e-001	-3.395000e-001	-6.096412e-001	-2.649478e-001
4890153300	-4.858434e-001	-8.997035e-002	-1.011170e-001	-3.362762e-001	-1.022430e-001	-3.383233e-001	-6.122964e-001	-2.631234e-001
4900153000	-4.876383e-001	-8.693189e-002	-1.022652e-001	-3.350381e-001	-1.035301e-001	-3.366401e-001	-6.147374e-001	-2.615428e-001
4910152700	-4.892721e-001	-8.426909e-002	-1.036387e-001	-3.331328e-001	-1.051647e-001	-3.345086e-001	-6.171733e-001	-2.598078e-001
4920152400	-4.911349e-001	-8.138621e-002	-1.053988e-001	-3.315066e-001	-1.066285e-001	-3.334629e-001	-6.191285e-001	-2.584267e-001
4930152100	-4.929294e-001	-7.884721e-002	-1.066488e-001	-3.300170e-001	-1.076822e-001	-3.314196e-001	-6.204181e-001	-2.567077e-001
4940151800	-4.947036e-001	-7.606644e-002	-1.077569e-001	-3.287878e-001	-1.092221e-001	-3.295548e-001	-6.222309e-001	-2.544456e-001
4950151500	-4.959401e-001	-7.385023e-002	-1.088551e-001	-3.268604e-001	-1.102129e-001	-3.277482e-001	-6.228755e-001	-2.522993e-001
4960151200	-4.975808e-001	-7.109719e-002	-1.105769e-001	-3.254683e-001	-1.120518e-001	-3.265426e-001	-6.241413e-001	-2.495685e-001
4970150900	-4.994133e-001	-6.833002e-002	-1.121632e-001	-3.236642e-001	-1.131835e-001	-3.250975e-001	-6.246475e-001	-2.464733e-001
4980150600	-5.010762e-001	-6.599542e-002	-1.136794e-001	-3.221376e-001	-1.151458e-001	-3.238803e-001	-6.259025e-001	-2.423569e-001
4990150300	-5.028317e-001	-6.365014e-002	-1.148146e-001	-3.206274e-001	-1.160475e-001	-3.220853e-001	-6.270763e-001	-2.380624e-001
5000150000	-5.048087e-001	-6.069290e-002	-1.167554e-001	-3.188900e-001	-1.178538e-001	-3.205111e-001	-6.282817e-001	-2.333714e-001
5010149700	-5.067346e-001	-5.828468e-002	-1.181293e-001	-3.170608e-001	-1.193516e-001	-3.185371e-001	-6.301243e-001	-2.288981e-001
5020149400	-5.083228e-001	-5.558430e-002	-1.190108e-001	-3.152417e-001	-1.206787e-001	-3.165549e-001	-6.322632e-001	-2.243204e-001
5030149100	-5.101926e-001	-5.280703e-002	-1.208965e-001	-3.131414e-001	-1.225362e-001	-3.142096e-001	-6.347899e-001	-2.196374e-001
5040148800	-5.122572e-001	-4.983877e-002	-1.222324e-001	-3.111933e-001	-1.240921e-001	-3.122268e-001	-6.370434e-001	-2.149564e-001
5050148500	-5.135633e-001	-4.704961e-002	-1.237986e-001	-3.091356e-001	-1.252710e-001	-3.100256e-001	-6.402298e-001	-2.111981e-001
5060148200	-5.157142e-001	-4.425073e-002	-1.249961e-001	-3.070028e-001	-1.265908e-001	-3.079223e-001	-6.429751e-001	-2.075567e-001
5070147900	-5.170784e-001	-4.153813e-002	-1.262730e-001	-3.046238e-001	-1.276866e-001	-3.063291e-001	-6.459671e-001	-2.047486e-001
5080147600	-5.186690e-001	-3.846872e-002	-1.270660e-001	-3.031627e-001	-1.286295e-001	-3.040851e-001	-6.484256e-001	-2.017622e-001
5090147300	-5.201954e-001	-3.569364e-002	-1.282437e-001	-3.007331e-001	-1.295855e-001	-3.023973e-001	-6.504446e-001	-1.996125e-001
5100147000	-5.214973e-001	-3.309414e-002	-1.291668e-001	-2.990714e-001	-1.303942e-001	-3.003391e-001	-6.524876e-001	-1.978846e-001
5110146700	-5.225456e-001	-2.999415e-002	-1.301820e-001	-2.971084e-001	-1.313761e-001	-2.984920e-001	-6.539952e-001	-1.961608e-001
5120146400	-5.238477e-001	-2.735535e-002	-1.310513e-001	-2.958728e-001	-1.322916e-001	-2.962516e-001	-6.554896e-001	-1.946379e-001
5130146100	-5.252707e-001	-2.355243e-002	-1.317659e-001	-2.936052e-001	-1.331701e-001	-2.946971e-001	-6.568139e-001	-1.923255e-001
5140145800	-5.268140e-001	-2.057740e-002	-1.333527e-001	-2.917397e-001	-1.342006e-001	-2.927714e-001	-6.570214e-001	-1.907413e-001
5150145500	-5.279005e-001	-1.800194e-002	-1.343153e-001	-2.896558e-001	-1.354843e-001	-2.905226e-001	-6.578228e-001	-1.881764e-001
5160145200	-5.297013e-001	-1.518633e-002	-1.353413e-001	-2.877683e-001	-1.363851e-001	-2.891654e-001	-6.583730e-001	-1.852456e-001
5170144900	-5.310098e-001	-1.247644e-002	-1.359552e-001	-2.860326e-001	-1.372469e-001	-2.874936e-001	-6.589772e-001	-1.814697e-001
5180144600	-5.329446e-001	-9.059611e-003	-1.376071e-001	-2.837107e-001	-1.384392e-001	-2.852612e-001	-6.598430e-001	-1.779314e-001
5190144300	-5.342254e-001	-6.576752e-003	-1.386336e-001	-2.818000e-001	-1.393835e-001	-2.842553e-001	-6.612108e-001	-1.733994e-001
5200144000	-5.360557e-001	-3.782591e-003	-1.395580e-001	-2.800009e-001	-1.409613e-001	-2.817223e-001	-6.621080e-001	-1.687969e-001
5210143700	-5.375974e-001	-1.065244e-003	-1.406425e-001	-2.778703e-001	-1.416401e-001	-2.793159e-001	-6.631900e-001	-1.641041e-001
5220143400	-5.391946e-001	1.943367e-003	-1.419167e-001	-2.758490e-001	-1.430687e-001	-2.769945e-001	-6.653006e-001	-1.586481e-001
5230143100	-5.403314e-001	4.440404e-003	-1.427135e-001	-2.734784e-001	-1.438357e-001	-2.747630e-001	-6.674170e-001	-1.540039e-001
5240142800	-5.422407e-001	6.993369e-003	-1.434243e-001	-2.715395e-001	-1.445730e-001	-2.723660e-001	-6.694183e-001	-1.492969e-001
5250142500	-5.435204e-001	9.738837e-003	-1.443992e-001	-2.694529e-001	-1.452947e-001	-2.704514e-001	-6.718562e-001	-1.455859e-001
5260142200	-5.443577e-001	1.255365e-002	-1.447716e-001	-2.673944e-001	-1.459426e-001	-2.680939e-001	-6.732988e-001	-1.416817e-001
5270141900	-5.459466e-001	1.570058e-002	-1.453797e-001	-2.648068e-001	-1.467393e-001	-2.662225e-001	-6.758120e-001	-1.391211e-001
5280141600	-5.467746e-001	1.804861e-002	-1.458035e-001	-2.624647e-001	-1.470304e-001	-2.640682e-001	-6.774611e-001	-1.368038e-001
5290141300	-5.476042e-001	2.101169e-002	-1.460731e-001	-2.604197e-001	-1.477413e-001	-2.620944e-001	-6.789597e-001	-1.341505e-001
5300141000	-5.485280e-001	2.386280e-002	-1.466615e-001	-2.587838e-001	-1.482429e-001	-2.596585e-001	-6.802425e-001	-1.327297e-001
5310140700	-5.497090e-001	2.684146e-002	-1.475869e-001	-2.562806e-001	-1.486410e-001	-2.576910e-001	-6.809655e-001	-1.301261e-001
5320140400	-5.508015e-001	3.031509e-002	-1.478504e-001	-2.544103e-001	-1.492098e-001	-2.561564e-001	-6.823905e-001	-1.288492e-001
5330140100	-5.514899e-001	3.297613e-002	-1.484573e-001	-2.523334e-001	-1.499705e-001	-2.537123e-001	-6.830596e-001	-1.262432e-001
5340139800	-5.529439e-001	3.618359e-002	-1.491875e-001	-2.507480e-001	-1.508591e-001	-2.516813e-001	-6.836269e-001	-1.243542e-001
5350139500	-5.534395e-001	3.936523e-002	-1.502044e-001	-2.485544e-001	-1.513199e-001	-2.492362e-001	-6.831763e-001	-1.215602e-001
5360139200	-5.549024e-001	4.190576e-002	-1.502576e-001	-2.464740e-001	-1.519951e-001	-2.476067e-001	-6.838668e-001	-1.181195e-001
5370138900	-5.558819e-001	4.519015e-002	-1.504281e-001	-2.446629e-001	-1.523166e-001	-2.455261e-001	-6.838506e-001	-1.145509e-001
5380138600	-5.573664e-001	4.812125e-002	-1.509603e-001	-2.424747e-001	-1.529254e-001	-2.436575e-001	-6.844617e-001	-1.098460e-001
5390138300	-5.585476e-001	5.099343e-002	-1.519506e-001	-2.397927e-001	-1.532094e-001	-2.415260e-001	-6.845514e-001	-1.058057e-001
5400138000	-5.597768e-001	5.380224e-002	-1.520007e-001	-2.378889e-001	-1.539361e-001	-2.391404e-001	-6.850489e-001	-1.004294e-001
5410137700	-5.614898e-001	5.650033e-002	-1.528985e-001	-2.355790e-001	-1.540835e-001	-2.368897e-001	-6.854844e-001	-9.606241e-002
5420137400	-5.622981e-001	5.928989e-002	-1.529942e-001	-2.333018e-001	-1.548010e-001	-2.345881e-001	-6.865957e-001	-9.199300e-002
5430137100	-5.635077e-001	6.191977e-002	-1.535282e-001	-2.310749e-001	-1.551575e-001	-2.321113e-001	-6.875173e-001	-8.724620e-002
5440136800	-5.647391e-001	6.425672e-002	-1.537210e-001	-2.290784e-001	-1.552157e-001	-2.296844e-001	-6.889962e-001	-8.325065e-002
5450136500	-5.654940e-001	6.696691e-002	-1.538100e-001	-2.268639e-001	-1.557222e-001	-2.273352e-001	-6.904383e-001	-7.950402e-002
5460136200	-5.660624e-001	6.933534e-002	-1.538944e-001	-2.245935e-001	-1.557353e-001	-2.253750e-001	-6.909926e-001	-7.615034e-002
5470135900	-5.671894e-001	7.273152e-002	-1.542853e-001	-2.222077e-001	-1.552863e-001	-2.232525e-001	-6.920986e-001	-7.301653e-002
5480135600	-5.673555e-001	7.461992e-002	-1.539739e-001	-2.196417e-001	-1.553198e-001	-2.211647e-001	-6.930446e-001	-7.042476e-002
5490135300	-5.681013e-001	7.786244e-002	-1.538647e-001	-2.174076e-001	-1.548139e-001	-2.187775e-001	-6.935439e-001	-6.820567e-002
5500135000	-5.685357e-001	8.072556e-002	-1.539164e-001	-2.156274e-001	-1.548246e-001	-2.167935e-001	-6.942234e-001	-6.640857e-002
5510134700	-5.691154e-001	8.372898e-002	-1.535327e-001	-2.132428e-001	-1.544538e-001	-2.146890e-001	-6.946845e-001	-6.497256e-002
5520134400	-5.689143e-001	8.645913e-002	-1.533317e-001	-2.114732e-001	-1.546131e-001	-2.127245e-001	-6.953202e-001	-6.298677e-002
5530134100	-5.697140e-001	8.984904e-002	-1.531646e-001	-2.098366e-001	-1.549100e-001	-2.110404e-001	-6.950463e-001	-6.122464e-002
5540133800	-5.702732e-001	9.262341e-002	-1.529852e-001	-2.076844e-001	-1.548356e-001	-2.085550e-001	-6.945605e-001	-5.861574e-002
5550133500	-5.704340e-001	9.566120e-002	-1.530268e-001	-2.058415e-001	-1.546846e-001	-2.068845e-001	-6.944901e-001	-5.631547e-002
5560133200	-5.715619e-001	9.870302e-002	-1.528013e-001	-2.035105e-001	-1.545995e-001	-2.051174e-001	-6.934991e-001	-5.338303e-002
5570132900	-5.720648e-001	1.012835e-001	-1.525271e-001	-2.017208e-001	-1.544595e-001	-2.029674e-001	-6.934533e-001	-4.920514e-002
5580132600	-5.721542e-001	1.043038e-001	-1.525859e-001	-1.991418e-001	-1.539169e-001	-2.011030e-001	-6.929150e-001	-4.564182e-002
5590132300	-5.726551e-001	1.071667e-001	-1.520173e-001	-1.967520e-001	-1.540330e-001	-1.986529e-001	-6.913900e-001	-4.103135e-002
5600132000	-5.735156e-001	1.097399e-001	-1.518937e-001	-1.952033e-001	-1.531994e-001	-1.966158e-001	-6.916374e-001	-3.621742e-002
5610131700	-5.736578e-001	1.124075e-001	-1.513723e-001	-1.926893e-001	-1.526947e-001	-1.941746e-001	-6.914837e-001	-3.218621e-002
5620131400	-5.739516e-001	1.151629e-001	-1.507021e-001	-1.906876e-001	-1.522809e-001	-1.921194e-001	-6.909823e-001	-2.755406e-002
5630131100	-5.741899e-001	1.177836e-001	-1.501738e-001	-1.889474e-001	-1.513203e-001	-1.897643e-001	-6.906471e-001	-2.364671e-002
5640130800	-5.741476e-001	1.201739e-001	-1.490707e-001	-1.869032e-001	-1.506042e-001	-1.877169e-001	-6.897214e-001	-1.984273e-002
5650130500	-5.741628e-001	1.224612e-001	-1.480620e-001	-1.853317e-001	-1.497436e-001	-1.860774e-001	-6.898482e-001	-1.658312e-002
5660130200	-5.739490e-001	1.253096e-001	-1.466658e-001	-1.831744e-001	-1.483689e-001	-1.842699e-001	-6.893990e-001	-1.459617e-002
5670129900	-5.736189e-001	1.277522e-001	-1.456234e-001	-1.814110e-001	-1.470259e-001	-1.825290e-001	-6.889024e-001	-1.247493e-002
5680129600	-5.736481e-001	1.299373e-001	-1.437887e-001	-1.801851e-001	-1.458961e-001	-1.811384e-001	-6.883781e-001	-1.089451e-002
5690129300	-5.731550e-001	1.322268e-001	-1.427017e-001	-1.785665e-001	-1.446607e-001	-1.798260e-001	-6.879900e-001	-9.890038e-003
5700129000	-5.727289e-001	1.345564e-001	-1.415504e-001	-1.772088e-001	-1.435484e-001	-1.786586e-001	-6.867981e-001	-9.481082e-003
5710128700	-5.721425e-001	1.365115e-001	-1.404796e-001	-1.762555e-001	-1.419207e-001	-1.777085e-001	-6.866960e-001	-9.466845e-003
5720128400	-5.711082e-001	1.383038e-001	-1.391859e-001	-1.754970e-001	-1.405387e-001	-1.764680e-001	-6.849320e-001	-1.010075e-002
5730128100	-5.714005e-001	1.398612e-001	-1.381852e-001	-1.748267e-001	-1.394759e-001	-1.758219e-001	-6.838703e-001	-9.437985e-003
5740127800	-5.706847e-001	1.417092e-001	-1.369150e-001	-1.744616e-001	-1.382410e-001	-1.755158e-001	-6.818190e-001	-9.129810e-003
5750127500	-5.706103e-001	1.429267e-001	-1.359055e-001	-1.743649e-001	-1.371663e-001	-1.751484e-001	-6.799280e-001	-9.039521e-003
5760127200	-5.700067e-001	1.439827e-001	-1.347700e-001	-1.744230e-001	-1.360475e-001	-1.753145e-001	-6.781477e-001	-8.267927e-003
5770126900	-5.699914e-001	1.453689e-001	-1.337045e-001	-1.742252e-001	-1.349738e-001	-1.752111e-001	-6.767718e-001	-7.879253e-003
5780126600	-5.697247e-001	1.462170e-001	-1.328922e-001	-1.744284e-001	-1.339047e-001	-1.753262e-001	-6.748670e-001	-7.442924e-003
5790126300	-5.700053e-001	1.472572e-001	-1.321759e-001	-1.749695e-001	-1.330294e-001	-1.760524e-001	-6.743525e-001	-6.374433e-003
5800126000	-5.702461e-001	1.477079e-001	-1.324077e-001	-1.754315e-001	-1.330230e-001	-1.765525e-001	-6.734177e-001	-5.774387e-003
5810125700	-5.714629e-001	1.486210e-001	-1.323993e-001	-1.758981e-001	-1.337046e-001	-1.772628e-001	-6.743656e-001	-4.388183e-003
5820125400	-5.723200e-001	1.499059e-001	-1.327942e-001	-1.758598e-001	-1.343040e-001	-1.774582e-001	-6.752881e-001	-3.572813e-003
5830125100	-5.735291e-001	1.508129e-001	-1.335747e-001	-1.762538e-001	-1.351121e-001	-1.774756e-001	-6.777011e-001	-2.595184e-003
5840124800	-5.747409e-001	1.518821e-001	-1.347728e-001	-1.766076e-001	-1.361464e-001	-1.773841e-001	-6.796741e-001	-1.750053e-003
5850124500	-5.762619e-001	1.529075e-001	-1.356849e-001	-1.760025e-001	-1.373715e-001	-1.772416e-001	-6.824225e-001	-1.630376e-003
5860124200	-5.771819e-001	1.545084e-001	-1.370251e-001	-1.754101e-001	-1.384251e-001	-1.766996e-001	-6.862587e-001	-1.346766e-003
5870123900	-5.784174e-001	1.561201e-001	-1.383888e-001	-1.746766e-001	-1.399191e-001	-1.757872e-001	-6.896967e-001	-9.189097e-004
5880123600	-5.797892e-001	1.582045e-001	-1.396604e-001	-1.733993e-001	-1.409739e-001	-1.746974e-001	-6.929608e-001	5.172545e-005
5890123300	-5.809310e-001	1.601565e-001	-1.409886e-001	-1.723622e-001	-1.421302e-001	-1.731652e-001	-6.959561e-001	6.586310e-004
5900123000	-5.825480e-001	1.623989e-001	-1.413840e-001	-1.709067e-001	-1.426873e-001	-1.715921e-001	-6.983740e-001	1.766251e-003
5910122700	-5.829537e-001	1.645218e-001	-1.419529e-001	-1.690609e-001	-1.431307e-001	-1.697461e-001	-7.001019e-001	1.599888e-003
5920122400	-5.831637e-001	1.676473e-001	-1.419064e-001	-1.672613e-001	-1.434684e-001	-1.680514e-001	-7.007840e-001	2.481316e-003
5930122100	-5.829250e-001	1.697933e-001	-1.420290e-001	-1.655896e-001	-1.432946e-001	-1.665123e-001	-7.007689e-001	3.458193e-003
5940121800	-5.825737e-001	1.719705e-001	-1.416251e-001	-1.646316e-001	-1.430184e-001	-1.650673e-001	-6.996538e-001	4.341266e-003
5950121500	-5.820918e-001	1.743956e-001	-1.413280e-001	-1.635446e-001	-1.427684e-001	-1.641846e-001	-6.987996e-001	5.895987e-003
5960121200	-5.817180e-001	1.765960e-001	-1.409455e-001	-1.628347e-001	-1.421008e-001	-1.635566e-001	-6.970241e-001	6.799113e-003
5970120900	-5.809474e-001	1.778708e-001	-1.404143e-001	-1.621172e-001	-1.419503e-001	-1.629056e-001	-6.956696e-001	8.393130e-003
5980120600	-5.817608e-001	1.795825e-001	-1.403403e-001	-1.615162e-001	-1.419834e-001	-1.626162e-001	-6.950154e-001	1.047672e-002
5990120300	-5.812230e-001	1.809551e-001	-1.401024e-001	-1.613592e-001	-1.416193e-001	-1.622395e-001	-6.948140e-001	1.223816e-002
6000120000	-5.813066e-001	1.822748e-001	-1.406351e-001	-1.608565e-001	-1.418402e-001	-1.620506e-001	-6.944435e-001	1.420307e-002
6010119700	-5.822500e-001	1.835174e-001	-1.412944e-001	-1.608655e-001	-1.423530e-001	-1.618115e-001	-6.953713e-001	1.591835e-002
6020119400	-5.830138e-001	1.845892e-001	-1.418364e-001	-1.609814e-001	-1.432445e-001	-1.617648e-001	-6.967212e-001	1.788168e-002
6030119100	-5.838556e-001	1.864189e-001	-1.427378e-001	-1.608170e-001	-1.446695e-001	-1.616504e-001	-6.994431e-001	1.994679e-002
6040118800	-5.847460e-001	1.875397e-001	-1.438249e-001	-1.603420e-001	-1.458667e-001	-1.611325e-001	-7.025140e-001	2.091406e-002
6050118500	-5.858760e-001	1.889621e-001	-1.455890e-001	-1.598599e-001	-1.470917e-001	-1.605272e-001	-7.058462e-001	2.141597e-002
6060118200	-5.873433e-001	1.908836e-001	-1.469392e-001	-1.592652e-001	-1.485674e-001	-1.600062e-001	-7.094267e-001	2.246715e-002
6070117900	-5.883873e-001	1.920844e-001	-1.486825e-001	-1.586519e-001	-1.498698e-001	-1.591763e-001	-7.139441e-001	2.305449e-002
6080117600	-5.892927e-001	1.939204e-001	-1.503708e-001	-1.572488e-001	-1.514817e-001	-1.580622e-001	-7.179007e-001	2.270897e-002
6090117300	-5.903330e-001	1.958724e-001	-1.522358e-001	-1.559861e-001	-1.530348e-001	-1.566623e-001	-7.211556e-001	2.221505e-002
6100117000	-5.917527e-001	1.978006e-001	-1.536818e-001	-1.547933e-001	-1.546618e-001	-1.554428e-001	-7.248654e-001	2.242438e-002
6110116700	-5.927439e-001	2.005082e-001	-1.550233e-001	-1.533248e-001	-1.564151e-001	-1.537287e-001	-7.278965e-001	2.202350e-002
6120116400	-5.936495e-001	2.030205e-001	-1.568698e-001	-1.517143e-001	-1.583358e-001	-1.519631e-001	-7.300055e-001	2.193971e-002
6130116100	-5.936286e-001	2.058986e-001	-1.585424e-001	-1.498459e-001	-1.598768e-001	-1.502279e-001	-7.322802e-001	2.359497e-002
6140115800	-5.945142e-001	2.088913e-001	-1.602640e-001	-1.472092e-001	-1.615566e-001	-1.481407e-001	-7.336799e-001	2.481409e-002
6150115500	-5.946111e-001	2.119347e-001	-1.617705e-001	-1.451423e-001	-1.633893e-001	-1.457650e-001	-7.353118e-001	2.735673e-002
6160115200	-5.940278e-001	2.154595e-001	-1.629895e-001	-1.427506e-001	-1.645551e-001	-1.433628e-001	-7.357993e-001	3.059647e-002
6170114900	-5.941732e-001	2.186854e-001	-1.642916e-001	-1.394257e-001	-1.656646e-001	-1.405396e-001	-7.362330e-001	3.475748e-002
6180114600	-5.939566e-001	2.221214e-001	-1.651616e-001	-1.366418e-001	-1.666051e-001	-1.374374e-001	-7.368086e-001	3.924660e-002
6190114300	-5.936748e-001	2.259376e-001	-1.656368e-001	-1.334522e-001	-1.673071e-001	-1.343110e-001	-7.371576e-001	4.456540e-002
6200114000	-5.931424e-001	2.298690e-001	-1.663243e-001	-1.308596e-001	-1.678833e-001	-1.311797e-001	-7.382634e-001	4.958565e-002
6210113700	-5.922997e-001	2.330586e-001	-1.671767e-001	-1.277136e-001	-1.682917e-001	-1.285137e-001	-7.390650e-001	5.461087e-002
6220113400	-5.912518e-001	2.361957e-001	-1.670628e-001	-1.244572e-001	-1.684841e-001	-1.253320e-001	-7.402102e-001	6.034915e-002
6230113100	-5.900666e-001	2.397125e-001	-1.672867e-001	-1.218900e-001	-1.689539e-001	-1.223879e-001	-7.415649e-001	6.547576e-002
6240112800	-5.891302e-001	2.434605e-001	-1.675044e-001	-1.190280e-001	-1.686918e-001	-1.197635e-001	-7.433907e-001	7.003985e-002
6250112500	-5.869955e-001	2.460583e-001	-1.671434e-001	-1.162338e-001	-1.685652e-001	-1.166800e-001	-7.456415e-001	7.295656e-002
6260112200	-5.845486e-001	2.495717e-001	-1.670831e-001	-1.133857e-001	-1.685176e-001	-1.140569e-001	-7.473540e-001	7.575503e-002
6270111900	-5.817246e-001	2.521886e-001	-1.666123e-001	-1.103503e-001	-1.679525e-001	-1.110917e-001	-7.488338e-001	7.815092e-002
6280111600	-5.790450e-001	2.554667e-001	-1.665816e-001	-1.079661e-001	-1.671459e-001	-1.082151e-001	-7.507488e-001	7.941820e-002
6290111300	-5.760814e-001	2.581761e-001	-1.657134e-001	-1.053765e-001	-1.667268e-001	-1.057726e-001	-7.520772e-001	8.059324e-002
6300111000	-5.728361e-001	2.609914e-001	-1.648729e-001	-1.024559e-001	-1.664698e-001	-1.029583e-001	-7.522480e-001	8.121086e-002
6310110700	-5.690313e-001	2.630888e-001	-1.642010e-001	-1.000278e-001	-1.657380e-001	-1.003152e-001	-7.529714e-001	8.178974e-002
6320110400	-5.647150e-001	2.658953e-001	-1.637386e-001	-9.735021e-002	-1.653962e-001	-9.798790e-002	-7.522401e-001	8.221591e-002
6330110100	-5.607243e-001	2.685621e-001	-1.630719e-001	-9.516983e-002	-1.647826e-001	-9.558726e-002	-7.517852e-001	8.309750e-002
6340109800	-5.568231e-001	2.717117e-001	-1.623569e-001	-9.219290e-002	-1.639742e-001	-9.305250e-002	-7.508838e-001	8.499053e-002
6350109500	-5.518175e-001	2.736394e-001	-1.617138e-001	-9.028910e-002	-1.634447e-001	-9.065464e-002	-7.495668e-001	8.675715e-002
6360109200	-5.469454e-001	2.757718e-001	-1.608779e-001	-8.780890e-002	-1.626909e-001	-8.827023e-002	-7.488275e-001	8.998825e-002
6370108900	-5.421901e-001	2.778942e-001	-1.606189e-001	-8.513396e-002	-1.622174e-001	-8.588914e-002	-7.470738e-001	9.283650e-002
6380108600	-5.362425e-001	2.791172e-001	-1.599832e-001	-8.273887e-002	-1.611600e-001	-8.327173e-002	-7.459595e-001	9.642526e-002
6390108300	-5.305817e-001	2.804872e-001	-1.591365e-001	-8.019123e-002	-1.607497e-001	-8.036758e-002	-7.449138e-001	1.012944e-001
6400108000	-5.250551e-001	2.807902e-001	-1.583702e-001	-7.758062e-002	-1.596773e-001	-7.764893e-002	-7.450333e-001	1.061243e-001
6410107700	-5.187584e-001	2.810371e-001	-1.571698e-001	-7.461896e-002	-1.583866e-001	-7.506729e-002	-7.451553e-001	1.102170e-001
6420107400	-5.121281e-001	2.804361e-001	-1.561149e-001	-7.215213e-002	-1.574695e-001	-7.267698e-002	-7.454574e-001	1.149947e-001
6430107100	-5.053137e-001	2.802466e-001	-1.547197e-001	-6.918798e-002	-1.563864e-001	-6.966124e-002	-7.458340e-001	1.190567e-001
6440106800	-4.971956e-001	2.786493e-001	-1.532075e-001	-6.658206e-002	-1.548676e-001	-6.684288e-002	-7.465223e-001	1.223990e-001
6450106500	-4.890170e-001	2.762705e-001	-1.516300e-001	-6.398537e-002	-1.532265e-001	-6.446256e-002	-7.476693e-001	1.253094e-001
6460106200	-4.801810e-001	2.732012e-001	-1.499521e-001	-6.141870e-002	-1.515236e-001	-6.155398e-002	-7.484003e-001	1.273365e-001
6470105900	-4.714825e-001	2.690288e-001	-1.479455e-001	-5.875607e-002	-1.497974e-001	-5.912693e-002	-7.491906e-001	1.289878e-001
6480105600	-4.623507e-001	2.638138e-001	-1.458975e-001	-5.647548e-002	-1.475840e-001	-5.694255e-002	-7.504238e-001	1.298716e-001
6490105300	-4.528282e-001	2.571347e-001	-1.439563e-001	-5.400685e-002	-1.453404e-001	-5.428159e-002	-7.505146e-001	1.299926e-001
6500105000	-4.440118e-001	2.494305e-001	-1.412043e-001	-5.192038e-002	-1.433625e-001	-5.201361e-002	-7.508446e-001	1.302581e-001
6510104700	-4.358294e-001	2.403287e-001	-1.390979e-001	-4.986543e-002	-1.409985e-001	-4.979136e-002	-7.509416e-001	1.303889e-001
6520104400	-4.283840e-001	2.302377e-001	-1.369593e-001	-4.763509e-002	-1.383414e-001	-4.803879e-002	-7.501427e-001	1.307567e-001
6530104100	-4.222557e-001	2.185731e-001	-1.341810e-001	-4.613316e-002	-1.359301e-001	-4.615328e-002	-7.497151e-001	1.315394e-001
6540103800	-4.168811e-001	2.068969e-001	-1.315910e-001	-4.436216e-002	-1.332368e-001	-4.454459e-002	-7.484242e-001	1.333424e-001
6550103500	-4.123873e-001	1.929904e-001	-1.291170e-001	-4.309930e-002	-1.304564e-001	-4.326122e-002	-7.465783e-001	1.357202e-001
6560103200	-4.088444e-001	1.778826e-001	-1.261313e-001	-4.183015e-002	-1.274237e-001	-4.188203e-002	-7.451375e-001	1.388273e-001
6570102900	-4.079906e-001	1.618096e-001	-1.233346e-001	-4.080579e-002	-1.248006e-001	-4.080248e-002	-7.434104e-001	1.423487e-001
6580102600	-4.097549e-001	1.448105e-001	-1.201959e-001	-4.015910e-002	-1.216589e-001	-4.050848e-002	-7.422649e-001	1.461067e-001
6590102300	-4.133754e-001	1.278830e-001	-1.177115e-001	-3.993565e-002	-1.192126e-001	-3.999695e-002	-7.402111e-001	1.504222e-001
6600102000	-4.189984e-001	1.111418e-001	-1.149239e-001	-3.958695e-002	-1.162834e-001	-3.965458e-002	-7.388601e-001	1.547550e-001
6610101700	-4.265831e-001	9.531169e-002	-1.122689e-001	-3.971405e-002	-1.139123e-001	-3.975882e-002	-7.378655e-001	1.589330e-001
6620101400	-4.366054e-001	7.930890e-002	-1.102743e-001	-3.997047e-002	-1.112102e-001	-4.014563e-002	-7.373173e-001	1.627458e-001
6630101100	-4.486149e-001	6.546070e-002	-1.079369e-001	-4.045806e-002	-1.093194e-001	-4.056084e-002	-7.369700e-001	1.662494e-001
6640100800	-4.623704e-001	5.389805e-002	-1.062147e-001	-4.094806e-002	-1.074766e-001	-4.135072e-002	-7.370686e-001	1.691896e-001
6650100500	-4.768528e-001	4.445104e-002	-1.048854e-001	-4.140088e-002	-1.058543e-001	-4.181096e-002	-7.370327e-001	1.700919e-001
6660100200	-4.922386e-001	3.721579e-002	-1.034748e-001	-4.212869e-002	-1.049176e-001	-4.264395e-002	-7.375051e-001	1.714143e-001
6670099900	-5.067600e-001	3.213965e-002	-1.025300e-001	-4.270975e-002	-1.039820e-001	-4.283325e-002	-7.382907e-001	1.718296e-001
6680099600	-5.218343e-001	2.843121e-002	-1.016962e-001	-4.291849e-002	-1.031242e-001	-4.331428e-002	-7.382377e-001	1.720932e-001
6690099300	-5.361925e-001	2.659272e-002	-1.011827e-001	-4.323457e-002	-1.024914e-001	-4.361751e-002	-7.388418e-001	1.718014e-001
6700099000	-5.501960e-001	2.665401e-002	-1.005801e-001	-4.314720e-002	-1.019028e-001	-4.344995e-002	-7.382020e-001	1.715080e-001
6710098700	-5.640216e-001	2.760126e-002	-1.001490e-001	-4.329271e-002	-1.014414e-001	-4.353453e-002	-7.372805e-001	1.713272e-001
6720098400	-5.769485e-001	2.996592e-002	-9.983564e-002	-4.318660e-002	-1.014166e-001	-4.360760e-002	-7.365230e-001	1.718847e-001
6730098100	-5.888707e-001	3.301517e-002	-9.977669e-002	-4.273056e-002	-1.008793e-001	-4.321254e-002	-7.344574e-001	1.724741e-001
6740097800	-6.002138e-001	3.748653e-002	-9.950884e-002	-4.251720e-002	-1.008100e-001	-4.274629e-002	-7.323193e-001	1.740209e-001
6750097500	-6.105614e-001	4.232039e-002	-9.918170e-002	-4.185132e-002	-1.005066e-001	-4.210110e-002	-7.302388e-001	1.762090e-001
6760097200	-6.196037e-001	4.751618e-002	-9.919530e-002	-4.086246e-002	-1.004650e-001	-4.135541e-002	-7.275356e-001	1.786727e-001
6770096900	-6.277134e-001	5.251424e-002	-9.883263e-002	-4.004471e-002	-1.002301e-001	-4.037129e-002	-7.251337e-001	1.823811e-001
6780096600	-6.355820e-001	5.733341e-002	-9.814151e-002	-3.913697e-002	-9.963751e-002	-3.945731e-002	-7.222496e-001	1.860729e-001
6790096300	-6.428283e-001	6.290761e-002	-9.780147e-002	-3.796435e-002	-9.920637e-002	-3.808823e-002	-7.199265e-001	1.901980e-001
6800096000	-6.496626e-001	6.811778e-002	-9.750422e-002	-3.670619e-002	-9.885192e-002	-3.695918e-002	-7.177854e-001	1.941417e-001
6810095700	-6.553532e-001	7.359619e-002	-9.668753e-002	-3.530036e-002	-9.787104e-002	-3.563488e-002	-7.161265e-001	1.981604e-001
6820095400	-6.606265e-001	7.930137e-002	-9.584272e-002	-3.386282e-002	-9.728630e-002	-3.414458e-002	-7.149412e-001	2.015928e-001
6830095100	-6.648431e-001	8.518337e-002	-9.507553e-002	-3.259979e-002	-9.628981e-002	-3.275119e-002	-7.139053e-001	2.042675e-001
6840094800	-6.691614e-001	9.114606e-002	-9.377663e-002	-3.091280e-002	-9.532465e-002	-3.146325e-002	-7.135633e-001	2.068744e-001
6850094500	-6.728825e-001	9.677793e-002	-9.291411e-002	-2.946853e-002	-9.433445e-002	-2.970149e-002	-7.132666e-001	2.084632e-001
6860094200	-6.755433e-001	1.020131e-001	-9.162472e-002	-2.798385e-002	-9.313710e-002	-2.823609e-002	-7.130267e-001	2.095230e-001
6870093900	-6.776768e-001	1.078958e-001	-9.033726e-002	-2.656521e-002	-9.178785e-002	-2.682534e-002	-7.127143e-001	2.099722e-001
6880093600	-6.800843e-001	1.131148e-001	-8.880727e-002	-2.531324e-002	-9.036054e-002	-2.533552e-002	-7.119069e-001	2.106840e-001
6890093300	-6.817507e-001	1.185363e-001	-8.746827e-002	-2.379830e-002	-8.894426e-002	-2.380368e-002	-7.105113e-001	2.107066e-001
6900093000	-6.833286e-001	1.234697e-001	-8.594805e-002	-2.224467e-002	-8.712322e-002	-2.240896e-002	-7.087272e-001	2.100662e-001
6910092700	-6.844010e-001	1.283083e-001	-8.415512e-002	-2.114290e-002	-8.560297e-002	-2.086750e-002	-7.061647e-001	2.100468e-001
6920092400	-6.856414e-001	1.325141e-001	-8.249960e-002	-1.929090e-002	-8.376219e-002	-1.966389e-002	-7.031889e-001	2.096746e-001
6930092100	-6.867104e-001	1.368281e-001	-8.049980e-002	-1.824493e-002	-8.199521e-002	-1.846658e-002	-6.994024e-001	2.108626e-001
6940091800	-6.876155e-001	1.410193e-001	-7.871183e-002	-1.697615e-002	-7.995835e-002	-1.705201e-002	-6.953824e-001	2.120793e-001
6950091500	-6.879809e-001	1.449434e-001	-7.662252e-002	-1.562032e-002	-7.782953e-002	-1.562801e-002	-6.907617e-001	2.138673e-001
6960091200	-6.884242e-001	1.492534e-001	-7.446499e-002	-1.420688e-002	-7.559448e-002	-1.428626e-002	-6.858192e-001	2.164141e-001
6970090900	-6.885248e-001	1.530342e-001	-7.161867e-002	-1.293256e-002	-7.344326e-002	-1.303030e-002	-6.809424e-001	2.190161e-001
6980090600	-6.884379e-001	1.566538e-001	-6.893784e-002	-1.182438e-002	-7.086706e-002	-1.178462e-002	-6.756589e-001	2.218414e-001
6990090300	-6.882508e-001	1.606035e-001	-6.607062e-002	-1.065760e-002	-6.782725e-002	-1.049786e-002	-6.701830e-001	2.250296e-001
7000090000	-6.879445e-001	1.636333e-001	-6.310598e-002	-9.652525e-003	-6.465977e-002	-9.619374e-003	-6.651310e-001	2.278555e-001
7010089700	-6.868811e-001	1.670014e-001	-5.987757e-002	-8.331659e-003	-6.133570e-002	-8.643301e-003	-6.605097e-001	2.302275e-001
7020089400	-6.862002e-001	1.700451e-001	-5.646541e-002	-7.798144e-003	-5.778300e-002	-7.941550e-003	-6.560748e-001	2.318613e-001
7030089100	-6.847997e-001	1.728003e-001	-5.307389e-002	-7.160155e-003	-5.403436e-002	-7.431195e-003	-6.516370e-001	2.329723e-001
7040088800	-6.832673e-001	1.750193e-001	-4.942527e-002	-7.078059e-003	-5.049533e-002	-7.481927e-003	-6.476344e-001	2.331942e-001
7050088500	-6.813442e-001	1.774738e-001	-4.547887e-002	-7.364323e-003	-4.667162e-002	-7.446189e-003	-6.436369e-001	2.323171e-001
7060088200	-6.796019e-001	1.792106e-001	-4.135062e-002	-8.145437e-003	-4.266374e-002	-7.697891e-003	-6.397240e-001	2.298951e-001
7070087900	-6.774018e-001	1.807148e-001	-3.743684e-002	-8.889135e-003	-3.885086e-002	-8.776676e-003	-6.348142e-001	2.266596e-001
7080087600	-6.753673e-001	1.819277e-001	-3.318595e-002	-1.044565e-002	-3.451605e-002	-1.007365e-002	-6.294512e-001	2.221708e-001
7090087300	-6.737107e-001	1.835087e-001	-2.915717e-002	-1.206676e-002	-3.047577e-002	-1.179969e-002	-6.240771e-001	2.164015e-001
7100087000	-6.718093e-001	1.842124e-001	-2.522978e-002	-1.409369e-002	-2.632727e-002	-1.432123e-002	-6.176410e-001	2.098771e-001
7110086700	-6.698312e-001	1.847401e-001	-2.149547e-002	-1.693225e-002	-2.236279e-002	-1.731672e-002	-6.114854e-001	2.027198e-001
7120086400	-6.680422e-001	1.854397e-001	-1.802145e-002	-1.979365e-002	-1.873940e-002	-2.070765e-002	-6.045178e-001	1.952583e-001
7130086100	-6.663486e-001	1.858475e-001	-1.504433e-002	-2.336121e-002	-1.532664e-002	-2.428160e-002	-5.978180e-001	1.875740e-001
7140085800	-6.646329e-001	1.861193e-001	-1.219040e-002	-2.697628e-002	-1.245378e-002	-2.820615e-002	-5.919611e-001	1.797286e-001
7150085500	-6.633321e-001	1.856616e-001	-9.855339e-003	-3.158084e-002	-1.018415e-002	-3.285089e-002	-5.864684e-001	1.715579e-001
7160085200	-6.621879e-001	1.850756e-001	-8.366977e-003	-3.670084e-002	-8.371298e-003	-3.759068e-002	-5.822133e-001	1.633655e-001
7170084900	-6.619185e-001	1.843456e-001	-7.692638e-003	-4.187410e-002	-7.531595e-003	-4.303876e-002	-5.796776e-001	1.550006e-001
7180084600	-6.618900e-001	1.836172e-001	-8.292645e-003	-4.724491e-002	-7.557600e-003	-4.836387e-002	-5.788899e-001	1.469738e-001
7190084300	-6.618224e-001	1.828915e-001	-9.091517e-003	-5.242935e-002	-8.633961e-003	-5.344289e-002	-5.803635e-001	1.387048e-001
7200084000	-6.626513e-001	1.822188e-001	-1.059772e-002	-5.669668e-002	-1.057568e-002	-5.853910e-002	-5.841337e-001	1.314611e-001
7210083700	-6.629309e-001	1.815850e-001	-1.292036e-002	-6.077860e-002	-1.337558e-002	-6.257256e-002	-5.890618e-001	1.243893e-001
7220083400	-6.634809e-001	1.815192e-001	-1.564045e-002	-6.415485e-002	-1.648241e-002	-6.602521e-002	-5.957629e-001	1.186070e-001
7230083100	-6.639862e-001	1.822321e-001	-1.859462e-002	-6.678689e-002	-1.967454e-002	-6.878626e-002	-6.035210e-001	1.131693e-001
7240082800	-6.642877e-001	1.826507e-001	-2.174067e-002	-6.880721e-002	-2.276072e-002	-7.035315e-002	-6.124728e-001	1.083967e-001
7250082500	-6.643917e-001	1.835043e-001	-2.475011e-002	-7.006401e-002	-2.599084e-002	-7.137622e-002	-6.210804e-001	1.043749e-001
7260082200	-6.638469e-001	1.848200e-001	-2.806599e-002	-7.039907e-002	-2.915645e-002	-7.191834e-002	-6.299723e-001	1.005940e-001
7270081900	-6.627730e-001	1.863697e-001	-3.111783e-002	-7.014713e-002	-3.194955e-002	-7.197817e-002	-6.385291e-001	9.764706e-002
7280081600	-6.613528e-001	1.879758e-001	-3.345576e-002	-6.955922e-002	-3.436876e-002	-7.108315e-002	-6.465669e-001	9.559095e-002
7290081300	-6.592190e-001	1.896301e-001	-3.569415e-002	-6.857677e-002	-3.632346e-002	-7.033999e-002	-6.536714e-001	9.400416e-002
7300081000	-6.566675e-001	1.904726e-001	-3.682530e-002	-6.746725e-002	-3.777806e-002	-6.901670e-002	-6.596867e-001	9.311997e-002
7310080700	-6.527257e-001	1.912856e-001	-3.731513e-002	-6.643735e-002	-3.909392e-002	-6.785085e-002	-6.645538e-001	9.276867e-002
7320080400	-6.498734e-001	1.911952e-001	-3.784420e-002	-6.534283e-002	-3.920432e-002	-6.698153e-002	-6.682875e-001	9.385325e-002
7330080100	-6.455581e-001	1.901337e-001	-3.761696e-002	-6.457209e-002	-3.921375e-002	-6.621547e-002	-6.713913e-001	9.486096e-002
7340079800	-6.420171e-001	1.887102e-001	-3.721783e-002	-6.398989e-002	-3.893122e-002	-6.508180e-002	-6.731772e-001	9.739720e-002
7350079500	-6.379844e-001	1.859342e-001	-3.664584e-002	-6.407365e-002	-3.824347e-002	-6.527553e-002	-6.745714e-001	9.998566e-002
7360079200	-6.351128e-001	1.818174e-001	-3.592322e-002	-6.457388e-002	-3.760982e-002	-6.535829e-002	-6.757803e-001	1.033319e-001
7370078900	-6.323314e-001	1.771126e-001	-3.547151e-002	-6.514715e-002	-3.722247e-002	-6.613175e-002	-6.766974e-001	1.077598e-001
7380078600	-6.302062e-001	1.720104e-001	-3.532220e-002	-6.606370e-002	-3.682801e-002	-6.728513e-002	-6.770646e-001	1.123404e-001
7390078300	-6.292658e-001	1.658377e-001	-3.527757e-002	-6.750785e-002	-3.636434e-002	-6.830321e-002	-6.781354e-001	1.167111e-001
7400078000	-6.294471e-001	1.590377e-001	-3.564377e-002	-6.905196e-002	-3.663265e-002	-6.988375e-002	-6.794765e-001	1.209624e-001
7410077700	-6.305369e-001	1.520400e-001	-3.621001e-002	-7.099840e-002	-3.730712e-002	-7.145426e-002	-6.817158e-001	1.248115e-001
7420077400	-6.323544e-001	1.452640e-001	-3.754666e-002	-7.249238e-002	-3.872131e-002	-7.290350e-002	-6.839422e-001	1.280215e-001
7430077100	-6.356721e-001	1.391440e-001	-3.938250e-002	-7.398651e-002	-4.005248e-002	-7.427758e-002	-6.865633e-001	1.301230e-001
7440076800	-6.395723e-001	1.343166e-001	-4.116091e-002	-7.516183e-002	-4.197018e-002	-7.542719e-002	-6.897798e-001	1.317195e-001
7450076500	-6.437588e-001	1.295402e-001	-4.331588e-002	-7.592123e-002	-4.400924e-002	-7.644398e-002	-6.927368e-001	1.331626e-001
7460076200	-6.483856e-001	1.257812e-001	-4.573797e-002	-7.637766e-002	-4.620912e-002	-7.700151e-002	-6.954186e-001	1.340466e-001
7470075900	-6.537996e-001	1.232251e-001	-4.766920e-002	-7.603562e-002	-4.865946e-002	-7.690396e-002	-6.978221e-001	1.342821e-001
7480075600	-6.597820e-001	1.214225e-001	-5.017475e-002	-7.549210e-002	-5.103901e-002	-7.653191e-002	-6.994210e-001	1.341628e-001
7490075300	-6.647550e-001	1.207581e-001	-5.255255e-002	-7.483382e-002	-5.326545e-002	-7.598404e-002	-7.008720e-001	1.344445e-001
7500075000	-6.703403e-001	1.207568e-001	-5.468128e-002	-7.371212e-002	-5.531368e-002	-7.484815e-002	-7.015311e-001	1.345547e-001
7510074700	-6.754360e-001	1.212448e-001	-5.648789e-002	-7.237457e-002	-5.742217e-002	-7.368693e-002	-7.017174e-001	1.347312e-001
7520074400	-6.806223e-001	1.222992e-001	-5.818870e-002	-7.118155e-002	-5.931747e-002	-7.226503e-002	-7.011036e-001	1.365057e-001
7530074100	-6.852825e-001	1.242288e-001	-6.001330e-002	-6.954390e-002	-6.076903e-002	-7.040950e-002	-7.004838e-001	1.387171e-001
7540073800	-6.898153e-001	1.262779e-001	-6.148522e-002	-6.753447e-002	-6.241599e-002	-6.832616e-002	-6.987809e-001	1.418681e-001
7550073500	-6.933782e-001	1.286670e-001	-6.273061e-002	-6.558876e-002	-6.342709e-002	-6.634990e-002	-6.967251e-001	1.458891e-001
7560073200	-6.969389e-001	1.308882e-001	-6.360606e-002	-6.331491e-002	-6.439131e-002	-6.404889e-002	-6.951919e-001	1.510205e-001
7570072900	-7.001097e-001	1.334901e-001	-6.398731e-002	-6.117317e-002	-6.474663e-002	-6.167580e-002	-6.926296e-001	1.563180e-001
7580072600	-7.019883e-001	1.358394e-001	-6.417946e-002	-5.874106e-002	-6.530305e-002	-5.964327e-002	-6.905379e-001	1.618544e-001
7590072300	-7.039464e-001	1.383985e-001	-6.414191e-002	-5.639069e-002	-6.515329e-002	-5.744775e-002	-6.887028e-001	1.672473e-001
7600072000	-7.051460e-001	1.409992e-001	-6.368902e-002	-5.416521e-002	-6.499698e-002	-5.535480e-002	-6.867229e-001	1.728298e-001
7610071700	-7.059730e-001	1.434979e-001	-6.317515e-002	-5.205685e-002	-6.452304e-002	-5.300739e-002	-6.849873e-001	1.771918e-001
7620071400	-7.067530e-001	1.458302e-001	-6.214335e-002	-5.005999e-002	-6.382296e-002	-5.099375e-002	-6.838221e-001	1.813762e-001
7630071100	-7.067531e-001	1.481681e-001	-6.130522e-002	-4.816872e-002	-6.296387e-002	-4.911528e-002	-6.828914e-001	1.848632e-001
7640070800	-7.057588e-001	1.504619e-001	-5.996605e-002	-4.634183e-002	-6.155907e-002	-4.742493e-002	-6.820541e-001	1.869574e-001
7650070500	-7.051474e-001	1.530215e-001	-5.846787e-002	-4.470094e-002	-6.026378e-002	-4.573729e-002	-6.814367e-001	1.875785e-001
7660070200	-7.040573e-001	1.548341e-001	-5.692348e-002	-4.379462e-002	-5.845905e-002	-4.464843e-002	-6.805227e-001	1.874991e-001
7670069900	-7.029046e-001	1.570474e-001	-5.550232e-002	-4.270904e-002	-5.695896e-002	-4.352403e-002	-6.799089e-001	1.867827e-001
7680069600	-7.016803e-001	1.595120e-001	-5.370511e-002	-4.181830e-002	-5.552797e-002	-4.228313e-002	-6.789885e-001	1.856082e-001
7690069300	-7.000810e-001	1.610739e-001	-5.225899e-002	-4.143102e-002	-5.366886e-002	-4.195550e-002	-6.769269e-001	1.844628e-001
7700069000	-6.984515e-001	1.621552e-001	-5.033447e-002	-4.076616e-002	-5.214443e-002	-4.115977e-002	-6.746808e-001	1.842998e-001
7710068700	-6.963019e-001	1.639949e-001	-4.885380e-002	-4.029728e-002	-5.022513e-002	-4.065355e-002	-6.715390e-001	1.833193e-001
7720068400	-6.943183e-001	1.639868e-001	-4.687909e-002	-3.996197e-002	-4.850341e-002	-4.055485e-002	-6.671512e-001	1.834276e-001
7730068100	-6.915420e-001	1.644332e-001	-4.526905e-002	-4.005035e-002	-4.652828e-002	-4.040558e-002	-6.620543e-001	1.838686e-001
7740067800	-6.892467e-001	1.641458e-001	-4.312761e-002	-4.034288e-002	-4.445278e-002	-4.088358e-002	-6.566715e-001	1.848524e-001
7750067500	-6.861623e-001	1.624055e-001	-4.135475e-002	-4.126840e-002	-4.249881e-002	-4.147345e-002	-6.511811e-001	1.861477e-001
7760067200	-6.832211e-001	1.604726e-001	-3.948792e-002	-4.237599e-002	-4.063632e-002	-4.264251e-002	-6.454290e-001	1.879691e-001
7770066900	-6.798799e-001	1.581224e-001	-3.772734e-002	-4.356931e-002	-3.918970e-002	-4.370615e-002	-6.407790e-001	1.902042e-001
7780066600	-6.771383e-001	1.547947e-001	-3.629246e-002	-4.525431e-002	-3.730884e-002	-4.529638e-002	-6.354354e-001	1.927340e-001
7790066300	-6.740484e-001	1.508057e-001	-3.525934e-002	-4.704888e-002	-3.651735e-002	-4.750386e-002	-6.311671e-001	1.947671e-001
7800066000	-6.719099e-001	1.467356e-001	-3.454024e-002	-4.916991e-002	-3.555695e-002	-4.959085e-002	-6.275247e-001	1.966828e-001
7810065700	-6.703637e-001	1.418755e-001	-3.399880e-002	-5.144054e-002	-3.502997e-002	-5.182855e-002	-6.252114e-001	1.974112e-001
7820065400	-6.691337e-001	1.365646e-001	-3.409876e-002	-5.420487e-002	-3.489604e-002	-5.420789e-002	-6.245062e-001	1.979335e-001
7830065100	-6.684536e-001	1.310833e-001	-3.447623e-002	-5.589506e-002	-3.548082e-002	-5.639652e-002	-6.238149e-001	1.979749e-001
7840064800	-6.692649e-001	1.253169e-001	-3.529403e-002	-5.816225e-002	-3.624687e-002	-5.883961e-002	-6.239282e-001	1.972951e-001
7850064500	-6.705972e-001	1.194015e-001	-3.653645e-002	-6.043724e-002	-3.740160e-002	-6.092814e-002	-6.229870e-001	1.959695e-001
7860064200	-6.730560e-001	1.141503e-001	-3.830842e-002	-6.251779e-002	-3.894763e-002	-6.318962e-002	-6.232506e-001	1.934399e-001
7870063900	-6.766103e-001	1.087900e-001	-4.004371e-002	-6.413258e-002	-4.089068e-002	-6.499998e-002	-6.232075e-001	1.905580e-001
7880063600	-6.808188e-001	1.038435e-001	-4.226917e-002	-6.574445e-002	-4.309825e-002	-6.625014e-002	-6.229903e-001	1.885372e-001
7890063300	-6.860877e-001	9.975016e-002	-4.525142e-002	-6.661938e-002	-4.580043e-002	-6.738394e-002	-6.213253e-001	1.859705e-001
7900063000	-6.917653e-001	9.629173e-002	-4.779529e-002	-6.709263e-002	-4.834649e-002	-6.749706e-002	-6.189041e-001	1.841220e-001
7910062700	-6.976620e-001	9.346933e-002	-5.053561e-002	-6.690282e-002	-5.105912e-002	-6.771303e-002	-6.151488e-001	1.820631e-001
7920062400	-7.042000e-001	9.125778e-002	-5.304282e-002	-6.661427e-002	-5.330696e-002	-6.729320e-002	-6.107077e-001	1.805717e-001
7930062100	-7.104215e-001	8.953580e-002	-5.535036e-002	-6.614726e-002	-5.585495e-002	-6.667234e-002	-6.058569e-001	1.802809e-001
7940061800	-7.158447e-001	8.916830e-002	-5.771602e-002	-6.506873e-002	-5.826861e-002	-6.592948e-002	-5.998258e-001	1.806601e-001
7950061500	-7.218056e-001	8.845744e-002	-5.987534e-002	-6.405566e-002	-6.063790e-002	-6.460821e-002	-5.934116e-001	1.822112e-001
7960061200	-7.273689e-001	8.839563e-002	-6.167084e-002	-6.265843e-002	-6.239996e-002	-6.322888e-002	-5.867970e-001	1.837311e-001
7970060900	-7.327555e-001	8.939595e-002	-6.332791e-002	-6.101843e-002	-6.401874e-002	-6.179699e-002	-5.800788e-001	1.857689e-001
7980060600	-7.370662e-001	9.105652e-002	-6.498271e-002	-5.923741e-002	-6.563729e-002	-6.020110e-002	-5.744050e-001	1.879658e-001
7990060300	-7.419583e-001	9.274456e-002	-6.597277e-002	-5.765891e-002	-6.693844e-002	-5.837482e-002	-5.693084e-001	1.901954e-001
8000060000	-7.457887e-001	9.492857e-002	-6.702995e-002	-5.579422e-002	-6.798695e-002	-5.654375e-002	-5.648579e-001	1.917829e-001
8010059700	-7.499161e-001	9.678614e-002	-6.801062e-002	-5.419371e-002	-6.891472e-002	-5.488596e-002	-5.606797e-001	1.931163e-001
8020059400	-7.530328e-001	9.883520e-002	-6.870406e-002	-5.196243e-002	-6.974545e-002	-5.316434e-002	-5.573468e-001	1.939070e-001
8030059100	-7.564963e-001	1.014853e-001	-6.897029e-002	-5.050624e-002	-7.032555e-002	-5.114316e-002	-5.540102e-001	1.940151e-001
8040058800	-7.593373e-001	1.036962e-001	-6.951896e-002	-4.860476e-002	-7.069649e-002	-4.944635e-002	-5.500747e-001	1.924981e-001
8050058500	-7.628591e-001	1.060699e-001	-6.975913e-002	-4.715952e-002	-7.123047e-002	-4.785810e-002	-5.470540e-001	1.891391e-001
8060058200	-7.650788e-001	1.089753e-001	-7.027272e-002	-4.548508e-002	-7.127469e-002	-4.625212e-002	-5.437493e-001	1.855418e-001
8070057900	-7.676281e-001	1.114035e-001	-7.053329e-002	-4.377151e-002	-7.146556e-002	-4.466609e-002	-5.398199e-001	1.808198e-001
8080057600	-7.700104e-001	1.135341e-001	-7.069110e-002	-4.222945e-002	-7.122290e-002	-4.322713e-002	-5.352120e-001	1.755673e-001
8090057300	-7.720897e-001	1.162990e-001	-7.052597e-002	-4.083580e-002	-7.138321e-002	-4.156795e-002	-5.291302e-001	1.699220e-001
8100057000	-7.738842e-001	1.181158e-001	-7.019386e-002	-3.903503e-002	-7.157521e-002	-4.009459e-002	-5.223982e-001	1.644699e-001
8110056700	-7.755449e-001	1.213474e-001	-7.009552e-002	-3.779290e-002	-7.141638e-002	-3.876668e-002	-5.143724e-001	1.584450e-001
8120056400	-7.773501e-001	1.238638e-001	-6.969152e-002	-3.662072e-002	-7.117959e-002	-3.732569e-002	-5.056235e-001	1.527839e-001
8130056100	-7.780883e-001	1.262327e-001	-6.952055e-002	-3.529586e-002	-7.142923e-002	-3.614771e-002	-4.971866e-001	1.474454e-001
8140055800	-7.790939e-001	1.279569e-001	-6.956867e-002	-3.394443e-002	-7.125125e-002	-3.474650e-002	-4.880259e-001	1.423063e-001
8150055500	-7.801482e-001	1.312000e-001	-6.948094e-002	-3.272634e-002	-7.088232e-002	-3.356850e-002	-4.794712e-001	1.372660e-001
8160055200	-7.806130e-001	1.335444e-001	-6.936941e-002	-3.128949e-002	-7.071090e-002	-3.224574e-002	-4.710483e-001	1.318930e-001
8170054900	-7.813112e-001	1.358284e-001	-6.885625e-002	-3.030990e-002	-7.026575e-002	-3.056233e-002	-4.640370e-001	1.260984e-001
8180054600	-7.819087e-001	1.383999e-001	-6.860047e-002	-2.910633e-002	-7.042641e-002	-2.952598e-002	-4.589054e-001	1.225238e-001
8190054300	-7.829226e-001	1.408182e-001	-6.825174e-002	-2.788002e-002	-6.990867e-002	-2.849148e-002	-4.539840e-001	1.182649e-001
8200054000	-7.837241e-001	1.427189e-001	-6.784269e-002	-2.704125e-002	-6.946907e-002	-2.747394e-002	-4.497605e-001	1.134289e-001
8210053700	-7.846747e-001	1.449777e-001	-6.736990e-002	-2.582965e-002	-6.882993e-002	-2.605672e-002	-4.461069e-001	1.070284e-001
8220053400	-7.849756e-001	1.473049e-001	-6.686202e-002	-2.498240e-002	-6.849771e-002	-2.532449e-002	-4.440901e-001	9.942273e-002
8230053100	-7.864218e-001	1.501569e-001	-6.663679e-002	-2.394917e-002	-6.814727e-002	-2.440444e-002	-4.431693e-001	9.077170e-002
8240052800	-7.869846e-001	1.513605e-001	-6.628089e-002	-2.329050e-002	-6.793216e-002	-2.372532e-002	-4.425794e-001	8.102628e-002
8250052500	-7.866971e-001	1.534682e-001	-6.597569e-002	-2.250553e-002	-6.784054e-002	-2.270122e-002	-4.426941e-001	7.047314e-002
8260052200	-7.872390e-001	1.557757e-001	-6.587377e-002	-2.179168e-002	-6.771627e-002	-2.194747e-002	-4.428419e-001	5.892608e-002
8270051900	-7.877351e-001	1.575084e-001	-6.567573e-002	-2.075242e-002	-6.725687e-002	-2.095275e-002	-4.418581e-001	4.724092e-002
8280051600	-7.876490e-001	1.596024e-001	-6.564550e-002	-1.988413e-002	-6.713850e-002	-1.984802e-002	-4.408581e-001	3.534066e-002
8290051300	-7.872041e-001	1.618641e-001	-6.529074e-002	-1.868813e-002	-6.710753e-002	-1.919418e-002	-4.387879e-001	2.267671e-002
8300051000	-7.871978e-001	1.634989e-001	-6.510022e-002	-1.783189e-002	-6.691073e-002	-1.812589e-002	-4.372447e-001	9.159582e-003
8310050700	-7.869616e-001	1.655228e-001	-6.530857e-002	-1.700634e-002	-6.650162e-002	-1.728938e-002	-4.357114e-001	-3.745153e-003
8320050400	-7.870490e-001	1.677740e-001	-6.491213e-002	-1.625909e-002	-6.670509e-002	-1.629110e-002	-4.350920e-001	-1.576052e-002
8330050100	-7.860619e-001	1.694091e-001	-6.469673e-002	-1.529993e-002	-6.661008e-002	-1.525602e-002	-4.344200e-001	-2.631388e-002
8340049800	-7.862700e-001	1.718808e-001	-6.480200e-002	-1.420369e-002	-6.653047e-002	-1.435374e-002	-4.352247e-001	-3.682381e-002
8350049500	-7.861879e-001	1.742371e-001	-6.456950e-002	-1.335096e-002	-6.640814e-002	-1.322378e-002	-4.372019e-001	-4.584564e-002
8360049200	-7.865479e-001	1.759418e-001	-6.482608e-002	-1.224592e-002	-6.642070e-002	-1.223452e-002	-4.401627e-001	-5.336354e-002
8370048900	-7.864046e-001	1.775987e-001	-6.476766e-002	-1.070512e-002	-6.627329e-002	-1.088010e-002	-4.430446e-001	-5.873075e-002
8380048600	-7.865742e-001	1.796175e-001	-6.481343e-002	-9.594634e-003	-6.595821e-002	-9.381930e-003	-4.474961e-001	-6.498890e-002
8390048300	-7.866082e-001	1.818990e-001	-6.472108e-002	-8.582779e-003	-6.566056e-002	-8.186255e-003	-4.535748e-001	-6.987994e-002
8400048000	-7.862926e-001	1.833853e-001	-6.439755e-002	-7.186457e-003	-6.551933e-002	-6.798927e-003	-4.605325e-001	-7.564327e-002
8410047700	-7.858123e-001	1.847959e-001	-6.413885e-002	-5.801313e-003	-6.551307e-002	-5.604781e-003	-4.682737e-001	-8.157393e-002
8420047400	-7.858853e-001	1.870195e-001	-6.386587e-002	-4.513216e-003	-6.508843e-002	-3.971982e-003	-4.771173e-001	-8.781359e-002
8430047100	-7.852298e-001	1.882819e-001	-6.348838e-002	-3.271602e-003	-6.497353e-002	-2.822235e-003	-4.870511e-001	-9.411960e-002
8440046800	-7.844003e-001	1.899068e-001	-6.329582e-002	-1.485494e-003	-6.447124e-002	-9.930767e-004	-4.967668e-001	-1.008080e-001
8450046500	-7.840681e-001	1.913613e-001	-6.280113e-002	5.672041e-005	-6.370345e-002	3.289991e-005	-5.070039e-001	-1.071636e-001
8460046200	-7.828386e-001	1.926906e-001	-6.208672e-002	1.043746e-003	-6.345787e-002	1.281672e-003	-5.153478e-001	-1.133312e-001
8470045900	-7.821185e-001	1.942994e-001	-6.162214e-002	2.625257e-003	-6.284717e-002	2.830781e-003	-5.235140e-001	-1.190754e-001
8480045600	-7.805168e-001	1.957547e-001	-6.091630e-002	3.948370e-003	-6.212734e-002	4.474898e-003	-5.304560e-001	-1.251908e-001
8490045300	-7.796554e-001	1.977081e-001	-6.054551e-002	5.730443e-003	-6.147791e-002	6.091244e-003	-5.363080e-001	-1.302075e-001
8500045000	-7.740623e-001	1.791188e-001	-5.816459e-002	5.499260e-003	-6.004425e-002	6.350594e-003	-5.334980e-001	-1.341851e-001
8510044700	-7.739329e-001	1.788010e-001	-5.714294e-002	7.660497e-003	-5.956989e-002	7.768981e-003	-5.390749e-001	-1.374757e-001
8520044400	-7.766347e-001	1.808178e-001	-5.657428e-002	8.495298e-003	-5.915197e-002	9.296608e-003	-5.436332e-001	-1.427686e-001
8530044100	-7.742907e-001	1.826451e-001	-5.638862e-002	1.050469e-002	-5.777354e-002	9.895767e-003	-5.477409e-001	-1.465777e-001
8540043800	-7.721859e-001	1.822029e-001	-5.442877e-002	1.191349e-002	-5.641895e-002	1.193721e-002	-5.532022e-001	-1.478282e-001
8550043500	-7.700316e-001	1.832493e-001	-5.434151e-002	1.313392e-002	-5.585340e-002	1.277572e-002	-5.585250e-001	-1.484869e-001
8560043200	-7.664887e-001	1.854798e-001	-5.281297e-002	1.459521e-002	-5.441245e-002	1.446103e-002	-5.638371e-001	-1.471242e-001
8570042900	-7.645189e-001	1.856953e-001	-5.196650e-002	1.626052e-002	-5.403392e-002	1.715844e-002	-5.689170e-001	-1.436646e-001
8580042600	-7.597622e-001	1.891904e-001	-5.061479e-002	1.764993e-002	-5.226800e-002	1.822359e-002	-5.751356e-001	-1.412170e-001
8590042300	-7.577958e-001	1.900019e-001	-4.986471e-002	1.913406e-002	-5.095676e-002	1.853140e-002	-5.818299e-001	-1.372261e-001
8600042000	-7.570006e-001	1.946220e-001	-4.785038e-002	1.975066e-002	-4.950316e-002	1.997743e-002	-5.872323e-001	-1.317091e-001
8610041700	-7.560866e-001	1.953319e-001	-4.587898e-002	2.130581e-002	-4.785555e-002	2.149514e-002	-5.921378e-001	-1.288354e-001
8620041400	-7.565334e-001	1.984231e-001	-4.475817e-002	2.261060e-002	-4.726776e-002	2.213499e-002	-5.982216e-001	-1.256200e-001
8630041100	-7.576157e-001	1.980275e-001	-4.412063e-002	2.268480e-002	-4.545368e-002	2.310387e-002	-6.052607e-001	-1.227014e-001
8640040800	-7.589190e-001	2.027131e-001	-4.177822e-002	2.323300e-002	-4.344590e-002	2.378661e-002	-6.103532e-001	-1.213247e-001
8650040500	-7.600166e-001	2.043649e-001	-4.045189e-002	2.382394e-002	-4.362319e-002	2.538240e-002	-6.140736e-001	-1.224268e-001
8660040200	-7.592450e-001	2.038551e-001	-3.919385e-002	2.496947e-002	-4.073232e-002	2.498113e-002	-6.187844e-001	-1.243348e-001
8670039900	-7.610731e-001	2.060766e-001	-3.837892e-002	2.570114e-002	-3.976096e-002	2.689494e-002	-6.225461e-001	-1.254269e-001
8680039600	-7.600193e-001	2.069127e-001	-3.601547e-002	2.583047e-002	-3.752125e-002	2.712111e-002	-6.264544e-001	-1.287506e-001
8690039300	-7.580058e-001	2.077597e-001	-3.512661e-002	2.701099e-002	-3.594890e-002	2.733769e-002	-6.283351e-001	-1.321935e-001
8700039000	-7.555483e-001	2.089278e-001	-3.377207e-002	2.661318e-002	-3.491130e-002	2.792778e-002	-6.308862e-001	-1.336271e-001
8710038700	-7.534359e-001	2.098982e-001	-3.191400e-002	2.739545e-002	-3.319576e-002	2.823645e-002	-6.355906e-001	-1.354835e-001
8720038400	-7.507209e-001	2.102317e-001	-3.039191e-002	2.797068e-002	-3.158760e-002	2.849552e-002	-6.354335e-001	-1.369616e-001
8730038100	-7.504304e-001	2.107128e-001	-2.952031e-002	2.802547e-002	-2.957339e-002	2.813242e-002	-6.373102e-001	-1.353550e-001
8740037800	-7.472779e-001	2.106592e-001	-2.774820e-002	2.852871e-002	-2.871254e-002	2.860640e-002	-6.389253e-001	-1.331282e-001
8750037500	-7.461313e-001	2.104656e-001	-2.593978e-002	2.777795e-002	-2.807181e-002	2.860948e-002	-6.391965e-001	-1.319124e-001
8760037200	-7.453821e-001	2.122115e-001	-2.514790e-002	2.838545e-002	-2.730489e-002	2.894239e-002	-6.404466e-001	-1.276778e-001
8770036900	-7.443316e-001	2.127900e-001	-2.408693e-002	2.792284e-002	-2.469183e-002	2.931373e-002	-6.434942e-001	-1.232611e-001
8780036600	-7.444970e-001	2.121944e-001	-2.234692e-002	2.824868e-002	-2.441036e-002	2.904638e-002	-6.433000e-001	-1.192348e-001
8790036300	-7.468606e-001	2.150198e-001	-2.161782e-002	2.773761e-002	-2.337203e-002	2.913639e-002	-6.450486e-001	-1.149231e-001
8800036000	-7.462316e-001	2.146296e-001	-2.098499e-002	2.771565e-002	-2.224430e-002	2.888606e-002	-6.482730e-001	-1.099904e-001
8810035700	-7.479948e-001	2.170349e-001	-1.985345e-002	2.739764e-002	-2.119727e-002	2.807667e-002	-6.498435e-001	-1.074158e-001
8820035400	-7.452807e-001	2.170636e-001	-1.956273e-002	2.755629e-002	-2.102788e-002	2.822509e-002	-6.540795e-001	-1.069598e-001
8830035100	-7.468469e-001	2.190569e-001	-1.944074e-002	2.712249e-002	-1.978433e-002	2.907770e-002	-6.573765e-001	-1.048619e-001
8840034800	-7.462191e-001	2.197046e-001	-1.873046e-002	2.824600e-002	-1.856997e-002	2.913611e-002	-6.612386e-001	-1.068418e-001
8850034500	-7.476832e-001	2.214831e-001	-1.818034e-002	2.824378e-002	-1.812851e-002	2.978721e-002	-6.658419e-001	-1.077944e-001
8860034200	-7.458188e-001	2.234060e-001	-1.737611e-002	2.836468e-002	-1.756689e-002	2.979973e-002	-6.687929e-001	-1.094924e-001
8870033900	-7.437437e-001	2.244767e-001	-1.709569e-002	2.824704e-002	-1.752990e-002	2.931857e-002	-6.739715e-001	-1.118340e-001
8880033600	-7.421564e-001	2.258668e-001	-1.599476e-002	2.868481e-002	-1.725323e-002	3.026295e-002	-6.767000e-001	-1.120330e-001
8890033300	-7.426850e-001	2.257794e-001	-1.586287e-002	2.912972e-002	-1.567672e-002	2.995687e-002	-6.769979e-001	-1.157482e-001
8900033000	-7.406595e-001	2.276452e-001	-1.542879e-002	2.922491e-002	-1.527335e-002	3.087656e-002	-6.787331e-001	-1.167547e-001
8910032700	-7.396426e-001	2.287892e-001	-1.463488e-002	3.027497e-002	-1.522814e-002	3.153900e-002	-6.792055e-001	-1.163881e-001
8920032400	-7.384915e-001	2.336079e-001	-1.437212e-002	3.095533e-002	-1.461840e-002	3.157634e-002	-6.793663e-001	-1.161521e-001
8930032100	-7.382917e-001	2.339993e-001	-1.366553e-002	3.108313e-002	-1.434101e-002	3.260278e-002	-6.779173e-001	-1.155998e-001
8940031800	-7.392909e-001	2.374628e-001	-1.230912e-002	3.160988e-002	-1.352375e-002	3.314098e-002	-6.778825e-001	-1.122872e-001
8950031500	-7.376498e-001	2.379437e-001	-1.218591e-002	3.216608e-002	-1.290195e-002	3.409412e-002	-6.764761e-001	-1.094566e-001
8960031200	-7.390230e-001	2.412565e-001	-1.090524e-002	3.239483e-002	-1.221171e-002	3.359639e-002	-6.765142e-001	-1.046851e-001
8970030900	-7.387970e-001	2.442093e-001	-1.058242e-002	3.400254e-002	-1.096966e-002	3.411255e-002	-6.765048e-001	-1.020030e-001
8980030600	-7.367116e-001	2.473634e-001	-8.870204e-003	3.457234e-002	-9.992953e-003	3.499113e-002	-6.763101e-001	-9.718870e-002
8990030300	-7.362876e-001	2.467660e-001	-8.195154e-003	3.450422e-002	-9.542742e-003	3.647307e-002	-6.776439e-001	-9.292545e-002
9000030000	-7.358840e-001	2.478709e-001	-7.707476e-003	3.543133e-002	-8.233594e-003	3.652704e-002	-6.800210e-001	-8.885227e-002
9010029700	-7.355181e-001	2.505927e-001	-6.131272e-003	3.532631e-002	-6.413528e-003	3.707257e-002	-6.822733e-001	-8.723935e-002
9020029400	-7.335664e-001	2.511066e-001	-6.557592e-003	3.502066e-002	-6.306021e-003	3.692893e-002	-6.858367e-001	-8.487739e-002
9030029100	-7.326776e-001	2.521514e-001	-5.663516e-003	3.655187e-002	-5.165309e-003	3.736003e-002	-6.893884e-001	-8.516271e-002
9040028800	-7.283323e-001	2.543624e-001	-4.622057e-003	3.682802e-002	-5.147204e-003	3.803088e-002	-6.918045e-001	-8.505533e-002
9050028500	-7.282857e-001	2.567363e-001	-4.248219e-003	3.764924e-002	-4.118745e-003	3.837737e-002	-6.961777e-001	-8.336339e-002
9060028200	-7.267385e-001	2.587994e-001	-3.970306e-003	3.768929e-002	-3.630994e-003	3.899424e-002	-6.988434e-001	-8.549623e-002
9070027900	-7.236981e-001	2.611274e-001	-3.303355e-003	3.836976e-002	-3.263708e-003	4.032063e-002	-7.004739e-001	-8.832591e-002
9080027600	-7.233300e-001	2.643223e-001	-2.641640e-003	3.944350e-002	-2.861687e-003	4.158755e-002	-7.016978e-001	-8.762487e-002
9090027300	-7.215004e-001	2.679135e-001	-2.008208e-003	4.042196e-002	-2.831796e-003	4.259644e-002	-7.021636e-001	-8.958568e-002
9100027000	-7.207668e-001	2.714235e-001	-1.881330e-003	4.200438e-002	-1.434777e-003	4.402531e-002	-7.023143e-001	-9.045243e-002
9110026700	-7.197634e-001	2.757672e-001	-8.422714e-004	4.374772e-002	2.145119e-004	4.621425e-002	-7.034415e-001	-9.275411e-002
9120026400	-7.178857e-001	2.804267e-001	-2.404390e-004	4.496041e-002	3.622837e-005	4.721688e-002	-7.009941e-001	-9.208125e-002
9130026100	-7.171166e-001	2.836845e-001	9.840524e-004	4.657017e-002	1.087150e-003	4.851034e-002	-6.977641e-001	-9.009542e-002
9140025800	-7.151182e-001	2.857179e-001	2.441784e-003	4.812459e-002	3.277975e-003	4.980930e-002	-6.969196e-001	-8.637590e-002
9150025500	-7.144748e-001	2.895721e-001	3.401743e-003	4.940971e-002	4.763925e-003	5.118174e-002	-6.945509e-001	-8.414955e-002
9160025200	-7.114228e-001	2.925554e-001	5.164430e-003	5.077752e-002	6.209661e-003	5.318478e-002	-6.925579e-001	-7.949497e-002
9170024900	-7.096344e-001	2.939191e-001	6.169629e-003	5.224492e-002	7.732620e-003	5.503967e-002	-6.913396e-001	-7.464220e-002
9180024600	-7.049648e-001	2.960883e-001	9.206263e-003	5.378854e-002	1.012385e-002	5.556939e-002	-6.906428e-001	-7.114324e-002
9190024300	-7.017441e-001	2.987017e-001	1.124355e-002	5.538969e-002	1.233598e-002	5.766669e-002	-6.881530e-001	-6.508346e-002
9200024000	-6.982360e-001	3.011817e-001	1.316877e-002	5.623272e-002	1.526196e-002	5.859801e-002	-6.885741e-001	-6.064236e-002
9210023700	-6.926029e-001	3.042621e-001	1.578572e-002	5.780932e-002	1.740437e-002	6.047973e-002	-6.880259e-001	-5.597726e-002
9220023400	-6.878722e-001	3.034535e-001	1.809671e-002	5.891290e-002	1.985261e-002	6.077584e-002	-6.883435e-001	-5.222830e-002
9230023100	-6.834929e-001	3.074099e-001	2.037936e-002	5.934300e-002	2.250622e-002	6.209134e-002	-6.876567e-001	-5.059384e-002
9240022800	-6.799273e-001	3.089877e-001	2.296844e-002	6.091486e-002	2.458778e-002	6.261196e-002	-6.882486e-001	-4.952260e-002
9250022500	-6.751071e-001	3.128556e-001	2.456114e-002	6.181615e-002	2.724863e-002	6.320391e-002	-6.893192e-001	-4.792525e-002
9260022200	-6.705734e-001	3.158861e-001	2.834604e-002	6.268868e-002	3.029971e-002	6.424908e-002	-6.886956e-001	-4.888222e-002
9270021900	-6.663780e-001	3.176977e-001	3.058429e-002	6.344897e-002	3.388278e-002	6.451297e-002	-6.878294e-001	-4.944970e-002
9280021600	-6.616631e-001	3.211936e-001	3.343605e-002	6.367352e-002	3.590867e-002	6.511886e-002	-6.860763e-001	-4.909138e-002
9290021300	-6.592552e-001	3.218725e-001	3.661644e-002	6.423839e-002	3.925893e-002	6.532940e-002	-6.836281e-001	-5.163623e-002
9300021000	-6.536539e-001	3.257070e-001	3.974160e-002	6.480484e-002	4.272528e-002	6.678940e-002	-6.820288e-001	-5.357416e-002
9310020700	-6.506701e-001	3.271268e-001	4.261260e-002	6.486373e-002	4.621837e-002	6.701274e-002	-6.763299e-001	-5.373533e-002
9320020400	-6.452349e-001	3.274747e-001	4.674881e-002	6.469308e-002	4.939035e-002	6.632021e-002	-6.730095e-001	-5.182698e-002
9330020100	-6.417555e-001	3.269561e-001	4.954721e-002	6.424848e-002	5.339950e-002	6.611097e-002	-6.674472e-001	-5.335271e-002
9340019800	-6.352021e-001	3.286322e-001	5.388495e-002	6.382041e-002	5.647875e-002	6.516623e-002	-6.634483e-001	-5.224951e-002
9350019500	-6.313775e-001	3.274157e-001	5.748197e-002	6.398250e-002	6.026354e-002	6.455600e-002	-6.595736e-001	-4.912037e-002
9360019200	-6.258759e-001	3.265439e-001	6.103828e-002	6.245943e-002	6.456919e-002	6.357305e-002	-6.538320e-001	-4.532323e-002
9370018900	-6.207047e-001	3.269215e-001	6.526162e-002	6.146087e-002	6.889383e-002	6.235421e-002	-6.494391e-001	-4.253299e-002
9380018600	-6.149308e-001	3.249684e-001	6.869610e-002	5.950049e-002	7.173435e-002	6.022865e-002	-6.444380e-001	-4.074545e-002
9390018300	-6.082530e-001	3.230326e-001	7.145915e-002	5.707222e-002	7.598267e-002	5.794723e-002	-6.411072e-001	-3.689971e-002
9400018000	-6.028147e-001	3.200157e-001	7.562863e-002	5.517152e-002	7.984177e-002	5.543672e-002	-6.402677e-001	-3.368815e-002
9410017700	-5.964196e-001	3.188100e-001	7.739688e-002	5.206116e-002	8.223905e-002	5.256108e-002	-6.379164e-001	-3.046822e-002
9420017400	-5.907697e-001	3.176608e-001	8.088097e-002	4.924000e-002	8.419742e-002	5.031471e-002	-6.385966e-001	-3.233069e-002
9430017100	-5.868534e-001	3.176839e-001	8.282834e-002	4.545129e-002	8.644406e-002	4.674876e-002	-6.367968e-001	-2.889439e-002
9440016800	-5.823192e-001	3.142883e-001	8.557541e-002	4.322764e-002	8.893401e-002	4.388908e-002	-6.379386e-001	-3.163629e-002
9450016500	-5.798427e-001	3.126755e-001	8.639361e-002	3.956111e-002	9.049886e-002	3.919710e-002	-6.387110e-001	-3.524441e-002
9460016200	-5.778084e-001	3.100823e-001	8.757401e-002	3.605221e-002	9.081151e-002	3.641841e-002	-6.411346e-001	-3.866491e-002
9470015900	-5.745071e-001	3.086645e-001	8.808974e-002	3.321728e-002	9.198087e-002	3.388238e-002	-6.405724e-001	-4.218367e-002
9480015600	-5.750210e-001	3.072247e-001	8.837412e-002	2.997921e-002	9.193469e-002	3.062127e-002	-6.395965e-001	-4.819469e-002
9490015300	-5.738203e-001	3.026908e-001	8.734848e-002	2.644339e-002	9.187849e-002	2.708194e-002	-6.417022e-001	-5.336409e-002
9500015000	-5.736163e-001	3.023890e-001	8.677144e-002	2.466916e-002	9.114593e-002	2.365045e-002	-6.394678e-001	-5.635604e-002
9510014700	-5.750898e-001	3.011300e-001	8.650800e-002	2.287262e-002	9.016516e-002	2.214641e-002	-6.396935e-001	-6.070833e-002
9520014400	-5.749245e-001	2.988066e-001	8.490691e-002	2.145086e-002	8.898632e-002	1.982608e-002	-6.376809e-001	-6.092455e-002
9530014100	-5.754816e-001	2.979678e-001	8.422743e-002	2.042109e-002	8.846146e-002	1.929739e-002	-6.365358e-001	-6.137979e-002
9540013800	-5.718276e-001	2.972154e-001	8.339613e-002	1.859625e-002	8.718513e-002	1.787505e-002	-6.340590e-001	-5.989823e-002
9550013500	-5.744942e-001	2.986042e-001	8.247556e-002	1.943051e-002	8.496410e-002	1.833574e-002	-6.319262e-001	-5.852042e-002
9560013200	-5.722681e-001	3.007360e-001	8.171270e-002	1.926339e-002	8.457214e-002	1.872586e-002	-6.310860e-001	-5.482977e-002
9570012900	-5.700309e-001	3.007015e-001	8.139684e-002	1.960858e-002	8.526950e-002	2.001604e-002	-6.301806e-001	-4.769308e-002
9580012600	-5.691010e-001	3.030015e-001	8.110399e-002	2.091540e-002	8.479354e-002	1.968624e-002	-6.247089e-001	-4.146967e-002
9590012300	-5.664891e-001	3.033357e-001	8.050208e-002	2.112279e-002	8.518242e-002	2.027248e-002	-6.241469e-001	-3.639862e-002
9600012000	-5.630246e-001	3.073664e-001	8.149419e-002	2.153739e-002	8.563373e-002	2.149281e-002	-6.220621e-001	-3.012110e-002
9610011700	-5.600332e-001	3.110135e-001	8.238772e-002	2.351118e-002	8.602168e-002	2.267994e-002	-6.242440e-001	-2.554419e-002
9620011400	-5.569125e-001	3.129627e-001	8.412231e-002	2.414468e-002	8.779921e-002	2.373802e-002	-6.203199e-001	-2.090687e-002
9630011100	-5.549503e-001	3.162428e-001	8.520633e-002	2.553610e-002	8.970241e-002	2.507350e-002	-6.210965e-001	-1.741000e-002
9640010800	-5.510443e-001	3.186922e-001	8.702900e-002	2.639361e-002	9.022704e-002	2.551934e-002	-6.189986e-001	-1.364642e-002
9650010500	-5.467118e-001	3.206217e-001	8.961940e-002	2.663818e-002	9.342632e-002	2.660995e-002	-6.174728e-001	-1.380653e-002
9660010200	-5.447018e-001	3.232361e-001	9.204771e-002	2.823980e-002	9.601298e-002	2.812379e-002	-6.143671e-001	-1.460093e-002
9670009900	-5.389911e-001	3.234118e-001	9.466473e-002	2.788390e-002	9.839137e-002	2.725289e-002	-6.133758e-001	-1.715455e-002
9680009600	-5.346814e-001	3.261401e-001	9.721546e-002	2.831451e-002	1.015688e-001	2.823204e-002	-6.080496e-001	-1.955227e-002
9690009300	-5.291951e-001	3.277025e-001	1.010829e-001	2.904717e-002	1.054068e-001	2.854149e-002	-6.039877e-001	-2.050584e-002
9700009000	-5.245719e-001	3.257970e-001	1.046273e-001	2.863025e-002	1.085348e-001	2.852089e-002	-5.950740e-001	-2.351377e-002
9710008700	-5.189922e-001	3.263247e-001	1.079351e-001	2.893206e-002	1.124546e-001	2.744160e-002	-5.869865e-001	-2.474979e-002
9720008400	-5.134109e-001	3.263356e-001	1.119951e-001	2.823676e-002	1.158754e-001	2.803768e-002	-5.804905e-001	-2.582812e-002
9730008100	-5.075684e-001	3.282852e-001	1.143556e-001	2.690558e-002	1.193825e-001	2.586832e-002	-5.718537e-001	-2.742239e-002
9740007800	-5.030202e-001	3.286753e-001	1.188112e-001	2.535745e-002	1.229493e-001	2.497120e-002	-5.628817e-001	-2.530495e-002
9750007500	-4.968474e-001	3.268946e-001	1.232386e-001	2.358259e-002	1.270917e-001	2.319062e-002	-5.534974e-001	-2.510041e-002
9760007200	-4.897067e-001	3.272197e-001	1.266796e-001	2.145312e-002	1.309784e-001	2.066788e-002	-5.467688e-001	-2.426991e-002
9770006900	-4.867748e-001	3.272630e-001	1.303885e-001	1.929503e-002	1.345125e-001	1.871889e-002	-5.363799e-001	-2.293533e-002
9780006600	-4.804732e-001	3.253899e-001	1.337295e-001	1.670280e-002	1.387488e-001	1.579659e-002	-5.295502e-001	-1.901031e-002
9790006300	-4.743179e-001	3.260791e-001	1.376157e-001	1.492472e-002	1.429121e-001	1.228843e-002	-5.227312e-001	-1.947253e-002
9800006000	-4.692161e-001	3.247956e-001	1.412943e-001	1.159317e-002	1.461914e-001	9.816342e-003	-5.162048e-001	-1.941973e-002
9810005700	-4.640855e-001	3.222809e-001	1.444389e-001	8.868583e-003	1.495071e-001	7.407583e-003	-5.107742e-001	-2.097836e-002
9820005400	-4.575726e-001	3.212814e-001	1.470439e-001	4.628375e-003	1.528158e-001	4.003016e-003	-5.085156e-001	-2.433849e-002
9830005100	-4.525127e-001	3.192096e-001	1.514390e-001	8.743226e-004	1.555666e-001	-7.248742e-004	-5.042656e-001	-2.950607e-002
9840004800	-4.474837e-001	3.159911e-001	1.537314e-001	-2.938553e-003	1.587263e-001	-3.982088e-003	-4.996562e-001	-3.681972e-002
9850004500	-4.435436e-001	3.135538e-001	1.569614e-001	-6.744149e-003	1.606340e-001	-8.635960e-003	-4.953916e-001	-4.570017e-002
9860004200	-4.376307e-001	3.110581e-001	1.593190e-001	-1.136494e-002	1.630913e-001	-1.326630e-002	-4.935818e-001	-5.267769e-002
9870003900	-4.321715e-001	3.068169e-001	1.610649e-001	-1.591335e-002	1.658419e-001	-1.791937e-002	-4.874680e-001	-6.354284e-002
9880003600	-4.283914e-001	3.068383e-001	1.633563e-001	-2.108382e-002	1.683839e-001	-2.287118e-002	-4.826923e-001	-7.350365e-002
9890003300	-4.253953e-001	3.030353e-001	1.656496e-001	-2.599708e-002	1.694882e-001	-2.880921e-002	-4.756296e-001	-8.453788e-002
9900003000	-4.187879e-001	3.000656e-001	1.667296e-001	-3.122356e-002	1.712138e-001	-3.477637e-002	-4.712369e-001	-9.423569e-002
9910002700	-4.155104e-001	2.958637e-001	1.689238e-001	-3.533197e-002	1.730353e-001	-3.854885e-002	-4.661852e-001	-1.019863e-001
9920002400	-4.117475e-001	2.947194e-001	1.695964e-001	-4.201711e-002	1.738687e-001	-4.303167e-002	-4.577113e-001	-1.123201e-001
9930002100	-4.082048e-001	2.919734e-001	1.706044e-001	-4.779023e-002	1.740596e-001	-4.920724e-002	-4.526311e-001	-1.200426e-001
9940001800	-4.039575e-001	2.866250e-001	1.710985e-001	-5.324946e-002	1.754465e-001	-5.456366e-002	-4.461409e-001	-1.280098e-001
9950001500	-4.008355e-001	2.851090e-001	1.712203e-001	-5.887685e-002	1.754436e-001	-6.118709e-002	-4.427434e-001	-1.321596e-001
9960001200	-3.974297e-001	2.788424e-001	1.713446e-001	-6.469892e-002	1.746422e-001	-6.677057e-002	-4.402452e-001	-1.393550e-001
9970000900	-3.945384e-001	2.797080e-001	1.698658e-001	-7.066550e-002	1.735818e-001	-7.258922e-002	-4.367574e-001	-1.469746e-001
9980000600	-3.912646e-001	2.745889e-001	1.684382e-001	-7.523369e-002	1.722250e-001	-7.846765e-002	-4.393078e-001	-1.520082e-001
9990000300	-3.898703e-001	2.712625e-001	1.672842e-001	-8.201745e-002	1.706721e-001	-8.486166e-002	-4.379365e-001	-1.574667e-001
10000000000	-3.863619e-001	2.684972e-001	1.660805e-001	-8.692281e-002	1.687466e-001	-8.902733e-002	-4.416358e-001	-1.656144e-001
