!Agilent Technologies,E5071C,MY46317100,A.11.08
!Date: Fri Dec 19 16:16:12 2014
!Data & Calibration Information:
!Freq	S11:SOLT2(ON)	S21:SOLT2(ON)	S12:SOLT2(ON)	S22:SOLT2(ON)
!PortZ  Port1:50+j0    Port2:50+j0
!Above PortZ is port z conversion or system Z0 setting when saving the data.
!When reading, reference impedance value at option line is always used.
# Hz S RI R 50
10000000	9.493012e-001	-2.887932e-002	8.653026e-003	-4.720483e-002	1.466099e-005	3.402948e-005	9.993796e-001	-2.251827e-002
20000000	9.702918e-001	-2.496090e-002	-1.962150e-002	-2.198201e-002	-2.036263e-005	2.252684e-005	9.987025e-001	-4.425106e-002
30000000	9.409882e-001	-4.250152e-002	-4.072092e-002	-8.285426e-002	1.302562e-005	-2.899671e-005	9.971631e-001	-6.648324e-002
40000000	9.400061e-001	-5.282009e-002	-3.820650e-002	-1.057761e-001	4.030172e-005	8.077907e-006	9.951083e-001	-8.859623e-002
50000000	9.388228e-001	-6.459529e-002	-3.595247e-002	-1.311335e-001	3.618630e-005	9.606440e-005	9.925579e-001	-1.105651e-001
60000000	9.363686e-001	-7.588141e-002	-3.634340e-002	-1.594793e-001	2.378891e-005	1.335078e-005	9.893458e-001	-1.324141e-001
70000000	9.347158e-001	-8.725049e-002	-3.592609e-002	-1.856619e-001	-2.221894e-005	1.762317e-005	9.855077e-001	-1.542729e-001
80000000	9.330430e-001	-9.773203e-002	-3.891054e-002	-2.109341e-001	-7.342647e-005	1.552390e-005	9.810911e-001	-1.754874e-001
90000000	9.312696e-001	-1.082577e-001	-4.218494e-002	-2.358918e-001	-1.156031e-004	7.769017e-005	9.763064e-001	-1.969440e-001
100000000	9.291556e-001	-1.182799e-001	-4.858483e-002	-2.602178e-001	-3.633045e-005	5.603176e-005	9.707405e-001	-2.180444e-001
110000000	9.272941e-001	-1.289666e-001	-5.344596e-002	-2.860674e-001	-5.712951e-005	8.475956e-006	9.646047e-001	-2.392452e-001
120000000	9.252174e-001	-1.404083e-001	-5.597388e-002	-3.150492e-001	-1.403665e-004	8.640207e-005	9.579845e-001	-2.602133e-001
130000000	9.227828e-001	-1.518309e-001	-5.761908e-002	-3.452540e-001	-1.600612e-004	1.188227e-004	9.508267e-001	-2.809112e-001
140000000	9.206637e-001	-1.630264e-001	-6.135389e-002	-3.718824e-001	-1.604342e-004	4.475130e-005	9.434462e-001	-3.014068e-001
150000000	9.184350e-001	-1.749040e-001	-5.900721e-002	-4.017632e-001	-2.422426e-004	6.955694e-005	9.352213e-001	-3.217802e-001
160000000	9.155655e-001	-1.862643e-001	-6.189890e-002	-4.362764e-001	-2.360511e-004	9.910494e-005	9.263213e-001	-3.419187e-001
170000000	9.126488e-001	-1.969800e-001	-6.996347e-002	-4.671755e-001	-3.339580e-004	1.347159e-005	9.173504e-001	-3.614998e-001
180000000	9.098005e-001	-2.075093e-001	-7.707986e-002	-4.971022e-001	-3.328418e-004	9.823566e-005	9.076748e-001	-3.809088e-001
190000000	9.068352e-001	-2.182520e-001	-8.328566e-002	-5.282861e-001	-4.041858e-004	1.335384e-004	8.974926e-001	-3.999520e-001
200000000	9.037504e-001	-2.290946e-001	-8.982369e-002	-5.611377e-001	-4.665414e-004	4.190017e-005	8.870214e-001	-4.187139e-001
210000000	9.004195e-001	-2.397294e-001	-9.833362e-002	-5.950472e-001	-5.128099e-004	1.213424e-004	8.760362e-001	-4.371221e-001
220000000	8.968687e-001	-2.498657e-001	-1.135737e-001	-6.284949e-001	-5.745431e-004	9.933668e-005	8.644398e-001	-4.548400e-001
230000000	8.933300e-001	-2.600020e-001	-1.297284e-001	-6.608410e-001	-6.016607e-004	1.227400e-004	8.526923e-001	-4.725680e-001
240000000	8.898691e-001	-2.706199e-001	-1.424016e-001	-6.959967e-001	-7.171366e-004	8.131832e-005	8.402677e-001	-4.896801e-001
250000000	8.860858e-001	-2.819276e-001	-1.519040e-001	-7.381182e-001	-7.983776e-004	9.013352e-005	8.273749e-001	-5.064533e-001
260000000	8.816693e-001	-2.930346e-001	-1.675693e-001	-7.819382e-001	-8.560828e-004	1.367973e-004	8.139761e-001	-5.226643e-001
270000000	8.773840e-001	-3.034855e-001	-1.867275e-001	-8.222682e-001	-8.835835e-004	1.816369e-004	8.002671e-001	-5.386439e-001
280000000	8.732539e-001	-3.138167e-001	-2.083312e-001	-8.575682e-001	-1.002722e-003	1.414765e-004	7.860513e-001	-5.543282e-001
290000000	8.690630e-001	-3.236308e-001	-2.337419e-001	-8.903301e-001	-1.127246e-003	7.851738e-005	7.715193e-001	-5.693468e-001
300000000	8.646063e-001	-3.337760e-001	-2.584490e-001	-9.233420e-001	-1.193190e-003	1.217935e-004	7.565588e-001	-5.838396e-001
310000000	8.601330e-001	-3.447209e-001	-2.795912e-001	-9.656014e-001	-1.355020e-003	1.730585e-004	7.411121e-001	-5.977708e-001
320000000	8.546996e-001	-3.556303e-001	-3.108113e-001	-1.014912e+000	-1.457107e-003	1.454547e-004	7.254262e-001	-6.111596e-001
330000000	8.493393e-001	-3.662239e-001	-3.460027e-001	-1.058665e+000	-1.558420e-003	2.565529e-004	7.094536e-001	-6.240556e-001
340000000	8.442670e-001	-3.769035e-001	-3.799961e-001	-1.100926e+000	-1.724218e-003	2.134073e-004	6.932926e-001	-6.364145e-001
350000000	8.387511e-001	-3.874690e-001	-4.179947e-001	-1.145286e+000	-1.869082e-003	2.358390e-004	6.767059e-001	-6.478498e-001
360000000	8.332231e-001	-3.976952e-001	-4.623924e-001	-1.187023e+000	-2.006306e-003	3.283179e-004	6.600071e-001	-6.587606e-001
370000000	8.274160e-001	-4.080982e-001	-5.093999e-001	-1.227187e+000	-2.151595e-003	3.257350e-004	6.430386e-001	-6.690005e-001
380000000	8.213144e-001	-4.183464e-001	-5.635308e-001	-1.268592e+000	-2.340886e-003	3.736054e-004	6.259661e-001	-6.784759e-001
390000000	8.147087e-001	-4.283936e-001	-6.243976e-001	-1.306118e+000	-2.512799e-003	5.115684e-004	6.084286e-001	-6.873552e-001
400000000	8.085547e-001	-4.381901e-001	-6.845145e-001	-1.338168e+000	-2.719512e-003	5.829593e-004	5.910060e-001	-6.950640e-001
410000000	8.019226e-001	-4.483020e-001	-7.504381e-001	-1.370481e+000	-2.932017e-003	7.110082e-004	5.735698e-001	-7.021205e-001
420000000	7.942492e-001	-4.580088e-001	-8.299740e-001	-1.397739e+000	-3.160650e-003	8.696232e-004	5.560942e-001	-7.081433e-001
430000000	7.861855e-001	-4.679821e-001	-9.156536e-001	-1.424194e+000	-3.306546e-003	1.012158e-003	5.384361e-001	-7.133199e-001
440000000	7.776942e-001	-4.782498e-001	-1.004534e+000	-1.451929e+000	-3.605598e-003	1.256702e-003	5.211428e-001	-7.176868e-001
450000000	7.686102e-001	-4.881109e-001	-1.100727e+000	-1.473205e+000	-3.797714e-003	1.432744e-003	5.042159e-001	-7.209295e-001
460000000	7.592452e-001	-4.975949e-001	-1.199024e+000	-1.476974e+000	-3.958808e-003	1.755916e-003	4.877563e-001	-7.229927e-001
470000000	7.494313e-001	-5.064291e-001	-1.301677e+000	-1.469227e+000	-4.177426e-003	2.062618e-003	4.719954e-001	-7.241499e-001
480000000	7.392111e-001	-5.142107e-001	-1.411763e+000	-1.441188e+000	-4.376985e-003	2.348141e-003	4.572361e-001	-7.244089e-001
490000000	7.288140e-001	-5.215109e-001	-1.521536e+000	-1.392125e+000	-4.456259e-003	2.777795e-003	4.433746e-001	-7.238360e-001
500000000	7.178484e-001	-5.281705e-001	-1.627546e+000	-1.333226e+000	-4.606010e-003	3.237754e-003	4.312310e-001	-7.228526e-001
510000000	7.064172e-001	-5.348788e-001	-1.733213e+000	-1.265620e+000	-4.636536e-003	3.742972e-003	4.206447e-001	-7.211812e-001
520000000	6.941464e-001	-5.400128e-001	-1.835899e+000	-1.173501e+000	-4.618319e-003	4.173502e-003	4.119054e-001	-7.199516e-001
530000000	6.825421e-001	-5.438421e-001	-1.917567e+000	-1.058059e+000	-4.503656e-003	4.642993e-003	4.046892e-001	-7.193895e-001
540000000	6.715578e-001	-5.459284e-001	-1.973106e+000	-9.240241e-001	-4.159330e-003	5.100008e-003	3.994092e-001	-7.201727e-001
550000000	6.620384e-001	-5.464892e-001	-1.988677e+000	-7.790096e-001	-3.808264e-003	5.508396e-003	3.953183e-001	-7.236527e-001
560000000	6.549187e-001	-5.493348e-001	-1.975984e+000	-7.023571e-001	-3.497640e-003	5.609264e-003	3.867492e-001	-7.296829e-001
570000000	6.433037e-001	-5.514385e-001	-2.026931e+000	-5.664721e-001	-3.239640e-003	6.059492e-003	3.827111e-001	-7.300689e-001
580000000	6.349259e-001	-5.497234e-001	-1.989671e+000	-4.131852e-001	-2.755262e-003	6.314414e-003	3.799231e-001	-7.370104e-001
590000000	6.296994e-001	-5.487040e-001	-1.912306e+000	-2.974610e-001	-2.291489e-003	6.447769e-003	3.745306e-001	-7.464489e-001
600000000	6.253489e-001	-5.479807e-001	-1.826771e+000	-1.954760e-001	-1.842859e-003	6.471221e-003	3.683365e-001	-7.559335e-001
610000000	6.224245e-001	-5.478311e-001	-1.720565e+000	-1.212073e-001	-1.405355e-003	6.374098e-003	3.604944e-001	-7.671942e-001
620000000	6.193337e-001	-5.488571e-001	-1.620536e+000	-7.553999e-002	-1.029460e-003	6.231184e-003	3.503725e-001	-7.788966e-001
630000000	6.155709e-001	-5.511299e-001	-1.530475e+000	-5.574553e-002	-7.986871e-004	5.958886e-003	3.386000e-001	-7.904497e-001
640000000	6.119967e-001	-5.542636e-001	-1.449185e+000	-5.719496e-002	-5.032471e-004	5.771343e-003	3.251299e-001	-8.017606e-001
650000000	6.087161e-001	-5.580052e-001	-1.378119e+000	-7.070391e-002	-2.888491e-004	5.459064e-003	3.103422e-001	-8.115756e-001
660000000	6.063011e-001	-5.620251e-001	-1.302295e+000	-9.061898e-002	-1.926896e-004	5.170453e-003	2.951879e-001	-8.214931e-001
670000000	6.038705e-001	-5.665740e-001	-1.236332e+000	-1.246274e-001	-9.703114e-005	4.946202e-003	2.785409e-001	-8.302381e-001
680000000	6.012654e-001	-5.715382e-001	-1.180943e+000	-1.643206e-001	-1.403825e-004	4.690268e-003	2.613935e-001	-8.380956e-001
690000000	5.983961e-001	-5.768847e-001	-1.136697e+000	-2.088182e-001	-1.574024e-004	4.464536e-003	2.438476e-001	-8.449421e-001
700000000	5.948442e-001	-5.825375e-001	-1.103392e+000	-2.574646e-001	-2.219818e-004	4.180113e-003	2.259367e-001	-8.505789e-001
710000000	5.908886e-001	-5.884346e-001	-1.080099e+000	-3.080718e-001	-3.043234e-004	4.044093e-003	2.079421e-001	-8.552965e-001
720000000	5.866531e-001	-5.942865e-001	-1.064401e+000	-3.579589e-001	-4.111039e-004	3.893534e-003	1.897935e-001	-8.590218e-001
730000000	5.820551e-001	-6.004355e-001	-1.054411e+000	-4.080371e-001	-5.738676e-004	3.651767e-003	1.714992e-001	-8.617819e-001
740000000	5.771517e-001	-6.063601e-001	-1.052259e+000	-4.565882e-001	-7.579189e-004	3.553268e-003	1.533365e-001	-8.639565e-001
750000000	5.720460e-001	-6.122134e-001	-1.056073e+000	-5.039230e-001	-8.169618e-004	3.396516e-003	1.353510e-001	-8.652281e-001
760000000	5.666396e-001	-6.182932e-001	-1.064575e+000	-5.510189e-001	-1.037214e-003	3.243669e-003	1.173621e-001	-8.660336e-001
770000000	5.608027e-001	-6.246567e-001	-1.079040e+000	-5.966715e-001	-1.243975e-003	3.159553e-003	9.957896e-002	-8.660192e-001
780000000	5.551419e-001	-6.305933e-001	-1.094415e+000	-6.357481e-001	-1.392702e-003	3.069490e-003	8.204606e-002	-8.657630e-001
790000000	5.497124e-001	-6.363802e-001	-1.110008e+000	-6.740995e-001	-1.641411e-003	3.026590e-003	6.459855e-002	-8.650419e-001
800000000	5.445076e-001	-6.422496e-001	-1.128252e+000	-7.088120e-001	-1.826121e-003	2.950725e-003	4.695900e-002	-8.635408e-001
810000000	5.390709e-001	-6.483567e-001	-1.153722e+000	-7.394737e-001	-2.101714e-003	2.923392e-003	2.977840e-002	-8.609849e-001
820000000	5.319069e-001	-6.540333e-001	-1.188080e+000	-7.581255e-001	-2.342102e-003	2.970316e-003	1.450638e-002	-8.576979e-001
830000000	5.251731e-001	-6.585490e-001	-1.201271e+000	-7.882253e-001	-2.442357e-003	2.983973e-003	-1.206951e-003	-8.567043e-001
840000000	5.185544e-001	-6.640825e-001	-1.232610e+000	-8.315105e-001	-2.610881e-003	2.830284e-003	-1.804138e-002	-8.541240e-001
850000000	5.121622e-001	-6.696763e-001	-1.268953e+000	-8.654393e-001	-2.952169e-003	2.846156e-003	-3.453370e-002	-8.507291e-001
860000000	5.056033e-001	-6.752211e-001	-1.302871e+000	-8.939079e-001	-3.157998e-003	2.857641e-003	-5.037009e-002	-8.465339e-001
870000000	4.990133e-001	-6.803302e-001	-1.338554e+000	-9.188965e-001	-3.409672e-003	2.931729e-003	-6.608770e-002	-8.422983e-001
880000000	4.922895e-001	-6.853964e-001	-1.375957e+000	-9.399835e-001	-3.619825e-003	2.918048e-003	-8.155844e-002	-8.373623e-001
890000000	4.855066e-001	-6.904118e-001	-1.414457e+000	-9.601283e-001	-3.914024e-003	3.030908e-003	-9.656514e-002	-8.321750e-001
900000000	4.784937e-001	-6.952693e-001	-1.453496e+000	-9.789034e-001	-4.209016e-003	3.050653e-003	-1.113376e-001	-8.267852e-001
910000000	4.713556e-001	-6.997650e-001	-1.495278e+000	-9.952967e-001	-4.445648e-003	3.107997e-003	-1.261893e-001	-8.210974e-001
920000000	4.646258e-001	-7.044291e-001	-1.535023e+000	-1.008138e+000	-4.722866e-003	3.208878e-003	-1.406284e-001	-8.149927e-001
930000000	4.575191e-001	-7.090749e-001	-1.574383e+000	-1.020559e+000	-4.936499e-003	3.283994e-003	-1.548523e-001	-8.084593e-001
940000000	4.500429e-001	-7.134363e-001	-1.619520e+000	-1.032192e+000	-5.200826e-003	3.400113e-003	-1.689406e-001	-8.018669e-001
950000000	4.421846e-001	-7.178299e-001	-1.669249e+000	-1.044691e+000	-5.443297e-003	3.523451e-003	-1.826125e-001	-7.948977e-001
960000000	4.340259e-001	-7.221134e-001	-1.720755e+000	-1.057201e+000	-5.722402e-003	3.584946e-003	-1.960393e-001	-7.876047e-001
970000000	4.257968e-001	-7.260888e-001	-1.771206e+000	-1.064717e+000	-5.975720e-003	3.829270e-003	-2.091933e-001	-7.803037e-001
980000000	4.181982e-001	-7.302851e-001	-1.818717e+000	-1.067559e+000	-6.238379e-003	3.932216e-003	-2.220766e-001	-7.725708e-001
990000000	4.107776e-001	-7.343652e-001	-1.861163e+000	-1.066812e+000	-6.480815e-003	4.092763e-003	-2.346646e-001	-7.646233e-001
1000000000	4.035927e-001	-7.383271e-001	-1.902000e+000	-1.063676e+000	-6.723954e-003	4.188200e-003	-2.467840e-001	-7.565197e-001
1010000000	3.963911e-001	-7.422409e-001	-1.943512e+000	-1.057742e+000	-7.010636e-003	4.387174e-003	-2.586149e-001	-7.483323e-001
1020000000	3.886274e-001	-7.458487e-001	-1.990516e+000	-1.054184e+000	-7.286511e-003	4.554788e-003	-2.702334e-001	-7.397252e-001
1030000000	3.803924e-001	-7.494074e-001	-2.041692e+000	-1.052831e+000	-7.575591e-003	4.802404e-003	-2.811988e-001	-7.312391e-001
1040000000	3.721956e-001	-7.525485e-001	-2.094402e+000	-1.051415e+000	-7.827817e-003	5.031650e-003	-2.925077e-001	-7.223163e-001
1050000000	3.643301e-001	-7.555837e-001	-2.146383e+000	-1.045965e+000	-8.040223e-003	5.236629e-003	-3.032933e-001	-7.131940e-001
1060000000	3.565769e-001	-7.586990e-001	-2.196405e+000	-1.037260e+000	-8.293531e-003	5.411334e-003	-3.137133e-001	-7.036940e-001
1070000000	3.486085e-001	-7.614758e-001	-2.244635e+000	-1.025448e+000	-8.550960e-003	5.639420e-003	-3.240969e-001	-6.941825e-001
1080000000	3.408370e-001	-7.642271e-001	-2.293558e+000	-1.015899e+000	-8.800806e-003	5.819317e-003	-3.345747e-001	-6.844431e-001
1090000000	3.326701e-001	-7.670648e-001	-2.344929e+000	-1.005043e+000	-9.038962e-003	6.098979e-003	-3.444181e-001	-6.742940e-001
1100000000	3.246186e-001	-7.696339e-001	-2.399054e+000	-9.891140e-001	-9.371038e-003	6.355721e-003	-3.540479e-001	-6.638646e-001
1110000000	3.165969e-001	-7.721341e-001	-2.445081e+000	-9.688671e-001	-9.624988e-003	6.600307e-003	-3.630323e-001	-6.538030e-001
1120000000	3.088784e-001	-7.746792e-001	-2.485429e+000	-9.508858e-001	-9.775274e-003	6.897530e-003	-3.724880e-001	-6.436882e-001
1130000000	3.010701e-001	-7.771351e-001	-2.528840e+000	-9.321297e-001	-1.007753e-002	7.146392e-003	-3.815078e-001	-6.329277e-001
1140000000	2.928328e-001	-7.794386e-001	-2.577372e+000	-9.109796e-001	-1.026419e-002	7.462745e-003	-3.900201e-001	-6.219975e-001
1150000000	2.843601e-001	-7.817009e-001	-2.631836e+000	-8.895887e-001	-1.055126e-002	7.759006e-003	-3.981912e-001	-6.111292e-001
1160000000	2.758977e-001	-7.834894e-001	-2.687190e+000	-8.672755e-001	-1.083754e-002	8.077644e-003	-4.059717e-001	-6.002374e-001
1170000000	2.676496e-001	-7.851698e-001	-2.738842e+000	-8.395924e-001	-1.098452e-002	8.423231e-003	-4.135484e-001	-5.891052e-001
1180000000	2.596558e-001	-7.870159e-001	-2.784934e+000	-8.111603e-001	-1.126546e-002	8.802226e-003	-4.206044e-001	-5.779094e-001
1190000000	2.518878e-001	-7.888791e-001	-2.827032e+000	-7.813732e-001	-1.147983e-002	9.076565e-003	-4.274324e-001	-5.665309e-001
1200000000	2.440912e-001	-7.905269e-001	-2.868346e+000	-7.510942e-001	-1.173565e-002	9.500518e-003	-4.340027e-001	-5.550213e-001
1210000000	2.362936e-001	-7.920655e-001	-2.911508e+000	-7.186956e-001	-1.192443e-002	9.821363e-003	-4.401672e-001	-5.434092e-001
1220000000	2.281106e-001	-7.932419e-001	-2.958750e+000	-6.859133e-001	-1.213020e-002	1.013042e-002	-4.460230e-001	-5.317662e-001
1230000000	2.198825e-001	-7.943638e-001	-3.005410e+000	-6.508338e-001	-1.235751e-002	1.055020e-002	-4.517210e-001	-5.198820e-001
1240000000	2.116649e-001	-7.953474e-001	-3.049008e+000	-6.143302e-001	-1.258255e-002	1.095821e-002	-4.571293e-001	-5.078182e-001
1250000000	2.035266e-001	-7.963392e-001	-3.090448e+000	-5.798914e-001	-1.269228e-002	1.136100e-002	-4.622787e-001	-4.957757e-001
1260000000	1.951434e-001	-7.970955e-001	-3.135555e+000	-5.412763e-001	-1.290574e-002	1.173045e-002	-4.671154e-001	-4.835354e-001
1270000000	1.867632e-001	-7.974462e-001	-3.180772e+000	-4.989621e-001	-1.310267e-002	1.214435e-002	-4.717043e-001	-4.713043e-001
1280000000	1.781809e-001	-7.978894e-001	-3.225958e+000	-4.564251e-001	-1.330279e-002	1.263372e-002	-4.759872e-001	-4.591027e-001
1290000000	1.699550e-001	-7.982054e-001	-3.268928e+000	-4.140455e-001	-1.343449e-002	1.307801e-002	-4.800803e-001	-4.467755e-001
1300000000	1.617165e-001	-7.986941e-001	-3.308729e+000	-3.692393e-001	-1.356279e-002	1.342623e-002	-4.838590e-001	-4.346853e-001
1310000000	1.538098e-001	-7.990170e-001	-3.342848e+000	-3.251543e-001	-1.374894e-002	1.391725e-002	-4.871775e-001	-4.226803e-001
1320000000	1.460898e-001	-7.994522e-001	-3.373572e+000	-2.815903e-001	-1.388301e-002	1.439614e-002	-4.904920e-001	-4.107500e-001
1330000000	1.383502e-001	-7.996391e-001	-3.405922e+000	-2.347997e-001	-1.403900e-002	1.487511e-002	-4.936741e-001	-3.982559e-001
1340000000	1.305987e-001	-7.996748e-001	-3.444016e+000	-1.863827e-001	-1.420927e-002	1.534135e-002	-4.961204e-001	-3.857004e-001
1350000000	1.223610e-001	-7.994575e-001	-3.486439e+000	-1.366624e-001	-1.428479e-002	1.579277e-002	-4.980130e-001	-3.735289e-001
1360000000	1.143425e-001	-7.991983e-001	-3.527095e+000	-8.345400e-002	-1.443042e-002	1.625010e-002	-4.995323e-001	-3.611585e-001
1370000000	1.063636e-001	-7.985495e-001	-3.563190e+000	-2.847794e-002	-1.450590e-002	1.683775e-002	-5.008186e-001	-3.489723e-001
1380000000	9.894783e-002	-7.981782e-001	-3.593317e+000	2.570757e-002	-1.461108e-002	1.727464e-002	-5.017017e-001	-3.366060e-001
1390000000	9.129099e-002	-7.977346e-001	-3.619135e+000	7.968484e-002	-1.464401e-002	1.792211e-002	-5.023323e-001	-3.244915e-001
1400000000	8.375678e-002	-7.970296e-001	-3.647892e+000	1.353944e-001	-1.476539e-002	1.844037e-002	-5.027205e-001	-3.122235e-001
1410000000	7.591219e-002	-7.961253e-001	-3.677987e+000	1.921052e-001	-1.486354e-002	1.891287e-002	-5.027023e-001	-2.999047e-001
1420000000	6.822184e-002	-7.948432e-001	-3.708719e+000	2.514243e-001	-1.491665e-002	1.947583e-002	-5.026103e-001	-2.876394e-001
1430000000	6.029702e-002	-7.934565e-001	-3.736842e+000	3.128012e-001	-1.496673e-002	2.003107e-002	-5.022038e-001	-2.753028e-001
1440000000	5.278123e-002	-7.923464e-001	-3.760916e+000	3.723994e-001	-1.507296e-002	2.057862e-002	-5.015443e-001	-2.628864e-001
1450000000	4.490506e-002	-7.911272e-001	-3.785439e+000	4.311164e-001	-1.504050e-002	2.116037e-002	-5.007023e-001	-2.504054e-001
1460000000	3.708382e-002	-7.894050e-001	-3.810889e+000	4.955377e-001	-1.506953e-002	2.175642e-002	-4.994168e-001	-2.380454e-001
1470000000	2.934855e-002	-7.875396e-001	-3.835165e+000	5.631827e-001	-1.502210e-002	2.229296e-002	-4.978129e-001	-2.257270e-001
1480000000	2.155361e-002	-7.856994e-001	-3.856975e+000	6.310936e-001	-1.502842e-002	2.286003e-002	-4.959627e-001	-2.135765e-001
1490000000	1.407231e-002	-7.837405e-001	-3.875465e+000	6.978755e-001	-1.499940e-002	2.346946e-002	-4.936585e-001	-2.015599e-001
1500000000	6.691419e-003	-7.820456e-001	-3.889397e+000	7.638294e-001	-1.495143e-002	2.408895e-002	-4.912578e-001	-1.897115e-001
1510000000	-5.923437e-004	-7.802263e-001	-3.898767e+000	8.274728e-001	-1.488469e-002	2.468975e-002	-4.882759e-001	-1.779511e-001
1520000000	-7.845582e-003	-7.785297e-001	-3.906121e+000	8.905792e-001	-1.481630e-002	2.532253e-002	-4.851765e-001	-1.662722e-001
1530000000	-1.478804e-002	-7.763952e-001	-3.914460e+000	9.553751e-001	-1.471458e-002	2.588621e-002	-4.818009e-001	-1.547231e-001
1540000000	-2.194519e-002	-7.742278e-001	-3.924911e+000	1.024313e+000	-1.467153e-002	2.647418e-002	-4.781914e-001	-1.433797e-001
1550000000	-2.920882e-002	-7.716985e-001	-3.934787e+000	1.094451e+000	-1.453551e-002	2.709521e-002	-4.742352e-001	-1.322365e-001
1560000000	-3.627536e-002	-7.689729e-001	-3.944306e+000	1.164545e+000	-1.442718e-002	2.768168e-002	-4.700085e-001	-1.211868e-001
1570000000	-4.335687e-002	-7.666336e-001	-3.949799e+000	1.234361e+000	-1.433881e-002	2.831700e-002	-4.654899e-001	-1.101981e-001
1580000000	-5.028030e-002	-7.637998e-001	-3.953222e+000	1.303370e+000	-1.412957e-002	2.894754e-002	-4.605278e-001	-9.929161e-002
1590000000	-5.723563e-002	-7.611684e-001	-3.954376e+000	1.374174e+000	-1.396268e-002	2.954651e-002	-4.556190e-001	-8.863473e-002
1600000000	-6.385343e-002	-7.581541e-001	-3.957750e+000	1.445119e+000	-1.386535e-002	3.016749e-002	-4.503402e-001	-7.820181e-002
1610000000	-7.077147e-002	-7.548064e-001	-3.959037e+000	1.516794e+000	-1.358360e-002	3.080987e-002	-4.445644e-001	-6.769879e-002
1620000000	-7.739887e-002	-7.516898e-001	-3.957517e+000	1.591694e+000	-1.342952e-002	3.141301e-002	-4.384117e-001	-5.745758e-002
1630000000	-8.380060e-002	-7.485544e-001	-3.952309e+000	1.664413e+000	-1.322732e-002	3.199705e-002	-4.320225e-001	-4.768841e-002
1640000000	-8.999417e-002	-7.453638e-001	-3.942799e+000	1.734497e+000	-1.295968e-002	3.272565e-002	-4.255266e-001	-3.790920e-002
1650000000	-9.601122e-002	-7.421341e-001	-3.931807e+000	1.802249e+000	-1.271702e-002	3.333159e-002	-4.187671e-001	-2.838053e-002
1660000000	-1.019163e-001	-7.387296e-001	-3.922567e+000	1.872422e+000	-1.246573e-002	3.396767e-002	-4.115662e-001	-1.892311e-002
1670000000	-1.083146e-001	-7.350190e-001	-3.913122e+000	1.945294e+000	-1.221163e-002	3.453713e-002	-4.041451e-001	-9.698620e-003
1680000000	-1.142507e-001	-7.312201e-001	-3.900791e+000	2.019454e+000	-1.190876e-002	3.519958e-002	-3.965797e-001	-7.207030e-004
1690000000	-1.200865e-001	-7.273588e-001	-3.886028e+000	2.092387e+000	-1.162025e-002	3.579418e-002	-3.887077e-001	8.156922e-003
1700000000	-1.254625e-001	-7.236007e-001	-3.867014e+000	2.162548e+000	-1.127124e-002	3.649522e-002	-3.806970e-001	1.663860e-002
1710000000	-1.311967e-001	-7.200388e-001	-3.845865e+000	2.231406e+000	-1.095828e-002	3.702699e-002	-3.725672e-001	2.501785e-002
1720000000	-1.369372e-001	-7.161545e-001	-3.823316e+000	2.299548e+000	-1.055041e-002	3.774430e-002	-3.641019e-001	3.319264e-002
1730000000	-1.425243e-001	-7.122754e-001	-3.800645e+000	2.371135e+000	-1.024103e-002	3.830917e-002	-3.557324e-001	4.105871e-002
1740000000	-1.480519e-001	-7.078180e-001	-3.776383e+000	2.440623e+000	-9.761581e-003	3.894727e-002	-3.472075e-001	4.878690e-002
1750000000	-1.533650e-001	-7.035185e-001	-3.752836e+000	2.511434e+000	-9.440799e-003	3.955071e-002	-3.383972e-001	5.632231e-002
1760000000	-1.585485e-001	-6.993671e-001	-3.726366e+000	2.580763e+000	-8.923004e-003	4.015715e-002	-3.292520e-001	6.354942e-002
1770000000	-1.637026e-001	-6.952325e-001	-3.697154e+000	2.649448e+000	-8.557239e-003	4.069213e-002	-3.199886e-001	7.022870e-002
1780000000	-1.687773e-001	-6.910581e-001	-3.666671e+000	2.717934e+000	-8.117436e-003	4.123990e-002	-3.109366e-001	7.668609e-002
1790000000	-1.735329e-001	-6.868480e-001	-3.634392e+000	2.786783e+000	-7.661492e-003	4.187365e-002	-3.013876e-001	8.285656e-002
1800000000	-1.781656e-001	-6.824360e-001	-3.599814e+000	2.854770e+000	-7.154391e-003	4.253006e-002	-2.917806e-001	8.829141e-002
1810000000	-1.827799e-001	-6.781763e-001	-3.564820e+000	2.921356e+000	-6.662944e-003	4.300508e-002	-2.816974e-001	9.383532e-002
1820000000	-1.869835e-001	-6.736842e-001	-3.527574e+000	2.986230e+000	-6.151396e-003	4.353442e-002	-2.716712e-001	9.893278e-002
1830000000	-1.909983e-001	-6.692073e-001	-3.488118e+000	3.050264e+000	-5.654188e-003	4.411575e-002	-2.616262e-001	1.035890e-001
1840000000	-1.949799e-001	-6.649007e-001	-3.446108e+000	3.111699e+000	-5.106805e-003	4.459401e-002	-2.511438e-001	1.081540e-001
1850000000	-1.987157e-001	-6.604173e-001	-3.403241e+000	3.171334e+000	-4.560004e-003	4.518811e-002	-2.406439e-001	1.123742e-001
1860000000	-2.025500e-001	-6.556508e-001	-3.358747e+000	3.230220e+000	-3.940896e-003	4.566362e-002	-2.298302e-001	1.165502e-001
1870000000	-2.065488e-001	-6.508125e-001	-3.314208e+000	3.291648e+000	-3.397525e-003	4.624627e-002	-2.189453e-001	1.203547e-001
1880000000	-2.101845e-001	-6.459706e-001	-3.269277e+000	3.352856e+000	-2.825297e-003	4.668350e-002	-2.080831e-001	1.239831e-001
1890000000	-2.139137e-001	-6.409879e-001	-3.220575e+000	3.412630e+000	-2.256303e-003	4.715064e-002	-1.972399e-001	1.273365e-001
1900000000	-2.175607e-001	-6.359515e-001	-3.171297e+000	3.469360e+000	-1.635587e-003	4.760679e-002	-1.863333e-001	1.304215e-001
1910000000	-2.210329e-001	-6.311343e-001	-3.120080e+000	3.522906e+000	-9.593152e-004	4.807489e-002	-1.755367e-001	1.329849e-001
1920000000	-2.245264e-001	-6.260100e-001	-3.068903e+000	3.578316e+000	-3.951145e-004	4.858015e-002	-1.646012e-001	1.356597e-001
1930000000	-2.281042e-001	-6.210755e-001	-3.016228e+000	3.633941e+000	2.422345e-004	4.891747e-002	-1.540630e-001	1.378628e-001
1940000000	-2.315650e-001	-6.161473e-001	-2.961451e+000	3.687232e+000	9.459380e-004	4.937508e-002	-1.435241e-001	1.396605e-001
1950000000	-2.344281e-001	-6.112294e-001	-2.905930e+000	3.738946e+000	1.566576e-003	4.989316e-002	-1.327828e-001	1.412299e-001
1960000000	-2.372310e-001	-6.067388e-001	-2.849458e+000	3.786939e+000	2.237360e-003	5.023642e-002	-1.222754e-001	1.423040e-001
1970000000	-2.400760e-001	-6.024228e-001	-2.792147e+000	3.832242e+000	2.976099e-003	5.058167e-002	-1.115772e-001	1.432323e-001
1980000000	-2.428631e-001	-5.980878e-001	-2.733888e+000	3.878911e+000	3.638833e-003	5.091605e-002	-1.010445e-001	1.434186e-001
1990000000	-2.453353e-001	-5.936147e-001	-2.674449e+000	3.924407e+000	4.326611e-003	5.137032e-002	-9.024598e-002	1.434522e-001
2000000000	-2.475313e-001	-5.891776e-001	-2.615414e+000	3.968932e+000	5.003277e-003	5.166677e-002	-7.968494e-002	1.430575e-001
2010000000	-2.497405e-001	-5.847456e-001	-2.553944e+000	4.012193e+000	5.787286e-003	5.199322e-002	-6.909866e-002	1.425146e-001
2020000000	-2.517727e-001	-5.803289e-001	-2.492600e+000	4.054488e+000	6.524583e-003	5.235861e-002	-5.839015e-002	1.414005e-001
2030000000	-2.536527e-001	-5.757206e-001	-2.429156e+000	4.094427e+000	7.216607e-003	5.262532e-002	-4.767222e-002	1.400765e-001
2040000000	-2.553589e-001	-5.711852e-001	-2.365339e+000	4.131970e+000	7.952070e-003	5.295711e-002	-3.711102e-002	1.387742e-001
2050000000	-2.568476e-001	-5.665361e-001	-2.300880e+000	4.168428e+000	8.723087e-003	5.321090e-002	-2.636864e-002	1.369639e-001
2060000000	-2.581300e-001	-5.619175e-001	-2.236299e+000	4.203269e+000	9.489830e-003	5.348135e-002	-1.566008e-002	1.349838e-001
2070000000	-2.596807e-001	-5.572636e-001	-2.170337e+000	4.237094e+000	1.022638e-002	5.376361e-002	-5.101490e-003	1.328594e-001
2080000000	-2.613356e-001	-5.525240e-001	-2.104319e+000	4.270781e+000	1.105081e-002	5.404506e-002	5.480009e-003	1.304014e-001
2090000000	-2.627371e-001	-5.477539e-001	-2.037027e+000	4.303695e+000	1.185571e-002	5.426479e-002	1.570855e-002	1.277404e-001
2100000000	-2.643725e-001	-5.432760e-001	-1.968558e+000	4.332639e+000	1.259913e-002	5.444165e-002	2.589131e-002	1.248454e-001
2110000000	-2.658792e-001	-5.387208e-001	-1.899456e+000	4.361671e+000	1.342898e-002	5.458130e-002	3.567354e-002	1.214900e-001
2120000000	-2.672422e-001	-5.342883e-001	-1.830406e+000	4.387364e+000	1.422504e-002	5.474645e-002	4.560001e-002	1.180940e-001
2130000000	-2.688007e-001	-5.299966e-001	-1.760519e+000	4.412431e+000	1.508058e-002	5.492129e-002	5.522818e-002	1.142584e-001
2140000000	-2.701229e-001	-5.257576e-001	-1.691106e+000	4.435103e+000	1.589293e-002	5.497725e-002	6.444325e-002	1.102390e-001
2150000000	-2.711339e-001	-5.214105e-001	-1.620931e+000	4.453738e+000	1.665660e-002	5.503322e-002	7.362393e-002	1.061449e-001
2160000000	-2.722128e-001	-5.172139e-001	-1.551149e+000	4.470326e+000	1.739699e-002	5.516882e-002	8.273104e-002	1.015648e-001
2170000000	-2.729943e-001	-5.133688e-001	-1.481597e+000	4.485026e+000	1.822595e-002	5.512399e-002	9.167160e-002	9.710735e-002
2180000000	-2.738221e-001	-5.093160e-001	-1.411895e+000	4.499220e+000	1.895456e-002	5.517815e-002	1.005930e-001	9.227533e-002
2190000000	-2.742580e-001	-5.054224e-001	-1.342144e+000	4.512300e+000	1.973617e-002	5.533381e-002	1.092600e-001	8.715441e-002
2200000000	-2.743868e-001	-5.011529e-001	-1.272106e+000	4.524889e+000	2.056261e-002	5.539062e-002	1.178812e-001	8.188102e-002
2210000000	-2.746773e-001	-4.974081e-001	-1.201497e+000	4.537424e+000	2.129802e-002	5.542278e-002	1.262821e-001	7.638940e-002
2220000000	-2.750086e-001	-4.935325e-001	-1.132119e+000	4.547306e+000	2.209598e-002	5.537023e-002	1.345197e-001	7.078597e-002
2230000000	-2.752421e-001	-4.898736e-001	-1.063464e+000	4.555466e+000	2.287482e-002	5.533599e-002	1.426915e-001	6.492164e-002
2240000000	-2.755507e-001	-4.861648e-001	-9.942457e-001	4.561446e+000	2.373704e-002	5.537056e-002	1.501494e-001	5.877148e-002
2250000000	-2.755047e-001	-4.826201e-001	-9.257983e-001	4.567158e+000	2.451318e-002	5.535786e-002	1.577072e-001	5.254478e-002
2260000000	-2.758735e-001	-4.790915e-001	-8.577096e-001	4.570592e+000	2.525115e-002	5.526343e-002	1.649801e-001	4.632609e-002
2270000000	-2.760981e-001	-4.753846e-001	-7.878725e-001	4.571827e+000	2.607629e-002	5.509780e-002	1.718529e-001	3.998981e-002
2280000000	-2.762219e-001	-4.719820e-001	-7.195787e-001	4.571566e+000	2.684321e-002	5.506729e-002	1.789348e-001	3.309741e-002
2290000000	-2.762119e-001	-4.685694e-001	-6.512738e-001	4.570049e+000	2.752435e-002	5.499142e-002	1.854688e-001	2.630844e-002
2300000000	-2.763867e-001	-4.652010e-001	-5.846702e-001	4.566675e+000	2.839815e-002	5.485641e-002	1.920526e-001	1.931078e-002
2310000000	-2.761536e-001	-4.621567e-001	-5.185785e-001	4.562318e+000	2.906331e-002	5.471001e-002	1.983298e-001	1.232245e-002
2320000000	-2.759101e-001	-4.590358e-001	-4.524864e-001	4.556439e+000	2.987114e-002	5.461172e-002	2.044143e-001	4.958067e-003
2330000000	-2.755715e-001	-4.559312e-001	-3.864129e-001	4.550348e+000	3.060484e-002	5.439004e-002	2.103918e-001	-2.375286e-003
2340000000	-2.753238e-001	-4.526703e-001	-3.209422e-001	4.541625e+000	3.140369e-002	5.425148e-002	2.161491e-001	-9.715222e-003
2350000000	-2.748268e-001	-4.499198e-001	-2.581064e-001	4.532617e+000	3.212916e-002	5.406269e-002	2.218333e-001	-1.736548e-002
2360000000	-2.743026e-001	-4.467700e-001	-1.948240e-001	4.521131e+000	3.281657e-002	5.386297e-002	2.273232e-001	-2.478332e-002
2370000000	-2.740038e-001	-4.439242e-001	-1.320858e-001	4.508782e+000	3.352689e-002	5.368639e-002	2.327035e-001	-3.236885e-002
2380000000	-2.734525e-001	-4.409095e-001	-6.957635e-002	4.495537e+000	3.427181e-002	5.350173e-002	2.375419e-001	-4.003232e-002
2390000000	-2.729967e-001	-4.379665e-001	-8.378237e-003	4.482904e+000	3.493897e-002	5.325731e-002	2.422854e-001	-4.764027e-002
2400000000	-2.724856e-001	-4.351088e-001	5.209335e-002	4.468817e+000	3.567749e-002	5.298604e-002	2.468090e-001	-5.543443e-002
2410000000	-2.722137e-001	-4.321705e-001	1.138152e-001	4.455166e+000	3.643602e-002	5.269345e-002	2.510160e-001	-6.322567e-002
2420000000	-2.719443e-001	-4.294166e-001	1.741558e-001	4.438685e+000	3.710197e-002	5.243904e-002	2.548067e-001	-7.132776e-002
2430000000	-2.713929e-001	-4.269466e-001	2.332129e-001	4.421585e+000	3.780205e-002	5.214629e-002	2.582171e-001	-7.925331e-002
2440000000	-2.711155e-001	-4.243194e-001	2.914845e-001	4.402737e+000	3.850422e-002	5.190600e-002	2.616499e-001	-8.723030e-002
2450000000	-2.708155e-001	-4.221486e-001	3.493804e-001	4.383096e+000	3.914097e-002	5.157342e-002	2.648258e-001	-9.520683e-002
2460000000	-2.705755e-001	-4.196378e-001	4.065148e-001	4.362816e+000	3.973898e-002	5.127231e-002	2.677815e-001	-1.033770e-001
2470000000	-2.699684e-001	-4.177142e-001	4.612953e-001	4.340805e+000	4.036025e-002	5.100090e-002	2.705508e-001	-1.114639e-001
2480000000	-2.694521e-001	-4.154698e-001	5.162708e-001	4.318382e+000	4.103545e-002	5.060105e-002	2.733508e-001	-1.198206e-001
2490000000	-2.687014e-001	-4.135537e-001	5.703677e-001	4.293986e+000	4.166864e-002	5.032970e-002	2.758902e-001	-1.281730e-001
2500000000	-2.678713e-001	-4.115904e-001	6.222998e-001	4.269272e+000	4.229450e-002	4.993226e-002	2.784230e-001	-1.363287e-001
2510000000	-2.669770e-001	-4.095972e-001	6.744802e-001	4.244660e+000	4.291182e-002	4.966312e-002	2.808340e-001	-1.446551e-001
2520000000	-2.663293e-001	-4.075994e-001	7.254484e-001	4.220004e+000	4.355751e-002	4.931282e-002	2.829345e-001	-1.528716e-001
2530000000	-2.657488e-001	-4.055442e-001	7.760201e-001	4.195153e+000	4.412043e-002	4.895550e-002	2.848043e-001	-1.609078e-001
2540000000	-2.647422e-001	-4.035538e-001	8.248404e-001	4.167769e+000	4.474096e-002	4.859367e-002	2.865083e-001	-1.690688e-001
2550000000	-2.641325e-001	-4.010694e-001	8.749114e-001	4.141400e+000	4.533134e-002	4.820743e-002	2.880589e-001	-1.770189e-001
2560000000	-2.636969e-001	-3.990357e-001	9.229499e-001	4.114848e+000	4.591883e-002	4.786903e-002	2.894313e-001	-1.847813e-001
2570000000	-2.632139e-001	-3.970540e-001	9.702827e-001	4.086408e+000	4.645422e-002	4.743867e-002	2.904029e-001	-1.926367e-001
2580000000	-2.628574e-001	-3.951416e-001	1.017728e+000	4.057060e+000	4.701748e-002	4.701911e-002	2.912193e-001	-2.002506e-001
2590000000	-2.626688e-001	-3.931998e-001	1.063499e+000	4.027471e+000	4.754175e-002	4.660524e-002	2.917626e-001	-2.078828e-001
2600000000	-2.622987e-001	-3.914094e-001	1.109426e+000	3.996018e+000	4.809422e-002	4.621082e-002	2.921855e-001	-2.155985e-001
2610000000	-2.621759e-001	-3.898482e-001	1.153341e+000	3.964890e+000	4.862176e-002	4.580363e-002	2.922703e-001	-2.233450e-001
2620000000	-2.619504e-001	-3.882161e-001	1.197931e+000	3.932819e+000	4.917879e-002	4.543443e-002	2.923571e-001	-2.313052e-001
2630000000	-2.616110e-001	-3.869398e-001	1.239841e+000	3.900133e+000	4.970431e-002	4.489557e-002	2.923267e-001	-2.391871e-001
2640000000	-2.613114e-001	-3.857579e-001	1.280388e+000	3.867946e+000	5.018725e-002	4.455053e-002	2.919680e-001	-2.472919e-001
2650000000	-2.607152e-001	-3.847715e-001	1.318757e+000	3.834812e+000	5.079980e-002	4.411626e-002	2.914433e-001	-2.554106e-001
2660000000	-2.599968e-001	-3.835284e-001	1.357758e+000	3.802061e+000	5.117876e-002	4.362795e-002	2.911511e-001	-2.634275e-001
2670000000	-2.593348e-001	-3.822991e-001	1.396926e+000	3.769890e+000	5.170317e-002	4.318736e-002	2.904971e-001	-2.714841e-001
2680000000	-2.587722e-001	-3.812610e-001	1.432991e+000	3.736858e+000	5.216848e-002	4.276653e-002	2.898782e-001	-2.792999e-001
2690000000	-2.580573e-001	-3.801215e-001	1.469533e+000	3.703410e+000	5.255659e-002	4.224516e-002	2.893111e-001	-2.870424e-001
2700000000	-2.574901e-001	-3.788920e-001	1.505186e+000	3.670236e+000	5.309205e-002	4.180061e-002	2.883846e-001	-2.944987e-001
2710000000	-2.569622e-001	-3.776310e-001	1.540435e+000	3.637219e+000	5.344877e-002	4.135618e-002	2.875408e-001	-3.016255e-001
2720000000	-2.562759e-001	-3.762457e-001	1.575135e+000	3.603525e+000	5.387326e-002	4.087678e-002	2.864009e-001	-3.087375e-001
2730000000	-2.560628e-001	-3.746605e-001	1.610984e+000	3.569993e+000	5.430832e-002	4.047272e-002	2.852113e-001	-3.155158e-001
2740000000	-2.555266e-001	-3.730515e-001	1.644829e+000	3.534082e+000	5.474040e-002	3.998188e-002	2.837024e-001	-3.222255e-001
2750000000	-2.554892e-001	-3.715525e-001	1.678292e+000	3.499102e+000	5.516378e-002	3.957244e-002	2.821694e-001	-3.290787e-001
2760000000	-2.553585e-001	-3.701468e-001	1.710263e+000	3.463344e+000	5.560041e-002	3.909078e-002	2.801563e-001	-3.356706e-001
2770000000	-2.553712e-001	-3.689087e-001	1.741011e+000	3.426711e+000	5.587668e-002	3.859750e-002	2.780791e-001	-3.422771e-001
2780000000	-2.553971e-001	-3.679324e-001	1.770246e+000	3.388582e+000	5.639183e-002	3.813169e-002	2.758373e-001	-3.491150e-001
2790000000	-2.556039e-001	-3.669792e-001	1.798409e+000	3.351073e+000	5.674674e-002	3.766349e-002	2.732471e-001	-3.556090e-001
2800000000	-2.556556e-001	-3.662572e-001	1.824481e+000	3.315124e+000	5.715324e-002	3.720355e-002	2.706099e-001	-3.624603e-001
2810000000	-2.555425e-001	-3.656828e-001	1.850726e+000	3.279133e+000	5.745621e-002	3.666560e-002	2.679937e-001	-3.692418e-001
2820000000	-2.554597e-001	-3.651502e-001	1.876211e+000	3.243302e+000	5.783763e-002	3.620934e-002	2.651376e-001	-3.761452e-001
2830000000	-2.552995e-001	-3.649177e-001	1.901498e+000	3.207513e+000	5.815883e-002	3.571011e-002	2.623630e-001	-3.827865e-001
2840000000	-2.549843e-001	-3.644780e-001	1.926132e+000	3.171417e+000	5.846957e-002	3.526031e-002	2.597736e-001	-3.897194e-001
2850000000	-2.546146e-001	-3.641509e-001	1.949929e+000	3.136762e+000	5.878059e-002	3.475801e-002	2.572490e-001	-3.961929e-001
2860000000	-2.543839e-001	-3.636607e-001	1.972986e+000	3.102915e+000	5.916590e-002	3.432344e-002	2.546439e-001	-4.025386e-001
2870000000	-2.539876e-001	-3.629464e-001	1.995292e+000	3.067828e+000	5.945831e-002	3.383624e-002	2.523161e-001	-4.090370e-001
2880000000	-2.537678e-001	-3.619546e-001	2.018298e+000	3.032291e+000	5.974027e-002	3.339002e-002	2.499457e-001	-4.150533e-001
2890000000	-2.536569e-001	-3.608522e-001	2.040134e+000	2.996210e+000	6.011647e-002	3.287989e-002	2.471201e-001	-4.207994e-001
2900000000	-2.536059e-001	-3.596283e-001	2.061240e+000	2.959954e+000	6.042741e-002	3.233196e-002	2.444223e-001	-4.265083e-001
2910000000	-2.535378e-001	-3.584162e-001	2.082980e+000	2.923762e+000	6.075380e-002	3.185677e-002	2.417228e-001	-4.318026e-001
2920000000	-2.536187e-001	-3.570813e-001	2.103027e+000	2.886899e+000	6.103071e-002	3.137386e-002	2.383364e-001	-4.371338e-001
2930000000	-2.536057e-001	-3.560090e-001	2.120979e+000	2.849135e+000	6.133373e-002	3.088017e-002	2.348730e-001	-4.422279e-001
2940000000	-2.540921e-001	-3.549358e-001	2.139563e+000	2.812153e+000	6.158055e-002	3.033861e-002	2.311487e-001	-4.473397e-001
2950000000	-2.547101e-001	-3.540771e-001	2.155605e+000	2.776424e+000	6.189437e-002	2.984602e-002	2.271780e-001	-4.524402e-001
2960000000	-2.552120e-001	-3.533385e-001	2.171452e+000	2.741023e+000	6.208052e-002	2.928748e-002	2.229714e-001	-4.576325e-001
2970000000	-2.556489e-001	-3.528255e-001	2.186731e+000	2.705996e+000	6.233501e-002	2.886262e-002	2.185771e-001	-4.629483e-001
2980000000	-2.560947e-001	-3.527790e-001	2.201144e+000	2.672466e+000	6.248953e-002	2.828172e-002	2.141370e-001	-4.682115e-001
2990000000	-2.564713e-001	-3.524378e-001	2.217103e+000	2.637653e+000	6.266364e-002	2.788154e-002	2.097622e-001	-4.739247e-001
3000000000	-2.566941e-001	-3.525031e-001	2.230261e+000	2.602576e+000	6.293042e-002	2.737386e-002	2.056483e-001	-4.791330e-001
3010000000	-2.568847e-001	-3.523631e-001	2.244090e+000	2.567624e+000	6.316864e-002	2.700073e-002	2.014675e-001	-4.845564e-001
3020000000	-2.573233e-001	-3.521893e-001	2.257943e+000	2.535245e+000	6.337648e-002	2.655538e-002	1.975527e-001	-4.897889e-001
3030000000	-2.573380e-001	-3.515052e-001	2.272045e+000	2.500631e+000	6.356664e-002	2.609405e-002	1.937702e-001	-4.950672e-001
3040000000	-2.571984e-001	-3.510578e-001	2.284775e+000	2.466236e+000	6.388033e-002	2.555410e-002	1.900953e-001	-5.001758e-001
3050000000	-2.574284e-001	-3.502635e-001	2.297819e+000	2.432500e+000	6.412077e-002	2.506214e-002	1.865416e-001	-5.051320e-001
3060000000	-2.571446e-001	-3.491554e-001	2.310281e+000	2.398207e+000	6.426078e-002	2.466136e-002	1.829957e-001	-5.096621e-001
3070000000	-2.573557e-001	-3.481781e-001	2.320957e+000	2.364536e+000	6.445804e-002	2.414725e-002	1.790890e-001	-5.138501e-001
3080000000	-2.578728e-001	-3.470511e-001	2.332923e+000	2.330894e+000	6.473644e-002	2.367753e-002	1.754066e-001	-5.178259e-001
3090000000	-2.582988e-001	-3.458297e-001	2.342369e+000	2.295863e+000	6.493455e-002	2.323052e-002	1.713936e-001	-5.216308e-001
3100000000	-2.589817e-001	-3.448639e-001	2.351056e+000	2.263241e+000	6.507213e-002	2.267201e-002	1.672566e-001	-5.248358e-001
3110000000	-2.598623e-001	-3.437061e-001	2.359669e+000	2.229586e+000	6.528680e-002	2.214881e-002	1.629821e-001	-5.283856e-001
3120000000	-2.608740e-001	-3.429429e-001	2.367749e+000	2.197368e+000	6.541494e-002	2.170014e-002	1.584032e-001	-5.317916e-001
3130000000	-2.618913e-001	-3.423901e-001	2.376055e+000	2.165141e+000	6.558662e-002	2.116943e-002	1.536782e-001	-5.353235e-001
3140000000	-2.629289e-001	-3.420491e-001	2.383258e+000	2.132829e+000	6.577372e-002	2.077600e-002	1.487295e-001	-5.387772e-001
3150000000	-2.639263e-001	-3.418620e-001	2.390147e+000	2.101382e+000	6.587351e-002	2.022622e-002	1.435494e-001	-5.425636e-001
3160000000	-2.648744e-001	-3.416183e-001	2.398383e+000	2.069663e+000	6.608796e-002	1.983853e-002	1.384977e-001	-5.464098e-001
3170000000	-2.658928e-001	-3.415153e-001	2.406299e+000	2.038683e+000	6.624991e-002	1.928083e-002	1.334260e-001	-5.503650e-001
3180000000	-2.666670e-001	-3.414160e-001	2.413081e+000	2.006368e+000	6.644085e-002	1.869967e-002	1.282756e-001	-5.544593e-001
3190000000	-2.670852e-001	-3.410066e-001	2.420263e+000	1.973549e+000	6.654463e-002	1.822258e-002	1.231048e-001	-5.584268e-001
3200000000	-2.675001e-001	-3.407996e-001	2.425283e+000	1.941524e+000	6.665803e-002	1.775861e-002	1.183117e-001	-5.627429e-001
3210000000	-2.677147e-001	-3.401633e-001	2.430925e+000	1.909431e+000	6.679162e-002	1.724585e-002	1.138125e-001	-5.664691e-001
3220000000	-2.680675e-001	-3.396077e-001	2.435210e+000	1.879520e+000	6.686487e-002	1.673488e-002	1.091826e-001	-5.701009e-001
3230000000	-2.682692e-001	-3.387767e-001	2.440478e+000	1.848312e+000	6.697228e-002	1.629364e-002	1.048690e-001	-5.734034e-001
3240000000	-2.684386e-001	-3.376962e-001	2.444679e+000	1.816608e+000	6.702294e-002	1.576795e-002	1.005498e-001	-5.767252e-001
3250000000	-2.689472e-001	-3.367122e-001	2.448573e+000	1.787381e+000	6.715325e-002	1.535609e-002	9.616452e-002	-5.794931e-001
3260000000	-2.696475e-001	-3.356627e-001	2.453313e+000	1.757752e+000	6.727581e-002	1.490081e-002	9.193541e-002	-5.821178e-001
3270000000	-2.705024e-001	-3.344640e-001	2.456564e+000	1.727264e+000	6.733321e-002	1.440886e-002	8.734598e-002	-5.844230e-001
3280000000	-2.717292e-001	-3.335266e-001	2.459907e+000	1.698344e+000	6.743302e-002	1.393054e-002	8.266222e-002	-5.869882e-001
3290000000	-2.730482e-001	-3.324683e-001	2.462727e+000	1.668575e+000	6.751676e-002	1.349324e-002	7.778277e-002	-5.891867e-001
3300000000	-2.745492e-001	-3.316337e-001	2.465229e+000	1.640324e+000	6.760879e-002	1.299622e-002	7.270958e-002	-5.915278e-001
3310000000	-2.759046e-001	-3.307854e-001	2.468533e+000	1.609794e+000	6.766438e-002	1.251971e-002	6.746698e-002	-5.938598e-001
3320000000	-2.773592e-001	-3.301472e-001	2.469886e+000	1.580165e+000	6.779363e-002	1.213301e-002	6.202884e-002	-5.958174e-001
3330000000	-2.788268e-001	-3.296104e-001	2.471430e+000	1.550755e+000	6.779568e-002	1.158376e-002	5.651680e-002	-5.982199e-001
3340000000	-2.798552e-001	-3.294212e-001	2.471929e+000	1.520740e+000	6.784527e-002	1.113034e-002	5.114906e-002	-6.007343e-001
3350000000	-2.809781e-001	-3.290874e-001	2.472305e+000	1.492367e+000	6.785066e-002	1.061945e-002	4.556808e-002	-6.031649e-001
3360000000	-2.818711e-001	-3.287207e-001	2.472824e+000	1.463664e+000	6.797548e-002	1.021269e-002	4.034335e-002	-6.057205e-001
3370000000	-2.824698e-001	-3.286071e-001	2.471297e+000	1.435312e+000	6.803350e-002	9.768133e-003	3.512765e-002	-6.081197e-001
3380000000	-2.835116e-001	-3.280998e-001	2.473005e+000	1.409163e+000	6.814811e-002	9.301733e-003	2.995919e-002	-6.104523e-001
3390000000	-2.840648e-001	-3.275239e-001	2.472437e+000	1.381533e+000	6.817708e-002	8.886234e-003	2.502799e-002	-6.127614e-001
3400000000	-2.847309e-001	-3.266513e-001	2.472220e+000	1.353491e+000	6.825132e-002	8.478220e-003	2.045884e-002	-6.150067e-001
3410000000	-2.854779e-001	-3.257870e-001	2.471171e+000	1.327244e+000	6.841677e-002	7.999764e-003	1.557174e-002	-6.170825e-001
3420000000	-2.863183e-001	-3.247240e-001	2.470394e+000	1.300341e+000	6.839217e-002	7.381834e-003	1.082707e-002	-6.188368e-001
3430000000	-2.873188e-001	-3.235419e-001	2.468446e+000	1.273755e+000	6.849404e-002	7.000394e-003	6.136005e-003	-6.206443e-001
3440000000	-2.884296e-001	-3.222704e-001	2.467770e+000	1.246701e+000	6.845662e-002	6.538354e-003	1.089106e-003	-6.221756e-001
3450000000	-2.896908e-001	-3.209654e-001	2.466846e+000	1.220502e+000	6.853761e-002	6.028560e-003	-3.954802e-003	-6.236609e-001
3460000000	-2.911536e-001	-3.197427e-001	2.465062e+000	1.194246e+000	6.853090e-002	5.577647e-003	-9.122895e-003	-6.248240e-001
3470000000	-2.925547e-001	-3.186229e-001	2.462979e+000	1.167813e+000	6.847338e-002	5.098773e-003	-1.456462e-002	-6.260594e-001
3480000000	-2.940624e-001	-3.175806e-001	2.460747e+000	1.141771e+000	6.851077e-002	4.600562e-003	-2.004624e-002	-6.272857e-001
3490000000	-2.955264e-001	-3.167030e-001	2.457876e+000	1.115739e+000	6.847774e-002	4.194611e-003	-2.543037e-002	-6.282589e-001
3500000000	-2.969629e-001	-3.158907e-001	2.454545e+000	1.090600e+000	6.849469e-002	3.760648e-003	-3.084051e-002	-6.292215e-001
3510000000	-2.985001e-001	-3.153015e-001	2.450833e+000	1.065693e+000	6.842430e-002	3.228743e-003	-3.606835e-002	-6.304645e-001
3520000000	-2.998448e-001	-3.146539e-001	2.447395e+000	1.041233e+000	6.845068e-002	2.748633e-003	-4.156046e-002	-6.318149e-001
3530000000	-3.009919e-001	-3.139299e-001	2.444607e+000	1.016030e+000	6.840251e-002	2.406685e-003	-4.680729e-002	-6.331925e-001
3540000000	-3.021075e-001	-3.133247e-001	2.440754e+000	9.926609e-001	6.833861e-002	1.975508e-003	-5.180013e-002	-6.344865e-001
3550000000	-3.030383e-001	-3.126809e-001	2.436378e+000	9.682145e-001	6.842931e-002	1.567690e-003	-5.671904e-002	-6.359519e-001
3560000000	-3.041516e-001	-3.118651e-001	2.432830e+000	9.438437e-001	6.841817e-002	1.078089e-003	-6.165912e-002	-6.370578e-001
3570000000	-3.051998e-001	-3.108041e-001	2.429014e+000	9.206974e-001	6.838504e-002	5.927073e-004	-6.644361e-002	-6.382442e-001
3580000000	-3.062235e-001	-3.096500e-001	2.424812e+000	8.961400e-001	6.837340e-002	1.692400e-004	-7.137890e-002	-6.392572e-001
3590000000	-3.072480e-001	-3.083077e-001	2.420906e+000	8.727566e-001	6.838448e-002	-2.928169e-004	-7.643414e-002	-6.403080e-001
3600000000	-3.085119e-001	-3.069314e-001	2.417212e+000	8.497133e-001	6.826281e-002	-7.933921e-004	-8.126897e-002	-6.408673e-001
3610000000	-3.097697e-001	-3.056901e-001	2.411980e+000	8.268029e-001	6.827157e-002	-1.218605e-003	-8.646967e-002	-6.413432e-001
3620000000	-3.112030e-001	-3.043996e-001	2.406183e+000	8.034499e-001	6.821719e-002	-1.637776e-003	-9.176677e-002	-6.416905e-001
3630000000	-3.126319e-001	-3.031774e-001	2.400437e+000	7.806086e-001	6.805546e-002	-2.004233e-003	-9.700908e-002	-6.420610e-001
3640000000	-3.141999e-001	-3.020276e-001	2.394858e+000	7.582697e-001	6.803592e-002	-2.439515e-003	-1.024349e-001	-6.420309e-001
3650000000	-3.156799e-001	-3.009217e-001	2.389541e+000	7.362028e-001	6.799428e-002	-2.793307e-003	-1.077803e-001	-6.422243e-001
3660000000	-3.172255e-001	-3.000955e-001	2.383446e+000	7.143964e-001	6.790225e-002	-3.218551e-003	-1.129004e-001	-6.424329e-001
3670000000	-3.189229e-001	-2.991284e-001	2.378161e+000	6.926333e-001	6.784718e-002	-3.636646e-003	-1.183288e-001	-6.428014e-001
3680000000	-3.204893e-001	-2.983424e-001	2.371799e+000	6.716727e-001	6.788838e-002	-4.062300e-003	-1.237999e-001	-6.431593e-001
3690000000	-3.218165e-001	-2.973005e-001	2.365711e+000	6.501067e-001	6.785069e-002	-4.507371e-003	-1.289346e-001	-6.436519e-001
3700000000	-3.232659e-001	-2.962815e-001	2.361122e+000	6.295499e-001	6.785075e-002	-4.914605e-003	-1.339982e-001	-6.441659e-001
3710000000	-3.244496e-001	-2.951521e-001	2.354655e+000	6.085441e-001	6.773533e-002	-5.459603e-003	-1.389928e-001	-6.445669e-001
3720000000	-3.256889e-001	-2.939352e-001	2.349312e+000	5.873994e-001	6.769184e-002	-5.830552e-003	-1.438631e-001	-6.451518e-001
3730000000	-3.269214e-001	-2.925982e-001	2.342613e+000	5.658494e-001	6.759416e-002	-6.304604e-003	-1.487547e-001	-6.455847e-001
3740000000	-3.281063e-001	-2.908925e-001	2.336729e+000	5.443781e-001	6.748240e-002	-6.777921e-003	-1.535364e-001	-6.454638e-001
3750000000	-3.293123e-001	-2.894325e-001	2.328676e+000	5.225283e-001	6.736983e-002	-7.223564e-003	-1.584086e-001	-6.454713e-001
3760000000	-3.307925e-001	-2.879249e-001	2.322067e+000	5.014796e-001	6.723355e-002	-7.704022e-003	-1.633177e-001	-6.451730e-001
3770000000	-3.321394e-001	-2.864946e-001	2.313977e+000	4.806509e-001	6.717126e-002	-8.081869e-003	-1.682564e-001	-6.445894e-001
3780000000	-3.337599e-001	-2.850581e-001	2.306065e+000	4.610142e-001	6.700537e-002	-8.447250e-003	-1.732325e-001	-6.440270e-001
3790000000	-3.353649e-001	-2.837710e-001	2.297370e+000	4.415640e-001	6.687756e-002	-8.801960e-003	-1.784138e-001	-6.430372e-001
3800000000	-3.372474e-001	-2.825227e-001	2.290380e+000	4.227249e-001	6.674943e-002	-9.192996e-003	-1.834088e-001	-6.423784e-001
3810000000	-3.391116e-001	-2.815070e-001	2.281232e+000	4.044733e-001	6.668356e-002	-9.524174e-003	-1.886413e-001	-6.415267e-001
3820000000	-3.410867e-001	-2.803987e-001	2.273739e+000	3.858523e-001	6.652680e-002	-9.868649e-003	-1.938801e-001	-6.410292e-001
3830000000	-3.429256e-001	-2.794393e-001	2.266171e+000	3.677805e-001	6.649435e-002	-1.026931e-002	-1.990903e-001	-6.407052e-001
3840000000	-3.445403e-001	-2.784969e-001	2.257803e+000	3.497015e-001	6.635793e-002	-1.061093e-002	-2.044904e-001	-6.402489e-001
3850000000	-3.461260e-001	-2.775826e-001	2.250575e+000	3.316792e-001	6.627033e-002	-1.101280e-002	-2.094452e-001	-6.400837e-001
3860000000	-3.476014e-001	-2.765781e-001	2.243246e+000	3.132493e-001	6.621876e-002	-1.143944e-002	-2.143576e-001	-6.401289e-001
3870000000	-3.488464e-001	-2.754787e-001	2.235458e+000	2.946439e-001	6.618733e-002	-1.181906e-002	-2.193194e-001	-6.403488e-001
3880000000	-3.498746e-001	-2.741568e-001	2.227525e+000	2.752359e-001	6.609110e-002	-1.230387e-002	-2.241317e-001	-6.403411e-001
3890000000	-3.510739e-001	-2.727862e-001	2.219939e+000	2.576676e-001	6.592367e-002	-1.277802e-002	-2.288937e-001	-6.403355e-001
3900000000	-3.519819e-001	-2.710807e-001	2.211698e+000	2.398223e-001	6.582617e-002	-1.313018e-002	-2.335263e-001	-6.399569e-001
3910000000	-3.531763e-001	-2.692946e-001	2.202778e+000	2.218277e-001	6.558927e-002	-1.360094e-002	-2.380249e-001	-6.394102e-001
3920000000	-3.542500e-001	-2.675994e-001	2.193039e+000	2.038316e-001	6.537169e-002	-1.402146e-002	-2.424177e-001	-6.384650e-001
3930000000	-3.556419e-001	-2.656537e-001	2.184965e+000	1.868044e-001	6.523065e-002	-1.436658e-002	-2.470621e-001	-6.374175e-001
3940000000	-3.573049e-001	-2.636420e-001	2.175904e+000	1.699343e-001	6.503011e-002	-1.472813e-002	-2.514065e-001	-6.359429e-001
3950000000	-3.590522e-001	-2.619994e-001	2.165612e+000	1.540196e-001	6.496458e-002	-1.503263e-002	-2.557859e-001	-6.343651e-001
3960000000	-3.612143e-001	-2.601943e-001	2.157042e+000	1.380656e-001	6.476449e-002	-1.535735e-002	-2.603154e-001	-6.326503e-001
3970000000	-3.633451e-001	-2.585158e-001	2.147710e+000	1.216511e-001	6.460587e-002	-1.569380e-002	-2.652381e-001	-6.312887e-001
3980000000	-3.656407e-001	-2.571564e-001	2.138985e+000	1.060211e-001	6.440789e-002	-1.605246e-002	-2.705090e-001	-6.296468e-001
3990000000	-3.679192e-001	-2.558227e-001	2.129942e+000	8.995672e-002	6.435135e-002	-1.639251e-002	-2.757791e-001	-6.282076e-001
4000000000	-3.700662e-001	-2.547340e-001	2.121010e+000	7.407321e-002	6.427012e-002	-1.677555e-002	-2.810294e-001	-6.271740e-001
4010000000	-3.720268e-001	-2.538126e-001	2.112306e+000	5.819116e-002	6.410650e-002	-1.713109e-002	-2.866266e-001	-6.261365e-001
4020000000	-3.737610e-001	-2.527139e-001	2.102822e+000	4.180731e-002	6.394624e-002	-1.753540e-002	-2.919915e-001	-6.252143e-001
4030000000	-3.753153e-001	-2.517354e-001	2.092683e+000	2.545117e-002	6.374681e-002	-1.792078e-002	-2.972371e-001	-6.244650e-001
4040000000	-3.767000e-001	-2.507977e-001	2.084056e+000	1.066760e-002	6.355711e-002	-1.829688e-002	-3.023211e-001	-6.238910e-001
4050000000	-3.777876e-001	-2.497834e-001	2.072637e+000	-5.445045e-003	6.335278e-002	-1.861976e-002	-3.072283e-001	-6.232062e-001
4060000000	-3.789786e-001	-2.485806e-001	2.063307e+000	-1.981806e-002	6.313554e-002	-1.893598e-002	-3.117547e-001	-6.226325e-001
4070000000	-3.798155e-001	-2.471003e-001	2.053126e+000	-3.536835e-002	6.291854e-002	-1.925713e-002	-3.162825e-001	-6.219920e-001
4080000000	-3.809480e-001	-2.455085e-001	2.044049e+000	-4.988744e-002	6.274423e-002	-1.952054e-002	-3.206040e-001	-6.209369e-001
4090000000	-3.821090e-001	-2.435957e-001	2.033713e+000	-6.407004e-002	6.256349e-002	-1.987522e-002	-3.248993e-001	-6.197642e-001
4100000000	-3.835680e-001	-2.416070e-001	2.023792e+000	-7.836191e-002	6.243196e-002	-2.005229e-002	-3.286789e-001	-6.183080e-001
4110000000	-3.852412e-001	-2.392383e-001	2.015127e+000	-9.263923e-002	6.234983e-002	-2.035806e-002	-3.325365e-001	-6.163685e-001
4120000000	-3.870846e-001	-2.369033e-001	2.005088e+000	-1.060747e-001	6.226567e-002	-2.076802e-002	-3.365279e-001	-6.144215e-001
4130000000	-3.892173e-001	-2.343119e-001	1.995771e+000	-1.210690e-001	6.219708e-002	-2.113201e-002	-3.403901e-001	-6.124561e-001
4140000000	-3.913072e-001	-2.320795e-001	1.985010e+000	-1.347915e-001	6.203130e-002	-2.167680e-002	-3.448293e-001	-6.101749e-001
4150000000	-3.936137e-001	-2.299167e-001	1.974610e+000	-1.482720e-001	6.188289e-002	-2.213467e-002	-3.492781e-001	-6.080256e-001
4160000000	-3.960798e-001	-2.279169e-001	1.964776e+000	-1.620786e-001	6.164965e-002	-2.251252e-002	-3.540110e-001	-6.060208e-001
4170000000	-3.983881e-001	-2.262191e-001	1.953486e+000	-1.761843e-001	6.138010e-002	-2.297012e-002	-3.590720e-001	-6.038417e-001
4180000000	-4.005761e-001	-2.247172e-001	1.943386e+000	-1.899930e-001	6.100246e-002	-2.328172e-002	-3.641967e-001	-6.017950e-001
4190000000	-4.027333e-001	-2.234230e-001	1.931498e+000	-2.029267e-001	6.084417e-002	-2.353757e-002	-3.694715e-001	-5.999935e-001
4200000000	-4.047356e-001	-2.223338e-001	1.920881e+000	-2.156154e-001	6.058463e-002	-2.392825e-002	-3.746336e-001	-5.983736e-001
4210000000	-4.065426e-001	-2.212539e-001	1.909545e+000	-2.274061e-001	6.026947e-002	-2.421576e-002	-3.795991e-001	-5.967523e-001
4220000000	-4.082679e-001	-2.201036e-001	1.899766e+000	-2.393524e-001	6.003907e-002	-2.446577e-002	-3.845273e-001	-5.950913e-001
4230000000	-4.099233e-001	-2.189377e-001	1.889543e+000	-2.515589e-001	5.976421e-002	-2.484256e-002	-3.890946e-001	-5.936850e-001
4240000000	-4.114002e-001	-2.175745e-001	1.878797e+000	-2.633900e-001	5.951203e-002	-2.499182e-002	-3.935302e-001	-5.923200e-001
4250000000	-4.126626e-001	-2.159235e-001	1.867966e+000	-2.749915e-001	5.926643e-002	-2.529807e-002	-3.975756e-001	-5.907955e-001
4260000000	-4.139478e-001	-2.141834e-001	1.857468e+000	-2.863913e-001	5.901320e-002	-2.560212e-002	-4.015523e-001	-5.892718e-001
4270000000	-4.152198e-001	-2.120193e-001	1.846049e+000	-2.985633e-001	5.884105e-002	-2.598805e-002	-4.055545e-001	-5.873574e-001
4280000000	-4.166983e-001	-2.099416e-001	1.835148e+000	-3.102256e-001	5.862712e-002	-2.615629e-002	-4.091815e-001	-5.853526e-001
4290000000	-4.181604e-001	-2.075603e-001	1.823269e+000	-3.214572e-001	5.842939e-002	-2.642059e-002	-4.128686e-001	-5.832017e-001
4300000000	-4.197743e-001	-2.053312e-001	1.812379e+000	-3.335042e-001	5.818955e-002	-2.675127e-002	-4.167364e-001	-5.807787e-001
4310000000	-4.216006e-001	-2.028711e-001	1.801277e+000	-3.447163e-001	5.803040e-002	-2.712648e-002	-4.205084e-001	-5.782358e-001
4320000000	-4.235652e-001	-2.005944e-001	1.789388e+000	-3.556809e-001	5.781773e-002	-2.739681e-002	-4.245672e-001	-5.757917e-001
4330000000	-4.256149e-001	-1.983453e-001	1.778248e+000	-3.662255e-001	5.752048e-002	-2.773186e-002	-4.287102e-001	-5.730009e-001
4340000000	-4.277673e-001	-1.961717e-001	1.767108e+000	-3.769882e-001	5.730242e-002	-2.797070e-002	-4.330647e-001	-5.703630e-001
4350000000	-4.300183e-001	-1.940929e-001	1.755706e+000	-3.880077e-001	5.704810e-002	-2.830163e-002	-4.375929e-001	-5.677400e-001
4360000000	-4.322942e-001	-1.922038e-001	1.744845e+000	-3.975425e-001	5.679492e-002	-2.857151e-002	-4.421262e-001	-5.651000e-001
4370000000	-4.342294e-001	-1.905156e-001	1.732992e+000	-4.069006e-001	5.652850e-002	-2.875325e-002	-4.465766e-001	-5.626480e-001
4380000000	-4.362347e-001	-1.888692e-001	1.721509e+000	-4.180646e-001	5.625033e-002	-2.908740e-002	-4.509213e-001	-5.601905e-001
4390000000	-4.380357e-001	-1.873535e-001	1.709986e+000	-4.274360e-001	5.600934e-002	-2.938855e-002	-4.552297e-001	-5.580222e-001
4400000000	-4.397252e-001	-1.856989e-001	1.698465e+000	-4.373731e-001	5.572706e-002	-2.962952e-002	-4.592912e-001	-5.559796e-001
4410000000	-4.412203e-001	-1.840445e-001	1.686771e+000	-4.463979e-001	5.554815e-002	-2.982702e-002	-4.633242e-001	-5.541416e-001
4420000000	-4.427666e-001	-1.822292e-001	1.675532e+000	-4.562877e-001	5.527408e-002	-3.009166e-002	-4.671860e-001	-5.521269e-001
4430000000	-4.441894e-001	-1.802364e-001	1.664040e+000	-4.655610e-001	5.507272e-002	-3.037938e-002	-4.710922e-001	-5.500945e-001
4440000000	-4.456592e-001	-1.782770e-001	1.653364e+000	-4.747053e-001	5.483058e-002	-3.068065e-002	-4.744293e-001	-5.480689e-001
4450000000	-4.470407e-001	-1.760311e-001	1.640766e+000	-4.836367e-001	5.451778e-002	-3.089946e-002	-4.780003e-001	-5.458995e-001
4460000000	-4.486467e-001	-1.738440e-001	1.630152e+000	-4.922997e-001	5.423684e-002	-3.117579e-002	-4.815335e-001	-5.435925e-001
4470000000	-4.503177e-001	-1.715968e-001	1.618348e+000	-5.009467e-001	5.386695e-002	-3.139294e-002	-4.851312e-001	-5.408541e-001
4480000000	-4.520843e-001	-1.692473e-001	1.607081e+000	-5.096386e-001	5.363221e-002	-3.163661e-002	-4.887401e-001	-5.382867e-001
4490000000	-4.538546e-001	-1.669581e-001	1.595000e+000	-5.180116e-001	5.328759e-002	-3.188247e-002	-4.923840e-001	-5.353171e-001
4500000000	-4.557857e-001	-1.647981e-001	1.583397e+000	-5.262498e-001	5.302401e-002	-3.208187e-002	-4.960703e-001	-5.325179e-001
4510000000	-4.576834e-001	-1.627435e-001	1.571549e+000	-5.343326e-001	5.274331e-002	-3.237336e-002	-4.996881e-001	-5.294286e-001
4520000000	-4.596984e-001	-1.605009e-001	1.560298e+000	-5.417911e-001	5.238995e-002	-3.242921e-002	-5.034564e-001	-5.265153e-001
4530000000	-4.617149e-001	-1.586096e-001	1.548613e+000	-5.500966e-001	5.219416e-002	-3.266719e-002	-5.075405e-001	-5.238476e-001
4540000000	-4.636099e-001	-1.565998e-001	1.537424e+000	-5.580263e-001	5.194383e-002	-3.290370e-002	-5.115579e-001	-5.209455e-001
4550000000	-4.655403e-001	-1.546229e-001	1.525375e+000	-5.655120e-001	5.168989e-002	-3.308794e-002	-5.154421e-001	-5.183776e-001
4560000000	-4.671816e-001	-1.526992e-001	1.514732e+000	-5.723212e-001	5.145387e-002	-3.331469e-002	-5.192980e-001	-5.156283e-001
4570000000	-4.689234e-001	-1.507513e-001	1.503113e+000	-5.802728e-001	5.116953e-002	-3.346321e-002	-5.229339e-001	-5.132372e-001
4580000000	-4.705237e-001	-1.488608e-001	1.491563e+000	-5.875198e-001	5.087231e-002	-3.368019e-002	-5.266978e-001	-5.104192e-001
4590000000	-4.721368e-001	-1.467876e-001	1.479792e+000	-5.946504e-001	5.067397e-002	-3.388011e-002	-5.303827e-001	-5.079642e-001
4600000000	-4.735740e-001	-1.446701e-001	1.468461e+000	-6.016382e-001	5.040193e-002	-3.408433e-002	-5.339391e-001	-5.055193e-001
4610000000	-4.752470e-001	-1.424911e-001	1.456339e+000	-6.083927e-001	5.002058e-002	-3.423757e-002	-5.371600e-001	-5.031238e-001
4620000000	-4.766205e-001	-1.401395e-001	1.444470e+000	-6.147676e-001	4.980978e-002	-3.449999e-002	-5.405319e-001	-5.004539e-001
4630000000	-4.782083e-001	-1.377554e-001	1.432742e+000	-6.205998e-001	4.950481e-002	-3.457022e-002	-5.436716e-001	-4.977605e-001
4640000000	-4.798398e-001	-1.354953e-001	1.420712e+000	-6.267337e-001	4.926778e-002	-3.482945e-002	-5.468454e-001	-4.948091e-001
4650000000	-4.814243e-001	-1.332044e-001	1.408974e+000	-6.321823e-001	4.889030e-002	-3.501397e-002	-5.501133e-001	-4.921193e-001
4660000000	-4.832180e-001	-1.307802e-001	1.398294e+000	-6.379701e-001	4.871067e-002	-3.519041e-002	-5.530153e-001	-4.890573e-001
4670000000	-4.849981e-001	-1.283954e-001	1.386777e+000	-6.440929e-001	4.837405e-002	-3.529653e-002	-5.561536e-001	-4.860778e-001
4680000000	-4.868302e-001	-1.261911e-001	1.375407e+000	-6.497289e-001	4.813514e-002	-3.553253e-002	-5.592861e-001	-4.831680e-001
4690000000	-4.886352e-001	-1.240142e-001	1.364412e+000	-6.556391e-001	4.781689e-002	-3.569018e-002	-5.624016e-001	-4.800685e-001
4700000000	-4.905239e-001	-1.218565e-001	1.353059e+000	-6.613819e-001	4.754767e-002	-3.582186e-002	-5.658195e-001	-4.771978e-001
4710000000	-4.924582e-001	-1.197298e-001	1.342063e+000	-6.668160e-001	4.728826e-002	-3.607792e-002	-5.691715e-001	-4.745661e-001
4720000000	-4.942365e-001	-1.174559e-001	1.331321e+000	-6.725048e-001	4.708803e-002	-3.621017e-002	-5.727758e-001	-4.714556e-001
4730000000	-4.959808e-001	-1.153305e-001	1.319762e+000	-6.776658e-001	4.671232e-002	-3.636625e-002	-5.760681e-001	-4.687057e-001
4740000000	-4.976232e-001	-1.130844e-001	1.308892e+000	-6.827659e-001	4.643095e-002	-3.654426e-002	-5.794487e-001	-4.657323e-001
4750000000	-4.993238e-001	-1.108743e-001	1.297306e+000	-6.879203e-001	4.623018e-002	-3.671813e-002	-5.826335e-001	-4.627152e-001
4760000000	-5.006821e-001	-1.088232e-001	1.285886e+000	-6.924569e-001	4.586032e-002	-3.685966e-002	-5.859490e-001	-4.598745e-001
4770000000	-5.021801e-001	-1.065906e-001	1.273718e+000	-6.964664e-001	4.553203e-002	-3.689119e-002	-5.889206e-001	-4.570336e-001
4780000000	-5.036806e-001	-1.043167e-001	1.262539e+000	-7.008277e-001	4.526482e-002	-3.712554e-002	-5.919065e-001	-4.537754e-001
4790000000	-5.052118e-001	-1.021419e-001	1.251240e+000	-7.049311e-001	4.496790e-002	-3.722771e-002	-5.947850e-001	-4.511347e-001
4800000000	-5.068218e-001	-9.986972e-002	1.239967e+000	-7.087407e-001	4.468473e-002	-3.735482e-002	-5.976546e-001	-4.481173e-001
4810000000	-5.083335e-001	-9.768772e-002	1.228970e+000	-7.123706e-001	4.436970e-002	-3.742004e-002	-6.004597e-001	-4.452303e-001
4820000000	-5.100646e-001	-9.541618e-002	1.218809e+000	-7.159859e-001	4.411082e-002	-3.758964e-002	-6.032883e-001	-4.423460e-001
4830000000	-5.115649e-001	-9.308739e-002	1.207089e+000	-7.203188e-001	4.386467e-002	-3.766872e-002	-6.061634e-001	-4.392516e-001
4840000000	-5.132355e-001	-9.077879e-002	1.196512e+000	-7.234932e-001	4.355732e-002	-3.784035e-002	-6.089040e-001	-4.364661e-001
4850000000	-5.149751e-001	-8.835874e-002	1.186463e+000	-7.275224e-001	4.331819e-002	-3.791464e-002	-6.118953e-001	-4.334588e-001
4860000000	-5.166197e-001	-8.589229e-002	1.175361e+000	-7.311068e-001	4.303261e-002	-3.805253e-002	-6.146635e-001	-4.306388e-001
4870000000	-5.183660e-001	-8.347005e-002	1.164681e+000	-7.339897e-001	4.275943e-002	-3.814234e-002	-6.177186e-001	-4.276674e-001
4880000000	-5.200298e-001	-8.100200e-002	1.153932e+000	-7.381695e-001	4.242133e-002	-3.829920e-002	-6.207037e-001	-4.249383e-001
4890000000	-5.216503e-001	-7.859618e-002	1.143314e+000	-7.409603e-001	4.215086e-002	-3.841017e-002	-6.234879e-001	-4.218376e-001
4900000000	-5.232866e-001	-7.635654e-002	1.132125e+000	-7.442648e-001	4.181962e-002	-3.852854e-002	-6.263192e-001	-4.190207e-001
4910000000	-5.248157e-001	-7.397447e-002	1.121229e+000	-7.469876e-001	4.159976e-002	-3.857263e-002	-6.289737e-001	-4.158347e-001
4920000000	-5.263053e-001	-7.165153e-002	1.110219e+000	-7.505270e-001	4.124947e-002	-3.874217e-002	-6.317203e-001	-4.127439e-001
4930000000	-5.277531e-001	-6.947955e-002	1.099405e+000	-7.529200e-001	4.098074e-002	-3.872584e-002	-6.341513e-001	-4.095707e-001
4940000000	-5.291299e-001	-6.722165e-002	1.088677e+000	-7.553568e-001	4.078024e-002	-3.880484e-002	-6.366847e-001	-4.064044e-001
4950000000	-5.306337e-001	-6.509687e-002	1.078296e+000	-7.575595e-001	4.045213e-002	-3.887408e-002	-6.388917e-001	-4.033609e-001
4960000000	-5.322645e-001	-6.301994e-002	1.068309e+000	-7.591414e-001	4.018208e-002	-3.900464e-002	-6.413758e-001	-4.001863e-001
4970000000	-5.337646e-001	-6.087663e-002	1.058292e+000	-7.615462e-001	3.996075e-002	-3.904612e-002	-6.438703e-001	-3.973318e-001
4980000000	-5.352133e-001	-5.864571e-002	1.048072e+000	-7.633090e-001	3.966577e-002	-3.912503e-002	-6.462832e-001	-3.944724e-001
4990000000	-5.366495e-001	-5.647046e-002	1.038135e+000	-7.651130e-001	3.940015e-002	-3.920776e-002	-6.488266e-001	-3.912662e-001
5000000000	-5.381476e-001	-5.427024e-002	1.028445e+000	-7.670078e-001	3.910526e-002	-3.937721e-002	-6.514200e-001	-3.885590e-001
5010000000	-5.396024e-001	-5.206615e-002	1.018193e+000	-7.687489e-001	3.886611e-002	-3.936959e-002	-6.540251e-001	-3.856168e-001
5020000000	-5.410732e-001	-4.974795e-002	1.007815e+000	-7.709003e-001	3.861167e-002	-3.951767e-002	-6.568224e-001	-3.828096e-001
5030000000	-5.422586e-001	-4.739684e-002	9.972437e-001	-7.728941e-001	3.832508e-002	-3.952425e-002	-6.593927e-001	-3.799338e-001
5040000000	-5.436492e-001	-4.504981e-002	9.870195e-001	-7.745269e-001	3.801147e-002	-3.966201e-002	-6.619109e-001	-3.769144e-001
5050000000	-5.450172e-001	-4.251039e-002	9.767933e-001	-7.760401e-001	3.777038e-002	-3.970228e-002	-6.642506e-001	-3.742166e-001
5060000000	-5.462770e-001	-4.011341e-002	9.668458e-001	-7.776349e-001	3.745625e-002	-3.981428e-002	-6.664806e-001	-3.714707e-001
5070000000	-5.474846e-001	-3.754267e-002	9.567995e-001	-7.789018e-001	3.724503e-002	-3.985312e-002	-6.686362e-001	-3.685785e-001
5080000000	-5.488090e-001	-3.496790e-002	9.471525e-001	-7.806386e-001	3.687902e-002	-3.985996e-002	-6.705296e-001	-3.657303e-001
5090000000	-5.502293e-001	-3.260246e-002	9.375442e-001	-7.812522e-001	3.665174e-002	-3.988574e-002	-6.724621e-001	-3.628851e-001
5100000000	-5.515954e-001	-3.004676e-002	9.279907e-001	-7.825324e-001	3.640107e-002	-3.992171e-002	-6.743821e-001	-3.602100e-001
5110000000	-5.531406e-001	-2.766389e-002	9.190141e-001	-7.832281e-001	3.610344e-002	-3.995144e-002	-6.764003e-001	-3.571069e-001
5120000000	-5.547666e-001	-2.527796e-002	9.097891e-001	-7.834270e-001	3.593759e-002	-3.997862e-002	-6.787345e-001	-3.541410e-001
5130000000	-5.563989e-001	-2.324009e-002	9.008181e-001	-7.840387e-001	3.559404e-002	-4.009039e-002	-6.804206e-001	-3.510286e-001
5140000000	-5.580039e-001	-2.112602e-002	8.912903e-001	-7.843961e-001	3.533885e-002	-4.007920e-002	-6.826702e-001	-3.476764e-001
5150000000	-5.597391e-001	-1.891398e-002	8.824754e-001	-7.854078e-001	3.515073e-002	-4.007302e-002	-6.849709e-001	-3.446175e-001
5160000000	-5.612672e-001	-1.685953e-002	8.729557e-001	-7.860524e-001	3.491826e-002	-4.020215e-002	-6.873450e-001	-3.417276e-001
5170000000	-5.627142e-001	-1.475729e-002	8.637838e-001	-7.865288e-001	3.460866e-002	-4.021323e-002	-6.898331e-001	-3.381357e-001
5180000000	-5.639814e-001	-1.280312e-002	8.540638e-001	-7.873752e-001	3.432019e-002	-4.029759e-002	-6.922156e-001	-3.351254e-001
5190000000	-5.650948e-001	-1.069232e-002	8.444990e-001	-7.881772e-001	3.406290e-002	-4.026925e-002	-6.948383e-001	-3.320912e-001
5200000000	-5.662003e-001	-8.577849e-003	8.350106e-001	-7.881568e-001	3.387419e-002	-4.036056e-002	-6.973565e-001	-3.292470e-001
5210000000	-5.671902e-001	-6.617516e-003	8.260655e-001	-7.883937e-001	3.364142e-002	-4.039463e-002	-6.995785e-001	-3.264486e-001
5220000000	-5.679599e-001	-4.434509e-003	8.165557e-001	-7.884177e-001	3.332298e-002	-4.038059e-002	-7.017116e-001	-3.237348e-001
5230000000	-5.689896e-001	-2.164088e-003	8.082315e-001	-7.881947e-001	3.313533e-002	-4.039765e-002	-7.038005e-001	-3.211092e-001
5240000000	-5.699785e-001	1.827438e-004	7.995866e-001	-7.880566e-001	3.288723e-002	-4.043975e-002	-7.057702e-001	-3.187758e-001
5250000000	-5.710352e-001	2.402421e-003	7.905593e-001	-7.877112e-001	3.261275e-002	-4.042829e-002	-7.078317e-001	-3.164197e-001
5260000000	-5.722990e-001	4.758642e-003	7.827064e-001	-7.873393e-001	3.244222e-002	-4.043879e-002	-7.094808e-001	-3.140615e-001
5270000000	-5.736756e-001	7.328478e-003	7.744568e-001	-7.866585e-001	3.216149e-002	-4.049959e-002	-7.109970e-001	-3.115141e-001
5280000000	-5.750589e-001	9.649913e-003	7.665372e-001	-7.863400e-001	3.188587e-002	-4.048672e-002	-7.127819e-001	-3.085234e-001
5290000000	-5.766089e-001	1.239390e-002	7.584705e-001	-7.862454e-001	3.159733e-002	-4.056081e-002	-7.142253e-001	-3.059987e-001
5300000000	-5.782422e-001	1.472349e-002	7.503969e-001	-7.858635e-001	3.137462e-002	-4.049051e-002	-7.156745e-001	-3.030240e-001
5310000000	-5.799480e-001	1.704134e-002	7.418951e-001	-7.856081e-001	3.114018e-002	-4.056080e-002	-7.173534e-001	-2.998462e-001
5320000000	-5.814655e-001	1.923815e-002	7.329600e-001	-7.854917e-001	3.081537e-002	-4.052294e-002	-7.191772e-001	-2.964716e-001
5330000000	-5.830283e-001	2.152576e-002	7.251502e-001	-7.856005e-001	3.066017e-002	-4.053935e-002	-7.208857e-001	-2.932904e-001
5340000000	-5.842553e-001	2.350116e-002	7.159818e-001	-7.852496e-001	3.035949e-002	-4.053192e-002	-7.226607e-001	-2.898655e-001
5350000000	-5.856196e-001	2.541750e-002	7.077959e-001	-7.846933e-001	3.009614e-002	-4.050729e-002	-7.245524e-001	-2.866419e-001
5360000000	-5.869894e-001	2.713623e-002	6.996069e-001	-7.837446e-001	2.990805e-002	-4.048562e-002	-7.263885e-001	-2.832247e-001
5370000000	-5.879991e-001	2.908807e-002	6.915621e-001	-7.824765e-001	2.963673e-002	-4.046709e-002	-7.285018e-001	-2.802464e-001
5380000000	-5.890372e-001	3.085112e-002	6.836415e-001	-7.814141e-001	2.943534e-002	-4.040954e-002	-7.305551e-001	-2.773364e-001
5390000000	-5.900431e-001	3.259325e-002	6.761515e-001	-7.801704e-001	2.922164e-002	-4.042909e-002	-7.323762e-001	-2.746336e-001
5400000000	-5.909908e-001	3.451845e-002	6.683953e-001	-7.790228e-001	2.900672e-002	-4.045617e-002	-7.343853e-001	-2.719000e-001
5410000000	-5.917185e-001	3.635111e-002	6.608880e-001	-7.774798e-001	2.883837e-002	-4.046545e-002	-7.361058e-001	-2.692560e-001
5420000000	-5.927190e-001	3.843747e-002	6.530639e-001	-7.766129e-001	2.850797e-002	-4.043094e-002	-7.376648e-001	-2.666738e-001
5430000000	-5.936383e-001	4.071278e-002	6.454563e-001	-7.755978e-001	2.825110e-002	-4.039714e-002	-7.393296e-001	-2.645368e-001
5440000000	-5.946259e-001	4.302696e-002	6.376948e-001	-7.747146e-001	2.810626e-002	-4.041112e-002	-7.409903e-001	-2.621535e-001
5450000000	-5.957002e-001	4.544985e-002	6.303134e-001	-7.733553e-001	2.790536e-002	-4.041768e-002	-7.421169e-001	-2.594637e-001
5460000000	-5.967338e-001	4.780932e-002	6.229440e-001	-7.722256e-001	2.771173e-002	-4.037521e-002	-7.433566e-001	-2.568613e-001
5470000000	-5.977894e-001	5.008346e-002	6.157346e-001	-7.710966e-001	2.741458e-002	-4.041272e-002	-7.444378e-001	-2.541901e-001
5480000000	-5.989624e-001	5.276009e-002	6.083606e-001	-7.699290e-001	2.723013e-002	-4.032077e-002	-7.456094e-001	-2.517206e-001
5490000000	-6.003680e-001	5.509368e-002	6.016886e-001	-7.691823e-001	2.704661e-002	-4.034015e-002	-7.470909e-001	-2.486447e-001
5500000000	-6.017269e-001	5.724336e-002	5.946245e-001	-7.676779e-001	2.681118e-002	-4.025616e-002	-7.481157e-001	-2.459389e-001
5510000000	-6.029311e-001	5.930351e-002	5.878850e-001	-7.665212e-001	2.664393e-002	-4.033560e-002	-7.494397e-001	-2.429181e-001
5520000000	-6.042211e-001	6.134391e-002	5.809598e-001	-7.648278e-001	2.639535e-002	-4.032156e-002	-7.508294e-001	-2.398753e-001
5530000000	-6.054345e-001	6.360457e-002	5.738187e-001	-7.637182e-001	2.614933e-002	-4.026398e-002	-7.522428e-001	-2.367740e-001
5540000000	-6.065507e-001	6.524219e-002	5.671105e-001	-7.617477e-001	2.587695e-002	-4.025106e-002	-7.538194e-001	-2.338259e-001
5550000000	-6.076254e-001	6.706523e-002	5.596435e-001	-7.603572e-001	2.562531e-002	-4.019745e-002	-7.553999e-001	-2.308762e-001
5560000000	-6.085938e-001	6.883669e-002	5.527786e-001	-7.585896e-001	2.546364e-002	-4.017613e-002	-7.568522e-001	-2.281321e-001
5570000000	-6.094999e-001	7.059378e-002	5.458984e-001	-7.566522e-001	2.525177e-002	-4.008874e-002	-7.584426e-001	-2.251071e-001
5580000000	-6.103341e-001	7.244590e-002	5.389902e-001	-7.549854e-001	2.503508e-002	-4.009742e-002	-7.600411e-001	-2.223411e-001
5590000000	-6.109411e-001	7.427201e-002	5.320188e-001	-7.530144e-001	2.478729e-002	-4.008537e-002	-7.613967e-001	-2.196871e-001
5600000000	-6.119880e-001	7.620646e-002	5.257571e-001	-7.511783e-001	2.468839e-002	-4.000795e-002	-7.628787e-001	-2.173322e-001
5610000000	-6.125889e-001	7.804804e-002	5.191744e-001	-7.490968e-001	2.446031e-002	-3.992358e-002	-7.640027e-001	-2.149215e-001
5620000000	-6.133754e-001	8.005184e-002	5.128967e-001	-7.470580e-001	2.421574e-002	-3.989860e-002	-7.651489e-001	-2.123963e-001
5630000000	-6.141870e-001	8.199105e-002	5.069549e-001	-7.450960e-001	2.406394e-002	-3.986586e-002	-7.662831e-001	-2.102191e-001
5640000000	-6.151468e-001	8.414525e-002	5.011478e-001	-7.431544e-001	2.385227e-002	-3.982021e-002	-7.673031e-001	-2.078526e-001
5650000000	-6.161697e-001	8.598097e-002	4.949452e-001	-7.412048e-001	2.364639e-002	-3.977981e-002	-7.684553e-001	-2.057386e-001
5660000000	-6.170242e-001	8.812362e-002	4.890840e-001	-7.393002e-001	2.347750e-002	-3.967072e-002	-7.694246e-001	-2.033592e-001
5670000000	-6.179450e-001	8.986564e-002	4.829779e-001	-7.371039e-001	2.331318e-002	-3.963772e-002	-7.704918e-001	-2.006450e-001
5680000000	-6.187876e-001	9.189581e-002	4.768743e-001	-7.353523e-001	2.319681e-002	-3.958884e-002	-7.713566e-001	-1.981084e-001
5690000000	-6.198659e-001	9.382285e-002	4.710622e-001	-7.331548e-001	2.297004e-002	-3.953241e-002	-7.724042e-001	-1.958291e-001
5700000000	-6.206346e-001	9.565022e-002	4.649810e-001	-7.312676e-001	2.279796e-002	-3.951106e-002	-7.733898e-001	-1.933443e-001
5710000000	-6.213808e-001	9.752841e-002	4.594666e-001	-7.294520e-001	2.249335e-002	-3.941053e-002	-7.743262e-001	-1.906830e-001
5720000000	-6.220800e-001	9.944274e-002	4.535408e-001	-7.273190e-001	2.241057e-002	-3.944907e-002	-7.753315e-001	-1.879360e-001
5730000000	-6.230408e-001	1.012518e-001	4.477748e-001	-7.253763e-001	2.220699e-002	-3.943651e-002	-7.766885e-001	-1.853345e-001
5740000000	-6.236147e-001	1.030537e-001	4.418092e-001	-7.232890e-001	2.196582e-002	-3.931230e-002	-7.776447e-001	-1.827044e-001
5750000000	-6.243973e-001	1.050025e-001	4.365093e-001	-7.213065e-001	2.179228e-002	-3.919967e-002	-7.786546e-001	-1.802682e-001
5760000000	-6.250985e-001	1.066656e-001	4.306892e-001	-7.187120e-001	2.170505e-002	-3.911916e-002	-7.799171e-001	-1.775752e-001
5770000000	-6.260082e-001	1.087447e-001	4.254918e-001	-7.166617e-001	2.150970e-002	-3.902964e-002	-7.811563e-001	-1.752293e-001
5780000000	-6.269117e-001	1.106579e-001	4.204003e-001	-7.142091e-001	2.134356e-002	-3.901719e-002	-7.821379e-001	-1.727798e-001
5790000000	-6.276622e-001	1.123918e-001	4.149572e-001	-7.114769e-001	2.127190e-002	-3.892338e-002	-7.829700e-001	-1.704521e-001
5800000000	-6.287041e-001	1.141041e-001	4.099163e-001	-7.089391e-001	2.107842e-002	-3.891054e-002	-7.840719e-001	-1.682563e-001
5810000000	-6.296356e-001	1.157404e-001	4.044565e-001	-7.063466e-001	2.092629e-002	-3.883490e-002	-7.851924e-001	-1.658059e-001
5820000000	-6.304797e-001	1.174757e-001	3.994213e-001	-7.042465e-001	2.071797e-002	-3.877290e-002	-7.861243e-001	-1.639595e-001
5830000000	-6.312770e-001	1.190360e-001	3.939581e-001	-7.022370e-001	2.053153e-002	-3.871535e-002	-7.871039e-001	-1.616320e-001
5840000000	-6.323303e-001	1.205504e-001	3.887763e-001	-7.000082e-001	2.042656e-002	-3.866146e-002	-7.882128e-001	-1.598554e-001
5850000000	-6.329661e-001	1.219159e-001	3.836789e-001	-6.979470e-001	2.017157e-002	-3.856271e-002	-7.890655e-001	-1.576588e-001
5860000000	-6.334199e-001	1.234051e-001	3.786797e-001	-6.956173e-001	2.008332e-002	-3.851839e-002	-7.897985e-001	-1.556241e-001
5870000000	-6.342003e-001	1.251544e-001	3.740689e-001	-6.934792e-001	1.995518e-002	-3.851017e-002	-7.908219e-001	-1.534781e-001
5880000000	-6.346412e-001	1.265253e-001	3.694516e-001	-6.910093e-001	1.979970e-002	-3.841204e-002	-7.914385e-001	-1.513072e-001
5890000000	-6.351438e-001	1.280935e-001	3.647520e-001	-6.884642e-001	1.959655e-002	-3.837939e-002	-7.922339e-001	-1.491062e-001
5900000000	-6.355883e-001	1.296610e-001	3.603475e-001	-6.860715e-001	1.949592e-002	-3.827495e-002	-7.927611e-001	-1.469435e-001
5910000000	-6.362820e-001	1.313641e-001	3.558251e-001	-6.835195e-001	1.933533e-002	-3.819645e-002	-7.935048e-001	-1.447499e-001
5920000000	-6.368676e-001	1.331453e-001	3.515951e-001	-6.811003e-001	1.913155e-002	-3.813660e-002	-7.939783e-001	-1.426629e-001
5930000000	-6.375246e-001	1.348256e-001	3.468733e-001	-6.783731e-001	1.899597e-002	-3.817790e-002	-7.945819e-001	-1.404576e-001
5940000000	-6.383101e-001	1.366523e-001	3.423777e-001	-6.756374e-001	1.896606e-002	-3.802978e-002	-7.953781e-001	-1.381547e-001
5950000000	-6.390374e-001	1.381654e-001	3.380584e-001	-6.730210e-001	1.871374e-002	-3.796744e-002	-7.959781e-001	-1.360294e-001
5960000000	-6.398433e-001	1.401346e-001	3.337705e-001	-6.708875e-001	1.866168e-002	-3.780325e-002	-7.966164e-001	-1.336933e-001
5970000000	-6.408120e-001	1.416853e-001	3.293759e-001	-6.684166e-001	1.849682e-002	-3.788552e-002	-7.974670e-001	-1.318031e-001
5980000000	-6.418553e-001	1.432229e-001	3.249764e-001	-6.662839e-001	1.837872e-002	-3.766958e-002	-7.982478e-001	-1.294876e-001
5990000000	-6.426983e-001	1.446554e-001	3.205866e-001	-6.638768e-001	1.821298e-002	-3.766653e-002	-7.991011e-001	-1.274051e-001
6000000000	-6.436606e-001	1.459327e-001	3.166330e-001	-6.615104e-001	1.814764e-002	-3.765118e-002	-8.000738e-001	-1.252966e-001
6010000000	-6.445282e-001	1.470661e-001	3.122968e-001	-6.591829e-001	1.795632e-002	-3.753581e-002	-8.009177e-001	-1.233401e-001
6020000000	-6.452012e-001	1.481676e-001	3.083714e-001	-6.567254e-001	1.788501e-002	-3.744060e-002	-8.018323e-001	-1.216192e-001
6030000000	-6.460199e-001	1.494314e-001	3.042092e-001	-6.541811e-001	1.768443e-002	-3.737312e-002	-8.027804e-001	-1.197465e-001
6040000000	-6.462422e-001	1.504541e-001	3.002161e-001	-6.518238e-001	1.751609e-002	-3.734672e-002	-8.037926e-001	-1.181200e-001
6050000000	-6.467250e-001	1.515501e-001	2.965502e-001	-6.492092e-001	1.742324e-002	-3.722960e-002	-8.045830e-001	-1.165699e-001
6060000000	-6.470445e-001	1.526047e-001	2.925799e-001	-6.466525e-001	1.728367e-002	-3.719197e-002	-8.050758e-001	-1.148634e-001
6070000000	-6.474331e-001	1.539365e-001	2.887592e-001	-6.438788e-001	1.716040e-002	-3.713378e-002	-8.057276e-001	-1.132811e-001
6080000000	-6.477599e-001	1.552627e-001	2.848178e-001	-6.413205e-001	1.704800e-002	-3.701370e-002	-8.062595e-001	-1.118669e-001
6090000000	-6.479727e-001	1.566021e-001	2.811063e-001	-6.388624e-001	1.702807e-002	-3.690593e-002	-8.066037e-001	-1.100181e-001
6100000000	-6.486134e-001	1.583526e-001	2.776810e-001	-6.365073e-001	1.683181e-002	-3.682025e-002	-8.068369e-001	-1.082520e-001
6110000000	-6.490747e-001	1.599564e-001	2.744757e-001	-6.341239e-001	1.684888e-002	-3.680800e-002	-8.072419e-001	-1.065520e-001
6120000000	-6.497739e-001	1.616916e-001	2.710992e-001	-6.317156e-001	1.661077e-002	-3.672360e-002	-8.077642e-001	-1.046711e-001
6130000000	-6.505324e-001	1.634822e-001	2.676580e-001	-6.294349e-001	1.650670e-002	-3.668762e-002	-8.081000e-001	-1.026578e-001
6140000000	-6.513848e-001	1.651676e-001	2.641711e-001	-6.274907e-001	1.640803e-002	-3.649656e-002	-8.085404e-001	-1.006004e-001
6150000000	-6.523211e-001	1.666001e-001	2.609750e-001	-6.248195e-001	1.634477e-002	-3.651568e-002	-8.089925e-001	-9.855242e-002
6160000000	-6.533824e-001	1.679694e-001	2.575579e-001	-6.227401e-001	1.617841e-002	-3.639934e-002	-8.099011e-001	-9.607280e-002
6170000000	-6.542988e-001	1.691295e-001	2.538931e-001	-6.203223e-001	1.609624e-002	-3.635288e-002	-8.105635e-001	-9.389831e-002
6180000000	-6.554713e-001	1.703253e-001	2.502592e-001	-6.176698e-001	1.597281e-002	-3.626589e-002	-8.115947e-001	-9.199715e-002
6190000000	-6.562457e-001	1.710073e-001	2.466434e-001	-6.152025e-001	1.589723e-002	-3.619104e-002	-8.124398e-001	-9.004953e-002
6200000000	-6.570298e-001	1.719512e-001	2.433195e-001	-6.127739e-001	1.583682e-002	-3.609550e-002	-8.132154e-001	-8.812318e-002
6210000000	-6.574867e-001	1.725509e-001	2.399535e-001	-6.101802e-001	1.573561e-002	-3.603635e-002	-8.140191e-001	-8.667022e-002
6220000000	-6.580402e-001	1.733714e-001	2.366307e-001	-6.075979e-001	1.567823e-002	-3.597109e-002	-8.149498e-001	-8.507772e-002
6230000000	-6.581545e-001	1.743633e-001	2.336101e-001	-6.050871e-001	1.559143e-002	-3.595200e-002	-8.157971e-001	-8.367047e-002
6240000000	-6.582370e-001	1.753647e-001	2.305135e-001	-6.028092e-001	1.552845e-002	-3.586189e-002	-8.163458e-001	-8.237881e-002
6250000000	-6.582932e-001	1.764559e-001	2.275571e-001	-6.004456e-001	1.549468e-002	-3.573495e-002	-8.167855e-001	-8.118046e-002
6260000000	-6.583710e-001	1.777874e-001	2.247087e-001	-5.980630e-001	1.539983e-002	-3.581167e-002	-8.172523e-001	-8.026901e-002
6270000000	-6.586201e-001	1.791442e-001	2.218450e-001	-5.959279e-001	1.523641e-002	-3.580346e-002	-8.175880e-001	-7.876752e-002
6280000000	-6.588510e-001	1.807728e-001	2.188413e-001	-5.937487e-001	1.517156e-002	-3.573189e-002	-8.178153e-001	-7.746888e-002
6290000000	-6.591436e-001	1.823843e-001	2.158265e-001	-5.914868e-001	1.500150e-002	-3.572905e-002	-8.179688e-001	-7.611586e-002
6300000000	-6.598237e-001	1.837366e-001	2.129957e-001	-5.890833e-001	1.489829e-002	-3.554655e-002	-8.179704e-001	-7.437352e-002
6310000000	-6.603922e-001	1.853260e-001	2.100996e-001	-5.866937e-001	1.481822e-002	-3.550329e-002	-8.179308e-001	-7.260391e-002
6320000000	-6.613476e-001	1.868104e-001	2.072276e-001	-5.842485e-001	1.469381e-002	-3.538718e-002	-8.179782e-001	-7.090615e-002
6330000000	-6.621889e-001	1.879967e-001	2.042766e-001	-5.816387e-001	1.472454e-002	-3.533171e-002	-8.180433e-001	-6.881346e-002
6340000000	-6.633046e-001	1.892165e-001	2.014399e-001	-5.791153e-001	1.462402e-002	-3.523443e-002	-8.182806e-001	-6.714159e-002
6350000000	-6.643998e-001	1.900918e-001	1.987765e-001	-5.768653e-001	1.459404e-002	-3.525978e-002	-8.187531e-001	-6.524392e-002
6360000000	-6.652670e-001	1.908663e-001	1.961087e-001	-5.746096e-001	1.447586e-002	-3.519652e-002	-8.192327e-001	-6.348264e-002
6370000000	-6.659433e-001	1.914602e-001	1.935854e-001	-5.727361e-001	1.446199e-002	-3.514804e-002	-8.199677e-001	-6.164191e-002
6380000000	-6.667879e-001	1.921174e-001	1.910814e-001	-5.707601e-001	1.435797e-002	-3.515308e-002	-8.208766e-001	-5.997972e-002
6390000000	-6.672519e-001	1.925737e-001	1.883690e-001	-5.687527e-001	1.423196e-002	-3.514272e-002	-8.218060e-001	-5.828072e-002
6400000000	-6.675604e-001	1.932672e-001	1.857536e-001	-5.666534e-001	1.415709e-002	-3.502185e-002	-8.228020e-001	-5.674966e-002
6410000000	-6.676554e-001	1.939038e-001	1.832791e-001	-5.643379e-001	1.406892e-002	-3.492939e-002	-8.235121e-001	-5.519497e-002
6420000000	-6.676820e-001	1.945892e-001	1.807143e-001	-5.619195e-001	1.400543e-002	-3.490974e-002	-8.241109e-001	-5.376256e-002
6430000000	-6.676136e-001	1.954318e-001	1.781238e-001	-5.595437e-001	1.384913e-002	-3.479222e-002	-8.247109e-001	-5.253457e-002
6440000000	-6.673645e-001	1.964799e-001	1.757380e-001	-5.571690e-001	1.391267e-002	-3.483140e-002	-8.248736e-001	-5.144640e-002
6450000000	-6.672475e-001	1.975933e-001	1.733635e-001	-5.544839e-001	1.378021e-002	-3.471845e-002	-8.249942e-001	-5.047769e-002
6460000000	-6.672916e-001	1.988585e-001	1.710038e-001	-5.522465e-001	1.378798e-002	-3.462453e-002	-8.250523e-001	-4.962775e-002
6470000000	-6.673765e-001	2.002098e-001	1.685251e-001	-5.501693e-001	1.374800e-002	-3.455662e-002	-8.249831e-001	-4.870280e-002
6480000000	-6.676820e-001	2.015861e-001	1.661244e-001	-5.479817e-001	1.364819e-002	-3.456769e-002	-8.248297e-001	-4.760457e-002
6490000000	-6.682966e-001	2.030518e-001	1.638712e-001	-5.460132e-001	1.358930e-002	-3.452614e-002	-8.247084e-001	-4.639609e-002
6500000000	-6.690098e-001	2.044718e-001	1.616443e-001	-5.438674e-001	1.361241e-002	-3.449872e-002	-8.246620e-001	-4.507577e-002
6510000000	-6.697676e-001	2.057860e-001	1.596937e-001	-5.419484e-001	1.351658e-002	-3.443497e-002	-8.246740e-001	-4.389340e-002
6520000000	-6.705754e-001	2.069023e-001	1.573487e-001	-5.398913e-001	1.352966e-002	-3.447285e-002	-8.249660e-001	-4.256560e-002
6530000000	-6.715316e-001	2.079160e-001	1.553490e-001	-5.379908e-001	1.342863e-002	-3.449659e-002	-8.252728e-001	-4.096603e-002
6540000000	-6.723302e-001	2.088109e-001	1.530666e-001	-5.358079e-001	1.332187e-002	-3.453542e-002	-8.257910e-001	-3.938387e-002
6550000000	-6.730713e-001	2.094554e-001	1.509032e-001	-5.337628e-001	1.320867e-002	-3.450694e-002	-8.263551e-001	-3.777962e-002
6560000000	-6.735744e-001	2.098505e-001	1.486450e-001	-5.315686e-001	1.311599e-002	-3.455307e-002	-8.269923e-001	-3.624931e-002
6570000000	-6.740160e-001	2.102065e-001	1.463428e-001	-5.290933e-001	1.300823e-002	-3.443167e-002	-8.274922e-001	-3.462024e-002
6580000000	-6.740743e-001	2.105341e-001	1.439778e-001	-5.270901e-001	1.287535e-002	-3.434106e-002	-8.280158e-001	-3.300403e-002
6590000000	-6.742963e-001	2.107938e-001	1.415259e-001	-5.244579e-001	1.272922e-002	-3.426669e-002	-8.283707e-001	-3.164065e-002
6600000000	-6.742061e-001	2.112728e-001	1.395870e-001	-5.221889e-001	1.272612e-002	-3.417024e-002	-8.285717e-001	-3.039632e-002
6610000000	-6.741111e-001	2.116750e-001	1.375768e-001	-5.199889e-001	1.262998e-002	-3.412264e-002	-8.287693e-001	-2.942637e-002
6620000000	-6.740554e-001	2.122610e-001	1.357491e-001	-5.179553e-001	1.259824e-002	-3.402039e-002	-8.289621e-001	-2.855151e-002
6630000000	-6.739828e-001	2.129424e-001	1.339850e-001	-5.159120e-001	1.258497e-002	-3.410058e-002	-8.288885e-001	-2.797264e-002
6640000000	-6.740891e-001	2.137621e-001	1.321853e-001	-5.141137e-001	1.252755e-002	-3.413640e-002	-8.291766e-001	-2.749919e-002
6650000000	-6.741045e-001	2.148522e-001	1.305890e-001	-5.123351e-001	1.241223e-002	-3.409069e-002	-8.292571e-001	-2.695512e-002
6660000000	-6.744175e-001	2.161340e-001	1.290300e-001	-5.104301e-001	1.234048e-002	-3.408697e-002	-8.293683e-001	-2.634960e-002
6670000000	-6.747021e-001	2.173387e-001	1.271672e-001	-5.086409e-001	1.219847e-002	-3.399254e-002	-8.297076e-001	-2.547778e-002
6680000000	-6.752934e-001	2.186214e-001	1.253793e-001	-5.066814e-001	1.213354e-002	-3.395575e-002	-8.300215e-001	-2.457354e-002
6690000000	-6.755866e-001	2.199202e-001	1.235646e-001	-5.048158e-001	1.203457e-002	-3.387396e-002	-8.302878e-001	-2.358813e-002
6700000000	-6.761076e-001	2.209466e-001	1.215903e-001	-5.029617e-001	1.196630e-002	-3.383489e-002	-8.305303e-001	-2.218577e-002
6710000000	-6.765666e-001	2.217769e-001	1.195844e-001	-5.009624e-001	1.185985e-002	-3.377566e-002	-8.307276e-001	-2.103965e-002
6720000000	-6.769902e-001	2.225215e-001	1.175854e-001	-4.988555e-001	1.181442e-002	-3.366489e-002	-8.308805e-001	-1.956731e-002
6730000000	-6.773866e-001	2.231478e-001	1.154749e-001	-4.967431e-001	1.179021e-002	-3.363073e-002	-8.309455e-001	-1.834436e-002
6740000000	-6.778551e-001	2.235827e-001	1.134638e-001	-4.946666e-001	1.175904e-002	-3.367537e-002	-8.312326e-001	-1.693886e-002
6750000000	-6.781331e-001	2.238855e-001	1.115358e-001	-4.924772e-001	1.161198e-002	-3.363953e-002	-8.312756e-001	-1.572503e-002
6760000000	-6.784739e-001	2.240719e-001	1.102314e-001	-4.905029e-001	1.157261e-002	-3.362815e-002	-8.315234e-001	-1.452129e-002
6770000000	-6.786304e-001	2.243194e-001	1.088051e-001	-4.887138e-001	1.153980e-002	-3.359973e-002	-8.318310e-001	-1.350624e-002
6780000000	-6.788530e-001	2.246696e-001	1.074705e-001	-4.868439e-001	1.140482e-002	-3.357667e-002	-8.319990e-001	-1.260984e-002
6790000000	-6.790051e-001	2.249581e-001	1.060489e-001	-4.847848e-001	1.128363e-002	-3.355700e-002	-8.323433e-001	-1.168454e-002
6800000000	-6.792137e-001	2.255748e-001	1.045460e-001	-4.831556e-001	1.125226e-002	-3.344471e-002	-8.325932e-001	-1.089135e-002
6810000000	-6.794023e-001	2.260176e-001	1.032765e-001	-4.810961e-001	1.112399e-002	-3.341622e-002	-8.328186e-001	-1.019832e-002
6820000000	-6.795921e-001	2.266993e-001	1.015378e-001	-4.792629e-001	1.105307e-002	-3.332586e-002	-8.332199e-001	-9.400505e-003
6830000000	-6.796946e-001	2.274412e-001	9.980513e-002	-4.773528e-001	1.097239e-002	-3.329123e-002	-8.335418e-001	-8.676789e-003
6840000000	-6.798956e-001	2.282392e-001	9.810119e-002	-4.755484e-001	1.087100e-002	-3.323176e-002	-8.338796e-001	-7.767854e-003
6850000000	-6.800002e-001	2.290365e-001	9.641336e-002	-4.737358e-001	1.083758e-002	-3.308678e-002	-8.340329e-001	-6.903792e-003
6860000000	-6.803109e-001	2.299477e-001	9.480137e-002	-4.718983e-001	1.075485e-002	-3.310388e-002	-8.341942e-001	-5.864315e-003
6870000000	-6.804168e-001	2.306686e-001	9.311704e-002	-4.701838e-001	1.071216e-002	-3.300919e-002	-8.343225e-001	-4.920267e-003
6880000000	-6.807088e-001	2.314889e-001	9.149183e-002	-4.683808e-001	1.067514e-002	-3.292778e-002	-8.343105e-001	-3.838433e-003
6890000000	-6.809486e-001	2.321633e-001	8.988011e-002	-4.666864e-001	1.065135e-002	-3.289424e-002	-8.342952e-001	-2.768970e-003
6900000000	-6.811652e-001	2.327188e-001	8.869273e-002	-4.649827e-001	1.060798e-002	-3.282393e-002	-8.342962e-001	-1.854325e-003
6910000000	-6.812575e-001	2.332768e-001	8.740585e-002	-4.630353e-001	1.057731e-002	-3.287477e-002	-8.342888e-001	-8.951423e-004
6920000000	-6.814657e-001	2.337954e-001	8.618620e-002	-4.611848e-001	1.049262e-002	-3.279379e-002	-8.343145e-001	-2.876083e-005
6930000000	-6.817109e-001	2.341152e-001	8.501687e-002	-4.592921e-001	1.038141e-002	-3.276913e-002	-8.344058e-001	8.605115e-004
6940000000	-6.818387e-001	2.347071e-001	8.366894e-002	-4.573919e-001	1.030931e-002	-3.263767e-002	-8.345933e-001	1.698885e-003
6950000000	-6.820321e-001	2.350815e-001	8.238926e-002	-4.553954e-001	1.026269e-002	-3.264470e-002	-8.350357e-001	2.390286e-003
6960000000	-6.822771e-001	2.355159e-001	8.109290e-002	-4.537097e-001	1.021296e-002	-3.259162e-002	-8.353301e-001	3.370790e-003
6970000000	-6.823108e-001	2.360478e-001	7.969660e-002	-4.520056e-001	1.011191e-002	-3.253819e-002	-8.356280e-001	4.176705e-003
6980000000	-6.824259e-001	2.364843e-001	7.837692e-002	-4.502152e-001	1.009556e-002	-3.238659e-002	-8.359578e-001	4.982705e-003
6990000000	-6.826211e-001	2.371370e-001	7.697096e-002	-4.486312e-001	1.005153e-002	-3.239164e-002	-8.362524e-001	5.925232e-003
7000000000	-6.827699e-001	2.375996e-001	7.578480e-002	-4.470132e-001	1.004672e-002	-3.238836e-002	-8.366131e-001	6.634377e-003
7010000000	-6.829512e-001	2.381657e-001	7.458218e-002	-4.455533e-001	1.003542e-002	-3.236309e-002	-8.365888e-001	7.308538e-003
7020000000	-6.830961e-001	2.386712e-001	7.344033e-002	-4.440445e-001	9.964129e-003	-3.231183e-002	-8.368153e-001	8.044934e-003
7030000000	-6.833316e-001	2.392442e-001	7.205950e-002	-4.424473e-001	9.928228e-003	-3.232481e-002	-8.368504e-001	8.668839e-003
7040000000	-6.836003e-001	2.398013e-001	7.087852e-002	-4.407475e-001	9.825956e-003	-3.228393e-002	-8.368688e-001	9.268836e-003
7050000000	-6.837637e-001	2.402396e-001	6.960648e-002	-4.390823e-001	9.721387e-003	-3.224682e-002	-8.368410e-001	9.933540e-003
7060000000	-6.839407e-001	2.405111e-001	6.855280e-002	-4.374091e-001	9.698818e-003	-3.211268e-002	-8.368097e-001	1.048492e-002
7070000000	-6.839579e-001	2.408027e-001	6.732681e-002	-4.353774e-001	9.657374e-003	-3.210696e-002	-8.367066e-001	1.112315e-002
7080000000	-6.840658e-001	2.411990e-001	6.603029e-002	-4.335953e-001	9.590725e-003	-3.202818e-002	-8.367492e-001	1.184328e-002
7090000000	-6.842139e-001	2.415996e-001	6.502878e-002	-4.319745e-001	9.512518e-003	-3.201959e-002	-8.366858e-001	1.257938e-002
7100000000	-6.843023e-001	2.419614e-001	6.391454e-002	-4.304187e-001	9.422564e-003	-3.193225e-002	-8.367563e-001	1.344689e-002
7110000000	-6.843986e-001	2.423166e-001	6.277518e-002	-4.290519e-001	9.418275e-003	-3.188239e-002	-8.367389e-001	1.415836e-002
7120000000	-6.844999e-001	2.428753e-001	6.162345e-002	-4.277405e-001	9.412381e-003	-3.185452e-002	-8.368851e-001	1.504658e-002
7130000000	-6.844120e-001	2.434401e-001	6.050741e-002	-4.265167e-001	9.311129e-003	-3.184173e-002	-8.369681e-001	1.588158e-002
7140000000	-6.844829e-001	2.441411e-001	5.939956e-002	-4.251908e-001	9.244698e-003	-3.181085e-002	-8.373276e-001	1.685170e-002
7150000000	-6.844895e-001	2.447150e-001	5.808078e-002	-4.237624e-001	9.194107e-003	-3.172871e-002	-8.374561e-001	1.771887e-002
7160000000	-6.844931e-001	2.453070e-001	5.708049e-002	-4.223110e-001	9.147169e-003	-3.167012e-002	-8.375221e-001	1.864891e-002
7170000000	-6.844301e-001	2.460279e-001	5.600707e-002	-4.205232e-001	9.068027e-003	-3.162301e-002	-8.376781e-001	1.947304e-002
7180000000	-6.843908e-001	2.466120e-001	5.493623e-002	-4.189969e-001	9.077437e-003	-3.154809e-002	-8.377709e-001	2.026134e-002
7190000000	-6.843899e-001	2.470886e-001	5.389858e-002	-4.173812e-001	9.062637e-003	-3.152253e-002	-8.378833e-001	2.099903e-002
7200000000	-6.844593e-001	2.475663e-001	5.279821e-002	-4.157086e-001	8.981062e-003	-3.147208e-002	-8.380080e-001	2.168766e-002
7210000000	-6.845171e-001	2.479917e-001	5.178216e-002	-4.141420e-001	8.930411e-003	-3.147853e-002	-8.379359e-001	2.210541e-002
7220000000	-6.846004e-001	2.481216e-001	5.079863e-002	-4.123099e-001	8.897958e-003	-3.143560e-002	-8.379830e-001	2.259284e-002
7230000000	-6.847199e-001	2.484416e-001	4.986203e-002	-4.107599e-001	8.890127e-003	-3.137226e-002	-8.378473e-001	2.305545e-002
7240000000	-6.849251e-001	2.485126e-001	4.877442e-002	-4.092557e-001	8.795332e-003	-3.132531e-002	-8.379188e-001	2.342130e-002
7250000000	-6.850745e-001	2.488852e-001	4.783054e-002	-4.077710e-001	8.812895e-003	-3.126215e-002	-8.378245e-001	2.402032e-002
7260000000	-6.853194e-001	2.491434e-001	4.701292e-002	-4.064070e-001	8.734081e-003	-3.121941e-002	-8.378745e-001	2.421953e-002
7270000000	-6.854851e-001	2.494598e-001	4.605450e-002	-4.051712e-001	8.687654e-003	-3.114217e-002	-8.378662e-001	2.470746e-002
7280000000	-6.856861e-001	2.497824e-001	4.523991e-002	-4.038822e-001	8.666015e-003	-3.112099e-002	-8.379420e-001	2.530982e-002
7290000000	-6.858027e-001	2.501358e-001	4.462757e-002	-4.025200e-001	8.634455e-003	-3.102972e-002	-8.378451e-001	2.594074e-002
7300000000	-6.858457e-001	2.504991e-001	4.360119e-002	-4.012527e-001	8.578933e-003	-3.096628e-002	-8.378188e-001	2.655529e-002
7310000000	-6.858753e-001	2.509953e-001	4.273678e-002	-3.999346e-001	8.581710e-003	-3.097072e-002	-8.378877e-001	2.713617e-002
7320000000	-6.857192e-001	2.514219e-001	4.172824e-002	-3.985272e-001	8.566430e-003	-3.096286e-002	-8.379552e-001	2.806889e-002
7330000000	-6.855940e-001	2.519401e-001	4.067699e-002	-3.971227e-001	8.509419e-003	-3.089353e-002	-8.377799e-001	2.884636e-002
7340000000	-6.853578e-001	2.523997e-001	3.960960e-002	-3.957409e-001	8.494228e-003	-3.083913e-002	-8.380122e-001	2.959469e-002
7350000000	-6.852189e-001	2.527689e-001	3.874726e-002	-3.944220e-001	8.443838e-003	-3.081460e-002	-8.382335e-001	3.024711e-002
7360000000	-6.849919e-001	2.531713e-001	3.766617e-002	-3.931598e-001	8.411628e-003	-3.073427e-002	-8.383659e-001	3.085709e-002
7370000000	-6.848102e-001	2.535133e-001	3.670371e-002	-3.918243e-001	8.363271e-003	-3.067074e-002	-8.386505e-001	3.156218e-002
7380000000	-6.846144e-001	2.539033e-001	3.588270e-002	-3.905066e-001	8.388419e-003	-3.068119e-002	-8.389074e-001	3.209638e-002
7390000000	-6.845153e-001	2.543818e-001	3.497151e-002	-3.891508e-001	8.339552e-003	-3.067948e-002	-8.391165e-001	3.269655e-002
7400000000	-6.844866e-001	2.546757e-001	3.404970e-002	-3.879562e-001	8.411437e-003	-3.057555e-002	-8.393370e-001	3.326065e-002
7410000000	-6.845391e-001	2.551125e-001	3.342077e-002	-3.866745e-001	8.324501e-003	-3.058296e-002	-8.395081e-001	3.361557e-002
7420000000	-6.847264e-001	2.555405e-001	3.277766e-002	-3.853340e-001	8.269179e-003	-3.055728e-002	-8.396279e-001	3.404177e-002
7430000000	-6.848521e-001	2.559872e-001	3.195023e-002	-3.840852e-001	8.265825e-003	-3.048056e-002	-8.394284e-001	3.454322e-002
7440000000	-6.850599e-001	2.565452e-001	3.126974e-002	-3.827845e-001	8.319985e-003	-3.043098e-002	-8.392332e-001	3.499263e-002
7450000000	-6.852984e-001	2.572992e-001	3.054628e-002	-3.814907e-001	8.229801e-003	-3.040208e-002	-8.388938e-001	3.546041e-002
7460000000	-6.854661e-001	2.577325e-001	2.961018e-002	-3.802273e-001	8.180220e-003	-3.040136e-002	-8.386307e-001	3.585320e-002
7470000000	-6.856401e-001	2.583443e-001	2.876089e-002	-3.789222e-001	8.176935e-003	-3.031096e-002	-8.382362e-001	3.622519e-002
7480000000	-6.858818e-001	2.588306e-001	2.777739e-002	-3.777680e-001	8.113979e-003	-3.033616e-002	-8.380579e-001	3.684861e-002
7490000000	-6.860538e-001	2.591863e-001	2.690607e-002	-3.763580e-001	8.105422e-003	-3.027950e-002	-8.378532e-001	3.722122e-002
7500000000	-6.862420e-001	2.593205e-001	2.598226e-002	-3.752039e-001	8.115607e-003	-3.024808e-002	-8.378010e-001	3.783502e-002
7510000000	-6.863977e-001	2.594605e-001	2.531541e-002	-3.742184e-001	8.095086e-003	-3.025615e-002	-8.377925e-001	3.833719e-002
7520000000	-6.865362e-001	2.594630e-001	2.470900e-002	-3.729253e-001	8.066698e-003	-3.020005e-002	-8.379590e-001	3.907355e-002
7530000000	-6.865547e-001	2.596541e-001	2.403052e-002	-3.718789e-001	7.984031e-003	-3.011147e-002	-8.380721e-001	3.973844e-002
7540000000	-6.865384e-001	2.596293e-001	2.323123e-002	-3.708318e-001	8.042700e-003	-3.017337e-002	-8.383627e-001	4.057991e-002
7550000000	-6.864883e-001	2.597325e-001	2.274139e-002	-3.699044e-001	8.004584e-003	-3.014888e-002	-8.386041e-001	4.141547e-002
7560000000	-6.862264e-001	2.598306e-001	2.197951e-002	-3.687102e-001	8.053421e-003	-3.006761e-002	-8.386230e-001	4.213420e-002
7570000000	-6.860015e-001	2.601656e-001	2.107328e-002	-3.675192e-001	8.031121e-003	-3.001765e-002	-8.387926e-001	4.277472e-002
7580000000	-6.856043e-001	2.606574e-001	2.028993e-002	-3.660549e-001	7.986219e-003	-3.003855e-002	-8.387887e-001	4.353451e-002
7590000000	-6.852465e-001	2.612302e-001	1.951959e-002	-3.648753e-001	7.977708e-003	-3.010914e-002	-8.389455e-001	4.400024e-002
7600000000	-6.847406e-001	2.619120e-001	1.867187e-002	-3.636381e-001	7.922689e-003	-3.005789e-002	-8.389369e-001	4.441576e-002
7610000000	-6.843303e-001	2.625821e-001	1.773696e-002	-3.624882e-001	7.970709e-003	-2.999606e-002	-8.385341e-001	4.451751e-002
7620000000	-6.841047e-001	2.634001e-001	1.714355e-002	-3.613920e-001	7.912875e-003	-2.993122e-002	-8.383808e-001	4.473250e-002
7630000000	-6.838076e-001	2.644071e-001	1.631536e-002	-3.602445e-001	7.859569e-003	-2.994396e-002	-8.381370e-001	4.506614e-002
7640000000	-6.837420e-001	2.654051e-001	1.555330e-002	-3.592618e-001	7.915333e-003	-2.993953e-002	-8.378795e-001	4.507892e-002
7650000000	-6.838044e-001	2.661081e-001	1.500527e-002	-3.581881e-001	7.882952e-003	-2.987013e-002	-8.373470e-001	4.513349e-002
7660000000	-6.839419e-001	2.669242e-001	1.443486e-002	-3.571456e-001	7.784171e-003	-2.989680e-002	-8.369981e-001	4.538795e-002
7670000000	-6.841172e-001	2.676500e-001	1.388683e-002	-3.559993e-001	7.826316e-003	-2.985668e-002	-8.368537e-001	4.559835e-002
7680000000	-6.843486e-001	2.682004e-001	1.302911e-002	-3.551323e-001	7.811050e-003	-2.982047e-002	-8.368295e-001	4.598936e-002
7690000000	-6.846555e-001	2.689947e-001	1.224412e-002	-3.540930e-001	7.764234e-003	-2.979019e-002	-8.365646e-001	4.654909e-002
7700000000	-6.848300e-001	2.695073e-001	1.160582e-002	-3.530660e-001	7.728594e-003	-2.981504e-002	-8.365124e-001	4.712184e-002
7710000000	-6.849165e-001	2.697261e-001	1.074461e-002	-3.520228e-001	7.723609e-003	-2.980358e-002	-8.364506e-001	4.777688e-002
7720000000	-6.848274e-001	2.701134e-001	1.000283e-002	-3.509166e-001	7.707736e-003	-2.981525e-002	-8.364405e-001	4.839770e-002
7730000000	-6.846029e-001	2.703317e-001	9.244015e-003	-3.500096e-001	7.735925e-003	-2.981328e-002	-8.363956e-001	4.909921e-002
7740000000	-6.842471e-001	2.704399e-001	8.561342e-003	-3.488416e-001	7.666258e-003	-2.978181e-002	-8.364044e-001	4.996537e-002
7750000000	-6.837415e-001	2.705739e-001	7.787025e-003	-3.477397e-001	7.606843e-003	-2.978586e-002	-8.362800e-001	5.067049e-002
7760000000	-6.831336e-001	2.708283e-001	7.136816e-003	-3.467951e-001	7.590058e-003	-2.979169e-002	-8.363483e-001	5.108665e-002
7770000000	-6.823935e-001	2.710785e-001	6.518104e-003	-3.457095e-001	7.528672e-003	-2.974339e-002	-8.360641e-001	5.154294e-002
7780000000	-6.817993e-001	2.714580e-001	5.987117e-003	-3.446223e-001	7.531071e-003	-2.971827e-002	-8.360553e-001	5.183053e-002
7790000000	-6.811978e-001	2.720561e-001	5.236783e-003	-3.435231e-001	7.538465e-003	-2.969908e-002	-8.358143e-001	5.198765e-002
7800000000	-6.804588e-001	2.726836e-001	4.656568e-003	-3.424349e-001	7.512929e-003	-2.960018e-002	-8.355090e-001	5.232191e-002
7810000000	-6.800971e-001	2.734952e-001	4.074168e-003	-3.413481e-001	7.510110e-003	-2.964101e-002	-8.353663e-001	5.237839e-002
7820000000	-6.797834e-001	2.744712e-001	3.521074e-003	-3.404041e-001	7.523521e-003	-2.953256e-002	-8.350767e-001	5.253997e-002
7830000000	-6.794170e-001	2.754848e-001	3.106781e-003	-3.392159e-001	7.542579e-003	-2.953919e-002	-8.347434e-001	5.299335e-002
7840000000	-6.791135e-001	2.765185e-001	2.393911e-003	-3.382103e-001	7.460686e-003	-2.958209e-002	-8.344606e-001	5.316912e-002
7850000000	-6.790327e-001	2.775452e-001	1.715148e-003	-3.371489e-001	7.496096e-003	-2.954006e-002	-8.341558e-001	5.349826e-002
7860000000	-6.789470e-001	2.782641e-001	1.060198e-003	-3.362109e-001	7.596156e-003	-2.951026e-002	-8.340532e-001	5.381644e-002
7870000000	-6.788649e-001	2.790560e-001	3.182198e-004	-3.355223e-001	7.511659e-003	-2.949595e-002	-8.339059e-001	5.424124e-002
7880000000	-6.788661e-001	2.798308e-001	-2.982473e-004	-3.346102e-001	7.505386e-003	-2.952232e-002	-8.336887e-001	5.452575e-002
7890000000	-6.787557e-001	2.802986e-001	-9.176191e-004	-3.337836e-001	7.502220e-003	-2.947879e-002	-8.335132e-001	5.491416e-002
7900000000	-6.785896e-001	2.804907e-001	-1.498013e-003	-3.327544e-001	7.557876e-003	-2.950199e-002	-8.332769e-001	5.543653e-002
7910000000	-6.785111e-001	2.806202e-001	-2.093327e-003	-3.316812e-001	7.587996e-003	-2.955792e-002	-8.330696e-001	5.564858e-002
7920000000	-6.780814e-001	2.808379e-001	-2.671910e-003	-3.307999e-001	7.506500e-003	-2.950421e-002	-8.328477e-001	5.609819e-002
7930000000	-6.776682e-001	2.809052e-001	-3.226294e-003	-3.299543e-001	7.542149e-003	-2.954312e-002	-8.325215e-001	5.650095e-002
7940000000	-6.772205e-001	2.813434e-001	-3.612896e-003	-3.289705e-001	7.495137e-003	-2.957988e-002	-8.323918e-001	5.663637e-002
7950000000	-6.765159e-001	2.813169e-001	-4.194103e-003	-3.279483e-001	7.471716e-003	-2.958848e-002	-8.321667e-001	5.698709e-002
7960000000	-6.759958e-001	2.818815e-001	-4.693969e-003	-3.270192e-001	7.455720e-003	-2.959485e-002	-8.317484e-001	5.715420e-002
7970000000	-6.753800e-001	2.823145e-001	-5.088135e-003	-3.259718e-001	7.493989e-003	-2.962206e-002	-8.316789e-001	5.749007e-002
7980000000	-6.746600e-001	2.828358e-001	-5.554328e-003	-3.251259e-001	7.379142e-003	-2.957997e-002	-8.314040e-001	5.791560e-002
7990000000	-6.739746e-001	2.835806e-001	-6.102399e-003	-3.241696e-001	7.394744e-003	-2.961034e-002	-8.312291e-001	5.810734e-002
8000000000	-6.735778e-001	2.843722e-001	-6.585249e-003	-3.232949e-001	7.438555e-003	-2.960574e-002	-8.307772e-001	5.851272e-002
8010000000	-6.731195e-001	2.850011e-001	-7.264010e-003	-3.224271e-001	7.450747e-003	-2.968261e-002	-8.307097e-001	5.895596e-002
8020000000	-6.726029e-001	2.858337e-001	-8.093980e-003	-3.215438e-001	7.390285e-003	-2.966272e-002	-8.304706e-001	5.925037e-002
8030000000	-6.723714e-001	2.864741e-001	-8.820875e-003	-3.207371e-001	7.392663e-003	-2.974948e-002	-8.303844e-001	5.970202e-002
8040000000	-6.719989e-001	2.871780e-001	-9.439109e-003	-3.199086e-001	7.350788e-003	-2.975918e-002	-8.303229e-001	5.986157e-002
8050000000	-6.718602e-001	2.876646e-001	-1.007233e-002	-3.189046e-001	7.317497e-003	-2.971517e-002	-8.303561e-001	6.014380e-002
8060000000	-6.718365e-001	2.880916e-001	-1.036812e-002	-3.180596e-001	7.346715e-003	-2.975312e-002	-8.299977e-001	6.027788e-002
8070000000	-6.714015e-001	2.887058e-001	-1.090122e-002	-3.171841e-001	7.266927e-003	-2.976860e-002	-8.298034e-001	6.032814e-002
8080000000	-6.710934e-001	2.890903e-001	-1.110967e-002	-3.164125e-001	7.332585e-003	-2.981134e-002	-8.296539e-001	6.021454e-002
8090000000	-6.706662e-001	2.895135e-001	-1.168939e-002	-3.156606e-001	7.378504e-003	-2.982202e-002	-8.293050e-001	6.027624e-002
8100000000	-6.701830e-001	2.899155e-001	-1.207650e-002	-3.148931e-001	7.324345e-003	-2.980762e-002	-8.290783e-001	6.009004e-002
8110000000	-6.694849e-001	2.904290e-001	-1.257172e-002	-3.141628e-001	7.356427e-003	-2.994414e-002	-8.290551e-001	5.976493e-002
8120000000	-6.687654e-001	2.909352e-001	-1.305037e-002	-3.134389e-001	7.300310e-003	-3.003723e-002	-8.287771e-001	5.969737e-002
8130000000	-6.682082e-001	2.917341e-001	-1.373329e-002	-3.127204e-001	7.308269e-003	-3.008125e-002	-8.286297e-001	5.955789e-002
8140000000	-6.673779e-001	2.922082e-001	-1.435140e-002	-3.120049e-001	7.231662e-003	-3.015133e-002	-8.283356e-001	5.955313e-002
8150000000	-6.666896e-001	2.929305e-001	-1.490250e-002	-3.113489e-001	7.220178e-003	-3.021571e-002	-8.281415e-001	5.958874e-002
8160000000	-6.661454e-001	2.937853e-001	-1.543268e-002	-3.106949e-001	7.133035e-003	-3.035463e-002	-8.278575e-001	5.971156e-002
8170000000	-6.654881e-001	2.944061e-001	-1.611320e-002	-3.100172e-001	7.021740e-003	-3.037190e-002	-8.275773e-001	6.002488e-002
8180000000	-6.651436e-001	2.952131e-001	-1.672728e-002	-3.092797e-001	6.891942e-003	-3.044094e-002	-8.272870e-001	6.048712e-002
8190000000	-6.649410e-001	2.957891e-001	-1.734686e-002	-3.083820e-001	6.784409e-003	-3.043458e-002	-8.273208e-001	6.099207e-002
8200000000	-6.646980e-001	2.962504e-001	-1.800155e-002	-3.076923e-001	6.673418e-003	-3.037415e-002	-8.273062e-001	6.132764e-002
8210000000	-6.646535e-001	2.968389e-001	-1.864699e-002	-3.068792e-001	6.519778e-003	-3.042246e-002	-8.273816e-001	6.170397e-002
8220000000	-6.646310e-001	2.974112e-001	-1.927250e-002	-3.059449e-001	6.478800e-003	-3.040399e-002	-8.275238e-001	6.230263e-002
8230000000	-6.642686e-001	2.979269e-001	-1.986703e-002	-3.050531e-001	6.427820e-003	-3.031786e-002	-8.274242e-001	6.249320e-002
8240000000	-6.640176e-001	2.986790e-001	-2.049073e-002	-3.043969e-001	6.413815e-003	-3.032070e-002	-8.276752e-001	6.273058e-002
8250000000	-6.637997e-001	2.989361e-001	-2.092094e-002	-3.035086e-001	6.339191e-003	-3.028281e-002	-8.278370e-001	6.273491e-002
8260000000	-6.632205e-001	2.993973e-001	-2.143351e-002	-3.027596e-001	6.274407e-003	-3.028958e-002	-8.280789e-001	6.284819e-002
8270000000	-6.624409e-001	3.000260e-001	-2.204013e-002	-3.020340e-001	6.257673e-003	-3.023582e-002	-8.281852e-001	6.281956e-002
8280000000	-6.617321e-001	3.006923e-001	-2.259274e-002	-3.014033e-001	6.189307e-003	-3.014977e-002	-8.282535e-001	6.281603e-002
8290000000	-6.607824e-001	3.013335e-001	-2.320017e-002	-3.008051e-001	6.148459e-003	-3.018318e-002	-8.281404e-001	6.295458e-002
8300000000	-6.600046e-001	3.020543e-001	-2.381902e-002	-3.000715e-001	6.047215e-003	-3.017334e-002	-8.282110e-001	6.301962e-002
8310000000	-6.589366e-001	3.029724e-001	-2.438021e-002	-2.993836e-001	5.994181e-003	-3.008474e-002	-8.278208e-001	6.314514e-002
8320000000	-6.579546e-001	3.038303e-001	-2.494766e-002	-2.985508e-001	6.008728e-003	-3.004039e-002	-8.274005e-001	6.353998e-002
8330000000	-6.572467e-001	3.048368e-001	-2.551892e-002	-2.976734e-001	6.038592e-003	-3.006784e-002	-8.270667e-001	6.417005e-002
8340000000	-6.567365e-001	3.059372e-001	-2.624241e-002	-2.966984e-001	5.970803e-003	-2.998846e-002	-8.265091e-001	6.462970e-002
8350000000	-6.560141e-001	3.070553e-001	-2.660518e-002	-2.959095e-001	5.898145e-003	-3.000617e-002	-8.260580e-001	6.513723e-002
8360000000	-6.558556e-001	3.079321e-001	-2.706248e-002	-2.950847e-001	5.914512e-003	-2.995717e-002	-8.258062e-001	6.559204e-002
8370000000	-6.553799e-001	3.089050e-001	-2.770463e-002	-2.943720e-001	5.891560e-003	-3.000465e-002	-8.257873e-001	6.629279e-002
8380000000	-6.552007e-001	3.098526e-001	-2.821608e-002	-2.936719e-001	5.889114e-003	-2.997590e-002	-8.257234e-001	6.681297e-002
8390000000	-6.549855e-001	3.106451e-001	-2.857162e-002	-2.930041e-001	5.796326e-003	-2.997423e-002	-8.258147e-001	6.731835e-002
8400000000	-6.548183e-001	3.114557e-001	-2.905223e-002	-2.923774e-001	5.802739e-003	-2.995922e-002	-8.260124e-001	6.772934e-002
8410000000	-6.545111e-001	3.118014e-001	-2.965806e-002	-2.916532e-001	5.783173e-003	-2.995020e-002	-8.264163e-001	6.817839e-002
8420000000	-6.540636e-001	3.124747e-001	-3.021541e-002	-2.909214e-001	5.709220e-003	-2.993916e-002	-8.266335e-001	6.830601e-002
8430000000	-6.537019e-001	3.129279e-001	-3.076209e-002	-2.902688e-001	5.678762e-003	-2.986883e-002	-8.272850e-001	6.862764e-002
8440000000	-6.529002e-001	3.134506e-001	-3.132881e-002	-2.895704e-001	5.632883e-003	-2.983983e-002	-8.274190e-001	6.863059e-002
8450000000	-6.521438e-001	3.140287e-001	-3.189034e-002	-2.887983e-001	5.664784e-003	-2.982726e-002	-8.273765e-001	6.853023e-002
8460000000	-6.514335e-001	3.144022e-001	-3.241756e-002	-2.881572e-001	5.621166e-003	-2.980688e-002	-8.273069e-001	6.857125e-002
8470000000	-6.505872e-001	3.150473e-001	-3.289115e-002	-2.874017e-001	5.667248e-003	-2.979080e-002	-8.268053e-001	6.818304e-002
8480000000	-6.496557e-001	3.159104e-001	-3.331003e-002	-2.866920e-001	5.569869e-003	-2.977207e-002	-8.263096e-001	6.792732e-002
8490000000	-6.487927e-001	3.168237e-001	-3.365985e-002	-2.859817e-001	5.631918e-003	-2.983464e-002	-8.257319e-001	6.806917e-002
8500000000	-6.480287e-001	3.177745e-001	-3.418977e-002	-2.852282e-001	5.631244e-003	-2.980233e-002	-8.249798e-001	6.809413e-002
8510000000	-6.472505e-001	3.193804e-001	-3.429876e-002	-2.844341e-001	5.609651e-003	-2.981564e-002	-8.245712e-001	6.793036e-002
8520000000	-6.468151e-001	3.204288e-001	-3.492273e-002	-2.839171e-001	5.552037e-003	-2.959637e-002	-8.235070e-001	6.897961e-002
8530000000	-6.461507e-001	3.215813e-001	-3.579977e-002	-2.830863e-001	5.543227e-003	-2.978682e-002	-8.229705e-001	6.942347e-002
8540000000	-6.455098e-001	3.236138e-001	-3.618925e-002	-2.827849e-001	5.556453e-003	-2.966328e-002	-8.226851e-001	7.041961e-002
8550000000	-6.451119e-001	3.244893e-001	-3.660442e-002	-2.818435e-001	5.528223e-003	-2.962117e-002	-8.225419e-001	7.152369e-002
8560000000	-6.446204e-001	3.255557e-001	-3.739711e-002	-2.810424e-001	5.322552e-003	-3.001352e-002	-8.225778e-001	7.276031e-002
8570000000	-6.440252e-001	3.265102e-001	-3.776858e-002	-2.803246e-001	5.558415e-003	-2.963299e-002	-8.226912e-001	7.368189e-002
8580000000	-6.432771e-001	3.270602e-001	-3.772296e-002	-2.801106e-001	5.539008e-003	-2.976293e-002	-8.231182e-001	7.445619e-002
8590000000	-6.427901e-001	3.276324e-001	-3.878950e-002	-2.790829e-001	5.581912e-003	-2.984001e-002	-8.234388e-001	7.540324e-002
8600000000	-6.418958e-001	3.283994e-001	-3.841876e-002	-2.786850e-001	5.399292e-003	-2.971740e-002	-8.233092e-001	7.561822e-002
8610000000	-6.410387e-001	3.286125e-001	-3.961267e-002	-2.778363e-001	5.116606e-003	-2.972012e-002	-8.235771e-001	7.566618e-002
8620000000	-6.398852e-001	3.292407e-001	-3.996708e-002	-2.768498e-001	5.573347e-003	-2.968585e-002	-8.232625e-001	7.527069e-002
8630000000	-6.392399e-001	3.294452e-001	-4.017330e-002	-2.764809e-001	5.364791e-003	-2.990586e-002	-8.234155e-001	7.542969e-002
8640000000	-6.382437e-001	3.300701e-001	-4.048573e-002	-2.757833e-001	5.528227e-003	-2.984296e-002	-8.230547e-001	7.493636e-002
8650000000	-6.374918e-001	3.315350e-001	-4.143040e-002	-2.753650e-001	5.476291e-003	-2.980768e-002	-8.223662e-001	7.437579e-002
8660000000	-6.365117e-001	3.321974e-001	-4.194118e-002	-2.744264e-001	5.356203e-003	-2.994985e-002	-8.218590e-001	7.390793e-002
8670000000	-6.353483e-001	3.338903e-001	-4.224206e-002	-2.736678e-001	5.325561e-003	-2.983524e-002	-8.208652e-001	7.306268e-002
8680000000	-6.344674e-001	3.354829e-001	-4.264184e-002	-2.732114e-001	5.418145e-003	-2.996759e-002	-8.199151e-001	7.305041e-002
8690000000	-6.338645e-001	3.366835e-001	-4.293807e-002	-2.727691e-001	5.430786e-003	-3.003579e-002	-8.190050e-001	7.322656e-002
8700000000	-6.329049e-001	3.384000e-001	-4.370591e-002	-2.721586e-001	5.465477e-003	-2.996633e-002	-8.182864e-001	7.357064e-002
8710000000	-6.320450e-001	3.396044e-001	-4.398783e-002	-2.718437e-001	5.458246e-003	-2.999221e-002	-8.174754e-001	7.392390e-002
8720000000	-6.311563e-001	3.413955e-001	-4.440436e-002	-2.710702e-001	5.393051e-003	-3.003270e-002	-8.171048e-001	7.486406e-002
8730000000	-6.307570e-001	3.423836e-001	-4.526060e-002	-2.702184e-001	5.204232e-003	-3.014775e-002	-8.167365e-001	7.646926e-002
8740000000	-6.299963e-001	3.432162e-001	-4.575518e-002	-2.693535e-001	5.299135e-003	-3.017198e-002	-8.161272e-001	7.738572e-002
8750000000	-6.295276e-001	3.437747e-001	-4.609553e-002	-2.690087e-001	5.321873e-003	-3.012934e-002	-8.163119e-001	7.863394e-002
8760000000	-6.288051e-001	3.439872e-001	-4.673713e-002	-2.683311e-001	5.286521e-003	-2.995922e-002	-8.160863e-001	7.888855e-002
8770000000	-6.283785e-001	3.447400e-001	-4.704649e-002	-2.673773e-001	5.252507e-003	-3.021917e-002	-8.173499e-001	7.956849e-002
8780000000	-6.271000e-001	3.450158e-001	-4.743768e-002	-2.668543e-001	5.210682e-003	-3.007618e-002	-8.172041e-001	8.018731e-002
8790000000	-6.259382e-001	3.455563e-001	-4.792948e-002	-2.664418e-001	5.311905e-003	-2.995121e-002	-8.174601e-001	8.002716e-002
8800000000	-6.251899e-001	3.460736e-001	-4.836999e-002	-2.654013e-001	4.936425e-003	-3.029339e-002	-8.173406e-001	7.966525e-002
8810000000	-6.242185e-001	3.469651e-001	-4.858805e-002	-2.648635e-001	5.090496e-003	-3.010220e-002	-8.168875e-001	7.891246e-002
8820000000	-6.228724e-001	3.483345e-001	-4.872166e-002	-2.642348e-001	5.165829e-003	-3.009365e-002	-8.175151e-001	7.752210e-002
8830000000	-6.212117e-001	3.492769e-001	-4.956862e-002	-2.637043e-001	5.003841e-003	-3.021756e-002	-8.167986e-001	7.730165e-002
8840000000	-6.203101e-001	3.507871e-001	-5.000701e-002	-2.630741e-001	5.067625e-003	-3.027826e-002	-8.164639e-001	7.604315e-002
8850000000	-6.189200e-001	3.523992e-001	-5.027838e-002	-2.624032e-001	5.101886e-003	-3.027117e-002	-8.154581e-001	7.576811e-002
8860000000	-6.176905e-001	3.537835e-001	-5.070476e-002	-2.619387e-001	5.180384e-003	-3.035358e-002	-8.142866e-001	7.571727e-002
8870000000	-6.161152e-001	3.553734e-001	-5.117041e-002	-2.615770e-001	4.961473e-003	-3.016619e-002	-8.134688e-001	7.538323e-002
8880000000	-6.152569e-001	3.564366e-001	-5.167323e-002	-2.605783e-001	5.031121e-003	-3.019960e-002	-8.128879e-001	7.547292e-002
8890000000	-6.142038e-001	3.581136e-001	-5.235730e-002	-2.605096e-001	5.194243e-003	-3.032055e-002	-8.113337e-001	7.641931e-002
8900000000	-6.138367e-001	3.595371e-001	-5.282933e-002	-2.596641e-001	4.922217e-003	-3.035601e-002	-8.107462e-001	7.712364e-002
8910000000	-6.133701e-001	3.598867e-001	-5.306170e-002	-2.590880e-001	4.785569e-003	-3.026275e-002	-8.102612e-001	7.819792e-002
8920000000	-6.127597e-001	3.609695e-001	-5.359688e-002	-2.585454e-001	5.036188e-003	-3.039504e-002	-8.104435e-001	7.948265e-002
8930000000	-6.118269e-001	3.615676e-001	-5.381844e-002	-2.578013e-001	4.826576e-003	-3.049307e-002	-8.106807e-001	8.056088e-002
8940000000	-6.111866e-001	3.621885e-001	-5.423254e-002	-2.570655e-001	5.023885e-003	-3.057941e-002	-8.105224e-001	8.116722e-002
8950000000	-6.107132e-001	3.625156e-001	-5.467207e-002	-2.564448e-001	4.984403e-003	-3.040240e-002	-8.099076e-001	8.146980e-002
8960000000	-6.096994e-001	3.629113e-001	-5.516676e-002	-2.561021e-001	4.961212e-003	-3.063300e-002	-8.110215e-001	8.138406e-002
8970000000	-6.082188e-001	3.635611e-001	-5.562939e-002	-2.554995e-001	4.862283e-003	-3.060265e-002	-8.116979e-001	8.137794e-002
8980000000	-6.063109e-001	3.645739e-001	-5.607499e-002	-2.549696e-001	4.904914e-003	-3.040547e-002	-8.112907e-001	8.121969e-002
8990000000	-6.055077e-001	3.655252e-001	-5.672876e-002	-2.545379e-001	4.752132e-003	-3.074165e-002	-8.112677e-001	8.050313e-002
9000000000	-6.036431e-001	3.667185e-001	-5.671290e-002	-2.542406e-001	4.999045e-003	-3.059121e-002	-8.115040e-001	7.937066e-002
9010000000	-6.017096e-001	3.680778e-001	-5.748074e-002	-2.532339e-001	4.818208e-003	-3.058190e-002	-8.109526e-001	7.858222e-002
9020000000	-6.003782e-001	3.692130e-001	-5.753986e-002	-2.530702e-001	5.031308e-003	-3.085748e-002	-8.104449e-001	7.781330e-002
9030000000	-5.988836e-001	3.707159e-001	-5.854859e-002	-2.522228e-001	4.776617e-003	-3.077656e-002	-8.098719e-001	7.707966e-002
9040000000	-5.971122e-001	3.721876e-001	-5.869038e-002	-2.520783e-001	4.792770e-003	-3.073567e-002	-8.088894e-001	7.677873e-002
9050000000	-5.964733e-001	3.742286e-001	-5.922795e-002	-2.513420e-001	4.722546e-003	-3.078639e-002	-8.074900e-001	7.698970e-002
9060000000	-5.956099e-001	3.753153e-001	-5.951221e-002	-2.506270e-001	4.630422e-003	-3.100424e-002	-8.071849e-001	7.754556e-002
9070000000	-5.948131e-001	3.766167e-001	-5.978796e-002	-2.503395e-001	4.729964e-003	-3.096742e-002	-8.061200e-001	7.816282e-002
9080000000	-5.942049e-001	3.776652e-001	-6.007251e-002	-2.494736e-001	4.721056e-003	-3.089526e-002	-8.052772e-001	7.839032e-002
9090000000	-5.937157e-001	3.785606e-001	-6.076409e-002	-2.490187e-001	4.682954e-003	-3.087059e-002	-8.039528e-001	7.966753e-002
9100000000	-5.934092e-001	3.795195e-001	-6.100043e-002	-2.480718e-001	4.643234e-003	-3.086592e-002	-8.042337e-001	8.014427e-002
9110000000	-5.925636e-001	3.798635e-001	-6.130556e-002	-2.478776e-001	4.372700e-003	-3.106374e-002	-8.043394e-001	8.129372e-002
9120000000	-5.920308e-001	3.802732e-001	-6.193855e-002	-2.470944e-001	4.564478e-003	-3.115361e-002	-8.043618e-001	8.205571e-002
9130000000	-5.906730e-001	3.808275e-001	-6.238200e-002	-2.466388e-001	4.632657e-003	-3.118671e-002	-8.050072e-001	8.186727e-002
9140000000	-5.901514e-001	3.811462e-001	-6.256406e-002	-2.461684e-001	4.533137e-003	-3.147651e-002	-8.049937e-001	8.182837e-002
9150000000	-5.883442e-001	3.814487e-001	-6.323909e-002	-2.459935e-001	4.456965e-003	-3.145937e-002	-8.059342e-001	8.129470e-002
9160000000	-5.868027e-001	3.825958e-001	-6.359078e-002	-2.453792e-001	4.435644e-003	-3.141203e-002	-8.058544e-001	8.090069e-002
9170000000	-5.851527e-001	3.831012e-001	-6.432106e-002	-2.451723e-001	4.465803e-003	-3.127826e-002	-8.058604e-001	7.999987e-002
9180000000	-5.829818e-001	3.844931e-001	-6.461577e-002	-2.444745e-001	4.423940e-003	-3.115338e-002	-8.068066e-001	7.901190e-002
9190000000	-5.811439e-001	3.857731e-001	-6.492288e-002	-2.440575e-001	4.190696e-003	-3.140542e-002	-8.055081e-001	7.860315e-002
9200000000	-5.793433e-001	3.871789e-001	-6.566455e-002	-2.435269e-001	4.107663e-003	-3.123248e-002	-8.053601e-001	7.783999e-002
9210000000	-5.772201e-001	3.887430e-001	-6.625180e-002	-2.431193e-001	4.048673e-003	-3.141616e-002	-8.042819e-001	7.779656e-002
9220000000	-5.758050e-001	3.904880e-001	-6.692448e-002	-2.422256e-001	4.247875e-003	-3.154618e-002	-8.034427e-001	7.848215e-002
9230000000	-5.744983e-001	3.918935e-001	-6.670420e-002	-2.414377e-001	4.041797e-003	-3.138458e-002	-8.019917e-001	7.841385e-002
9240000000	-5.736897e-001	3.939347e-001	-6.738103e-002	-2.409820e-001	4.126367e-003	-3.151493e-002	-8.008048e-001	7.907833e-002
9250000000	-5.727638e-001	3.953465e-001	-6.765835e-002	-2.403785e-001	4.054796e-003	-3.165739e-002	-8.003751e-001	8.020162e-002
9260000000	-5.720692e-001	3.964563e-001	-6.771963e-002	-2.396322e-001	3.961928e-003	-3.150970e-002	-7.998368e-001	8.126422e-002
9270000000	-5.711887e-001	3.977673e-001	-6.836314e-002	-2.395426e-001	3.831818e-003	-3.150787e-002	-7.996986e-001	8.172829e-002
9280000000	-5.703701e-001	3.985210e-001	-6.862948e-002	-2.388133e-001	3.963321e-003	-3.162896e-002	-7.991694e-001	8.233306e-002
9290000000	-5.696786e-001	3.992563e-001	-6.892867e-002	-2.383882e-001	3.926018e-003	-3.192558e-002	-7.997046e-001	8.348520e-002
9300000000	-5.690675e-001	4.003856e-001	-6.972167e-002	-2.377921e-001	3.950776e-003	-3.162416e-002	-7.993635e-001	8.327128e-002
9310000000	-5.680238e-001	4.010174e-001	-6.999281e-002	-2.373087e-001	3.925697e-003	-3.166637e-002	-7.993507e-001	8.339622e-002
9320000000	-5.667713e-001	4.016912e-001	-7.052867e-002	-2.368368e-001	3.857537e-003	-3.175698e-002	-8.009181e-001	8.289973e-002
9330000000	-5.649958e-001	4.023120e-001	-7.087741e-002	-2.364996e-001	3.662635e-003	-3.167908e-002	-8.007119e-001	8.280886e-002
9340000000	-5.632696e-001	4.035552e-001	-7.124449e-002	-2.358674e-001	3.441826e-003	-3.164351e-002	-8.015919e-001	8.213111e-002
9350000000	-5.614520e-001	4.040283e-001	-7.163175e-002	-2.352311e-001	3.747840e-003	-3.173059e-002	-8.014168e-001	8.124101e-002
9360000000	-5.591626e-001	4.053793e-001	-7.204481e-002	-2.348398e-001	3.724649e-003	-3.180732e-002	-8.010341e-001	8.069032e-002
9370000000	-5.578725e-001	4.063965e-001	-7.258668e-002	-2.340663e-001	3.568262e-003	-3.192448e-002	-8.006633e-001	7.996272e-002
9380000000	-5.565944e-001	4.078750e-001	-7.298867e-002	-2.334241e-001	3.496698e-003	-3.178194e-002	-7.996180e-001	7.939240e-002
9390000000	-5.547679e-001	4.093967e-001	-7.325976e-002	-2.332032e-001	3.546098e-003	-3.189534e-002	-7.993066e-001	7.960850e-002
9400000000	-5.539825e-001	4.101240e-001	-7.367684e-002	-2.324565e-001	3.810219e-003	-3.204517e-002	-7.981622e-001	7.944046e-002
9410000000	-5.528901e-001	4.112523e-001	-7.470248e-002	-2.320808e-001	3.466316e-003	-3.212515e-002	-7.967503e-001	8.030629e-002
9420000000	-5.519787e-001	4.129297e-001	-7.458209e-002	-2.313299e-001	3.347007e-003	-3.195974e-002	-7.955911e-001	8.012511e-002
9430000000	-5.513122e-001	4.142070e-001	-7.464311e-002	-2.313783e-001	3.423244e-003	-3.212475e-002	-7.945157e-001	8.137793e-002
9440000000	-5.496819e-001	4.151563e-001	-7.523427e-002	-2.309941e-001	3.534291e-003	-3.184349e-002	-7.936690e-001	8.207489e-002
9450000000	-5.493433e-001	4.163783e-001	-7.531419e-002	-2.307924e-001	3.569495e-003	-3.232121e-002	-7.934158e-001	8.281628e-002
9460000000	-5.477250e-001	4.179370e-001	-7.596857e-002	-2.303294e-001	3.329422e-003	-3.201039e-002	-7.935792e-001	8.419458e-002
9470000000	-5.464833e-001	4.190453e-001	-7.661994e-002	-2.298757e-001	3.269214e-003	-3.243123e-002	-7.943944e-001	8.465868e-002
9480000000	-5.450428e-001	4.197310e-001	-7.721812e-002	-2.290691e-001	3.302460e-003	-3.224964e-002	-7.939495e-001	8.495348e-002
9490000000	-5.432910e-001	4.209672e-001	-7.769984e-002	-2.286501e-001	3.215855e-003	-3.231166e-002	-7.946509e-001	8.441242e-002
9500000000	-5.415625e-001	4.213141e-001	-7.841370e-002	-2.279029e-001	3.047367e-003	-3.240501e-002	-7.955754e-001	8.468920e-002
9510000000	-5.396363e-001	4.227384e-001	-7.859008e-002	-2.275061e-001	3.083530e-003	-3.225360e-002	-7.955203e-001	8.425775e-002
9520000000	-5.378663e-001	4.234242e-001	-7.897833e-002	-2.269528e-001	3.242076e-003	-3.261451e-002	-7.954931e-001	8.339242e-002
9530000000	-5.358705e-001	4.248378e-001	-7.911446e-002	-2.263169e-001	3.280563e-003	-3.238339e-002	-7.953265e-001	8.286541e-002
9540000000	-5.346996e-001	4.262949e-001	-7.943542e-002	-2.257850e-001	3.110926e-003	-3.249986e-002	-7.952116e-001	8.190095e-002
9550000000	-5.328499e-001	4.274294e-001	-8.025616e-002	-2.249936e-001	3.352836e-003	-3.259020e-002	-7.941101e-001	8.225222e-002
9560000000	-5.322129e-001	4.286613e-001	-8.017556e-002	-2.248089e-001	3.076052e-003	-3.253488e-002	-7.929251e-001	8.147934e-002
9570000000	-5.307134e-001	4.305813e-001	-8.033916e-002	-2.246392e-001	2.962603e-003	-3.278238e-002	-7.924009e-001	8.076150e-002
9580000000	-5.293484e-001	4.323530e-001	-8.101644e-002	-2.244215e-001	3.092911e-003	-3.272335e-002	-7.910978e-001	8.209019e-002
9590000000	-5.278575e-001	4.335738e-001	-8.164235e-002	-2.242282e-001	3.008895e-003	-3.282314e-002	-7.902715e-001	8.268749e-002
9600000000	-5.271430e-001	4.349739e-001	-8.162214e-002	-2.236729e-001	3.050270e-003	-3.292708e-002	-7.893557e-001	8.279663e-002
9610000000	-5.258436e-001	4.360691e-001	-8.239669e-002	-2.234509e-001	3.029126e-003	-3.316971e-002	-7.888251e-001	8.429096e-002
9620000000	-5.247117e-001	4.371510e-001	-8.291020e-002	-2.229378e-001	2.868451e-003	-3.306564e-002	-7.875582e-001	8.493285e-002
9630000000	-5.230656e-001	4.381129e-001	-8.345546e-002	-2.221978e-001	2.978597e-003	-3.296682e-002	-7.879971e-001	8.652542e-002
9640000000	-5.213950e-001	4.390875e-001	-8.368309e-002	-2.217473e-001	2.851346e-003	-3.316601e-002	-7.879385e-001	8.660685e-002
9650000000	-5.198542e-001	4.398477e-001	-8.449838e-002	-2.214608e-001	2.731775e-003	-3.339911e-002	-7.885771e-001	8.669309e-002
9660000000	-5.175673e-001	4.409125e-001	-8.465004e-002	-2.209107e-001	2.862966e-003	-3.332329e-002	-7.890736e-001	8.716712e-002
9670000000	-5.157104e-001	4.419924e-001	-8.506950e-002	-2.206047e-001	2.646155e-003	-3.334612e-002	-7.890792e-001	8.678331e-002
9680000000	-5.135897e-001	4.437306e-001	-8.578731e-002	-2.202284e-001	2.709847e-003	-3.336485e-002	-7.893846e-001	8.634484e-002
9690000000	-5.121875e-001	4.448258e-001	-8.585476e-002	-2.199189e-001	2.546727e-003	-3.356016e-002	-7.891679e-001	8.592867e-002
9700000000	-5.097780e-001	4.464599e-001	-8.619487e-002	-2.191473e-001	2.750965e-003	-3.359824e-002	-7.885917e-001	8.469540e-002
9710000000	-5.085132e-001	4.490638e-001	-8.621664e-002	-2.186831e-001	2.400135e-003	-3.358477e-002	-7.886302e-001	8.525202e-002
9720000000	-5.072441e-001	4.504419e-001	-8.696433e-002	-2.180793e-001	2.412736e-003	-3.370945e-002	-7.879319e-001	8.403079e-002
9730000000	-5.054997e-001	4.525955e-001	-8.751676e-002	-2.180052e-001	2.519036e-003	-3.386848e-002	-7.866310e-001	8.380905e-002
9740000000	-5.042566e-001	4.544397e-001	-8.805726e-002	-2.174428e-001	2.018324e-003	-3.388724e-002	-7.861189e-001	8.405804e-002
9750000000	-5.025507e-001	4.555307e-001	-8.840459e-002	-2.169076e-001	2.272942e-003	-3.399355e-002	-7.839328e-001	8.327089e-002
9760000000	-5.016579e-001	4.571060e-001	-8.891601e-002	-2.164783e-001	2.099147e-003	-3.401531e-002	-7.836880e-001	8.485879e-002
9770000000	-5.004347e-001	4.584079e-001	-8.942157e-002	-2.162036e-001	2.225229e-003	-3.388299e-002	-7.829827e-001	8.508359e-002
9780000000	-4.989086e-001	4.585774e-001	-9.008834e-002	-2.152776e-001	2.089541e-003	-3.407246e-002	-7.819034e-001	8.574012e-002
9790000000	-4.967386e-001	4.594648e-001	-8.998158e-002	-2.154470e-001	1.903354e-003	-3.407924e-002	-7.819028e-001	8.757874e-002
9800000000	-4.954318e-001	4.598907e-001	-9.044724e-002	-2.148052e-001	1.974323e-003	-3.406470e-002	-7.807960e-001	8.748504e-002
9810000000	-4.934599e-001	4.607513e-001	-9.107411e-002	-2.145333e-001	1.985704e-003	-3.415229e-002	-7.817992e-001	8.831588e-002
9820000000	-4.912078e-001	4.606481e-001	-9.160885e-002	-2.138209e-001	1.858980e-003	-3.423938e-002	-7.815551e-001	8.861169e-002
9830000000	-4.889963e-001	4.617407e-001	-9.148436e-002	-2.137962e-001	1.983971e-003	-3.423856e-002	-7.821807e-001	8.858081e-002
9840000000	-4.866270e-001	4.635123e-001	-9.223235e-002	-2.135910e-001	1.808585e-003	-3.442751e-002	-7.823719e-001	8.854396e-002
9850000000	-4.846771e-001	4.645646e-001	-9.274522e-002	-2.131559e-001	1.837190e-003	-3.436477e-002	-7.828843e-001	8.837661e-002
9860000000	-4.822518e-001	4.660438e-001	-9.320526e-002	-2.123751e-001	1.514370e-003	-3.437834e-002	-7.823066e-001	8.777790e-002
9870000000	-4.797332e-001	4.683668e-001	-9.301838e-002	-2.119256e-001	1.527813e-003	-3.459059e-002	-7.819066e-001	8.734077e-002
9880000000	-4.772876e-001	4.704307e-001	-9.382282e-002	-2.111951e-001	1.489345e-003	-3.458017e-002	-7.817117e-001	8.689726e-002
9890000000	-4.753847e-001	4.728837e-001	-9.434378e-002	-2.105734e-001	1.534363e-003	-3.457305e-002	-7.810958e-001	8.711268e-002
9900000000	-4.736675e-001	4.744104e-001	-9.489127e-002	-2.103110e-001	1.494346e-003	-3.483794e-002	-7.804790e-001	8.650276e-002
9910000000	-4.716806e-001	4.761742e-001	-9.519589e-002	-2.097172e-001	1.386610e-003	-3.485935e-002	-7.779986e-001	8.665036e-002
9920000000	-4.705546e-001	4.771738e-001	-9.624829e-002	-2.093914e-001	1.223082e-003	-3.500043e-002	-7.768883e-001	8.684527e-002
9930000000	-4.693989e-001	4.786486e-001	-9.646288e-002	-2.091061e-001	1.089715e-003	-3.473455e-002	-7.763573e-001	8.654610e-002
9940000000	-4.676925e-001	4.797825e-001	-9.658353e-002	-2.087421e-001	1.017917e-003	-3.497842e-002	-7.748598e-001	8.751421e-002
9950000000	-4.663525e-001	4.804193e-001	-9.683317e-002	-2.082821e-001	1.066357e-003	-3.501363e-002	-7.740193e-001	8.830964e-002
9960000000	-4.646709e-001	4.814162e-001	-9.761646e-002	-2.077465e-001	1.019972e-003	-3.509467e-002	-7.738920e-001	8.872607e-002
9970000000	-4.636798e-001	4.817104e-001	-9.813692e-002	-2.074070e-001	7.407006e-004	-3.506712e-002	-7.739536e-001	9.032198e-002
9980000000	-4.607791e-001	4.822856e-001	-9.870764e-002	-2.068094e-001	1.068734e-003	-3.503798e-002	-7.740870e-001	9.094834e-002
9990000000	-4.582331e-001	4.827980e-001	-9.886896e-002	-2.062421e-001	7.679288e-004	-3.511088e-002	-7.742296e-001	9.182465e-002
10000000000	-4.557579e-001	4.836138e-001	-9.899271e-002	-2.061452e-001	8.233333e-004	-3.514015e-002	-7.749622e-001	9.177140e-002
10010000000	-4.526777e-001	4.843926e-001	-9.949936e-002	-2.056939e-001	6.970572e-004	-3.516485e-002	-7.757997e-001	9.198594e-002

!Noise Parameters
!Freq  NFmin(dB)  Mag(GammaOpt)  Ang(GammaOpt)(deg)  rn(normalized by ref. impedance)
1.45e9       0.99773      0.38783      70.364       0.20772     
1.5e9        0.99969      0.4094       72.497       0.2         
1.6e9        1.0158       0.40922      75.003       0.19376     
1.7e9        1.0189       0.40585      80.128       0.19394     
1.8e9        1.0191       0.42436      83.382       0.17933     
1.85e9       1.0252       0.43531      84.066       0.18128     
1.9e9        1.0283       0.43629      86.426       0.17906     
2e9          1.0219       0.42129      87.559       0.17856     
2.1e9        1.0396       0.42115      92.165       0.17014     
2.2e9        1.0429       0.42746      92.632       0.17442     
2.3e9        1.0922       0.42628      99.277       0.16354     
2.4e9        1.138        0.40343      98.667       0.16939     
2.5e9        1.1193       0.43401      101.92       0.16482     
2.6e9        1.1619       0.41772      107.58       0.15415     
2.7e9        1.2061       0.41136      106.76       0.16073     
2.75e9       1.2524       0.40548      112.01       0.14914     
