!Agilent Technologies,E5071C,MY46316587,B.13.01
!Date: Fri Dec 08 11:14:54 2017
!Data & Calibration Information:
!Freq	S11:SOLT2(ON)	S21:SOLT2(ON)	S12:SOLT2(ON)	S22:SOLT2(ON)
!PortZ  Port1:50+j0    Port2:50+j0
!Above PortZ is port z conversion or system Z0 setting when saving the data.
!When reading, reference impedance value at option line is always used.
# Hz S dB R 50
300000	-7.445318e-002	-3.569632e-001	-5.269808e+001	-1.701017e+002	-5.674449e+001	9.389460e+001	-6.015223e-002	-5.901733e-002
10299700	-5.707130e-001	-2.295266e+000	-1.440567e+001	-1.014956e+002	-7.096415e+001	1.635955e+002	-1.774939e-001	-2.473812e+000
20299400	-4.883394e-001	-3.181997e+000	-1.904534e+001	-1.096472e+002	-6.896288e+001	1.683278e+002	-2.162407e-001	-4.126389e+000
30299100	-4.917760e-001	-4.561091e+000	-1.729704e+001	-1.087955e+002	-7.260417e+001	9.251213e+001	-2.371878e-001	-5.923689e+000
40298800	-4.985011e-001	-5.940465e+000	-1.572665e+001	-1.071215e+002	-7.454871e+001	1.323473e+002	-2.564840e-001	-7.701292e+000
50298500	-5.041329e-001	-7.317944e+000	-1.428580e+001	-1.048509e+002	-6.527972e+001	9.857861e+001	-2.762584e-001	-9.490988e+000
60298200	-5.121624e-001	-8.719080e+000	-1.290498e+001	-1.029011e+002	-6.956558e+001	1.182035e+002	-3.005476e-001	-1.125280e+001
70297900	-5.166403e-001	-1.006859e+001	-1.167367e+001	-1.010711e+002	-6.540451e+001	1.030101e+002	-3.182265e-001	-1.301388e+001
80297600	-5.242074e-001	-1.141281e+001	-1.050567e+001	-1.001974e+002	-6.431256e+001	9.712261e+001	-3.448647e-001	-1.478003e+001
90297300	-5.328402e-001	-1.280151e+001	-9.420704e+000	-9.984593e+001	-6.487973e+001	1.277897e+002	-3.712646e-001	-1.655106e+001
100297000	-5.379851e-001	-1.413839e+001	-8.429398e+000	-9.980877e+001	-6.604980e+001	1.373858e+002	-3.984470e-001	-1.829136e+001
110296700	-5.491713e-001	-1.551013e+001	-7.470399e+000	-1.000688e+002	-6.272220e+001	1.486593e+002	-4.276209e-001	-2.006691e+001
120296400	-5.528769e-001	-1.688813e+001	-6.588662e+000	-1.004507e+002	-6.173300e+001	1.306781e+002	-4.545592e-001	-2.180162e+001
130296100	-5.614427e-001	-1.825225e+001	-5.772902e+000	-1.010859e+002	-5.961070e+001	1.386525e+002	-4.877769e-001	-2.353649e+001
140295800	-5.656560e-001	-1.961290e+001	-5.001594e+000	-1.015056e+002	-5.935602e+001	1.367117e+002	-5.183828e-001	-2.529609e+001
150295500	-5.729252e-001	-2.100020e+001	-4.270515e+000	-1.020184e+002	-5.780585e+001	1.476471e+002	-5.518649e-001	-2.706928e+001
160295200	-5.813664e-001	-2.233943e+001	-3.565845e+000	-1.029826e+002	-5.764595e+001	1.403491e+002	-5.851728e-001	-2.880978e+001
170294900	-5.833739e-001	-2.370727e+001	-2.929994e+000	-1.040201e+002	-5.659750e+001	1.547580e+002	-6.225368e-001	-3.055895e+001
180294600	-5.974974e-001	-2.505503e+001	-2.333713e+000	-1.052105e+002	-5.467337e+001	1.553565e+002	-6.631953e-001	-3.230390e+001
190294300	-6.095894e-001	-2.641931e+001	-1.768730e+000	-1.064037e+002	-5.379246e+001	1.565690e+002	-7.099827e-001	-3.402855e+001
200294000	-6.144479e-001	-2.770681e+001	-1.228517e+000	-1.076220e+002	-5.255931e+001	1.633103e+002	-7.557265e-001	-3.578567e+001
210293700	-6.263497e-001	-2.911781e+001	-6.987038e-001	-1.089841e+002	-5.172249e+001	1.623470e+002	-8.038612e-001	-3.753831e+001
220293400	-6.391045e-001	-3.043602e+001	-1.956048e-001	-1.104062e+002	-5.121173e+001	1.607082e+002	-8.551386e-001	-3.927326e+001
230293100	-6.449888e-001	-3.180004e+001	2.960590e-001	-1.116938e+002	-5.032227e+001	1.614211e+002	-9.088047e-001	-4.099993e+001
240292800	-6.606277e-001	-3.317545e+001	7.490622e-001	-1.130132e+002	-4.880103e+001	1.615799e+002	-9.591596e-001	-4.279289e+001
250292500	-6.671626e-001	-3.448127e+001	1.224826e+000	-1.141840e+002	-4.865344e+001	1.593359e+002	-1.024690e+000	-4.446954e+001
260292200	-6.845325e-001	-3.588084e+001	1.681143e+000	-1.156548e+002	-4.750849e+001	1.626752e+002	-1.084139e+000	-4.616182e+001
270291900	-7.000455e-001	-3.723070e+001	2.110713e+000	-1.172891e+002	-4.678914e+001	1.631881e+002	-1.145764e+000	-4.786844e+001
280291600	-7.154112e-001	-3.855564e+001	2.499349e+000	-1.189760e+002	-4.561636e+001	1.615963e+002	-1.221055e+000	-4.959779e+001
290291300	-7.336503e-001	-3.991039e+001	2.860977e+000	-1.206906e+002	-4.526810e+001	1.616479e+002	-1.288041e+000	-5.137635e+001
300291000	-7.484821e-001	-4.118995e+001	3.220865e+000	-1.222700e+002	-4.437927e+001	1.619437e+002	-1.368977e+000	-5.304556e+001
310290700	-7.686402e-001	-4.247199e+001	3.562462e+000	-1.238650e+002	-4.353706e+001	1.607494e+002	-1.446016e+000	-5.472894e+001
320290400	-7.872881e-001	-4.380735e+001	3.900967e+000	-1.256259e+002	-4.309067e+001	1.603549e+002	-1.527988e+000	-5.644145e+001
330290100	-8.044888e-001	-4.515044e+001	4.233362e+000	-1.273623e+002	-4.231481e+001	1.587350e+002	-1.608670e+000	-5.812173e+001
340289800	-8.180615e-001	-4.642167e+001	4.548568e+000	-1.289101e+002	-4.185409e+001	1.584212e+002	-1.697459e+000	-5.979937e+001
350289500	-8.481315e-001	-4.776701e+001	4.852190e+000	-1.306789e+002	-4.108242e+001	1.583347e+002	-1.786180e+000	-6.148619e+001
360289200	-8.653308e-001	-4.907687e+001	5.144589e+000	-1.324316e+002	-4.037158e+001	1.569480e+002	-1.884849e+000	-6.314495e+001
370288900	-8.919622e-001	-5.042398e+001	5.419100e+000	-1.342284e+002	-3.991267e+001	1.570655e+002	-1.982712e+000	-6.474644e+001
380288600	-9.204887e-001	-5.172428e+001	5.675100e+000	-1.361625e+002	-3.918834e+001	1.555338e+002	-2.082987e+000	-6.645648e+001
390288300	-9.504276e-001	-5.298628e+001	5.918329e+000	-1.379607e+002	-3.876736e+001	1.536381e+002	-2.195232e+000	-6.805709e+001
400288000	-9.757236e-001	-5.427023e+001	6.153555e+000	-1.397835e+002	-3.828676e+001	1.539456e+002	-2.305125e+000	-6.968915e+001
410287700	-1.002708e+000	-5.557826e+001	6.386723e+000	-1.417090e+002	-3.769028e+001	1.528540e+002	-2.415864e+000	-7.133335e+001
420287400	-1.032725e+000	-5.686591e+001	6.624187e+000	-1.434995e+002	-3.718722e+001	1.522999e+002	-2.535818e+000	-7.291835e+001
430287100	-1.067131e+000	-5.809045e+001	6.838708e+000	-1.453137e+002	-3.671396e+001	1.495749e+002	-2.655458e+000	-7.449051e+001
440286800	-1.096896e+000	-5.930058e+001	7.051858e+000	-1.471062e+002	-3.614175e+001	1.490931e+002	-2.778566e+000	-7.603525e+001
450286500	-1.131976e+000	-6.058257e+001	7.245991e+000	-1.489244e+002	-3.575319e+001	1.488000e+002	-2.909950e+000	-7.761436e+001
460286200	-1.168725e+000	-6.187817e+001	7.423081e+000	-1.507741e+002	-3.536212e+001	1.467412e+002	-3.032041e+000	-7.910130e+001
470285900	-1.205736e+000	-6.308440e+001	7.598335e+000	-1.526686e+002	-3.500224e+001	1.456125e+002	-3.174921e+000	-8.067792e+001
480285600	-1.242078e+000	-6.428811e+001	7.754872e+000	-1.542893e+002	-3.455074e+001	1.453212e+002	-3.309986e+000	-8.226387e+001
490285300	-1.278687e+000	-6.551360e+001	7.929706e+000	-1.562085e+002	-3.416247e+001	1.435027e+002	-3.456179e+000	-8.372028e+001
500285000	-1.321276e+000	-6.672394e+001	8.070025e+000	-1.580761e+002	-3.383847e+001	1.422705e+002	-3.606632e+000	-8.519206e+001
510284700	-1.360340e+000	-6.791489e+001	8.230384e+000	-1.597891e+002	-3.334961e+001	1.409539e+002	-3.759401e+000	-8.664165e+001
520284400	-1.399260e+000	-6.909728e+001	8.379665e+000	-1.616717e+002	-3.294919e+001	1.397016e+002	-3.923277e+000	-8.810437e+001
530284100	-1.444061e+000	-7.025475e+001	8.517666e+000	-1.634932e+002	-3.275397e+001	1.389094e+002	-4.077971e+000	-8.951861e+001
540283800	-1.485679e+000	-7.142470e+001	8.641659e+000	-1.652488e+002	-3.238319e+001	1.373456e+002	-4.249436e+000	-9.090509e+001
550283500	-1.537371e+000	-7.255200e+001	8.761333e+000	-1.670454e+002	-3.192506e+001	1.365610e+002	-4.409155e+000	-9.226166e+001
560283200	-1.581324e+000	-7.372330e+001	8.876458e+000	-1.687617e+002	-3.163038e+001	1.353451e+002	-4.582118e+000	-9.362972e+001
570282900	-1.626350e+000	-7.486621e+001	8.988483e+000	-1.705729e+002	-3.129133e+001	1.338151e+002	-4.763908e+000	-9.497506e+001
580282600	-1.680376e+000	-7.597904e+001	9.087666e+000	-1.723949e+002	-3.099466e+001	1.323752e+002	-4.944902e+000	-9.628133e+001
590282300	-1.730169e+000	-7.705007e+001	9.175101e+000	-1.741282e+002	-3.074820e+001	1.314252e+002	-5.122675e+000	-9.759204e+001
600282000	-1.775303e+000	-7.811805e+001	9.263812e+000	-1.758446e+002	-3.044404e+001	1.298295e+002	-5.314596e+000	-9.890950e+001
610281700	-1.826922e+000	-7.922061e+001	9.360162e+000	-1.775479e+002	-3.018476e+001	1.289461e+002	-5.513643e+000	-1.001537e+002
620281400	-1.879694e+000	-8.029480e+001	9.450718e+000	-1.792924e+002	-2.983310e+001	1.275193e+002	-5.714618e+000	-1.013700e+002
630281100	-1.940652e+000	-8.135855e+001	9.520063e+000	1.789881e+002	-2.963531e+001	1.267695e+002	-5.910794e+000	-1.025985e+002
640280800	-1.997421e+000	-8.241246e+001	9.593072e+000	1.773307e+002	-2.943068e+001	1.253701e+002	-6.128728e+000	-1.037942e+002
650280500	-2.049546e+000	-8.339421e+001	9.658020e+000	1.757167e+002	-2.906503e+001	1.248510e+002	-6.335570e+000	-1.049689e+002
660280200	-2.102568e+000	-8.442658e+001	9.717232e+000	1.740609e+002	-2.877992e+001	1.232246e+002	-6.544366e+000	-1.060827e+002
670279900	-2.153465e+000	-8.539144e+001	9.766283e+000	1.724767e+002	-2.859990e+001	1.221941e+002	-6.750691e+000	-1.072285e+002
680279600	-2.203359e+000	-8.638656e+001	9.811923e+000	1.710282e+002	-2.834295e+001	1.208905e+002	-6.959937e+000	-1.084486e+002
690279300	-2.256229e+000	-8.741383e+001	9.915804e+000	1.695794e+002	-2.811293e+001	1.196904e+002	-7.243736e+000	-1.098601e+002
700279000	-2.316638e+000	-8.840278e+001	9.961989e+000	1.678763e+002	-2.786028e+001	1.186264e+002	-7.498141e+000	-1.107645e+002
710278700	-2.376191e+000	-8.940759e+001	1.004020e+001	1.663632e+002	-2.764088e+001	1.175289e+002	-7.781843e+000	-1.119973e+002
720278400	-2.445974e+000	-9.031574e+001	1.008786e+001	1.646378e+002	-2.741481e+001	1.164252e+002	-8.046260e+000	-1.128283e+002
730278100	-2.506569e+000	-9.121679e+001	1.012529e+001	1.630448e+002	-2.719058e+001	1.150047e+002	-8.324804e+000	-1.137714e+002
740277800	-2.569850e+000	-9.216775e+001	1.015668e+001	1.615586e+002	-2.696752e+001	1.139353e+002	-8.595268e+000	-1.147856e+002
750277500	-2.629977e+000	-9.308499e+001	1.020292e+001	1.600923e+002	-2.678613e+001	1.129598e+002	-8.886972e+000	-1.157823e+002
760277200	-2.694722e+000	-9.398061e+001	1.025182e+001	1.585450e+002	-2.657943e+001	1.116194e+002	-9.203510e+000	-1.167344e+002
770276900	-2.758297e+000	-9.489534e+001	1.028915e+001	1.570245e+002	-2.635458e+001	1.106676e+002	-9.515041e+000	-1.176241e+002
780276600	-2.820269e+000	-9.575941e+001	1.032203e+001	1.555508e+002	-2.617954e+001	1.095976e+002	-9.840913e+000	-1.184653e+002
790276300	-2.886648e+000	-9.662690e+001	1.035933e+001	1.540293e+002	-2.595597e+001	1.084141e+002	-1.019445e+001	-1.192931e+002
800276000	-2.947253e+000	-9.746530e+001	1.038699e+001	1.525463e+002	-2.577020e+001	1.074081e+002	-1.055735e+001	-1.200355e+002
810275700	-3.017842e+000	-9.831584e+001	1.041763e+001	1.511016e+002	-2.558440e+001	1.062820e+002	-1.093225e+001	-1.207832e+002
820275400	-3.090220e+000	-9.912621e+001	1.044593e+001	1.496279e+002	-2.544178e+001	1.048743e+002	-1.133067e+001	-1.214316e+002
830275100	-3.151702e+000	-9.994367e+001	1.047457e+001	1.482031e+002	-2.525795e+001	1.040270e+002	-1.175026e+001	-1.220372e+002
840274800	-3.220704e+000	-1.007353e+002	1.050354e+001	1.468182e+002	-2.506140e+001	1.027605e+002	-1.219580e+001	-1.227311e+002
850274500	-3.284615e+000	-1.015607e+002	1.054885e+001	1.454974e+002	-2.491302e+001	1.019075e+002	-1.269765e+001	-1.234212e+002
860274200	-3.358945e+000	-1.023858e+002	1.060103e+001	1.438415e+002	-2.473382e+001	1.007338e+002	-1.330458e+001	-1.233811e+002
870273900	-3.436632e+000	-1.031632e+002	1.061639e+001	1.423294e+002	-2.455730e+001	9.944400e+001	-1.384599e+001	-1.231255e+002
880273600	-3.512088e+000	-1.038969e+002	1.064266e+001	1.409181e+002	-2.435218e+001	9.834610e+001	-1.442684e+001	-1.230394e+002
890273300	-3.595003e+000	-1.046756e+002	1.067637e+001	1.394993e+002	-2.419806e+001	9.700781e+001	-1.512307e+001	-1.227340e+002
900273000	-3.689202e+000	-1.053680e+002	1.071627e+001	1.378983e+002	-2.406762e+001	9.586655e+001	-1.589059e+001	-1.213523e+002
910272700	-3.776383e+000	-1.060029e+002	1.072426e+001	1.362160e+002	-2.391751e+001	9.445077e+001	-1.653085e+001	-1.190399e+002
920272400	-3.855659e+000	-1.066464e+002	1.072053e+001	1.347021e+002	-2.380154e+001	9.322180e+001	-1.716783e+001	-1.170776e+002
930272100	-3.933762e+000	-1.072474e+002	1.072972e+001	1.333180e+002	-2.368219e+001	9.204168e+001	-1.792437e+001	-1.149250e+002
940271800	-4.011647e+000	-1.079321e+002	1.075065e+001	1.318225e+002	-2.356828e+001	9.104209e+001	-1.873110e+001	-1.117863e+002
950271500	-4.102395e+000	-1.085092e+002	1.075103e+001	1.302854e+002	-2.340377e+001	8.976706e+001	-1.946179e+001	-1.071164e+002
960271200	-4.176164e+000	-1.091243e+002	1.075274e+001	1.287947e+002	-2.326234e+001	8.880066e+001	-2.015793e+001	-1.021137e+002
970270900	-4.262735e+000	-1.097040e+002	1.075736e+001	1.273254e+002	-2.314416e+001	8.771547e+001	-2.083821e+001	-9.582268e+001
980270600	-4.345299e+000	-1.102985e+002	1.075489e+001	1.258606e+002	-2.301356e+001	8.625086e+001	-2.137744e+001	-8.815105e+001
990270300	-4.431344e+000	-1.108503e+002	1.076235e+001	1.243889e+002	-2.291199e+001	8.512257e+001	-2.164454e+001	-7.940522e+001
1000270000	-4.524915e+000	-1.112851e+002	1.076227e+001	1.228626e+002	-2.282632e+001	8.391607e+001	-2.155025e+001	-6.976906e+001
1010269700	-4.611044e+000	-1.117775e+002	1.074755e+001	1.212933e+002	-2.269974e+001	8.288553e+001	-2.106824e+001	-6.187996e+001
1020269400	-4.690672e+000	-1.122100e+002	1.072737e+001	1.197695e+002	-2.260812e+001	8.150327e+001	-2.054719e+001	-5.517672e+001
1030269100	-4.778089e+000	-1.126338e+002	1.071074e+001	1.183332e+002	-2.250498e+001	8.049223e+001	-1.988835e+001	-4.934566e+001
1040268800	-4.862140e+000	-1.130033e+002	1.069697e+001	1.168942e+002	-2.238794e+001	7.911622e+001	-1.916976e+001	-4.453333e+001
1050268500	-4.946408e+000	-1.133999e+002	1.067456e+001	1.154357e+002	-2.230419e+001	7.794221e+001	-1.844309e+001	-4.051544e+001
1060268200	-5.036631e+000	-1.137548e+002	1.065234e+001	1.139342e+002	-2.223263e+001	7.706603e+001	-1.764086e+001	-3.740987e+001
1070267900	-5.120148e+000	-1.141164e+002	1.063346e+001	1.124438e+002	-2.216770e+001	7.582854e+001	-1.690929e+001	-3.496884e+001
1080267600	-5.210945e+000	-1.144145e+002	1.061583e+001	1.109742e+002	-2.210538e+001	7.486315e+001	-1.614287e+001	-3.324788e+001
1090267300	-5.295271e+000	-1.146835e+002	1.058515e+001	1.094224e+002	-2.200618e+001	7.367259e+001	-1.540339e+001	-3.217374e+001
1100267000	-5.374922e+000	-1.148858e+002	1.053338e+001	1.078795e+002	-2.194754e+001	7.222103e+001	-1.476993e+001	-3.228611e+001
1110266700	-5.448710e+000	-1.150838e+002	1.047011e+001	1.064776e+002	-2.191478e+001	7.130428e+001	-1.431387e+001	-3.235549e+001
1120266400	-5.519890e+000	-1.153083e+002	1.041703e+001	1.051367e+002	-2.182502e+001	7.036965e+001	-1.386347e+001	-3.203615e+001
1130266100	-5.586165e+000	-1.155199e+002	1.036980e+001	1.037889e+002	-2.179660e+001	6.926418e+001	-1.338919e+001	-3.175266e+001
1140265800	-5.655360e+000	-1.157443e+002	1.033320e+001	1.024241e+002	-2.174057e+001	6.814376e+001	-1.291227e+001	-3.162781e+001
1150265500	-5.730720e+000	-1.158862e+002	1.028269e+001	1.010654e+002	-2.167845e+001	6.704951e+001	-1.246343e+001	-3.186963e+001
1160265200	-5.797607e+000	-1.159957e+002	1.022584e+001	9.967477e+001	-2.164254e+001	6.624237e+001	-1.205665e+001	-3.234903e+001
1170264900	-5.855570e+000	-1.161130e+002	1.017143e+001	9.838440e+001	-2.160367e+001	6.507098e+001	-1.166941e+001	-3.289359e+001
1180264600	-5.912240e+000	-1.162401e+002	1.011749e+001	9.705983e+001	-2.155305e+001	6.412990e+001	-1.131169e+001	-3.332192e+001
1190264300	-5.973969e+000	-1.163563e+002	1.006267e+001	9.573346e+001	-2.150053e+001	6.314469e+001	-1.096707e+001	-3.388530e+001
1200264000	-6.024830e+000	-1.164756e+002	9.997975e+000	9.445942e+001	-2.146494e+001	6.212981e+001	-1.064027e+001	-3.451147e+001
1210263700	-6.077576e+000	-1.165456e+002	9.939740e+000	9.318457e+001	-2.141046e+001	6.131033e+001	-1.033721e+001	-3.519813e+001
1220263400	-6.134046e+000	-1.166039e+002	9.871692e+000	9.191185e+001	-2.140609e+001	6.022610e+001	-1.004380e+001	-3.589622e+001
1230263100	-6.175542e+000	-1.166456e+002	9.812519e+000	9.067521e+001	-2.138978e+001	5.951566e+001	-9.777651e+000	-3.663840e+001
1240262800	-6.218746e+000	-1.167364e+002	9.744915e+000	8.939223e+001	-2.134756e+001	5.870620e+001	-9.533239e+000	-3.742808e+001
1250262500	-6.264040e+000	-1.168093e+002	9.678604e+000	8.819140e+001	-2.129136e+001	5.769590e+001	-9.302205e+000	-3.820520e+001
1260262200	-6.309100e+000	-1.168827e+002	9.602605e+000	8.697210e+001	-2.130012e+001	5.690714e+001	-9.085977e+000	-3.891470e+001
1270261900	-6.339569e+000	-1.168657e+002	9.530074e+000	8.581155e+001	-2.127267e+001	5.604862e+001	-8.862301e+000	-3.966500e+001
1280261600	-6.382292e+000	-1.169490e+002	9.462469e+000	8.464051e+001	-2.123845e+001	5.506522e+001	-8.643273e+000	-4.041780e+001
1290261300	-6.411229e+000	-1.169634e+002	9.389479e+000	8.347097e+001	-2.123293e+001	5.437469e+001	-8.451636e+000	-4.126057e+001
1300261000	-6.440580e+000	-1.170177e+002	9.315760e+000	8.229346e+001	-2.122130e+001	5.345055e+001	-8.265426e+000	-4.210855e+001
1310260700	-6.470118e+000	-1.170253e+002	9.237343e+000	8.117620e+001	-2.119409e+001	5.284442e+001	-8.085938e+000	-4.295727e+001
1320260400	-6.502218e+000	-1.170998e+002	9.160842e+000	8.009383e+001	-2.117295e+001	5.197742e+001	-7.918307e+000	-4.374518e+001
1330260100	-6.519164e+000	-1.171471e+002	9.087274e+000	7.899221e+001	-2.113492e+001	5.131026e+001	-7.750673e+000	-4.444803e+001
1340259800	-6.550672e+000	-1.171463e+002	9.009010e+000	7.792022e+001	-2.111170e+001	5.044453e+001	-7.587038e+000	-4.521887e+001
1350259500	-6.567736e+000	-1.171786e+002	8.939027e+000	7.684432e+001	-2.110177e+001	4.962787e+001	-7.434537e+000	-4.596954e+001
1360259200	-6.583642e+000	-1.171865e+002	8.869075e+000	7.578319e+001	-2.110196e+001	4.900412e+001	-7.288952e+000	-4.678060e+001
1370258900	-6.603907e+000	-1.171485e+002	8.790859e+000	7.476839e+001	-2.107600e+001	4.828790e+001	-7.150084e+000	-4.754323e+001
1380258600	-6.617689e+000	-1.171942e+002	8.712462e+000	7.370344e+001	-2.107267e+001	4.759299e+001	-7.037190e+000	-4.831212e+001
1390258300	-6.630243e+000	-1.172289e+002	8.634240e+000	7.269911e+001	-2.106275e+001	4.701329e+001	-6.914380e+000	-4.905177e+001
1400258000	-6.645224e+000	-1.173071e+002	8.557649e+000	7.169505e+001	-2.100764e+001	4.624544e+001	-6.793773e+000	-4.978177e+001
1410257700	-6.658361e+000	-1.173517e+002	8.476999e+000	7.067299e+001	-2.098331e+001	4.538473e+001	-6.674793e+000	-5.048909e+001
1420257400	-6.671798e+000	-1.173832e+002	8.403722e+000	6.967423e+001	-2.101742e+001	4.486470e+001	-6.570983e+000	-5.120698e+001
1430257100	-6.671790e+000	-1.174319e+002	8.322604e+000	6.873733e+001	-2.100750e+001	4.381722e+001	-6.471131e+000	-5.193307e+001
1440256800	-6.678810e+000	-1.174604e+002	8.240930e+000	6.776773e+001	-2.101378e+001	4.343637e+001	-6.382311e+000	-5.267851e+001
1450256500	-6.677055e+000	-1.175396e+002	8.166138e+000	6.683470e+001	-2.101636e+001	4.287453e+001	-6.265431e+000	-5.334883e+001
1460256200	-6.684203e+000	-1.175802e+002	8.092341e+000	6.588519e+001	-2.101952e+001	4.225381e+001	-6.178716e+000	-5.402886e+001
1470255900	-6.682786e+000	-1.177152e+002	8.009475e+000	6.491206e+001	-2.097549e+001	4.169786e+001	-6.075522e+000	-5.485232e+001
1480255600	-6.681894e+000	-1.177634e+002	7.934966e+000	6.401333e+001	-2.094382e+001	4.098705e+001	-5.993302e+000	-5.554020e+001
1490255300	-6.688256e+000	-1.178164e+002	7.857850e+000	6.309319e+001	-2.094091e+001	4.036751e+001	-5.895524e+000	-5.622162e+001
1500255000	-6.692470e+000	-1.178952e+002	7.776293e+000	6.221556e+001	-2.092350e+001	3.969993e+001	-5.803148e+000	-5.685634e+001
1510254700	-6.690106e+000	-1.179004e+002	7.695192e+000	6.128583e+001	-2.094537e+001	3.916083e+001	-5.707191e+000	-5.754422e+001
1520254400	-6.692859e+000	-1.179310e+002	7.624280e+000	6.043278e+001	-2.091669e+001	3.850022e+001	-5.629301e+000	-5.818077e+001
1530254100	-6.688002e+000	-1.180079e+002	7.542635e+000	5.956478e+001	-2.092090e+001	3.785388e+001	-5.543536e+000	-5.886104e+001
1540253800	-6.675335e+000	-1.180666e+002	7.466968e+000	5.868811e+001	-2.092861e+001	3.739047e+001	-5.475912e+000	-5.944511e+001
1550253500	-6.670996e+000	-1.181436e+002	7.392410e+000	5.781677e+001	-2.091349e+001	3.666909e+001	-5.415309e+000	-6.011365e+001
1560253200	-6.670620e+000	-1.182718e+002	7.317799e+000	5.700357e+001	-2.091757e+001	3.620140e+001	-5.344471e+000	-6.075396e+001
1570252900	-6.662421e+000	-1.183338e+002	7.232410e+000	5.617595e+001	-2.088468e+001	3.592723e+001	-5.287181e+000	-6.138749e+001
1580252600	-6.658736e+000	-1.184317e+002	7.156035e+000	5.533615e+001	-2.091533e+001	3.531692e+001	-5.222648e+000	-6.199256e+001
1590252300	-6.648757e+000	-1.185479e+002	7.085704e+000	5.450352e+001	-2.090720e+001	3.470358e+001	-5.169430e+000	-6.261889e+001
1600252000	-6.635221e+000	-1.186163e+002	7.006553e+000	5.367754e+001	-2.087026e+001	3.424458e+001	-5.114466e+000	-6.327004e+001
1610251700	-6.624754e+000	-1.188325e+002	6.932702e+000	5.285516e+001	-2.086707e+001	3.375842e+001	-5.056707e+000	-6.381325e+001
1620251400	-6.620838e+000	-1.189529e+002	6.850843e+000	5.202346e+001	-2.086896e+001	3.318183e+001	-4.998929e+000	-6.445724e+001
1630251100	-6.615616e+000	-1.191015e+002	6.775805e+000	5.123378e+001	-2.086753e+001	3.249366e+001	-4.941703e+000	-6.503451e+001
1640250800	-6.603288e+000	-1.191593e+002	6.710948e+000	5.046698e+001	-2.088334e+001	3.188112e+001	-4.883532e+000	-6.561266e+001
1650250500	-6.597533e+000	-1.192754e+002	6.624714e+000	4.967590e+001	-2.087854e+001	3.144698e+001	-4.826505e+000	-6.617222e+001
1660250200	-6.581724e+000	-1.194159e+002	6.548797e+000	4.893774e+001	-2.087590e+001	3.094789e+001	-4.757188e+000	-6.667704e+001
1670249900	-6.570125e+000	-1.195385e+002	6.481798e+000	4.815124e+001	-2.084735e+001	3.057828e+001	-4.694532e+000	-6.722109e+001
1680249600	-6.563172e+000	-1.196927e+002	6.406988e+000	4.743439e+001	-2.086002e+001	3.020036e+001	-4.640159e+000	-6.785029e+001
1690249300	-6.555107e+000	-1.198316e+002	6.331461e+000	4.662306e+001	-2.084249e+001	2.960313e+001	-4.589963e+000	-6.841430e+001
1700249000	-6.541905e+000	-1.199409e+002	6.254291e+000	4.587966e+001	-2.083841e+001	2.923116e+001	-4.545588e+000	-6.895573e+001
1710248700	-6.528378e+000	-1.200922e+002	6.185541e+000	4.508919e+001	-2.083602e+001	2.864012e+001	-4.505464e+000	-6.950770e+001
1720248400	-6.525164e+000	-1.202434e+002	6.114173e+000	4.441598e+001	-2.082725e+001	2.827724e+001	-4.464759e+000	-7.002714e+001
1730248100	-6.511855e+000	-1.204009e+002	6.034722e+000	4.363324e+001	-2.080732e+001	2.789449e+001	-4.419498e+000	-7.055526e+001
1740247800	-6.496819e+000	-1.205369e+002	5.967148e+000	4.300491e+001	-2.082672e+001	2.729854e+001	-4.384585e+000	-7.106667e+001
1750247500	-6.488276e+000	-1.206837e+002	5.886071e+000	4.224154e+001	-2.081394e+001	2.697195e+001	-4.345411e+000	-7.161315e+001
1760247200	-6.478312e+000	-1.208494e+002	5.819176e+000	4.148704e+001	-2.080467e+001	2.632778e+001	-4.307816e+000	-7.218385e+001
1770246900	-6.469497e+000	-1.210242e+002	5.746323e+000	4.075078e+001	-2.083408e+001	2.594606e+001	-4.268560e+000	-7.269127e+001
1780246600	-6.457485e+000	-1.211199e+002	5.671478e+000	4.009958e+001	-2.082618e+001	2.560551e+001	-4.228678e+000	-7.322413e+001
1790246300	-6.444968e+000	-1.212328e+002	5.596153e+000	3.940078e+001	-2.081146e+001	2.495588e+001	-4.193962e+000	-7.370381e+001
1800246000	-6.428689e+000	-1.213743e+002	5.523674e+000	3.873689e+001	-2.084040e+001	2.441249e+001	-4.155156e+000	-7.425559e+001
1810245700	-6.407765e+000	-1.215524e+002	5.461992e+000	3.805531e+001	-2.083092e+001	2.408988e+001	-4.119572e+000	-7.474488e+001
1820245400	-6.386735e+000	-1.217927e+002	5.392325e+000	3.733213e+001	-2.079807e+001	2.380278e+001	-4.069533e+000	-7.522943e+001
1830245100	-6.372840e+000	-1.220165e+002	5.310692e+000	3.663147e+001	-2.078346e+001	2.333723e+001	-4.023775e+000	-7.568515e+001
1840244800	-6.368988e+000	-1.221861e+002	5.236783e+000	3.601484e+001	-2.076662e+001	2.287790e+001	-3.986797e+000	-7.614973e+001
1850244500	-6.363937e+000	-1.224271e+002	5.168342e+000	3.531347e+001	-2.081249e+001	2.230644e+001	-3.950755e+000	-7.662706e+001
1860244200	-6.352226e+000	-1.225900e+002	5.100254e+000	3.461799e+001	-2.080991e+001	2.188613e+001	-3.915402e+000	-7.701868e+001
1870243900	-6.342217e+000	-1.227552e+002	5.023793e+000	3.402672e+001	-2.081429e+001	2.165529e+001	-3.891354e+000	-7.749553e+001
1880243600	-6.327903e+000	-1.229208e+002	4.955303e+000	3.335890e+001	-2.083641e+001	2.122434e+001	-3.868922e+000	-7.798070e+001
1890243300	-6.315002e+000	-1.231156e+002	4.882373e+000	3.272605e+001	-2.083605e+001	2.096109e+001	-3.838404e+000	-7.839319e+001
1900243000	-6.286131e+000	-1.232986e+002	4.819807e+000	3.207858e+001	-2.081636e+001	2.068898e+001	-3.812417e+000	-7.886650e+001
1910242700	-6.285064e+000	-1.234836e+002	4.749107e+000	3.145026e+001	-2.080486e+001	2.024368e+001	-3.791039e+000	-7.929964e+001
1920242400	-6.262619e+000	-1.237459e+002	4.688713e+000	3.083172e+001	-2.080925e+001	1.954457e+001	-3.766410e+000	-7.982389e+001
1930242100	-6.247325e+000	-1.239883e+002	4.618867e+000	3.017385e+001	-2.077606e+001	1.926874e+001	-3.747474e+000	-8.027882e+001
1940241800	-6.227567e+000	-1.241825e+002	4.555023e+000	2.955924e+001	-2.078402e+001	1.894422e+001	-3.720487e+000	-8.075043e+001
1950241500	-6.216381e+000	-1.243752e+002	4.477619e+000	2.897489e+001	-2.081097e+001	1.857103e+001	-3.696448e+000	-8.120206e+001
1960241200	-6.209793e+000	-1.246151e+002	4.402310e+000	2.830624e+001	-2.080862e+001	1.807809e+001	-3.664201e+000	-8.167570e+001
1970240900	-6.194543e+000	-1.247970e+002	4.331937e+000	2.770933e+001	-2.082722e+001	1.748173e+001	-3.640515e+000	-8.214498e+001
1980240600	-6.182192e+000	-1.250282e+002	4.281875e+000	2.710497e+001	-2.083706e+001	1.749207e+001	-3.597281e+000	-8.261738e+001
1990240300	-6.173904e+000	-1.252316e+002	4.211583e+000	2.648292e+001	-2.080289e+001	1.693039e+001	-3.534279e+000	-8.309229e+001
2000240000	-6.159921e+000	-1.254323e+002	4.144042e+000	2.589596e+001	-2.079397e+001	1.682739e+001	-3.504431e+000	-8.343090e+001
2010239700	-6.156453e+000	-1.256437e+002	4.075399e+000	2.525970e+001	-2.079223e+001	1.665131e+001	-3.479030e+000	-8.379743e+001
2020239400	-6.144881e+000	-1.257919e+002	4.011514e+000	2.464488e+001	-2.074935e+001	1.631059e+001	-3.465861e+000	-8.424813e+001
2030239100	-6.130383e+000	-1.259488e+002	3.945143e+000	2.409868e+001	-2.075332e+001	1.588638e+001	-3.449417e+000	-8.460898e+001
2040238800	-6.115501e+000	-1.261310e+002	3.879323e+000	2.353808e+001	-2.073909e+001	1.527513e+001	-3.437934e+000	-8.499314e+001
2050238500	-6.087279e+000	-1.264892e+002	3.820785e+000	2.288605e+001	-2.076436e+001	1.468369e+001	-3.424643e+000	-8.544386e+001
2060238200	-6.084094e+000	-1.267837e+002	3.753576e+000	2.227160e+001	-2.078928e+001	1.440726e+001	-3.414722e+000	-8.578616e+001
2070237900	-6.073715e+000	-1.270765e+002	3.690440e+000	2.172324e+001	-2.077478e+001	1.404759e+001	-3.403495e+000	-8.613371e+001
2080237600	-6.070042e+000	-1.273732e+002	3.619072e+000	2.114587e+001	-2.080018e+001	1.358313e+001	-3.389089e+000	-8.652291e+001
2090237300	-6.065724e+000	-1.276279e+002	3.552438e+000	2.058590e+001	-2.084507e+001	1.323006e+001	-3.370346e+000	-8.690127e+001
2100237000	-6.056238e+000	-1.278249e+002	3.485134e+000	2.002170e+001	-2.087237e+001	1.309450e+001	-3.354181e+000	-8.732159e+001
2110236700	-6.039830e+000	-1.281165e+002	3.428899e+000	1.944258e+001	-2.086246e+001	1.295073e+001	-3.339066e+000	-8.773347e+001
2120236400	-6.043752e+000	-1.283377e+002	3.353454e+000	1.893726e+001	-2.085748e+001	1.270056e+001	-3.321735e+000	-8.817745e+001
2130236100	-6.047073e+000	-1.285284e+002	3.289271e+000	1.837784e+001	-2.087827e+001	1.262875e+001	-3.309475e+000	-8.861759e+001
2140235800	-6.036612e+000	-1.286428e+002	3.225012e+000	1.778382e+001	-2.082753e+001	1.213731e+001	-3.279104e+000	-8.904735e+001
2150235500	-6.017314e+000	-1.287381e+002	3.167816e+000	1.724981e+001	-2.075285e+001	1.174997e+001	-3.260616e+000	-8.949089e+001
2160235200	-5.975014e+000	-1.288427e+002	3.100208e+000	1.678103e+001	-2.072954e+001	1.114763e+001	-3.217303e+000	-8.990603e+001
2170234900	-5.948810e+000	-1.291376e+002	3.049293e+000	1.614306e+001	-2.070707e+001	1.077055e+001	-3.174163e+000	-9.021210e+001
2180234600	-5.924134e+000	-1.294427e+002	2.993817e+000	1.566709e+001	-2.074819e+001	1.043231e+001	-3.142743e+000	-9.053539e+001
2190234300	-5.902352e+000	-1.296928e+002	2.925599e+000	1.512381e+001	-2.073747e+001	1.014277e+001	-3.139186e+000	-9.085958e+001
2200234000	-5.896540e+000	-1.300772e+002	2.874614e+000	1.451866e+001	-2.076913e+001	9.898103e+000	-3.126514e+000	-9.121577e+001
2210233700	-5.886327e+000	-1.304025e+002	2.802529e+000	1.399413e+001	-2.079329e+001	9.700289e+000	-3.110891e+000	-9.154956e+001
2220233400	-5.877880e+000	-1.306974e+002	2.740082e+000	1.344606e+001	-2.078754e+001	9.642212e+000	-3.099242e+000	-9.190596e+001
2230233100	-5.884521e+000	-1.310242e+002	2.682979e+000	1.292044e+001	-2.080469e+001	9.372959e+000	-3.098791e+000	-9.233653e+001
2240232800	-5.878371e+000	-1.312374e+002	2.627407e+000	1.243284e+001	-2.075340e+001	9.181335e+000	-3.084854e+000	-9.271408e+001
2250232500	-5.880205e+000	-1.315153e+002	2.565445e+000	1.187130e+001	-2.070796e+001	8.874615e+000	-3.084942e+000	-9.308665e+001
2260232200	-5.855501e+000	-1.317107e+002	2.505369e+000	1.133810e+001	-2.070603e+001	8.197989e+000	-3.090030e+000	-9.339401e+001
2270231900	-5.829649e+000	-1.319999e+002	2.449855e+000	1.080108e+001	-2.068640e+001	7.302338e+000	-3.066424e+000	-9.379502e+001
2280231600	-5.813380e+000	-1.323324e+002	2.388153e+000	1.026050e+001	-2.077630e+001	6.934659e+000	-3.056591e+000	-9.406604e+001
2290231300	-5.806355e+000	-1.327675e+002	2.328597e+000	9.759130e+000	-2.080008e+001	6.763391e+000	-3.045424e+000	-9.450925e+001
2300231000	-5.810340e+000	-1.331172e+002	2.266003e+000	9.147507e+000	-2.083774e+001	6.654019e+000	-3.030527e+000	-9.486209e+001
2310230700	-5.814489e+000	-1.334187e+002	2.204920e+000	8.705932e+000	-2.086099e+001	6.393670e+000	-3.014043e+000	-9.520113e+001
2320230400	-5.823126e+000	-1.336313e+002	2.137172e+000	8.182198e+000	-2.087370e+001	6.601854e+000	-2.984390e+000	-9.554830e+001
2330230100	-5.819854e+000	-1.337529e+002	2.078425e+000	7.786864e+000	-2.083311e+001	6.634510e+000	-2.963842e+000	-9.590046e+001
2340229800	-5.806534e+000	-1.339846e+002	2.023781e+000	7.268289e+000	-2.081403e+001	6.335288e+000	-2.937456e+000	-9.632219e+001
2350229500	-5.811327e+000	-1.343018e+002	1.960787e+000	6.692735e+000	-2.076861e+001	6.344268e+000	-2.919019e+000	-9.672056e+001
2360229200	-5.829088e+000	-1.345241e+002	1.911873e+000	6.274705e+000	-2.069129e+001	6.438958e+000	-2.912783e+000	-9.708777e+001
2370228900	-5.835109e+000	-1.346313e+002	1.850848e+000	5.794523e+000	-2.056839e+001	6.037543e+000	-2.914278e+000	-9.745173e+001
2380228600	-5.819197e+000	-1.347454e+002	1.795437e+000	5.257558e+000	-2.049239e+001	5.347462e+000	-2.914197e+000	-9.772321e+001
2390228300	-5.807864e+000	-1.349041e+002	1.737933e+000	4.771382e+000	-2.048361e+001	4.216542e+000	-2.907086e+000	-9.794092e+001
2400228000	-5.792827e+000	-1.350246e+002	1.688418e+000	4.264816e+000	-2.055896e+001	3.735247e+000	-2.901051e+000	-9.830428e+001
2410227700	-5.745395e+000	-1.351588e+002	1.636707e+000	3.845192e+000	-2.055315e+001	3.136452e+000	-2.889549e+000	-9.861462e+001
2420227400	-5.698143e+000	-1.354094e+002	1.579840e+000	3.376958e+000	-2.054650e+001	2.635162e+000	-2.887961e+000	-9.895229e+001
2430227100	-5.659488e+000	-1.358494e+002	1.535179e+000	2.838461e+000	-2.057890e+001	2.098385e+000	-2.874701e+000	-9.926328e+001
2440226800	-5.632478e+000	-1.362302e+002	1.478601e+000	2.300388e+000	-2.064841e+001	1.636289e+000	-2.866671e+000	-9.959498e+001
2450226500	-5.608073e+000	-1.365724e+002	1.421838e+000	1.848142e+000	-2.071342e+001	1.352513e+000	-2.857201e+000	-9.993275e+001
2460226200	-5.594732e+000	-1.369918e+002	1.365651e+000	1.328189e+000	-2.075441e+001	9.930892e-001	-2.843789e+000	-1.002621e+002
2470225900	-5.581623e+000	-1.374207e+002	1.311111e+000	7.724045e-001	-2.075788e+001	9.409783e-001	-2.825887e+000	-1.005914e+002
2480225600	-5.579032e+000	-1.377825e+002	1.251833e+000	2.933238e-001	-2.075986e+001	8.563156e-001	-2.822587e+000	-1.009430e+002
2490225300	-5.577348e+000	-1.380664e+002	1.196093e+000	-1.830692e-001	-2.071302e+001	5.538300e-001	-2.802736e+000	-1.012312e+002
2500225000	-5.572692e+000	-1.384941e+002	1.154054e+000	-6.513344e-001	-2.072427e+001	4.779403e-002	-2.786640e+000	-1.015235e+002
2510224700	-5.577805e+000	-1.388324e+002	1.079103e+000	-1.241588e+000	-2.079888e+001	-1.900041e-001	-2.773817e+000	-1.018749e+002
2520224400	-5.582063e+000	-1.391909e+002	1.027130e+000	-1.671100e+000	-2.081769e+001	-2.877463e-001	-2.756517e+000	-1.021895e+002
2530224100	-5.589364e+000	-1.394645e+002	9.575191e-001	-2.058743e+000	-2.085977e+001	-1.670321e-001	-2.755491e+000	-1.025829e+002
2540223800	-5.617673e+000	-1.397844e+002	8.978758e-001	-2.556080e+000	-2.082159e+001	-1.082013e-002	-2.747954e+000	-1.028635e+002
2550223500	-5.632043e+000	-1.400291e+002	8.457353e-001	-3.093147e+000	-2.078445e+001	9.921045e-004	-2.742177e+000	-1.031895e+002
2560223200	-5.624835e+000	-1.402206e+002	7.985753e-001	-3.363452e+000	-2.072080e+001	-8.976650e-003	-2.743846e+000	-1.035765e+002
2570222900	-5.613050e+000	-1.404983e+002	7.466704e-001	-3.810816e+000	-2.066898e+001	-1.524549e-001	-2.745908e+000	-1.038920e+002
2580222600	-5.624487e+000	-1.407537e+002	7.067820e-001	-4.268392e+000	-2.055656e+001	-3.626074e-001	-2.742464e+000	-1.042472e+002
2590222300	-5.601350e+000	-1.408511e+002	6.580975e-001	-4.694413e+000	-2.046446e+001	-1.152393e+000	-2.745933e+000	-1.045263e+002
2600222000	-5.579312e+000	-1.411201e+002	6.138365e-001	-5.194264e+000	-2.041585e+001	-1.899587e+000	-2.736734e+000	-1.047593e+002
2610221700	-5.566656e+000	-1.412900e+002	5.563172e-001	-5.739918e+000	-2.042221e+001	-2.651592e+000	-2.735078e+000	-1.050498e+002
2620221400	-5.523839e+000	-1.416923e+002	5.265853e-001	-6.180570e+000	-2.046486e+001	-3.793691e+000	-2.725123e+000	-1.052972e+002
2630221100	-5.514976e+000	-1.420198e+002	4.645478e-001	-6.750721e+000	-2.052772e+001	-4.696476e+000	-2.711556e+000	-1.056075e+002
2640220800	-5.507879e+000	-1.423329e+002	4.063272e-001	-7.207228e+000	-2.060048e+001	-4.862939e+000	-2.696466e+000	-1.058987e+002
2650220500	-5.512187e+000	-1.425491e+002	3.481940e-001	-7.730241e+000	-2.059939e+001	-5.126287e+000	-2.681821e+000	-1.062446e+002
2660220200	-5.498470e+000	-1.426530e+002	2.959812e-001	-8.097522e+000	-2.065775e+001	-5.232497e+000	-2.677734e+000	-1.064927e+002
2670219900	-5.460602e+000	-1.429369e+002	2.561755e-001	-8.478828e+000	-2.065371e+001	-5.803041e+000	-2.663725e+000	-1.068233e+002
2680219600	-5.441600e+000	-1.433083e+002	2.118098e-001	-9.017573e+000	-2.066967e+001	-6.151415e+000	-2.645004e+000	-1.071171e+002
2690219300	-5.429836e+000	-1.437214e+002	1.565139e-001	-9.466897e+000	-2.070019e+001	-6.402981e+000	-2.640412e+000	-1.074288e+002
2700219000	-5.419243e+000	-1.441472e+002	1.081136e-001	-9.992658e+000	-2.072808e+001	-6.584773e+000	-2.635634e+000	-1.077239e+002
2710218700	-5.404987e+000	-1.445167e+002	5.012294e-002	-1.046203e+001	-2.078115e+001	-6.700031e+000	-2.632946e+000	-1.079769e+002
2720218400	-5.405238e+000	-1.449703e+002	3.405929e-003	-1.090066e+001	-2.080275e+001	-6.785427e+000	-2.631095e+000	-1.082768e+002
2730218100	-5.413717e+000	-1.453837e+002	-6.598128e-002	-1.137334e+001	-2.083308e+001	-6.927698e+000	-2.626449e+000	-1.086715e+002
2740217800	-5.407917e+000	-1.458358e+002	-1.097103e-001	-1.179045e+001	-2.087815e+001	-6.988965e+000	-2.620287e+000	-1.089072e+002
2750217500	-5.410085e+000	-1.462088e+002	-1.645364e-001	-1.229118e+001	-2.085682e+001	-6.988141e+000	-2.615648e+000	-1.092996e+002
2760217200	-5.411668e+000	-1.465966e+002	-2.172773e-001	-1.266692e+001	-2.087009e+001	-7.084046e+000	-2.614113e+000	-1.096354e+002
2770216900	-5.409228e+000	-1.469336e+002	-2.626222e-001	-1.305918e+001	-2.086094e+001	-7.203434e+000	-2.608650e+000	-1.100011e+002
2780216600	-5.420333e+000	-1.472386e+002	-3.177544e-001	-1.357814e+001	-2.079912e+001	-7.142444e+000	-2.608591e+000	-1.103597e+002
2790216300	-5.405945e+000	-1.474565e+002	-3.699285e-001	-1.383608e+001	-2.076466e+001	-7.260188e+000	-2.602474e+000	-1.107557e+002
2800216000	-5.405413e+000	-1.477671e+002	-4.074353e-001	-1.430718e+001	-2.070251e+001	-7.184673e+000	-2.615750e+000	-1.109952e+002
2810215700	-5.394204e+000	-1.480423e+002	-4.368245e-001	-1.466331e+001	-2.057576e+001	-7.428683e+000	-2.618046e+000	-1.112378e+002
2820215400	-5.400304e+000	-1.482095e+002	-4.790127e-001	-1.515360e+001	-2.049161e+001	-8.447549e+000	-2.619354e+000	-1.114057e+002
2830215100	-5.368031e+000	-1.485004e+002	-5.186511e-001	-1.558142e+001	-2.050171e+001	-9.349937e+000	-2.600403e+000	-1.116318e+002
2840214800	-5.342670e+000	-1.488402e+002	-5.634826e-001	-1.610148e+001	-2.051257e+001	-1.023647e+001	-2.592794e+000	-1.118136e+002
2850214500	-5.328228e+000	-1.492645e+002	-5.975468e-001	-1.659579e+001	-2.056104e+001	-1.119406e+001	-2.587070e+000	-1.120925e+002
2860214200	-5.331339e+000	-1.496084e+002	-6.623849e-001	-1.710485e+001	-2.064029e+001	-1.141761e+001	-2.566268e+000	-1.123811e+002
2870213900	-5.333793e+000	-1.499936e+002	-7.111986e-001	-1.761677e+001	-2.063541e+001	-1.168382e+001	-2.553538e+000	-1.126598e+002
2880213600	-5.328418e+000	-1.504062e+002	-7.564368e-001	-1.807343e+001	-2.072189e+001	-1.184731e+001	-2.545207e+000	-1.129661e+002
2890213300	-5.330702e+000	-1.507864e+002	-8.232476e-001	-1.846530e+001	-2.071992e+001	-1.216712e+001	-2.537855e+000	-1.133384e+002
2900213000	-5.337168e+000	-1.511811e+002	-8.756724e-001	-1.890395e+001	-2.075778e+001	-1.239402e+001	-2.531449e+000	-1.136688e+002
2910212700	-5.345946e+000	-1.515291e+002	-9.325218e-001	-1.933663e+001	-2.076605e+001	-1.245848e+001	-2.533152e+000	-1.139965e+002
2920212400	-5.340599e+000	-1.517515e+002	-9.765358e-001	-1.976093e+001	-2.076300e+001	-1.267360e+001	-2.532526e+000	-1.143838e+002
2930212100	-5.328045e+000	-1.520828e+002	-1.022288e+000	-2.024641e+001	-2.080785e+001	-1.315977e+001	-2.534165e+000	-1.147061e+002
2940211800	-5.314568e+000	-1.524710e+002	-1.074151e+000	-2.067673e+001	-2.080330e+001	-1.356491e+001	-2.525761e+000	-1.149878e+002
2950211500	-5.293935e+000	-1.527786e+002	-1.133845e+000	-2.103596e+001	-2.084315e+001	-1.357669e+001	-2.528937e+000	-1.153012e+002
2960211200	-5.283737e+000	-1.530814e+002	-1.177704e+000	-2.137449e+001	-2.087017e+001	-1.370856e+001	-2.522991e+000	-1.155944e+002
2970210900	-5.271161e+000	-1.533803e+002	-1.223241e+000	-2.185283e+001	-2.087723e+001	-1.348671e+001	-2.520620e+000	-1.159645e+002
2980210600	-5.252369e+000	-1.537506e+002	-1.253452e+000	-2.223807e+001	-2.089044e+001	-1.384442e+001	-2.508778e+000	-1.162222e+002
2990210300	-5.236434e+000	-1.539886e+002	-1.298059e+000	-2.267430e+001	-2.085342e+001	-1.409017e+001	-2.510496e+000	-1.164999e+002
3000210000	-5.224799e+000	-1.544303e+002	-1.342268e+000	-2.311700e+001	-2.082867e+001	-1.447471e+001	-2.500648e+000	-1.167856e+002
3010209700	-5.206924e+000	-1.548129e+002	-1.393589e+000	-2.358670e+001	-2.087039e+001	-1.458091e+001	-2.510702e+000	-1.170455e+002
3020209400	-5.198976e+000	-1.552393e+002	-1.430421e+000	-2.396787e+001	-2.085159e+001	-1.482455e+001	-2.507499e+000	-1.173828e+002
3030209100	-5.203955e+000	-1.556679e+002	-1.484276e+000	-2.442734e+001	-2.083608e+001	-1.506613e+001	-2.512535e+000	-1.176217e+002
3040208800	-5.202865e+000	-1.559941e+002	-1.530792e+000	-2.479589e+001	-2.077128e+001	-1.511433e+001	-2.523118e+000	-1.178347e+002
3050208500	-5.201647e+000	-1.563777e+002	-1.575651e+000	-2.516369e+001	-2.070759e+001	-1.590630e+001	-2.512948e+000	-1.180157e+002
3060208200	-5.200547e+000	-1.568440e+002	-1.611881e+000	-2.572094e+001	-2.072561e+001	-1.670390e+001	-2.505191e+000	-1.182824e+002
3070207900	-5.194804e+000	-1.573120e+002	-1.664746e+000	-2.621211e+001	-2.078628e+001	-1.721222e+001	-2.491476e+000	-1.185362e+002
3080207600	-5.179870e+000	-1.577755e+002	-1.712519e+000	-2.663875e+001	-2.083277e+001	-1.752728e+001	-2.481472e+000	-1.188922e+002
3090207300	-5.180300e+000	-1.582278e+002	-1.750673e+000	-2.707654e+001	-2.086575e+001	-1.768206e+001	-2.477227e+000	-1.191943e+002
3100207000	-5.178177e+000	-1.586188e+002	-1.816441e+000	-2.752878e+001	-2.092143e+001	-1.783437e+001	-2.478704e+000	-1.195340e+002
3110206700	-5.176954e+000	-1.589959e+002	-1.856917e+000	-2.800016e+001	-2.092818e+001	-1.805769e+001	-2.468891e+000	-1.198742e+002
3120206400	-5.192821e+000	-1.594244e+002	-1.915685e+000	-2.837227e+001	-2.096422e+001	-1.832601e+001	-2.467154e+000	-1.202188e+002
3130206100	-5.191596e+000	-1.597600e+002	-1.966621e+000	-2.876332e+001	-2.094217e+001	-1.828604e+001	-2.456497e+000	-1.205356e+002
3140205800	-5.202710e+000	-1.600678e+002	-2.006299e+000	-2.914405e+001	-2.097685e+001	-1.858879e+001	-2.463451e+000	-1.208637e+002
3150205500	-5.222746e+000	-1.603275e+002	-2.050862e+000	-2.960135e+001	-2.095904e+001	-1.856208e+001	-2.454678e+000	-1.212074e+002
3160205200	-5.230361e+000	-1.604612e+002	-2.099392e+000	-2.999539e+001	-2.092527e+001	-1.896498e+001	-2.452960e+000	-1.214738e+002
3170204900	-5.211995e+000	-1.605225e+002	-2.141640e+000	-3.032940e+001	-2.088271e+001	-1.941784e+001	-2.451709e+000	-1.217765e+002
3180204600	-5.183095e+000	-1.607389e+002	-2.176938e+000	-3.074241e+001	-2.091944e+001	-2.032101e+001	-2.455204e+000	-1.220528e+002
3190204300	-5.138679e+000	-1.610851e+002	-2.223722e+000	-3.120501e+001	-2.094936e+001	-2.058901e+001	-2.454943e+000	-1.222623e+002
3200204000	-5.117127e+000	-1.614628e+002	-2.269823e+000	-3.160598e+001	-2.098600e+001	-2.079556e+001	-2.451655e+000	-1.225390e+002
3210203700	-5.099287e+000	-1.619626e+002	-2.301691e+000	-3.207456e+001	-2.102192e+001	-2.090624e+001	-2.436869e+000	-1.228941e+002
3220203400	-5.082639e+000	-1.624580e+002	-2.345371e+000	-3.252083e+001	-2.104212e+001	-2.125112e+001	-2.437022e+000	-1.231703e+002
3230203100	-5.072693e+000	-1.629693e+002	-2.392257e+000	-3.296723e+001	-2.102656e+001	-2.134613e+001	-2.436288e+000	-1.235167e+002
3240202800	-5.057385e+000	-1.634735e+002	-2.443009e+000	-3.333526e+001	-2.107570e+001	-2.168179e+001	-2.448559e+000	-1.238653e+002
3250202500	-5.061429e+000	-1.639731e+002	-2.500285e+000	-3.381807e+001	-2.109996e+001	-2.171400e+001	-2.450176e+000	-1.241396e+002
3260202200	-5.040363e+000	-1.644176e+002	-2.549692e+000	-3.420736e+001	-2.112983e+001	-2.162183e+001	-2.458618e+000	-1.244292e+002
3270201900	-5.029794e+000	-1.649374e+002	-2.589094e+000	-3.448203e+001	-2.110654e+001	-2.169716e+001	-2.462485e+000	-1.247274e+002
3280201600	-5.039409e+000	-1.654181e+002	-2.633622e+000	-3.504785e+001	-2.109704e+001	-2.208926e+001	-2.460036e+000	-1.249827e+002
3290201300	-5.032062e+000	-1.658034e+002	-2.675372e+000	-3.544489e+001	-2.111507e+001	-2.236897e+001	-2.446986e+000	-1.251963e+002
3300201000	-5.042212e+000	-1.662462e+002	-2.727892e+000	-3.587810e+001	-2.118562e+001	-2.264673e+001	-2.438728e+000	-1.255334e+002
3310200700	-5.038011e+000	-1.666562e+002	-2.763894e+000	-3.631659e+001	-2.118056e+001	-2.270428e+001	-2.422911e+000	-1.258633e+002
3320200400	-5.049996e+000	-1.669765e+002	-2.819217e+000	-3.667169e+001	-2.116710e+001	-2.284057e+001	-2.416135e+000	-1.261759e+002
3330200100	-5.063765e+000	-1.672923e+002	-2.866306e+000	-3.705168e+001	-2.112750e+001	-2.282638e+001	-2.412631e+000	-1.264801e+002
3340199800	-5.056679e+000	-1.675668e+002	-2.894936e+000	-3.736647e+001	-2.110962e+001	-2.314811e+001	-2.419394e+000	-1.267793e+002
3350199500	-5.059500e+000	-1.677975e+002	-2.935988e+000	-3.778854e+001	-2.105540e+001	-2.360674e+001	-2.416420e+000	-1.270679e+002
3360199200	-5.044391e+000	-1.680810e+002	-2.983367e+000	-3.818308e+001	-2.105887e+001	-2.412001e+001	-2.412490e+000	-1.272841e+002
3370198900	-5.027107e+000	-1.684491e+002	-3.023271e+000	-3.864509e+001	-2.106277e+001	-2.466895e+001	-2.398813e+000	-1.275957e+002
3380198600	-5.019428e+000	-1.688603e+002	-3.073084e+000	-3.899420e+001	-2.110170e+001	-2.493975e+001	-2.395432e+000	-1.278406e+002
3390198300	-5.014964e+000	-1.693104e+002	-3.114463e+000	-3.953037e+001	-2.112850e+001	-2.526829e+001	-2.394711e+000	-1.281468e+002
3400198000	-5.025719e+000	-1.697329e+002	-3.161127e+000	-3.991518e+001	-2.113651e+001	-2.555632e+001	-2.392314e+000	-1.285139e+002
3410197700	-5.033527e+000	-1.700565e+002	-3.209041e+000	-4.037392e+001	-2.113950e+001	-2.568599e+001	-2.401776e+000	-1.288512e+002
3420197400	-5.007923e+000	-1.703774e+002	-3.240691e+000	-4.071391e+001	-2.117252e+001	-2.601221e+001	-2.403929e+000	-1.291718e+002
3430197100	-4.994429e+000	-1.707009e+002	-3.293449e+000	-4.120029e+001	-2.119074e+001	-2.641600e+001	-2.406371e+000	-1.294849e+002
3440196800	-4.955593e+000	-1.711713e+002	-3.330722e+000	-4.166638e+001	-2.126133e+001	-2.673509e+001	-2.411666e+000	-1.298625e+002
3450196500	-4.927523e+000	-1.716452e+002	-3.381345e+000	-4.214237e+001	-2.126545e+001	-2.730405e+001	-2.409038e+000	-1.302308e+002
3460196200	-4.904536e+000	-1.721551e+002	-3.436234e+000	-4.250812e+001	-2.133568e+001	-2.740938e+001	-2.405581e+000	-1.305408e+002
3470195900	-4.899519e+000	-1.726427e+002	-3.486157e+000	-4.294696e+001	-2.137403e+001	-2.754446e+001	-2.412615e+000	-1.309258e+002
3480195600	-4.890168e+000	-1.731111e+002	-3.537494e+000	-4.329273e+001	-2.141872e+001	-2.751553e+001	-2.418086e+000	-1.312480e+002
3490195300	-4.891328e+000	-1.735927e+002	-3.606991e+000	-4.371881e+001	-2.147190e+001	-2.737893e+001	-2.423107e+000	-1.315182e+002
3500195000	-4.899496e+000	-1.740304e+002	-3.642908e+000	-4.402658e+001	-2.147394e+001	-2.729254e+001	-2.421524e+000	-1.318228e+002
3510194700	-4.922869e+000	-1.745163e+002	-3.687608e+000	-4.435750e+001	-2.143225e+001	-2.711278e+001	-2.414964e+000	-1.320670e+002
3520194400	-4.934303e+000	-1.747838e+002	-3.736976e+000	-4.463442e+001	-2.136279e+001	-2.703083e+001	-2.398034e+000	-1.323637e+002
3530194100	-4.952931e+000	-1.750729e+002	-3.771091e+000	-4.495770e+001	-2.126424e+001	-2.707816e+001	-2.382653e+000	-1.326680e+002
3540193800	-4.959605e+000	-1.752551e+002	-3.803575e+000	-4.538185e+001	-2.118480e+001	-2.729595e+001	-2.380104e+000	-1.329349e+002
3550193500	-4.954797e+000	-1.755409e+002	-3.841489e+000	-4.571531e+001	-2.119494e+001	-2.785975e+001	-2.374616e+000	-1.331171e+002
3560193200	-4.948069e+000	-1.758284e+002	-3.877298e+000	-4.617646e+001	-2.117689e+001	-2.842770e+001	-2.389304e+000	-1.333939e+002
3570192900	-4.924625e+000	-1.761026e+002	-3.904366e+000	-4.663202e+001	-2.118726e+001	-2.935688e+001	-2.391610e+000	-1.336490e+002
3580192600	-4.885857e+000	-1.765164e+002	-3.938473e+000	-4.711888e+001	-2.120134e+001	-2.989476e+001	-2.386643e+000	-1.339944e+002
3590192300	-4.852365e+000	-1.770435e+002	-3.983788e+000	-4.759951e+001	-2.130454e+001	-3.063363e+001	-2.390351e+000	-1.342700e+002
3600192000	-4.819373e+000	-1.775358e+002	-4.033692e+000	-4.806046e+001	-2.136132e+001	-3.090070e+001	-2.381183e+000	-1.347026e+002
3610191700	-4.814105e+000	-1.780672e+002	-4.092386e+000	-4.854218e+001	-2.144565e+001	-3.108256e+001	-2.387957e+000	-1.350107e+002
3620191400	-4.797046e+000	-1.785447e+002	-4.144402e+000	-4.896948e+001	-2.151118e+001	-3.126922e+001	-2.384969e+000	-1.354386e+002
3630191100	-4.797419e+000	-1.790042e+002	-4.193447e+000	-4.936390e+001	-2.151495e+001	-3.133952e+001	-2.382920e+000	-1.358337e+002
3640190800	-4.792570e+000	-1.794511e+002	-4.240011e+000	-4.972956e+001	-2.154117e+001	-3.146635e+001	-2.383901e+000	-1.361925e+002
3650190500	-4.786513e+000	-1.798475e+002	-4.304932e+000	-5.005742e+001	-2.156555e+001	-3.161049e+001	-2.380599e+000	-1.365575e+002
3660190200	-4.797217e+000	1.798448e+002	-4.349507e+000	-5.048326e+001	-2.156020e+001	-3.157238e+001	-2.385042e+000	-1.368799e+002
3670189900	-4.795636e+000	1.794823e+002	-4.394153e+000	-5.084820e+001	-2.155985e+001	-3.186766e+001	-2.381715e+000	-1.372004e+002
3680189600	-4.788684e+000	1.791422e+002	-4.442359e+000	-5.123108e+001	-2.154832e+001	-3.200091e+001	-2.372544e+000	-1.375308e+002
3690189300	-4.775152e+000	1.786890e+002	-4.502121e+000	-5.161579e+001	-2.157814e+001	-3.215032e+001	-2.371621e+000	-1.378658e+002
3700189000	-4.775142e+000	1.782703e+002	-4.555420e+000	-5.197710e+001	-2.162331e+001	-3.162792e+001	-2.353887e+000	-1.380966e+002
3710188700	-4.774352e+000	1.777078e+002	-4.612354e+000	-5.230183e+001	-2.165152e+001	-3.138357e+001	-2.357347e+000	-1.383367e+002
3720188400	-4.789980e+000	1.772268e+002	-4.664158e+000	-5.253405e+001	-2.165807e+001	-3.083592e+001	-2.359348e+000	-1.386112e+002
3730188100	-4.814458e+000	1.768217e+002	-4.697254e+000	-5.278243e+001	-2.159116e+001	-3.058345e+001	-2.380353e+000	-1.389265e+002
3740187800	-4.835083e+000	1.765261e+002	-4.727668e+000	-5.309226e+001	-2.149110e+001	-3.062756e+001	-2.389038e+000	-1.392377e+002
3750187500	-4.830198e+000	1.763234e+002	-4.747466e+000	-5.325317e+001	-2.136024e+001	-3.121141e+001	-2.399570e+000	-1.394830e+002
3760187200	-4.820488e+000	1.761653e+002	-4.772792e+000	-5.375915e+001	-2.129523e+001	-3.208144e+001	-2.409817e+000	-1.398028e+002
3770186900	-4.787951e+000	1.758768e+002	-4.796268e+000	-5.423710e+001	-2.130482e+001	-3.281907e+001	-2.414133e+000	-1.400862e+002
3780186600	-4.765954e+000	1.755048e+002	-4.831844e+000	-5.472707e+001	-2.127712e+001	-3.385537e+001	-2.412092e+000	-1.404097e+002
3790186300	-4.753061e+000	1.753383e+002	-4.878221e+000	-5.522233e+001	-2.132379e+001	-3.472466e+001	-2.414635e+000	-1.407063e+002
3800186000	-4.705080e+000	1.750485e+002	-4.906598e+000	-5.566347e+001	-2.135634e+001	-3.574008e+001	-2.403521e+000	-1.410691e+002
3810185700	-4.660199e+000	1.747029e+002	-4.949793e+000	-5.626264e+001	-2.144315e+001	-3.650332e+001	-2.390350e+000	-1.413905e+002
3820185400	-4.624907e+000	1.742693e+002	-5.002926e+000	-5.671001e+001	-2.155177e+001	-3.691416e+001	-2.378165e+000	-1.416634e+002
3830185100	-4.589682e+000	1.737877e+002	-5.064538e+000	-5.712764e+001	-2.168211e+001	-3.715785e+001	-2.360693e+000	-1.420362e+002
3840184800	-4.561731e+000	1.732654e+002	-5.121511e+000	-5.759496e+001	-2.174250e+001	-3.714556e+001	-2.344829e+000	-1.424019e+002
3850184500	-4.554689e+000	1.727881e+002	-5.189808e+000	-5.803043e+001	-2.176330e+001	-3.702788e+001	-2.330652e+000	-1.427377e+002
3860184200	-4.549737e+000	1.722064e+002	-5.243024e+000	-5.842625e+001	-2.182068e+001	-3.677495e+001	-2.313206e+000	-1.431013e+002
3870183900	-4.553285e+000	1.716525e+002	-5.312934e+000	-5.881910e+001	-2.188168e+001	-3.652363e+001	-2.314969e+000	-1.434527e+002
3880183600	-4.565604e+000	1.711191e+002	-5.370048e+000	-5.921980e+001	-2.195111e+001	-3.604151e+001	-2.315412e+000	-1.437448e+002
3890183300	-4.576864e+000	1.705033e+002	-5.439524e+000	-5.948630e+001	-2.204373e+001	-3.598718e+001	-2.335781e+000	-1.440579e+002
3900183000	-4.593640e+000	1.699665e+002	-5.505895e+000	-5.981479e+001	-2.206634e+001	-3.568817e+001	-2.349568e+000	-1.443687e+002
3910182700	-4.626928e+000	1.695129e+002	-5.568221e+000	-5.998034e+001	-2.207762e+001	-3.467997e+001	-2.358339e+000	-1.446853e+002
3920182400	-4.643788e+000	1.691252e+002	-5.616966e+000	-6.007681e+001	-2.202636e+001	-3.441592e+001	-2.375102e+000	-1.450199e+002
3930182100	-4.662162e+000	1.688420e+002	-5.674484e+000	-6.030519e+001	-2.195199e+001	-3.397238e+001	-2.380368e+000	-1.453882e+002
3940181800	-4.658056e+000	1.685104e+002	-5.711023e+000	-6.046574e+001	-2.184771e+001	-3.354166e+001	-2.388414e+000	-1.457593e+002
3950181500	-4.674902e+000	1.681843e+002	-5.726890e+000	-6.075467e+001	-2.169366e+001	-3.348348e+001	-2.399862e+000	-1.460743e+002
3960181200	-4.687792e+000	1.680551e+002	-5.751205e+000	-6.087067e+001	-2.154757e+001	-3.384884e+001	-2.412180e+000	-1.464306e+002
3970180900	-4.693840e+000	1.679843e+002	-5.750293e+000	-6.113797e+001	-2.136786e+001	-3.480895e+001	-2.425576e+000	-1.466843e+002
3980180600	-4.670526e+000	1.679370e+002	-5.747911e+000	-6.156825e+001	-2.124392e+001	-3.604411e+001	-2.416880e+000	-1.469154e+002
3990180300	-4.630541e+000	1.679046e+002	-5.771761e+000	-6.204391e+001	-2.120358e+001	-3.742971e+001	-2.406316e+000	-1.471359e+002
4000180000	-4.591159e+000	1.676570e+002	-5.796811e+000	-6.260812e+001	-2.122048e+001	-3.877277e+001	-2.393204e+000	-1.473989e+002
4010179700	-4.565522e+000	1.674047e+002	-5.837013e+000	-6.316848e+001	-2.124600e+001	-3.963414e+001	-2.371903e+000	-1.476739e+002
4020179400	-4.541148e+000	1.671739e+002	-5.866583e+000	-6.368038e+001	-2.127526e+001	-4.048380e+001	-2.358623e+000	-1.479519e+002
4030179100	-4.490995e+000	1.668776e+002	-5.900643e+000	-6.424011e+001	-2.136233e+001	-4.134002e+001	-2.346808e+000	-1.482240e+002
4040178800	-4.460440e+000	1.664385e+002	-5.968444e+000	-6.489989e+001	-2.153670e+001	-4.227922e+001	-2.333768e+000	-1.484926e+002
4050178500	-4.426718e+000	1.659019e+002	-6.031833e+000	-6.545405e+001	-2.171583e+001	-4.260885e+001	-2.327734e+000	-1.487607e+002
4060178200	-4.402331e+000	1.653519e+002	-6.110767e+000	-6.581172e+001	-2.187029e+001	-4.258807e+001	-2.323794e+000	-1.490895e+002
4070177900	-4.391586e+000	1.648453e+002	-6.175860e+000	-6.623393e+001	-2.201776e+001	-4.226874e+001	-2.325555e+000	-1.494880e+002
4080177600	-4.363248e+000	1.643595e+002	-6.246283e+000	-6.661137e+001	-2.214153e+001	-4.212942e+001	-2.334539e+000	-1.498208e+002
4090177300	-4.337484e+000	1.637624e+002	-6.317361e+000	-6.697883e+001	-2.220735e+001	-4.174362e+001	-2.342747e+000	-1.502052e+002
4100177000	-4.327587e+000	1.631421e+002	-6.376825e+000	-6.730278e+001	-2.230572e+001	-4.143962e+001	-2.346376e+000	-1.505993e+002
4110176700	-4.334587e+000	1.624995e+002	-6.455155e+000	-6.768435e+001	-2.238025e+001	-4.072728e+001	-2.340883e+000	-1.510079e+002
4120176400	-4.338659e+000	1.619552e+002	-6.532011e+000	-6.793462e+001	-2.241935e+001	-4.005198e+001	-2.344590e+000	-1.513818e+002
4130176100	-4.355153e+000	1.614166e+002	-6.610966e+000	-6.806466e+001	-2.242035e+001	-3.902649e+001	-2.344224e+000	-1.517785e+002
4140175800	-4.384317e+000	1.609319e+002	-6.669848e+000	-6.804789e+001	-2.234708e+001	-3.801935e+001	-2.344792e+000	-1.522044e+002
4150175500	-4.438242e+000	1.605562e+002	-6.722506e+000	-6.811376e+001	-2.214301e+001	-3.695775e+001	-2.356586e+000	-1.525986e+002
4160175200	-4.486194e+000	1.604382e+002	-6.757133e+000	-6.796511e+001	-2.190126e+001	-3.670831e+001	-2.367831e+000	-1.528994e+002
4170174900	-4.530396e+000	1.604547e+002	-6.753993e+000	-6.806273e+001	-2.160241e+001	-3.686138e+001	-2.379920e+000	-1.531852e+002
4180174600	-4.549947e+000	1.605133e+002	-6.727020e+000	-6.808732e+001	-2.130529e+001	-3.784979e+001	-2.388976e+000	-1.534005e+002
4190174300	-4.554539e+000	1.607505e+002	-6.709739e+000	-6.845439e+001	-2.109631e+001	-3.918858e+001	-2.389667e+000	-1.535068e+002
4200174000	-4.503785e+000	1.608961e+002	-6.680432e+000	-6.901310e+001	-2.100197e+001	-4.120743e+001	-2.378376e+000	-1.536557e+002
4210173700	-4.445134e+000	1.609036e+002	-6.684499e+000	-6.973050e+001	-2.107510e+001	-4.310259e+001	-2.366185e+000	-1.537315e+002
4220173400	-4.377131e+000	1.605492e+002	-6.719674e+000	-7.046188e+001	-2.119124e+001	-4.473600e+001	-2.356110e+000	-1.540339e+002
4230173100	-4.330946e+000	1.601895e+002	-6.778219e+000	-7.107485e+001	-2.141376e+001	-4.577259e+001	-2.353718e+000	-1.542561e+002
4240172800	-4.290381e+000	1.597162e+002	-6.823630e+000	-7.162946e+001	-2.150456e+001	-4.627413e+001	-2.347698e+000	-1.546369e+002
4250172500	-4.256799e+000	1.593818e+002	-6.873596e+000	-7.213793e+001	-2.161594e+001	-4.694694e+001	-2.352309e+000	-1.549325e+002
4260172200	-4.205569e+000	1.589380e+002	-6.915738e+000	-7.273531e+001	-2.170431e+001	-4.792606e+001	-2.358737e+000	-1.552743e+002
4270171900	-4.155603e+000	1.584224e+002	-6.977392e+000	-7.339567e+001	-2.189630e+001	-4.838646e+001	-2.349487e+000	-1.556163e+002
4280171600	-4.122713e+000	1.578902e+002	-7.049356e+000	-7.393269e+001	-2.202422e+001	-4.907534e+001	-2.339563e+000	-1.559918e+002
4290171300	-4.103535e+000	1.572934e+002	-7.139664e+000	-7.443924e+001	-2.223583e+001	-4.920092e+001	-2.326931e+000	-1.563271e+002
4300171000	-4.092382e+000	1.567561e+002	-7.226733e+000	-7.480691e+001	-2.241609e+001	-4.892527e+001	-2.313196e+000	-1.567431e+002
4310170700	-4.086639e+000	1.563559e+002	-7.322654e+000	-7.511531e+001	-2.255893e+001	-4.822321e+001	-2.289120e+000	-1.571182e+002
4320170400	-4.072030e+000	1.559401e+002	-7.413779e+000	-7.530403e+001	-2.265470e+001	-4.722695e+001	-2.287125e+000	-1.575824e+002
4330170100	-4.061063e+000	1.554589e+002	-7.499603e+000	-7.545443e+001	-2.267780e+001	-4.630925e+001	-2.272984e+000	-1.579826e+002
4340169800	-4.057616e+000	1.548942e+002	-7.575860e+000	-7.560288e+001	-2.267440e+001	-4.526935e+001	-2.262783e+000	-1.583953e+002
4350169500	-4.079510e+000	1.543412e+002	-7.646267e+000	-7.579218e+001	-2.264763e+001	-4.359562e+001	-2.269512e+000	-1.586953e+002
4360169200	-4.128315e+000	1.538224e+002	-7.733592e+000	-7.569612e+001	-2.257568e+001	-4.211303e+001	-2.279651e+000	-1.590495e+002
4370168900	-4.193830e+000	1.534128e+002	-7.790753e+000	-7.547442e+001	-2.232613e+001	-4.065548e+001	-2.303908e+000	-1.593578e+002
4380168600	-4.276926e+000	1.533099e+002	-7.793771e+000	-7.519461e+001	-2.198456e+001	-4.016755e+001	-2.339511e+000	-1.596040e+002
4390168300	-4.336983e+000	1.534092e+002	-7.750827e+000	-7.503365e+001	-2.160342e+001	-4.084466e+001	-2.370437e+000	-1.597715e+002
4400168000	-4.342537e+000	1.537706e+002	-7.682633e+000	-7.524147e+001	-2.128530e+001	-4.289677e+001	-2.391003e+000	-1.598647e+002
4410167700	-4.297919e+000	1.539988e+002	-7.617705e+000	-7.582116e+001	-2.114861e+001	-4.553600e+001	-2.397841e+000	-1.599280e+002
4420167400	-4.221908e+000	1.540821e+002	-7.598147e+000	-7.664641e+001	-2.122099e+001	-4.831827e+001	-2.383230e+000	-1.601448e+002
4430167100	-4.130212e+000	1.539234e+002	-7.619599e+000	-7.756770e+001	-2.135060e+001	-5.012806e+001	-2.372321e+000	-1.604332e+002
4440166800	-4.063608e+000	1.535014e+002	-7.676620e+000	-7.833292e+001	-2.153515e+001	-5.135068e+001	-2.345334e+000	-1.607733e+002
4450166500	-4.010780e+000	1.530971e+002	-7.750041e+000	-7.900142e+001	-2.173498e+001	-5.220383e+001	-2.324066e+000	-1.612084e+002
4460166200	-3.973227e+000	1.526328e+002	-7.829972e+000	-7.957710e+001	-2.188952e+001	-5.268403e+001	-2.313572e+000	-1.616065e+002
4470165900	-3.930747e+000	1.522870e+002	-7.893580e+000	-7.985265e+001	-2.196824e+001	-5.268144e+001	-2.306014e+000	-1.619712e+002
4480165600	-3.915382e+000	1.519707e+002	-7.943393e+000	-8.032713e+001	-2.196923e+001	-5.305697e+001	-2.299642e+000	-1.622973e+002
4490165300	-3.873152e+000	1.516177e+002	-7.984859e+000	-8.089209e+001	-2.201506e+001	-5.368501e+001	-2.278699e+000	-1.625197e+002
4500165000	-3.834799e+000	1.512391e+002	-8.041645e+000	-8.148021e+001	-2.217958e+001	-5.427455e+001	-2.252141e+000	-1.627913e+002
4510164700	-3.811131e+000	1.507656e+002	-8.128098e+000	-8.199687e+001	-2.230402e+001	-5.459490e+001	-2.236043e+000	-1.630881e+002
4520164400	-3.795239e+000	1.502097e+002	-8.224603e+000	-8.251545e+001	-2.254943e+001	-5.467212e+001	-2.227069e+000	-1.634004e+002
4530164100	-3.799345e+000	1.497264e+002	-8.327665e+000	-8.297281e+001	-2.274834e+001	-5.445272e+001	-2.224311e+000	-1.636830e+002
4540163800	-3.806780e+000	1.492615e+002	-8.445374e+000	-8.326612e+001	-2.298610e+001	-5.374214e+001	-2.219950e+000	-1.640624e+002
4550163500	-3.809923e+000	1.488960e+002	-8.562066e+000	-8.334579e+001	-2.316239e+001	-5.232622e+001	-2.223389e+000	-1.644554e+002
4560163200	-3.820119e+000	1.484514e+002	-8.645493e+000	-8.331431e+001	-2.318319e+001	-5.048176e+001	-2.235120e+000	-1.648678e+002
4570162900	-3.834986e+000	1.480103e+002	-8.731513e+000	-8.314111e+001	-2.312520e+001	-4.878320e+001	-2.250064e+000	-1.652898e+002
4580162600	-3.873043e+000	1.475809e+002	-8.792314e+000	-8.286690e+001	-2.290362e+001	-4.703233e+001	-2.281308e+000	-1.657561e+002
4590162300	-3.920337e+000	1.473112e+002	-8.797825e+000	-8.252706e+001	-2.256748e+001	-4.624728e+001	-2.309912e+000	-1.660419e+002
4600162000	-3.957246e+000	1.473119e+002	-8.761500e+000	-8.231054e+001	-2.217516e+001	-4.706170e+001	-2.334926e+000	-1.662865e+002
4610161700	-3.961376e+000	1.474495e+002	-8.701202e+000	-8.261431e+001	-2.191784e+001	-4.860065e+001	-2.355132e+000	-1.664900e+002
4620161400	-3.939914e+000	1.475290e+002	-8.660606e+000	-8.301443e+001	-2.174909e+001	-5.058547e+001	-2.361208e+000	-1.666210e+002
4630161100	-3.894804e+000	1.475991e+002	-8.629955e+000	-8.360769e+001	-2.164500e+001	-5.274735e+001	-2.332746e+000	-1.667007e+002
4640160800	-3.836121e+000	1.475676e+002	-8.627965e+000	-8.441922e+001	-2.167905e+001	-5.474641e+001	-2.296949e+000	-1.667952e+002
4650160500	-3.773482e+000	1.474263e+002	-8.677714e+000	-8.535750e+001	-2.185494e+001	-5.628748e+001	-2.259006e+000	-1.670482e+002
4660160200	-3.715648e+000	1.471421e+002	-8.740863e+000	-8.607980e+001	-2.205883e+001	-5.720220e+001	-2.232158e+000	-1.673378e+002
4670159900	-3.671810e+000	1.467758e+002	-8.818388e+000	-8.659154e+001	-2.224428e+001	-5.754193e+001	-2.207632e+000	-1.676747e+002
4680159600	-3.644260e+000	1.464049e+002	-8.896060e+000	-8.709975e+001	-2.241379e+001	-5.758445e+001	-2.200372e+000	-1.680352e+002
4690159300	-3.628049e+000	1.460318e+002	-8.986913e+000	-8.742656e+001	-2.252944e+001	-5.766355e+001	-2.201632e+000	-1.684012e+002
4700159000	-3.610732e+000	1.457087e+002	-9.035981e+000	-8.772303e+001	-2.255055e+001	-5.761772e+001	-2.208996e+000	-1.687052e+002
4710158700	-3.598612e+000	1.454088e+002	-9.081874e+000	-8.811017e+001	-2.255499e+001	-5.812448e+001	-2.214691e+000	-1.690143e+002
4720158400	-3.576059e+000	1.451218e+002	-9.107995e+000	-8.862222e+001	-2.267024e+001	-5.895351e+001	-2.212012e+000	-1.692517e+002
4730158100	-3.540995e+000	1.446995e+002	-9.176874e+000	-8.917382e+001	-2.277390e+001	-5.969620e+001	-2.206181e+000	-1.695369e+002
4740157800	-3.518594e+000	1.442718e+002	-9.267117e+000	-8.973626e+001	-2.297701e+001	-5.999676e+001	-2.199705e+000	-1.699143e+002
4750157500	-3.499478e+000	1.437958e+002	-9.362174e+000	-9.018721e+001	-2.314174e+001	-6.010962e+001	-2.199506e+000	-1.702791e+002
4760157200	-3.488298e+000	1.433353e+002	-9.470985e+000	-9.059852e+001	-2.334135e+001	-5.989332e+001	-2.204645e+000	-1.706335e+002
4770156900	-3.491252e+000	1.428471e+002	-9.593066e+000	-9.086974e+001	-2.356436e+001	-5.927292e+001	-2.205934e+000	-1.710267e+002
4780156600	-3.506173e+000	1.424205e+002	-9.730339e+000	-9.088220e+001	-2.372902e+001	-5.759088e+001	-2.200933e+000	-1.713542e+002
4790156300	-3.518445e+000	1.420563e+002	-9.843125e+000	-9.057941e+001	-2.374112e+001	-5.524898e+001	-2.196266e+000	-1.717000e+002
4800156000	-3.551571e+000	1.418235e+002	-9.926624e+000	-9.002842e+001	-2.352316e+001	-5.236041e+001	-2.209452e+000	-1.719671e+002
4810155700	-3.588698e+000	1.417215e+002	-9.904740e+000	-8.952829e+001	-2.306281e+001	-5.147041e+001	-2.224520e+000	-1.721308e+002
4820155400	-3.598705e+000	1.418371e+002	-9.821117e+000	-8.942764e+001	-2.267725e+001	-5.269219e+001	-2.235338e+000	-1.721811e+002
4830155100	-3.572786e+000	1.419585e+002	-9.767189e+000	-8.999566e+001	-2.249521e+001	-5.500604e+001	-2.224570e+000	-1.723481e+002
4840154800	-3.535234e+000	1.418863e+002	-9.763358e+000	-9.070264e+001	-2.257518e+001	-5.667989e+001	-2.204100e+000	-1.725523e+002
4850154500	-3.508846e+000	1.416412e+002	-9.822992e+000	-9.130949e+001	-2.265408e+001	-5.782519e+001	-2.190205e+000	-1.728450e+002
4860154200	-3.499874e+000	1.414600e+002	-9.854456e+000	-9.158457e+001	-2.261724e+001	-5.803148e+001	-2.197196e+000	-1.731205e+002
4870153900	-3.483618e+000	1.413897e+002	-9.855086e+000	-9.201433e+001	-2.261520e+001	-5.976142e+001	-2.208428e+000	-1.733239e+002
4880153600	-3.450898e+000	1.412886e+002	-9.869512e+000	-9.275820e+001	-2.269658e+001	-6.117186e+001	-2.191678e+000	-1.734012e+002
4890153300	-3.402821e+000	1.410050e+002	-9.931712e+000	-9.347096e+001	-2.289948e+001	-6.221624e+001	-2.162679e+000	-1.736474e+002
4900153000	-3.369367e+000	1.406415e+002	-1.001856e+001	-9.399225e+001	-2.308518e+001	-6.283416e+001	-2.134683e+000	-1.740324e+002
4910152700	-3.345721e+000	1.402825e+002	-1.011499e+001	-9.443073e+001	-2.326853e+001	-6.280491e+001	-2.128975e+000	-1.743907e+002
4920152400	-3.324833e+000	1.398640e+002	-1.019213e+001	-9.474166e+001	-2.336649e+001	-6.224055e+001	-2.118179e+000	-1.748165e+002
4930152100	-3.317864e+000	1.395646e+002	-1.027074e+001	-9.489795e+001	-2.339951e+001	-6.203576e+001	-2.125354e+000	-1.751772e+002
4940151800	-3.308187e+000	1.393345e+002	-1.030773e+001	-9.523834e+001	-2.337216e+001	-6.195598e+001	-2.121943e+000	-1.755051e+002
4950151500	-3.283731e+000	1.391187e+002	-1.035334e+001	-9.562989e+001	-2.339203e+001	-6.269785e+001	-2.116299e+000	-1.757093e+002
4960151200	-3.249287e+000	1.388484e+002	-1.041982e+001	-9.619784e+001	-2.350304e+001	-6.298031e+001	-2.116811e+000	-1.759243e+002
4970150900	-3.219292e+000	1.385165e+002	-1.049583e+001	-9.656684e+001	-2.365712e+001	-6.330451e+001	-2.119799e+000	-1.761744e+002
4980150600	-3.205202e+000	1.381704e+002	-1.059452e+001	-9.703737e+001	-2.382765e+001	-6.333654e+001	-2.125526e+000	-1.763873e+002
4990150300	-3.190831e+000	1.377713e+002	-1.070399e+001	-9.735350e+001	-2.406043e+001	-6.296377e+001	-2.127771e+000	-1.766243e+002
5000150000	-3.190410e+000	1.373908e+002	-1.082951e+001	-9.750518e+001	-2.420119e+001	-6.196816e+001	-2.114009e+000	-1.767441e+002
5010149700	-3.205371e+000	1.370459e+002	-1.095303e+001	-9.744027e+001	-2.433460e+001	-6.030392e+001	-2.105166e+000	-1.769984e+002
5020149400	-3.238149e+000	1.366910e+002	-1.104039e+001	-9.709224e+001	-2.429910e+001	-5.849899e+001	-2.102473e+000	-1.773313e+002
5030149100	-3.280451e+000	1.365343e+002	-1.107818e+001	-9.658825e+001	-2.405264e+001	-5.698790e+001	-2.112294e+000	-1.776409e+002
5040148800	-3.318364e+000	1.365757e+002	-1.103381e+001	-9.620172e+001	-2.361335e+001	-5.696098e+001	-2.135530e+000	-1.778148e+002
5050148500	-3.314106e+000	1.367850e+002	-1.094864e+001	-9.653216e+001	-2.335976e+001	-5.935242e+001	-2.125257e+000	-1.779278e+002
5060148200	-3.271427e+000	1.367863e+002	-1.093197e+001	-9.735603e+001	-2.341165e+001	-6.150533e+001	-2.095350e+000	-1.780999e+002
5070147900	-3.231600e+000	1.366098e+002	-1.098914e+001	-9.805882e+001	-2.357982e+001	-6.290012e+001	-2.072128e+000	-1.784290e+002
5080147600	-3.202675e+000	1.362594e+002	-1.106652e+001	-9.868048e+001	-2.375071e+001	-6.306533e+001	-2.054486e+000	-1.787270e+002
5090147300	-3.188072e+000	1.359316e+002	-1.114975e+001	-9.895676e+001	-2.383449e+001	-6.293407e+001	-2.047804e+000	-1.790745e+002
5100147000	-3.179899e+000	1.357722e+002	-1.118133e+001	-9.919515e+001	-2.384804e+001	-6.301849e+001	-2.037339e+000	-1.793813e+002
5110146700	-3.151879e+000	1.357151e+002	-1.122715e+001	-9.954101e+001	-2.381865e+001	-6.349887e+001	-2.037186e+000	-1.796326e+002
5120146400	-3.117816e+000	1.355135e+002	-1.128406e+001	-9.996759e+001	-2.391742e+001	-6.407102e+001	-2.027161e+000	-1.798056e+002
5130146100	-3.089168e+000	1.352263e+002	-1.134764e+001	-1.005401e+002	-2.406934e+001	-6.394732e+001	-2.021998e+000	1.799496e+002
5140145800	-3.056432e+000	1.349657e+002	-1.143678e+001	-1.009035e+002	-2.423672e+001	-6.411219e+001	-2.020981e+000	1.797946e+002
5150145500	-3.037051e+000	1.346241e+002	-1.154304e+001	-1.012742e+002	-2.437709e+001	-6.402889e+001	-2.005424e+000	1.794909e+002
5160145200	-3.023583e+000	1.343345e+002	-1.163459e+001	-1.014759e+002	-2.453134e+001	-6.298013e+001	-1.997292e+000	1.791051e+002
5170144900	-3.022525e+000	1.341399e+002	-1.172451e+001	-1.015615e+002	-2.459525e+001	-6.222021e+001	-2.003393e+000	1.787943e+002
5180144600	-3.021250e+000	1.339018e+002	-1.180123e+001	-1.015976e+002	-2.458155e+001	-6.171199e+001	-2.018494e+000	1.783930e+002
5190144300	-3.005779e+000	1.336800e+002	-1.186494e+001	-1.016738e+002	-2.458224e+001	-6.149145e+001	-2.045301e+000	1.781431e+002
5200144000	-2.999556e+000	1.334787e+002	-1.190782e+001	-1.016395e+002	-2.450071e+001	-6.139693e+001	-2.078878e+000	1.779251e+002
5210143700	-2.992184e+000	1.332009e+002	-1.192586e+001	-1.018128e+002	-2.441615e+001	-6.202559e+001	-2.101365e+000	1.779781e+002
5220143400	-2.982067e+000	1.329033e+002	-1.196880e+001	-1.023125e+002	-2.453281e+001	-6.281116e+001	-2.076553e+000	1.780112e+002
5230143100	-2.968631e+000	1.325616e+002	-1.204419e+001	-1.028417e+002	-2.473804e+001	-6.332369e+001	-2.038685e+000	1.778774e+002
5240142800	-2.977843e+000	1.321793e+002	-1.218120e+001	-1.030910e+002	-2.492573e+001	-6.215430e+001	-2.002292e+000	1.776002e+002
5250142500	-2.984174e+000	1.318488e+002	-1.229628e+001	-1.029825e+002	-2.502755e+001	-6.046894e+001	-1.978747e+000	1.772172e+002
5260142200	-3.019295e+000	1.315857e+002	-1.238284e+001	-1.026141e+002	-2.483944e+001	-5.896976e+001	-1.975472e+000	1.768834e+002
5270141900	-3.064096e+000	1.314891e+002	-1.238454e+001	-1.021343e+002	-2.455225e+001	-5.758798e+001	-1.981122e+000	1.766194e+002
5280141600	-3.079333e+000	1.316478e+002	-1.232153e+001	-1.019550e+002	-2.419284e+001	-5.889278e+001	-1.985702e+000	1.765991e+002
5290141300	-3.047140e+000	1.318070e+002	-1.225911e+001	-1.025928e+002	-2.412561e+001	-6.120113e+001	-1.974134e+000	1.764977e+002
5300141000	-2.990052e+000	1.317563e+002	-1.229186e+001	-1.035363e+002	-2.435554e+001	-6.249964e+001	-1.947628e+000	1.763841e+002
5310140700	-2.951678e+000	1.315406e+002	-1.238551e+001	-1.042243e+002	-2.462094e+001	-6.310960e+001	-1.932449e+000	1.761132e+002
5320140400	-2.928714e+000	1.312572e+002	-1.249416e+001	-1.046080e+002	-2.483861e+001	-6.250823e+001	-1.919393e+000	1.757535e+002
5330140100	-2.924322e+000	1.310482e+002	-1.261972e+001	-1.046349e+002	-2.493361e+001	-6.208107e+001	-1.928938e+000	1.753958e+002
5340139800	-2.913011e+000	1.308783e+002	-1.265994e+001	-1.047197e+002	-2.489460e+001	-6.162554e+001	-1.928708e+000	1.750498e+002
5350139500	-2.906716e+000	1.307947e+002	-1.272301e+001	-1.051473e+002	-2.495825e+001	-6.208855e+001	-1.928916e+000	1.748563e+002
5360139200	-2.880217e+000	1.305888e+002	-1.281227e+001	-1.055004e+002	-2.513376e+001	-6.216226e+001	-1.921549e+000	1.745471e+002
5370138900	-2.856842e+000	1.303504e+002	-1.292734e+001	-1.057527e+002	-2.528632e+001	-6.130843e+001	-1.928457e+000	1.742369e+002
5380138600	-2.848917e+000	1.300399e+002	-1.303894e+001	-1.057966e+002	-2.539609e+001	-6.016560e+001	-1.937992e+000	1.738550e+002
5390138300	-2.846683e+000	1.297376e+002	-1.314381e+001	-1.057188e+002	-2.549614e+001	-5.877209e+001	-1.955358e+000	1.735930e+002
5400138000	-2.850048e+000	1.294776e+002	-1.322800e+001	-1.055542e+002	-2.545231e+001	-5.794731e+001	-1.963185e+000	1.732548e+002
5410137700	-2.848316e+000	1.291747e+002	-1.333260e+001	-1.054596e+002	-2.539726e+001	-5.643933e+001	-1.965620e+000	1.730402e+002
5420137400	-2.857697e+000	1.288677e+002	-1.338713e+001	-1.051478e+002	-2.525692e+001	-5.510880e+001	-1.970747e+000	1.728466e+002
5430137100	-2.866423e+000	1.286714e+002	-1.344056e+001	-1.046835e+002	-2.500412e+001	-5.385850e+001	-1.998705e+000	1.726213e+002
5440136800	-2.881840e+000	1.284640e+002	-1.343652e+001	-1.041005e+002	-2.462934e+001	-5.339263e+001	-2.028964e+000	1.725400e+002
5450136500	-2.890457e+000	1.284452e+002	-1.333472e+001	-1.039049e+002	-2.427367e+001	-5.477972e+001	-2.065533e+000	1.728069e+002
5460136200	-2.875484e+000	1.284035e+002	-1.323942e+001	-1.048321e+002	-2.424910e+001	-5.780569e+001	-2.043640e+000	1.731655e+002
5470135900	-2.849021e+000	1.282227e+002	-1.330525e+001	-1.059904e+002	-2.460709e+001	-5.954131e+001	-1.983864e+000	1.732378e+002
5480135600	-2.833358e+000	1.278513e+002	-1.348599e+001	-1.066714e+002	-2.502136e+001	-5.906021e+001	-1.930552e+000	1.728095e+002
5490135300	-2.852822e+000	1.275013e+002	-1.365655e+001	-1.065375e+002	-2.521984e+001	-5.684031e+001	-1.911594e+000	1.724372e+002
5500135000	-2.884329e+000	1.272799e+002	-1.378503e+001	-1.059409e+002	-2.506386e+001	-5.471924e+001	-1.917766e+000	1.720015e+002
5510134700	-2.926706e+000	1.273113e+002	-1.381271e+001	-1.052736e+002	-2.475133e+001	-5.383888e+001	-1.929287e+000	1.717290e+002
5520134400	-2.951478e+000	1.274267e+002	-1.374856e+001	-1.050068e+002	-2.445961e+001	-5.430798e+001	-1.950667e+000	1.715719e+002
5530134100	-2.922489e+000	1.275940e+002	-1.368991e+001	-1.053788e+002	-2.442980e+001	-5.636927e+001	-1.958717e+000	1.714875e+002
5540133800	-2.888659e+000	1.275723e+002	-1.372869e+001	-1.062654e+002	-2.458305e+001	-5.762864e+001	-1.937247e+000	1.712734e+002
5550133500	-2.859616e+000	1.273570e+002	-1.384355e+001	-1.069231e+002	-2.484077e+001	-5.785382e+001	-1.912850e+000	1.710025e+002
5560133200	-2.843188e+000	1.270285e+002	-1.399818e+001	-1.069957e+002	-2.511159e+001	-5.638758e+001	-1.901901e+000	1.706087e+002
5570132900	-2.850390e+000	1.267405e+002	-1.412319e+001	-1.067008e+002	-2.505939e+001	-5.451827e+001	-1.912259e+000	1.702207e+002
5580132600	-2.859417e+000	1.265621e+002	-1.416816e+001	-1.064450e+002	-2.494227e+001	-5.377143e+001	-1.922178e+000	1.700054e+002
5590132300	-2.847730e+000	1.264412e+002	-1.424130e+001	-1.065054e+002	-2.489941e+001	-5.333998e+001	-1.908541e+000	1.697230e+002
5600132000	-2.832040e+000	1.261792e+002	-1.435301e+001	-1.065327e+002	-2.496904e+001	-5.193021e+001	-1.913947e+000	1.694937e+002
5610131700	-2.829532e+000	1.258347e+002	-1.452152e+001	-1.060420e+002	-2.489930e+001	-4.937524e+001	-1.931390e+000	1.691951e+002
5620131400	-2.847916e+000	1.255706e+002	-1.463923e+001	-1.049940e+002	-2.467474e+001	-4.681935e+001	-1.979400e+000	1.689680e+002
5630131100	-2.879710e+000	1.252732e+002	-1.467851e+001	-1.037691e+002	-2.418673e+001	-4.518867e+001	-2.027307e+000	1.688297e+002
5640130800	-2.914300e+000	1.251709e+002	-1.458777e+001	-1.024834e+002	-2.368676e+001	-4.521674e+001	-2.091850e+000	1.688011e+002
5650130500	-2.944249e+000	1.252529e+002	-1.442382e+001	-1.018695e+002	-2.318902e+001	-4.666107e+001	-2.131763e+000	1.688985e+002
5660130200	-2.956534e+000	1.253748e+002	-1.429967e+001	-1.019424e+002	-2.296110e+001	-4.911877e+001	-2.156237e+000	1.690540e+002
5670129900	-2.959222e+000	1.253409e+002	-1.421168e+001	-1.021868e+002	-2.279098e+001	-5.057876e+001	-2.151581e+000	1.690344e+002
5680129600	-2.976236e+000	1.253746e+002	-1.413723e+001	-1.021515e+002	-2.260576e+001	-5.194583e+001	-2.168435e+000	1.690737e+002
5690129300	-2.978658e+000	1.254634e+002	-1.395748e+001	-1.024731e+002	-2.235141e+001	-5.431120e+001	-2.183989e+000	1.692934e+002
5700129000	-2.956448e+000	1.256920e+002	-1.382354e+001	-1.036979e+002	-2.234064e+001	-5.812616e+001	-2.164569e+000	1.696541e+002
5710128700	-2.902359e+000	1.256274e+002	-1.381607e+001	-1.056879e+002	-2.270405e+001	-6.125998e+001	-2.082575e+000	1.697476e+002
5720128400	-2.861045e+000	1.252615e+002	-1.402522e+001	-1.072885e+002	-2.332680e+001	-6.223917e+001	-1.995987e+000	1.694849e+002
5730128100	-2.857177e+000	1.247562e+002	-1.433694e+001	-1.077047e+002	-2.380720e+001	-6.021586e+001	-1.942339e+000	1.689947e+002
5740127800	-2.902305e+000	1.243360e+002	-1.458014e+001	-1.067798e+002	-2.388054e+001	-5.638335e+001	-1.931356e+000	1.685047e+002
5750127500	-2.966343e+000	1.242386e+002	-1.463207e+001	-1.054204e+002	-2.351198e+001	-5.420322e+001	-1.949616e+000	1.681070e+002
5760127200	-3.000719e+000	1.244001e+002	-1.457510e+001	-1.045848e+002	-2.314278e+001	-5.383042e+001	-1.968371e+000	1.679489e+002
5770126900	-3.001626e+000	1.245797e+002	-1.449574e+001	-1.044429e+002	-2.294611e+001	-5.465479e+001	-1.993304e+000	1.679651e+002
5780126600	-2.978490e+000	1.246493e+002	-1.446017e+001	-1.046267e+002	-2.290712e+001	-5.541651e+001	-2.011384e+000	1.679455e+002
5790126300	-2.961289e+000	1.245369e+002	-1.450453e+001	-1.048143e+002	-2.289855e+001	-5.550406e+001	-2.015649e+000	1.678204e+002
5800126000	-2.951364e+000	1.243730e+002	-1.457480e+001	-1.045781e+002	-2.284495e+001	-5.467326e+001	-2.031476e+000	1.676205e+002
5810125700	-2.976379e+000	1.242808e+002	-1.455752e+001	-1.038978e+002	-2.259456e+001	-5.421334e+001	-2.067554e+000	1.674349e+002
5820125400	-2.988973e+000	1.243662e+002	-1.448015e+001	-1.035279e+002	-2.230190e+001	-5.493405e+001	-2.097370e+000	1.673412e+002
5830125100	-2.979941e+000	1.243544e+002	-1.443296e+001	-1.036173e+002	-2.220785e+001	-5.578925e+001	-2.104042e+000	1.673052e+002
5840124800	-2.990145e+000	1.242427e+002	-1.444670e+001	-1.032771e+002	-2.207175e+001	-5.543797e+001	-2.127568e+000	1.671723e+002
5850124500	-3.021901e+000	1.242389e+002	-1.436288e+001	-1.024000e+002	-2.171291e+001	-5.551565e+001	-2.176678e+000	1.670929e+002
5860124200	-3.049786e+000	1.244225e+002	-1.412538e+001	-1.020646e+002	-2.124142e+001	-5.729368e+001	-2.219963e+000	1.672944e+002
5870123900	-3.052330e+000	1.247220e+002	-1.387320e+001	-1.025345e+002	-2.090758e+001	-6.032297e+001	-2.231948e+000	1.677149e+002
5880123600	-3.033945e+000	1.249991e+002	-1.368679e+001	-1.038933e+002	-2.080730e+001	-6.377644e+001	-2.201330e+000	1.680711e+002
5890123300	-2.988399e+000	1.251788e+002	-1.357335e+001	-1.055181e+002	-2.089708e+001	-6.719509e+001	-2.143717e+000	1.683256e+002
5900123000	-2.931324e+000	1.252042e+002	-1.358230e+001	-1.071679e+002	-2.107486e+001	-6.982637e+001	-2.078288e+000	1.683846e+002
5910122700	-2.889680e+000	1.250621e+002	-1.367223e+001	-1.085543e+002	-2.135837e+001	-7.139292e+001	-2.014606e+000	1.683287e+002
5920122400	-2.862943e+000	1.248656e+002	-1.376233e+001	-1.093800e+002	-2.159173e+001	-7.208118e+001	-1.969439e+000	1.682616e+002
5930122100	-2.852636e+000	1.247038e+002	-1.382758e+001	-1.100137e+002	-2.174217e+001	-7.267082e+001	-1.959564e+000	1.682727e+002
5940121800	-2.825113e+000	1.246043e+002	-1.388670e+001	-1.107621e+002	-2.187056e+001	-7.371425e+001	-1.931331e+000	1.682509e+002
5950121500	-2.794154e+000	1.244740e+002	-1.398394e+001	-1.116667e+002	-2.213149e+001	-7.495972e+001	-1.900476e+000	1.681585e+002
5960121200	-2.772866e+000	1.241021e+002	-1.413961e+001	-1.124419e+002	-2.247315e+001	-7.520439e+001	-1.870848e+000	1.679706e+002
5970120900	-2.778766e+000	1.237882e+002	-1.434294e+001	-1.128218e+002	-2.279373e+001	-7.435888e+001	-1.843637e+000	1.675789e+002
5980120600	-2.800695e+000	1.234561e+002	-1.454673e+001	-1.123067e+002	-2.299558e+001	-7.215840e+001	-1.839596e+000	1.671513e+002
5990120300	-2.858009e+000	1.233630e+002	-1.464564e+001	-1.111328e+002	-2.283698e+001	-6.963699e+001	-1.860746e+000	1.667488e+002
6000120000	-2.890440e+000	1.235823e+002	-1.456947e+001	-1.102266e+002	-2.248836e+001	-6.894435e+001	-1.891278e+000	1.665727e+002
6010119700	-2.901066e+000	1.238108e+002	-1.445444e+001	-1.099531e+002	-2.216978e+001	-6.945300e+001	-1.920600e+000	1.665495e+002
6020119400	-2.876767e+000	1.239947e+002	-1.432758e+001	-1.102395e+002	-2.195835e+001	-7.079113e+001	-1.930540e+000	1.666227e+002
6030119100	-2.848409e+000	1.240907e+002	-1.425690e+001	-1.109688e+002	-2.188872e+001	-7.266755e+001	-1.916983e+000	1.666821e+002
6040118800	-2.821562e+000	1.240837e+002	-1.425609e+001	-1.116744e+002	-2.192707e+001	-7.419566e+001	-1.897986e+000	1.666386e+002
6050118500	-2.814781e+000	1.240456e+002	-1.428502e+001	-1.119876e+002	-2.197878e+001	-7.467308e+001	-1.886071e+000	1.665647e+002
6060118200	-2.799324e+000	1.239385e+002	-1.426583e+001	-1.124299e+002	-2.192498e+001	-7.539312e+001	-1.870388e+000	1.664726e+002
6070117900	-2.787838e+000	1.238813e+002	-1.426747e+001	-1.128789e+002	-2.194332e+001	-7.614682e+001	-1.850584e+000	1.665359e+002
6080117600	-2.768573e+000	1.238196e+002	-1.425985e+001	-1.132285e+002	-2.191720e+001	-7.682622e+001	-1.850099e+000	1.666132e+002
6090117300	-2.764342e+000	1.238696e+002	-1.420172e+001	-1.135409e+002	-2.180397e+001	-7.792186e+001	-1.848540e+000	1.667997e+002
6100117000	-2.734199e+000	1.238818e+002	-1.416138e+001	-1.143954e+002	-2.181163e+001	-7.955285e+001	-1.839203e+000	1.669513e+002
6110116700	-2.711679e+000	1.238353e+002	-1.415480e+001	-1.153133e+002	-2.189538e+001	-8.130637e+001	-1.805837e+000	1.670228e+002
6120116400	-2.677891e+000	1.237365e+002	-1.419768e+001	-1.162745e+002	-2.202157e+001	-8.286727e+001	-1.782193e+000	1.669546e+002
6130116100	-2.644076e+000	1.236225e+002	-1.426618e+001	-1.171690e+002	-2.218108e+001	-8.403320e+001	-1.758673e+000	1.668271e+002
6140115800	-2.619763e+000	1.234528e+002	-1.435022e+001	-1.179165e+002	-2.234561e+001	-8.503233e+001	-1.732663e+000	1.666248e+002
6150115500	-2.609332e+000	1.232744e+002	-1.444040e+001	-1.185746e+002	-2.252106e+001	-8.573504e+001	-1.714881e+000	1.663852e+002
6160115200	-2.592391e+000	1.231396e+002	-1.454407e+001	-1.191032e+002	-2.270617e+001	-8.619624e+001	-1.695811e+000	1.662386e+002
6170114900	-2.579095e+000	1.229390e+002	-1.461792e+001	-1.195112e+002	-2.283814e+001	-8.678079e+001	-1.686092e+000	1.661099e+002
6180114600	-2.567322e+000	1.227436e+002	-1.469380e+001	-1.200504e+002	-2.296658e+001	-8.730050e+001	-1.666352e+000	1.659261e+002
6190114300	-2.563023e+000	1.225221e+002	-1.480715e+001	-1.205317e+002	-2.316543e+001	-8.778955e+001	-1.650181e+000	1.657639e+002
6200114000	-2.558925e+000	1.222877e+002	-1.492973e+001	-1.209989e+002	-2.336031e+001	-8.792052e+001	-1.630909e+000	1.655745e+002
6210113700	-2.575562e+000	1.219852e+002	-1.504989e+001	-1.212348e+002	-2.356869e+001	-8.780543e+001	-1.614083e+000	1.653507e+002
6220113400	-2.595233e+000	1.218121e+002	-1.518549e+001	-1.213468e+002	-2.380045e+001	-8.681589e+001	-1.598659e+000	1.651884e+002
6230113100	-2.619364e+000	1.216315e+002	-1.532721e+001	-1.210249e+002	-2.395002e+001	-8.525059e+001	-1.580688e+000	1.650091e+002
6240112800	-2.647414e+000	1.216185e+002	-1.539647e+001	-1.203643e+002	-2.398843e+001	-8.330342e+001	-1.586551e+000	1.649228e+002
6250112500	-2.674473e+000	1.216647e+002	-1.540782e+001	-1.196365e+002	-2.381956e+001	-8.189437e+001	-1.601985e+000	1.649520e+002
6260112200	-2.675638e+000	1.218165e+002	-1.533106e+001	-1.192432e+002	-2.351881e+001	-8.186600e+001	-1.630984e+000	1.649877e+002
6270111900	-2.662803e+000	1.219381e+002	-1.525824e+001	-1.194833e+002	-2.330874e+001	-8.275975e+001	-1.637248e+000	1.650403e+002
6280111600	-2.639346e+000	1.219520e+002	-1.521025e+001	-1.200060e+002	-2.325506e+001	-8.369829e+001	-1.627078e+000	1.650444e+002
6290111300	-2.620981e+000	1.219524e+002	-1.520652e+001	-1.204307e+002	-2.323568e+001	-8.486168e+001	-1.619326e+000	1.649909e+002
6300111000	-2.600736e+000	1.219715e+002	-1.521218e+001	-1.208757e+002	-2.322318e+001	-8.562576e+001	-1.620440e+000	1.649003e+002
6310110700	-2.583244e+000	1.218548e+002	-1.522471e+001	-1.215164e+002	-2.324846e+001	-8.662256e+001	-1.610334e+000	1.647861e+002
6320110400	-2.565184e+000	1.217578e+002	-1.526658e+001	-1.219687e+002	-2.331845e+001	-8.746860e+001	-1.598318e+000	1.647482e+002
6330110100	-2.558945e+000	1.216516e+002	-1.529491e+001	-1.223624e+002	-2.333779e+001	-8.828667e+001	-1.591126e+000	1.646586e+002
6340109800	-2.540861e+000	1.215338e+002	-1.533308e+001	-1.230105e+002	-2.339041e+001	-8.920230e+001	-1.581842e+000	1.646143e+002
6350109500	-2.528535e+000	1.214035e+002	-1.536139e+001	-1.235027e+002	-2.347737e+001	-9.012629e+001	-1.566714e+000	1.645064e+002
6360109200	-2.514600e+000	1.212554e+002	-1.544030e+001	-1.240542e+002	-2.358579e+001	-9.113551e+001	-1.552407e+000	1.644365e+002
6370108900	-2.512841e+000	1.210755e+002	-1.549368e+001	-1.245897e+002	-2.371528e+001	-9.193298e+001	-1.530100e+000	1.643293e+002
6380108600	-2.508669e+000	1.209574e+002	-1.557556e+001	-1.250140e+002	-2.385038e+001	-9.218505e+001	-1.520792e+000	1.642248e+002
6390108300	-2.506287e+000	1.207111e+002	-1.565842e+001	-1.254791e+002	-2.404211e+001	-9.248026e+001	-1.496863e+000	1.642093e+002
6400108000	-2.504276e+000	1.204924e+002	-1.573939e+001	-1.258211e+002	-2.419710e+001	-9.258565e+001	-1.482974e+000	1.641858e+002
6410107700	-2.509219e+000	1.202681e+002	-1.582792e+001	-1.261103e+002	-2.439529e+001	-9.282959e+001	-1.473479e+000	1.641541e+002
6420107400	-2.519214e+000	1.200600e+002	-1.593200e+001	-1.264324e+002	-2.453819e+001	-9.296110e+001	-1.470399e+000	1.640860e+002
6430107100	-2.531247e+000	1.198664e+002	-1.603713e+001	-1.265426e+002	-2.473259e+001	-9.260652e+001	-1.459075e+000	1.640174e+002
6440106800	-2.559700e+000	1.196689e+002	-1.613072e+001	-1.266326e+002	-2.487923e+001	-9.200381e+001	-1.452055e+000	1.638592e+002
6450106500	-2.595408e+000	1.195835e+002	-1.622873e+001	-1.264695e+002	-2.500146e+001	-9.107162e+001	-1.447446e+000	1.637145e+002
6460106200	-2.618426e+000	1.196410e+002	-1.629692e+001	-1.262564e+002	-2.507923e+001	-9.035968e+001	-1.446322e+000	1.635499e+002
6470105900	-2.641753e+000	1.197160e+002	-1.636348e+001	-1.260518e+002	-2.511366e+001	-8.918787e+001	-1.451367e+000	1.634015e+002
6480105600	-2.642745e+000	1.197731e+002	-1.641649e+001	-1.257959e+002	-2.507480e+001	-8.825248e+001	-1.448802e+000	1.632677e+002
6490105300	-2.644229e+000	1.197606e+002	-1.644114e+001	-1.256461e+002	-2.502107e+001	-8.738881e+001	-1.456610e+000	1.631617e+002
6500105000	-2.645046e+000	1.198477e+002	-1.647317e+001	-1.252166e+002	-2.487046e+001	-8.678259e+001	-1.466346e+000	1.630725e+002
6510104700	-2.655573e+000	1.198370e+002	-1.643920e+001	-1.249284e+002	-2.464123e+001	-8.640302e+001	-1.476192e+000	1.630242e+002
6520104400	-2.652003e+000	1.198546e+002	-1.638304e+001	-1.250729e+002	-2.449262e+001	-8.713211e+001	-1.479543e+000	1.629624e+002
6530104100	-2.641662e+000	1.199232e+002	-1.630135e+001	-1.253289e+002	-2.432230e+001	-8.819378e+001	-1.469185e+000	1.630040e+002
6540103800	-2.622206e+000	1.199028e+002	-1.627487e+001	-1.259934e+002	-2.426399e+001	-8.937280e+001	-1.462379e+000	1.629843e+002
6550103500	-2.600654e+000	1.197842e+002	-1.628051e+001	-1.266928e+002	-2.435766e+001	-9.078171e+001	-1.444042e+000	1.630562e+002
6560103200	-2.578676e+000	1.196169e+002	-1.632209e+001	-1.272720e+002	-2.448824e+001	-9.201167e+001	-1.436157e+000	1.630931e+002
6570102900	-2.573897e+000	1.193908e+002	-1.636476e+001	-1.278613e+002	-2.455463e+001	-9.261250e+001	-1.431597e+000	1.630925e+002
6580102600	-2.566231e+000	1.191799e+002	-1.642197e+001	-1.282731e+002	-2.472880e+001	-9.308998e+001	-1.420611e+000	1.630873e+002
6590102300	-2.575564e+000	1.189252e+002	-1.651074e+001	-1.287331e+002	-2.485585e+001	-9.400299e+001	-1.408534e+000	1.630043e+002
6600102000	-2.593109e+000	1.186998e+002	-1.660526e+001	-1.290512e+002	-2.501653e+001	-9.410808e+001	-1.403587e+000	1.629262e+002
6610101700	-2.607243e+000	1.185594e+002	-1.669379e+001	-1.291785e+002	-2.519174e+001	-9.393154e+001	-1.393581e+000	1.627957e+002
6620101400	-2.634887e+000	1.184007e+002	-1.678355e+001	-1.292443e+002	-2.529408e+001	-9.383890e+001	-1.386583e+000	1.626983e+002
6630101100	-2.662863e+000	1.182816e+002	-1.685895e+001	-1.292450e+002	-2.540481e+001	-9.323054e+001	-1.382321e+000	1.626233e+002
6640100800	-2.697689e+000	1.181967e+002	-1.694316e+001	-1.292003e+002	-2.551764e+001	-9.272849e+001	-1.379853e+000	1.625063e+002
6650100500	-2.725427e+000	1.182771e+002	-1.699420e+001	-1.289896e+002	-2.557248e+001	-9.187385e+001	-1.373990e+000	1.624329e+002
6660100200	-2.759545e+000	1.183766e+002	-1.702864e+001	-1.287814e+002	-2.555069e+001	-9.100324e+001	-1.371409e+000	1.623630e+002
6670099900	-2.771291e+000	1.184836e+002	-1.702795e+001	-1.286570e+002	-2.548806e+001	-9.064524e+001	-1.373559e+000	1.622668e+002
6680099600	-2.779731e+000	1.186585e+002	-1.703134e+001	-1.286170e+002	-2.542539e+001	-9.024891e+001	-1.372267e+000	1.622245e+002
6690099300	-2.764446e+000	1.187533e+002	-1.702404e+001	-1.286451e+002	-2.537362e+001	-9.045789e+001	-1.367824e+000	1.621674e+002
6700099000	-2.757759e+000	1.187579e+002	-1.702934e+001	-1.288970e+002	-2.534862e+001	-9.073400e+001	-1.358463e+000	1.621255e+002
6710098700	-2.745167e+000	1.187538e+002	-1.704361e+001	-1.293300e+002	-2.537489e+001	-9.065268e+001	-1.361449e+000	1.621583e+002
6720098400	-2.727400e+000	1.186801e+002	-1.707305e+001	-1.295372e+002	-2.542209e+001	-9.142518e+001	-1.359440e+000	1.621513e+002
6730098100	-2.714299e+000	1.185416e+002	-1.712983e+001	-1.297667e+002	-2.546386e+001	-9.111496e+001	-1.359632e+000	1.621321e+002
6740097800	-2.709593e+000	1.183989e+002	-1.718275e+001	-1.301473e+002	-2.547856e+001	-9.109041e+001	-1.356606e+000	1.620816e+002
6750097500	-2.720093e+000	1.181574e+002	-1.725102e+001	-1.300435e+002	-2.552943e+001	-9.066254e+001	-1.354888e+000	1.619807e+002
6760097200	-2.734161e+000	1.180426e+002	-1.729588e+001	-1.297555e+002	-2.547051e+001	-9.029103e+001	-1.358080e+000	1.619279e+002
6770096900	-2.760949e+000	1.180239e+002	-1.726764e+001	-1.295193e+002	-2.535262e+001	-8.991425e+001	-1.361782e+000	1.618890e+002
6780096600	-2.761311e+000	1.180745e+002	-1.723279e+001	-1.294885e+002	-2.519178e+001	-9.018059e+001	-1.367858e+000	1.618676e+002
6790096300	-2.761884e+000	1.181367e+002	-1.719118e+001	-1.297932e+002	-2.510174e+001	-9.134118e+001	-1.366846e+000	1.618301e+002
6800096000	-2.750743e+000	1.181362e+002	-1.716164e+001	-1.302925e+002	-2.509952e+001	-9.259217e+001	-1.362614e+000	1.618382e+002
6810095700	-2.735118e+000	1.180579e+002	-1.719751e+001	-1.308836e+002	-2.511414e+001	-9.354787e+001	-1.349933e+000	1.618342e+002
6820095400	-2.740933e+000	1.179038e+002	-1.723595e+001	-1.314997e+002	-2.525919e+001	-9.420468e+001	-1.340342e+000	1.618327e+002
6830095100	-2.755573e+000	1.177417e+002	-1.731378e+001	-1.318343e+002	-2.544485e+001	-9.469697e+001	-1.335563e+000	1.617538e+002
6840094800	-2.783497e+000	1.176630e+002	-1.738573e+001	-1.319928e+002	-2.551988e+001	-9.478613e+001	-1.328168e+000	1.617246e+002
6850094500	-2.811506e+000	1.176805e+002	-1.742058e+001	-1.320590e+002	-2.563069e+001	-9.432886e+001	-1.317059e+000	1.616747e+002
6860094200	-2.826117e+000	1.177264e+002	-1.746612e+001	-1.320760e+002	-2.562884e+001	-9.367983e+001	-1.310798e+000	1.616314e+002
6870093900	-2.831977e+000	1.177314e+002	-1.748403e+001	-1.322057e+002	-2.563843e+001	-9.381184e+001	-1.306968e+000	1.616449e+002
6880093600	-2.836237e+000	1.177491e+002	-1.748468e+001	-1.323677e+002	-2.558069e+001	-9.389060e+001	-1.308486e+000	1.616298e+002
6890093300	-2.832835e+000	1.177461e+002	-1.750915e+001	-1.325375e+002	-2.561861e+001	-9.408284e+001	-1.308634e+000	1.616097e+002
6900093000	-2.832140e+000	1.176768e+002	-1.752510e+001	-1.328028e+002	-2.563791e+001	-9.423409e+001	-1.302837e+000	1.616028e+002
6910092700	-2.823690e+000	1.175902e+002	-1.755014e+001	-1.331665e+002	-2.563950e+001	-9.418821e+001	-1.299957e+000	1.615469e+002
6920092400	-2.827898e+000	1.175267e+002	-1.758224e+001	-1.333215e+002	-2.572915e+001	-9.457910e+001	-1.300481e+000	1.614996e+002
6930092100	-2.816940e+000	1.174616e+002	-1.760568e+001	-1.336398e+002	-2.569284e+001	-9.465489e+001	-1.299810e+000	1.614615e+002
6940091800	-2.817598e+000	1.173969e+002	-1.765908e+001	-1.339044e+002	-2.579490e+001	-9.498978e+001	-1.299561e+000	1.614182e+002
6950091500	-2.814709e+000	1.172984e+002	-1.768627e+001	-1.341732e+002	-2.579185e+001	-9.507686e+001	-1.299144e+000	1.613813e+002
6960091200	-2.809557e+000	1.172155e+002	-1.774622e+001	-1.342588e+002	-2.578628e+001	-9.514407e+001	-1.292079e+000	1.613211e+002
6970090900	-2.813400e+000	1.171216e+002	-1.779109e+001	-1.344241e+002	-2.584940e+001	-9.504843e+001	-1.290521e+000	1.612908e+002
6980090600	-2.815001e+000	1.170063e+002	-1.784506e+001	-1.346383e+002	-2.586079e+001	-9.473296e+001	-1.292070e+000	1.612497e+002
6990090300	-2.826164e+000	1.168897e+002	-1.787385e+001	-1.346011e+002	-2.583431e+001	-9.478003e+001	-1.288479e+000	1.612287e+002
7000090000	-2.836002e+000	1.167383e+002	-1.789290e+001	-1.346007e+002	-2.585829e+001	-9.464170e+001	-1.288036e+000	1.612336e+002
7010089700	-2.855095e+000	1.166855e+002	-1.792265e+001	-1.346758e+002	-2.578545e+001	-9.433610e+001	-1.286577e+000	1.612137e+002
7020089400	-2.873993e+000	1.166005e+002	-1.791249e+001	-1.345480e+002	-2.574829e+001	-9.455042e+001	-1.283202e+000	1.612299e+002
7030089100	-2.890144e+000	1.165682e+002	-1.791545e+001	-1.347417e+002	-2.572133e+001	-9.476579e+001	-1.283210e+000	1.612152e+002
7040088800	-2.903836e+000	1.165275e+002	-1.790552e+001	-1.351285e+002	-2.568808e+001	-9.547942e+001	-1.283517e+000	1.612533e+002
7050088500	-2.909752e+000	1.165430e+002	-1.789013e+001	-1.353450e+002	-2.568876e+001	-9.643174e+001	-1.282138e+000	1.612917e+002
7060088200	-2.914185e+000	1.164172e+002	-1.790880e+001	-1.358943e+002	-2.573575e+001	-9.714398e+001	-1.275458e+000	1.612785e+002
7070087900	-2.922809e+000	1.163609e+002	-1.794991e+001	-1.362233e+002	-2.583596e+001	-9.782641e+001	-1.276755e+000	1.612653e+002
7080087600	-2.931323e+000	1.162627e+002	-1.799032e+001	-1.366446e+002	-2.589274e+001	-9.808778e+001	-1.272454e+000	1.612491e+002
7090087300	-2.939107e+000	1.162210e+002	-1.803397e+001	-1.369177e+002	-2.602332e+001	-9.807013e+001	-1.267537e+000	1.612265e+002
7100087000	-2.939945e+000	1.161470e+002	-1.805730e+001	-1.370706e+002	-2.610730e+001	-9.812593e+001	-1.266977e+000	1.611757e+002
7110086700	-2.960064e+000	1.160635e+002	-1.814082e+001	-1.374565e+002	-2.613886e+001	-9.801112e+001	-1.262137e+000	1.611535e+002
7120086400	-2.968066e+000	1.160083e+002	-1.816626e+001	-1.375659e+002	-2.618379e+001	-9.784968e+001	-1.256826e+000	1.611231e+002
7130086100	-2.975984e+000	1.160385e+002	-1.820425e+001	-1.376716e+002	-2.620887e+001	-9.765236e+001	-1.255404e+000	1.611115e+002
7140085800	-2.977395e+000	1.159839e+002	-1.822967e+001	-1.377088e+002	-2.619121e+001	-9.768670e+001	-1.252204e+000	1.610965e+002
7150085500	-2.979531e+000	1.159303e+002	-1.824405e+001	-1.380523e+002	-2.617563e+001	-9.787017e+001	-1.248833e+000	1.610744e+002
7160085200	-2.984898e+000	1.158901e+002	-1.828666e+001	-1.381539e+002	-2.620502e+001	-9.797605e+001	-1.247063e+000	1.610690e+002
7170084900	-2.991396e+000	1.157883e+002	-1.830620e+001	-1.384617e+002	-2.620304e+001	-9.830065e+001	-1.243420e+000	1.610751e+002
7180084600	-2.999149e+000	1.157000e+002	-1.835343e+001	-1.386780e+002	-2.628757e+001	-9.800824e+001	-1.243261e+000	1.610570e+002
7190084300	-3.012691e+000	1.155917e+002	-1.837667e+001	-1.388851e+002	-2.624848e+001	-9.825182e+001	-1.240131e+000	1.610175e+002
7200084000	-3.027927e+000	1.154712e+002	-1.841108e+001	-1.391185e+002	-2.627945e+001	-9.865183e+001	-1.241430e+000	1.610036e+002
7210083700	-3.030283e+000	1.153453e+002	-1.844348e+001	-1.393073e+002	-2.632695e+001	-9.877897e+001	-1.237434e+000	1.609822e+002
7220083400	-3.042133e+000	1.152135e+002	-1.846091e+001	-1.394925e+002	-2.634328e+001	-9.896235e+001	-1.237329e+000	1.609614e+002
7230083100	-3.050400e+000	1.150688e+002	-1.849812e+001	-1.396706e+002	-2.638527e+001	-9.896860e+001	-1.238785e+000	1.609644e+002
7240082800	-3.066594e+000	1.149052e+002	-1.854065e+001	-1.399039e+002	-2.642530e+001	-9.934142e+001	-1.237435e+000	1.609368e+002
7250082500	-3.087797e+000	1.148027e+002	-1.857525e+001	-1.399930e+002	-2.650293e+001	-9.904447e+001	-1.236928e+000	1.609237e+002
7260082200	-3.109962e+000	1.146998e+002	-1.861521e+001	-1.401420e+002	-2.650827e+001	-9.939350e+001	-1.236968e+000	1.609201e+002
7270081900	-3.135975e+000	1.146210e+002	-1.867664e+001	-1.402055e+002	-2.655353e+001	-9.925039e+001	-1.235000e+000	1.609202e+002
7280081600	-3.161521e+000	1.146124e+002	-1.872306e+001	-1.403339e+002	-2.660644e+001	-9.868609e+001	-1.230994e+000	1.609267e+002
7290081300	-3.180800e+000	1.146382e+002	-1.871772e+001	-1.402215e+002	-2.653083e+001	-9.863438e+001	-1.232619e+000	1.609219e+002
7300081000	-3.197830e+000	1.146668e+002	-1.873524e+001	-1.404004e+002	-2.652637e+001	-9.841596e+001	-1.227477e+000	1.609561e+002
7310080700	-3.203948e+000	1.147117e+002	-1.872528e+001	-1.403938e+002	-2.652001e+001	-9.869945e+001	-1.227654e+000	1.609500e+002
7320080400	-3.211814e+000	1.147072e+002	-1.875016e+001	-1.406251e+002	-2.639857e+001	-9.872460e+001	-1.223907e+000	1.609893e+002
7330080100	-3.221101e+000	1.147172e+002	-1.873504e+001	-1.409606e+002	-2.641631e+001	-9.915022e+001	-1.223748e+000	1.609739e+002
7340079800	-3.225032e+000	1.146081e+002	-1.875562e+001	-1.411250e+002	-2.640502e+001	-9.950157e+001	-1.227047e+000	1.609991e+002
7350079500	-3.235741e+000	1.145362e+002	-1.874570e+001	-1.415006e+002	-2.644344e+001	-9.970599e+001	-1.228075e+000	1.610055e+002
7360079200	-3.245724e+000	1.143828e+002	-1.878856e+001	-1.419653e+002	-2.644740e+001	-1.004631e+002	-1.226821e+000	1.609792e+002
7370078900	-3.260854e+000	1.142646e+002	-1.882439e+001	-1.422462e+002	-2.649109e+001	-1.008298e+002	-1.218261e+000	1.608740e+002
7380078600	-3.273122e+000	1.141148e+002	-1.886051e+001	-1.425665e+002	-2.653972e+001	-1.007273e+002	-1.222217e+000	1.608322e+002
7390078300	-3.290748e+000	1.139775e+002	-1.889778e+001	-1.428266e+002	-2.659483e+001	-1.016668e+002	-1.219051e+000	1.608258e+002
7400078000	-3.304410e+000	1.138492e+002	-1.893680e+001	-1.430388e+002	-2.664411e+001	-1.013168e+002	-1.216168e+000	1.608023e+002
7410077700	-3.317251e+000	1.137313e+002	-1.896924e+001	-1.431012e+002	-2.669944e+001	-1.014058e+002	-1.220781e+000	1.608069e+002
7420077400	-3.327325e+000	1.136071e+002	-1.900794e+001	-1.433217e+002	-2.672286e+001	-1.015247e+002	-1.212957e+000	1.608122e+002
7430077100	-3.337845e+000	1.135179e+002	-1.901787e+001	-1.436460e+002	-2.679346e+001	-1.013780e+002	-1.212512e+000	1.607970e+002
7440076800	-3.345263e+000	1.133873e+002	-1.906468e+001	-1.438336e+002	-2.682984e+001	-1.012516e+002	-1.214916e+000	1.608034e+002
7450076500	-3.367639e+000	1.133114e+002	-1.911149e+001	-1.439848e+002	-2.686637e+001	-1.012660e+002	-1.208051e+000	1.608047e+002
7460076200	-3.389566e+000	1.131797e+002	-1.918389e+001	-1.442653e+002	-2.686841e+001	-1.013702e+002	-1.206519e+000	1.608389e+002
7470075900	-3.412304e+000	1.131366e+002	-1.922190e+001	-1.442604e+002	-2.686877e+001	-1.011873e+002	-1.203550e+000	1.608426e+002
7480075600	-3.440358e+000	1.130617e+002	-1.924806e+001	-1.443071e+002	-2.694179e+001	-1.011166e+002	-1.202245e+000	1.608326e+002
7490075300	-3.462421e+000	1.130179e+002	-1.929842e+001	-1.442728e+002	-2.685690e+001	-1.009571e+002	-1.205878e+000	1.608711e+002
7500075000	-3.486244e+000	1.129831e+002	-1.930598e+001	-1.444109e+002	-2.687901e+001	-1.009858e+002	-1.212977e+000	1.608520e+002
7510074700	-3.507507e+000	1.128934e+002	-1.930182e+001	-1.445945e+002	-2.683651e+001	-1.009730e+002	-1.211538e+000	1.608529e+002
7520074400	-3.529362e+000	1.127989e+002	-1.930182e+001	-1.447655e+002	-2.686666e+001	-1.011556e+002	-1.211819e+000	1.607682e+002
7530074100	-3.552058e+000	1.126999e+002	-1.931733e+001	-1.450230e+002	-2.683871e+001	-1.013042e+002	-1.210878e+000	1.606870e+002
7540073800	-3.581682e+000	1.126021e+002	-1.933217e+001	-1.451433e+002	-2.682628e+001	-1.017718e+002	-1.211406e+000	1.606698e+002
7550073500	-3.600635e+000	1.124457e+002	-1.935113e+001	-1.456678e+002	-2.689050e+001	-1.021097e+002	-1.216644e+000	1.606616e+002
7560073200	-3.633542e+000	1.123355e+002	-1.937886e+001	-1.456826e+002	-2.688714e+001	-1.024655e+002	-1.216670e+000	1.606806e+002
7570072900	-3.662688e+000	1.122633e+002	-1.938678e+001	-1.458289e+002	-2.691313e+001	-1.022634e+002	-1.212635e+000	1.607172e+002
7580072600	-3.691724e+000	1.122280e+002	-1.939902e+001	-1.460558e+002	-2.693733e+001	-1.023445e+002	-1.214624e+000	1.607184e+002
7590072300	-3.709450e+000	1.122183e+002	-1.943377e+001	-1.461727e+002	-2.692877e+001	-1.026295e+002	-1.214036e+000	1.607269e+002
7600072000	-3.722806e+000	1.121705e+002	-1.944947e+001	-1.465091e+002	-2.693054e+001	-1.022041e+002	-1.212591e+000	1.607541e+002
7610071700	-3.735788e+000	1.121641e+002	-1.947711e+001	-1.465276e+002	-2.691887e+001	-1.027889e+002	-1.208344e+000	1.607511e+002
7620071400	-3.747316e+000	1.121060e+002	-1.950060e+001	-1.468502e+002	-2.685068e+001	-1.029863e+002	-1.208510e+000	1.607938e+002
7630071100	-3.759416e+000	1.120689e+002	-1.950504e+001	-1.472218e+002	-2.690706e+001	-1.032442e+002	-1.205220e+000	1.607908e+002
7640070800	-3.776268e+000	1.120168e+002	-1.954111e+001	-1.474078e+002	-2.691459e+001	-1.032951e+002	-1.202843e+000	1.608324e+002
7650070500	-3.794788e+000	1.119660e+002	-1.956372e+001	-1.477293e+002	-2.691712e+001	-1.032074e+002	-1.202466e+000	1.608781e+002
7660070200	-3.814326e+000	1.118854e+002	-1.958813e+001	-1.477989e+002	-2.693105e+001	-1.035190e+002	-1.205899e+000	1.608823e+002
7670069900	-3.831222e+000	1.117640e+002	-1.961992e+001	-1.481365e+002	-2.696474e+001	-1.040259e+002	-1.214622e+000	1.608040e+002
7680069600	-3.851273e+000	1.116379e+002	-1.965684e+001	-1.484389e+002	-2.702142e+001	-1.044445e+002	-1.211957e+000	1.607488e+002
7690069300	-3.876552e+000	1.114593e+002	-1.967337e+001	-1.486071e+002	-2.705499e+001	-1.045567e+002	-1.210761e+000	1.606561e+002
7700069000	-3.905577e+000	1.112856e+002	-1.973178e+001	-1.489524e+002	-2.705875e+001	-1.048627e+002	-1.212452e+000	1.606241e+002
7710068700	-3.936577e+000	1.110692e+002	-1.978620e+001	-1.492657e+002	-2.716745e+001	-1.051180e+002	-1.220226e+000	1.606363e+002
7720068400	-3.968551e+000	1.108601e+002	-1.981137e+001	-1.492855e+002	-2.722036e+001	-1.051275e+002	-1.226395e+000	1.606824e+002
7730068100	-4.011679e+000	1.106806e+002	-1.985201e+001	-1.493633e+002	-2.728992e+001	-1.048947e+002	-1.229133e+000	1.606936e+002
7740067800	-4.057013e+000	1.105474e+002	-1.986409e+001	-1.493809e+002	-2.727312e+001	-1.046269e+002	-1.226707e+000	1.607298e+002
7750067500	-4.101012e+000	1.104935e+002	-1.988907e+001	-1.495303e+002	-2.727019e+001	-1.042383e+002	-1.233868e+000	1.606987e+002
7760067200	-4.142518e+000	1.105103e+002	-1.988764e+001	-1.495186e+002	-2.725570e+001	-1.042403e+002	-1.230981e+000	1.607101e+002
7770066900	-4.169683e+000	1.105364e+002	-1.989004e+001	-1.495903e+002	-2.724167e+001	-1.043610e+002	-1.227752e+000	1.607413e+002
7780066600	-4.186028e+000	1.105895e+002	-1.989085e+001	-1.497202e+002	-2.720082e+001	-1.044157e+002	-1.226375e+000	1.607215e+002
7790066300	-4.204178e+000	1.106176e+002	-1.986705e+001	-1.500463e+002	-2.715116e+001	-1.045315e+002	-1.229211e+000	1.607144e+002
7800066000	-4.220577e+000	1.106745e+002	-1.986937e+001	-1.503309e+002	-2.708841e+001	-1.051280e+002	-1.227870e+000	1.607523e+002
7810065700	-4.234068e+000	1.106648e+002	-1.989448e+001	-1.506427e+002	-2.711918e+001	-1.053491e+002	-1.235934e+000	1.607701e+002
7820065400	-4.251552e+000	1.106455e+002	-1.990132e+001	-1.510729e+002	-2.716428e+001	-1.060405e+002	-1.244502e+000	1.607746e+002
7830065100	-4.266919e+000	1.105749e+002	-1.990346e+001	-1.515665e+002	-2.721703e+001	-1.063517e+002	-1.253225e+000	1.607434e+002
7840064800	-4.281606e+000	1.104935e+002	-1.993791e+001	-1.519388e+002	-2.723753e+001	-1.066167e+002	-1.248943e+000	1.606940e+002
7850064500	-4.311090e+000	1.103746e+002	-1.996418e+001	-1.523325e+002	-2.723481e+001	-1.075880e+002	-1.251195e+000	1.605807e+002
7860064200	-4.333251e+000	1.101763e+002	-1.998885e+001	-1.527761e+002	-2.731259e+001	-1.075370e+002	-1.257892e+000	1.606694e+002
7870063900	-4.364230e+000	1.099996e+002	-2.001101e+001	-1.531382e+002	-2.736326e+001	-1.083791e+002	-1.263297e+000	1.607169e+002
7880063600	-4.399301e+000	1.098431e+002	-2.007107e+001	-1.535408e+002	-2.747146e+001	-1.082493e+002	-1.264482e+000	1.607335e+002
7890063300	-4.426531e+000	1.096448e+002	-2.010165e+001	-1.537339e+002	-2.750288e+001	-1.082069e+002	-1.267435e+000	1.607779e+002
7900063000	-4.449263e+000	1.094785e+002	-2.009662e+001	-1.541140e+002	-2.758998e+001	-1.086790e+002	-1.280228e+000	1.607996e+002
7910062700	-4.485697e+000	1.093453e+002	-2.015395e+001	-1.548047e+002	-2.768411e+001	-1.092353e+002	-1.281631e+000	1.608712e+002
7920062400	-4.515555e+000	1.092144e+002	-2.022694e+001	-1.553716e+002	-2.787340e+001	-1.094440e+002	-1.286857e+000	1.608356e+002
7930062100	-4.533553e+000	1.090989e+002	-2.030951e+001	-1.558803e+002	-2.803391e+001	-1.087597e+002	-1.288051e+000	1.608514e+002
7940061800	-4.556596e+000	1.089787e+002	-2.043560e+001	-1.561832e+002	-2.820474e+001	-1.081839e+002	-1.290416e+000	1.607888e+002
7950061500	-4.572608e+000	1.088662e+002	-2.054766e+001	-1.562111e+002	-2.834464e+001	-1.070515e+002	-1.293274e+000	1.607768e+002
7960061200	-4.602721e+000	1.087620e+002	-2.064671e+001	-1.561508e+002	-2.836177e+001	-1.057582e+002	-1.298868e+000	1.608128e+002
7970060900	-4.629891e+000	1.086321e+002	-2.072836e+001	-1.558319e+002	-2.833828e+001	-1.044476e+002	-1.307185e+000	1.608689e+002
7980060600	-4.667118e+000	1.085273e+002	-2.075867e+001	-1.555363e+002	-2.823888e+001	-1.031552e+002	-1.317994e+000	1.609282e+002
7990060300	-4.707983e+000	1.085058e+002	-2.074732e+001	-1.554168e+002	-2.806632e+001	-1.032938e+002	-1.329129e+000	1.609489e+002
8000060000	-4.746494e+000	1.084836e+002	-2.072759e+001	-1.555013e+002	-2.792618e+001	-1.033165e+002	-1.324845e+000	1.608935e+002
8010059700	-4.780316e+000	1.084548e+002	-2.072853e+001	-1.557667e+002	-2.788536e+001	-1.041480e+002	-1.318375e+000	1.607567e+002
8020059400	-4.811731e+000	1.083953e+002	-2.076263e+001	-1.560426e+002	-2.785403e+001	-1.042130e+002	-1.317698e+000	1.607907e+002
8030059100	-4.844683e+000	1.082555e+002	-2.080319e+001	-1.563838e+002	-2.793067e+001	-1.045769e+002	-1.321558e+000	1.608100e+002
8040058800	-4.876076e+000	1.080987e+002	-2.084350e+001	-1.568234e+002	-2.791555e+001	-1.047944e+002	-1.328517e+000	1.608289e+002
8050058500	-4.904341e+000	1.079381e+002	-2.091930e+001	-1.570505e+002	-2.804902e+001	-1.047871e+002	-1.339302e+000	1.608413e+002
8060058200	-4.935282e+000	1.077207e+002	-2.096482e+001	-1.574331e+002	-2.813853e+001	-1.041283e+002	-1.350481e+000	1.608937e+002
8070057900	-4.961953e+000	1.074829e+002	-2.107273e+001	-1.573592e+002	-2.814437e+001	-1.038253e+002	-1.367279e+000	1.608963e+002
8080057600	-4.988718e+000	1.072853e+002	-2.115789e+001	-1.575058e+002	-2.824582e+001	-1.030943e+002	-1.384136e+000	1.609070e+002
8090057300	-5.016241e+000	1.070487e+002	-2.126298e+001	-1.575452e+002	-2.815091e+001	-1.022157e+002	-1.392791e+000	1.609455e+002
8100057000	-5.039509e+000	1.068197e+002	-2.132168e+001	-1.573010e+002	-2.816089e+001	-1.013923e+002	-1.401909e+000	1.609844e+002
8110056700	-5.066461e+000	1.065518e+002	-2.141135e+001	-1.569736e+002	-2.811232e+001	-1.005465e+002	-1.418675e+000	1.610738e+002
8120056400	-5.092335e+000	1.063315e+002	-2.146364e+001	-1.567948e+002	-2.805282e+001	-9.993828e+001	-1.424823e+000	1.611440e+002
8130056100	-5.133793e+000	1.060728e+002	-2.153423e+001	-1.566483e+002	-2.804219e+001	-9.964569e+001	-1.428064e+000	1.612418e+002
8140055800	-5.172029e+000	1.058333e+002	-2.163578e+001	-1.561909e+002	-2.794772e+001	-9.841889e+001	-1.433134e+000	1.613851e+002
8150055500	-5.226456e+000	1.056327e+002	-2.165315e+001	-1.555308e+002	-2.786794e+001	-9.764298e+001	-1.445410e+000	1.614365e+002
8160055200	-5.283383e+000	1.054505e+002	-2.162165e+001	-1.548475e+002	-2.761859e+001	-9.713627e+001	-1.448716e+000	1.615444e+002
8170054900	-5.335622e+000	1.053200e+002	-2.160923e+001	-1.548398e+002	-2.742334e+001	-9.766388e+001	-1.428321e+000	1.615320e+002
8180054600	-5.385542e+000	1.050836e+002	-2.159289e+001	-1.547900e+002	-2.740465e+001	-9.802725e+001	-1.417721e+000	1.614116e+002
8190054300	-5.448535e+000	1.048203e+002	-2.168640e+001	-1.543905e+002	-2.739475e+001	-9.733363e+001	-1.417474e+000	1.614664e+002
8200054000	-5.524149e+000	1.044652e+002	-2.170523e+001	-1.536721e+002	-2.717549e+001	-9.632314e+001	-1.424816e+000	1.615465e+002
8210053700	-5.616028e+000	1.042941e+002	-2.165359e+001	-1.529118e+002	-2.690804e+001	-9.617212e+001	-1.439912e+000	1.616416e+002
8220053400	-5.705854e+000	1.041119e+002	-2.152690e+001	-1.525863e+002	-2.666735e+001	-9.677267e+001	-1.448573e+000	1.617595e+002
8230053100	-5.783625e+000	1.040157e+002	-2.140983e+001	-1.526027e+002	-2.653921e+001	-9.739422e+001	-1.445286e+000	1.618372e+002
8240052800	-5.848752e+000	1.039888e+002	-2.134803e+001	-1.526951e+002	-2.644570e+001	-9.829107e+001	-1.455263e+000	1.618644e+002
8250052500	-5.908996e+000	1.038812e+002	-2.132123e+001	-1.528983e+002	-2.638532e+001	-9.862549e+001	-1.460686e+000	1.619131e+002
8260052200	-5.956631e+000	1.037731e+002	-2.129287e+001	-1.528963e+002	-2.634625e+001	-9.875220e+001	-1.470260e+000	1.619487e+002
8270051900	-5.995664e+000	1.036120e+002	-2.128979e+001	-1.530815e+002	-2.625981e+001	-9.874379e+001	-1.475020e+000	1.620171e+002
8280051600	-6.046576e+000	1.035256e+002	-2.126388e+001	-1.528627e+002	-2.610812e+001	-9.888456e+001	-1.482571e+000	1.620875e+002
8290051300	-6.091358e+000	1.033415e+002	-2.123984e+001	-1.526746e+002	-2.598564e+001	-9.906329e+001	-1.487260e+000	1.622022e+002
8300051000	-6.146548e+000	1.031502e+002	-2.118991e+001	-1.522646e+002	-2.576195e+001	-9.923714e+001	-1.479672e+000	1.623604e+002
8310050700	-6.212245e+000	1.029978e+002	-2.108553e+001	-1.521409e+002	-2.560218e+001	-1.001834e+002	-1.480317e+000	1.624929e+002
8320050400	-6.280058e+000	1.029061e+002	-2.097830e+001	-1.523411e+002	-2.541073e+001	-1.015049e+002	-1.470514e+000	1.625876e+002
8330050100	-6.351185e+000	1.027550e+002	-2.089352e+001	-1.526130e+002	-2.534358e+001	-1.025498e+002	-1.455794e+000	1.625571e+002
8340049800	-6.431274e+000	1.026323e+002	-2.079722e+001	-1.530553e+002	-2.527467e+001	-1.035941e+002	-1.427310e+000	1.625061e+002
8350049500	-6.515534e+000	1.025378e+002	-2.073163e+001	-1.533905e+002	-2.517933e+001	-1.043769e+002	-1.412232e+000	1.624878e+002
8360049200	-6.614101e+000	1.024833e+002	-2.068002e+001	-1.537541e+002	-2.514565e+001	-1.051684e+002	-1.398030e+000	1.625894e+002
8370048900	-6.703418e+000	1.023710e+002	-2.060049e+001	-1.540443e+002	-2.503799e+001	-1.057934e+002	-1.391678e+000	1.626286e+002
8380048600	-6.792193e+000	1.023430e+002	-2.055797e+001	-1.543954e+002	-2.502382e+001	-1.070106e+002	-1.398180e+000	1.626665e+002
8390048300	-6.867764e+000	1.022765e+002	-2.048184e+001	-1.550091e+002	-2.491869e+001	-1.078063e+002	-1.406469e+000	1.627551e+002
8400048000	-6.940482e+000	1.021616e+002	-2.043655e+001	-1.554336e+002	-2.489050e+001	-1.089804e+002	-1.398259e+000	1.627821e+002
8410047700	-7.010155e+000	1.020728e+002	-2.038913e+001	-1.560672e+002	-2.489160e+001	-1.098335e+002	-1.409536e+000	1.628026e+002
8420047400	-7.071947e+000	1.019047e+002	-2.034691e+001	-1.565863e+002	-2.488449e+001	-1.110331e+002	-1.406556e+000	1.627834e+002
8430047100	-7.135079e+000	1.016677e+002	-2.037011e+001	-1.572290e+002	-2.492467e+001	-1.119630e+002	-1.407116e+000	1.627523e+002
8440046800	-7.208174e+000	1.015108e+002	-2.039862e+001	-1.577851e+002	-2.500595e+001	-1.125319e+002	-1.405681e+000	1.627431e+002
8450046500	-7.292094e+000	1.013561e+002	-2.043210e+001	-1.580758e+002	-2.502950e+001	-1.129325e+002	-1.411658e+000	1.627040e+002
8460046200	-7.384756e+000	1.012901e+002	-2.043144e+001	-1.582694e+002	-2.499701e+001	-1.128939e+002	-1.408371e+000	1.626564e+002
8470045900	-7.467205e+000	1.013102e+002	-2.038199e+001	-1.584212e+002	-2.499960e+001	-1.132161e+002	-1.412753e+000	1.626792e+002
8480045600	-7.546189e+000	1.014296e+002	-2.033144e+001	-1.588287e+002	-2.486761e+001	-1.142045e+002	-1.402228e+000	1.626779e+002
8490045300	-7.617099e+000	1.014672e+002	-2.028725e+001	-1.592383e+002	-2.485661e+001	-1.150490e+002	-1.400946e+000	1.626553e+002
8500045000	-7.702617e+000	1.017018e+002	-2.039599e+001	-1.594068e+002	-2.480737e+001	-1.164356e+002	-1.366420e+000	1.625392e+002
8510044700	-7.787719e+000	1.016759e+002	-2.039998e+001	-1.604189e+002	-2.473691e+001	-1.171385e+002	-1.361422e+000	1.623821e+002
8520044400	-7.865439e+000	1.015817e+002	-2.038726e+001	-1.604706e+002	-2.481051e+001	-1.175610e+002	-1.347565e+000	1.624937e+002
8530044100	-7.992543e+000	1.013130e+002	-2.035254e+001	-1.609589e+002	-2.471069e+001	-1.188821e+002	-1.327358e+000	1.625147e+002
8540043800	-8.108064e+000	1.012298e+002	-2.031561e+001	-1.617429e+002	-2.474791e+001	-1.191210e+002	-1.343637e+000	1.625440e+002
8550043500	-8.213841e+000	1.011126e+002	-2.039801e+001	-1.622839e+002	-2.470686e+001	-1.196675e+002	-1.357036e+000	1.627249e+002
8560043200	-8.331727e+000	1.009533e+002	-2.031690e+001	-1.626556e+002	-2.487335e+001	-1.201542e+002	-1.348805e+000	1.627618e+002
8570042900	-8.459221e+000	1.008785e+002	-2.020857e+001	-1.628405e+002	-2.484984e+001	-1.198862e+002	-1.356425e+000	1.627919e+002
8580042600	-8.559338e+000	1.010027e+002	-2.030795e+001	-1.632239e+002	-2.473364e+001	-1.214074e+002	-1.354549e+000	1.629054e+002
8590042300	-8.645489e+000	1.007523e+002	-2.033534e+001	-1.640820e+002	-2.477348e+001	-1.211035e+002	-1.379512e+000	1.630901e+002
8600042000	-8.744133e+000	1.009393e+002	-2.023853e+001	-1.640230e+002	-2.476950e+001	-1.220297e+002	-1.388727e+000	1.629900e+002
8610041700	-8.832510e+000	1.007919e+002	-2.026553e+001	-1.643785e+002	-2.484879e+001	-1.233314e+002	-1.391244e+000	1.630218e+002
8620041400	-8.919345e+000	1.010291e+002	-2.023311e+001	-1.650313e+002	-2.488105e+001	-1.238836e+002	-1.396730e+000	1.630349e+002
8630041100	-9.012749e+000	1.009764e+002	-2.018813e+001	-1.653155e+002	-2.478355e+001	-1.244636e+002	-1.405466e+000	1.631125e+002
8640040800	-9.121644e+000	1.013147e+002	-2.024536e+001	-1.659567e+002	-2.478550e+001	-1.238982e+002	-1.395566e+000	1.629579e+002
8650040500	-9.200279e+000	1.013548e+002	-2.022827e+001	-1.665545e+002	-2.490338e+001	-1.251427e+002	-1.374971e+000	1.628009e+002
8660040200	-9.318253e+000	1.016699e+002	-2.022357e+001	-1.669332e+002	-2.487812e+001	-1.259558e+002	-1.367043e+000	1.626919e+002
8670039900	-9.402790e+000	1.017079e+002	-2.025231e+001	-1.675837e+002	-2.470964e+001	-1.269144e+002	-1.367830e+000	1.624500e+002
8680039600	-9.542277e+000	1.020700e+002	-2.014139e+001	-1.680290e+002	-2.490673e+001	-1.270760e+002	-1.346834e+000	1.624099e+002
8690039300	-9.658180e+000	1.023969e+002	-2.018131e+001	-1.688080e+002	-2.481008e+001	-1.276537e+002	-1.355679e+000	1.625646e+002
8700039000	-9.781740e+000	1.026864e+002	-2.013826e+001	-1.693895e+002	-2.470585e+001	-1.291131e+002	-1.360301e+000	1.625149e+002
8710038700	-9.912570e+000	1.030213e+002	-2.020665e+001	-1.698459e+002	-2.481070e+001	-1.293455e+002	-1.364698e+000	1.626588e+002
8720038400	-1.000178e+001	1.030174e+002	-2.016009e+001	-1.702398e+002	-2.481463e+001	-1.300568e+002	-1.381904e+000	1.627585e+002
8730038100	-1.011939e+001	1.031452e+002	-2.015025e+001	-1.706874e+002	-2.476377e+001	-1.303161e+002	-1.393962e+000	1.628367e+002
8740037800	-1.025005e+001	1.031711e+002	-2.018510e+001	-1.714034e+002	-2.484165e+001	-1.305195e+002	-1.412195e+000	1.629798e+002
8750037500	-1.036520e+001	1.033089e+002	-2.012533e+001	-1.714122e+002	-2.476009e+001	-1.314963e+002	-1.423224e+000	1.630417e+002
8760037200	-1.043862e+001	1.034282e+002	-2.011092e+001	-1.721644e+002	-2.470337e+001	-1.323456e+002	-1.440542e+000	1.631107e+002
8770036900	-1.055056e+001	1.034745e+002	-2.020965e+001	-1.721969e+002	-2.471204e+001	-1.333313e+002	-1.445726e+000	1.630630e+002
8780036600	-1.066983e+001	1.037619e+002	-2.013462e+001	-1.732143e+002	-2.480837e+001	-1.342476e+002	-1.454304e+000	1.631319e+002
8790036300	-1.078615e+001	1.040091e+002	-2.016116e+001	-1.734599e+002	-2.474707e+001	-1.337533e+002	-1.465312e+000	1.629620e+002
8800036000	-1.087057e+001	1.042558e+002	-2.016283e+001	-1.743650e+002	-2.485500e+001	-1.349585e+002	-1.437332e+000	1.629825e+002
8810035700	-1.095642e+001	1.045571e+002	-2.017900e+001	-1.747904e+002	-2.483278e+001	-1.353404e+002	-1.442097e+000	1.627758e+002
8820035400	-1.107055e+001	1.048190e+002	-2.014511e+001	-1.751075e+002	-2.480002e+001	-1.368024e+002	-1.426994e+000	1.627416e+002
8830035100	-1.116156e+001	1.055848e+002	-2.013659e+001	-1.759203e+002	-2.496437e+001	-1.368879e+002	-1.428049e+000	1.625866e+002
8840034800	-1.129837e+001	1.059114e+002	-2.016346e+001	-1.763909e+002	-2.483408e+001	-1.378465e+002	-1.415748e+000	1.625965e+002
8850034500	-1.140162e+001	1.062949e+002	-2.020433e+001	-1.769411e+002	-2.474361e+001	-1.378218e+002	-1.431714e+000	1.624771e+002
8860034200	-1.152208e+001	1.068208e+002	-2.015368e+001	-1.774533e+002	-2.486060e+001	-1.389335e+002	-1.414359e+000	1.625665e+002
8870033900	-1.160908e+001	1.071601e+002	-2.018179e+001	-1.783740e+002	-2.475184e+001	-1.397362e+002	-1.426601e+000	1.626418e+002
8880033600	-1.177271e+001	1.076115e+002	-2.015140e+001	-1.783276e+002	-2.493648e+001	-1.398025e+002	-1.420924e+000	1.627306e+002
8890033300	-1.187948e+001	1.081100e+002	-2.015186e+001	-1.792877e+002	-2.491852e+001	-1.408689e+002	-1.449346e+000	1.627468e+002
8900033000	-1.200339e+001	1.082512e+002	-2.014660e+001	-1.796487e+002	-2.498425e+001	-1.413269e+002	-1.460638e+000	1.629549e+002
8910032700	-1.209388e+001	1.086591e+002	-2.013194e+001	1.793931e+002	-2.497024e+001	-1.430260e+002	-1.480717e+000	1.629344e+002
8920032400	-1.224591e+001	1.090671e+002	-2.018878e+001	1.789242e+002	-2.497472e+001	-1.430110e+002	-1.499273e+000	1.631108e+002
8930032100	-1.232727e+001	1.093830e+002	-2.013816e+001	1.786429e+002	-2.499627e+001	-1.440557e+002	-1.526410e+000	1.631669e+002
8940031800	-1.243895e+001	1.098397e+002	-2.022248e+001	1.780439e+002	-2.495974e+001	-1.446668e+002	-1.527780e+000	1.631252e+002
8950031500	-1.251691e+001	1.103712e+002	-2.026492e+001	1.770848e+002	-2.512554e+001	-1.452171e+002	-1.556199e+000	1.630486e+002
8960031200	-1.260748e+001	1.109872e+002	-2.022921e+001	1.765091e+002	-2.511275e+001	-1.470295e+002	-1.549161e+000	1.630384e+002
8970030900	-1.268645e+001	1.113763e+002	-2.023890e+001	1.753005e+002	-2.499497e+001	-1.471377e+002	-1.557638e+000	1.629720e+002
8980030600	-1.277570e+001	1.119150e+002	-2.028153e+001	1.755007e+002	-2.508615e+001	-1.479988e+002	-1.551401e+000	1.627902e+002
8990030300	-1.286700e+001	1.126279e+002	-2.029354e+001	1.745531e+002	-2.511765e+001	-1.487647e+002	-1.563248e+000	1.625934e+002
9000030000	-1.293369e+001	1.133802e+002	-2.032045e+001	1.736958e+002	-2.519709e+001	-1.495933e+002	-1.543120e+000	1.626241e+002
9010029700	-1.303322e+001	1.140958e+002	-2.031884e+001	1.730965e+002	-2.525883e+001	-1.506529e+002	-1.552571e+000	1.624677e+002
9020029400	-1.314328e+001	1.147732e+002	-2.027440e+001	1.726951e+002	-2.526413e+001	-1.510148e+002	-1.569031e+000	1.623430e+002
9030029100	-1.322524e+001	1.154809e+002	-2.032132e+001	1.717343e+002	-2.529989e+001	-1.523118e+002	-1.573125e+000	1.624285e+002
9040028800	-1.335861e+001	1.162494e+002	-2.041206e+001	1.710744e+002	-2.541869e+001	-1.523928e+002	-1.562000e+000	1.625409e+002
9050028500	-1.341051e+001	1.170513e+002	-2.040673e+001	1.702687e+002	-2.557496e+001	-1.536729e+002	-1.574551e+000	1.625874e+002
9060028200	-1.352711e+001	1.174769e+002	-2.044286e+001	1.695729e+002	-2.551764e+001	-1.544269e+002	-1.595785e+000	1.625633e+002
9070027900	-1.363627e+001	1.183722e+002	-2.048547e+001	1.686609e+002	-2.575190e+001	-1.553847e+002	-1.612321e+000	1.627603e+002
9080027600	-1.371018e+001	1.188231e+002	-2.054478e+001	1.680024e+002	-2.568459e+001	-1.557085e+002	-1.636823e+000	1.627844e+002
9090027300	-1.381900e+001	1.197503e+002	-2.056974e+001	1.674449e+002	-2.591270e+001	-1.566751e+002	-1.674746e+000	1.629328e+002
9100027000	-1.387795e+001	1.199907e+002	-2.060135e+001	1.662937e+002	-2.599623e+001	-1.582588e+002	-1.700439e+000	1.628844e+002
9110026700	-1.395495e+001	1.203135e+002	-2.072883e+001	1.663367e+002	-2.609289e+001	-1.581119e+002	-1.718868e+000	1.629354e+002
9120026400	-1.399048e+001	1.210004e+002	-2.082414e+001	1.651316e+002	-2.622762e+001	-1.591692e+002	-1.720051e+000	1.628695e+002
9130026100	-1.407051e+001	1.216093e+002	-2.084957e+001	1.650215e+002	-2.640852e+001	-1.593347e+002	-1.735201e+000	1.628754e+002
9140025800	-1.410504e+001	1.221726e+002	-2.094805e+001	1.637222e+002	-2.639045e+001	-1.596790e+002	-1.749834e+000	1.628181e+002
9150025500	-1.417741e+001	1.229226e+002	-2.104833e+001	1.628732e+002	-2.654374e+001	-1.607765e+002	-1.765057e+000	1.626244e+002
9160025200	-1.419840e+001	1.238025e+002	-2.110510e+001	1.626324e+002	-2.675585e+001	-1.610344e+002	-1.774830e+000	1.625955e+002
9170024900	-1.426841e+001	1.244829e+002	-2.122063e+001	1.621396e+002	-2.699396e+001	-1.608256e+002	-1.795451e+000	1.624430e+002
9180024600	-1.435233e+001	1.252652e+002	-2.131006e+001	1.613097e+002	-2.697832e+001	-1.609374e+002	-1.796745e+000	1.625005e+002
9190024300	-1.439260e+001	1.263720e+002	-2.146669e+001	1.612395e+002	-2.715940e+001	-1.607504e+002	-1.795316e+000	1.623999e+002
9200024000	-1.450678e+001	1.270145e+002	-2.155839e+001	1.609639e+002	-2.738231e+001	-1.587861e+002	-1.810139e+000	1.626313e+002
9210023700	-1.459628e+001	1.284992e+002	-2.168006e+001	1.607440e+002	-2.756115e+001	-1.592457e+002	-1.841727e+000	1.627649e+002
9220023400	-1.461699e+001	1.290628e+002	-2.171712e+001	1.601344e+002	-2.758294e+001	-1.590311e+002	-1.851718e+000	1.628461e+002
9230023100	-1.478731e+001	1.300605e+002	-2.185607e+001	1.600110e+002	-2.764300e+001	-1.593099e+002	-1.860176e+000	1.630938e+002
9240022800	-1.481882e+001	1.306486e+002	-2.188661e+001	1.602832e+002	-2.769119e+001	-1.576881e+002	-1.896111e+000	1.633170e+002
9250022500	-1.494493e+001	1.315451e+002	-2.207402e+001	1.596999e+002	-2.778058e+001	-1.578430e+002	-1.896494e+000	1.635234e+002
9260022200	-1.497603e+001	1.326025e+002	-2.216900e+001	1.603746e+002	-2.783538e+001	-1.553445e+002	-1.912771e+000	1.636361e+002
9270021900	-1.508320e+001	1.334034e+002	-2.225430e+001	1.603361e+002	-2.782303e+001	-1.553998e+002	-1.938432e+000	1.638669e+002
9280021600	-1.514323e+001	1.343668e+002	-2.233989e+001	1.600672e+002	-2.781638e+001	-1.531242e+002	-1.921827e+000	1.641214e+002
9290021300	-1.517533e+001	1.353909e+002	-2.238923e+001	1.611050e+002	-2.748530e+001	-1.533759e+002	-1.947100e+000	1.641837e+002
9300021000	-1.518489e+001	1.365001e+002	-2.239841e+001	1.614838e+002	-2.746759e+001	-1.520432e+002	-1.943383e+000	1.642535e+002
9310020700	-1.524324e+001	1.381120e+002	-2.240202e+001	1.617319e+002	-2.732609e+001	-1.510863e+002	-1.953810e+000	1.642778e+002
9320020400	-1.518784e+001	1.387555e+002	-2.237048e+001	1.620847e+002	-2.709465e+001	-1.512265e+002	-1.964817e+000	1.642782e+002
9330020100	-1.515471e+001	1.407187e+002	-2.230927e+001	1.625744e+002	-2.687068e+001	-1.521024e+002	-1.955204e+000	1.641441e+002
9340019800	-1.514750e+001	1.414806e+002	-2.218463e+001	1.628597e+002	-2.679004e+001	-1.523367e+002	-1.943978e+000	1.642513e+002
9350019500	-1.507152e+001	1.429269e+002	-2.220666e+001	1.624134e+002	-2.660360e+001	-1.528857e+002	-1.941436e+000	1.640503e+002
9360019200	-1.496146e+001	1.442704e+002	-2.210943e+001	1.620850e+002	-2.629748e+001	-1.532406e+002	-1.948381e+000	1.641131e+002
9370018900	-1.489510e+001	1.455305e+002	-2.208408e+001	1.627882e+002	-2.629535e+001	-1.548788e+002	-1.930342e+000	1.641923e+002
9380018600	-1.483417e+001	1.466227e+002	-2.198469e+001	1.621021e+002	-2.610652e+001	-1.550053e+002	-1.935688e+000	1.643071e+002
9390018300	-1.477499e+001	1.475364e+002	-2.197250e+001	1.617518e+002	-2.600999e+001	-1.547204e+002	-1.911284e+000	1.642709e+002
9400018000	-1.466877e+001	1.485760e+002	-2.193704e+001	1.619843e+002	-2.589168e+001	-1.571239e+002	-1.930434e+000	1.644478e+002
9410017700	-1.458480e+001	1.496545e+002	-2.188527e+001	1.611409e+002	-2.574435e+001	-1.576967e+002	-1.924833e+000	1.645209e+002
9420017400	-1.454448e+001	1.505451e+002	-2.177198e+001	1.605833e+002	-2.570521e+001	-1.589849e+002	-1.927047e+000	1.645320e+002
9430017100	-1.439939e+001	1.514274e+002	-2.161132e+001	1.602055e+002	-2.562127e+001	-1.607176e+002	-1.938018e+000	1.647000e+002
9440016800	-1.432826e+001	1.516401e+002	-2.164105e+001	1.593270e+002	-2.561160e+001	-1.611649e+002	-1.929736e+000	1.649181e+002
9450016500	-1.421029e+001	1.521352e+002	-2.161662e+001	1.583035e+002	-2.563045e+001	-1.622787e+002	-1.938412e+000	1.649064e+002
9460016200	-1.409363e+001	1.525809e+002	-2.154671e+001	1.575474e+002	-2.552128e+001	-1.634146e+002	-1.939656e+000	1.650218e+002
9470015900	-1.397866e+001	1.529629e+002	-2.165403e+001	1.570874e+002	-2.543076e+001	-1.655148e+002	-1.965028e+000	1.649586e+002
9480015600	-1.388179e+001	1.526984e+002	-2.147917e+001	1.564093e+002	-2.549435e+001	-1.661635e+002	-1.964362e+000	1.649748e+002
9490015300	-1.372948e+001	1.530504e+002	-2.151274e+001	1.560634e+002	-2.538314e+001	-1.678795e+002	-1.968597e+000	1.649101e+002
9500015000	-1.362296e+001	1.531956e+002	-2.154543e+001	1.550451e+002	-2.531119e+001	-1.669373e+002	-2.001045e+000	1.647964e+002
9510014700	-1.349373e+001	1.530596e+002	-2.142471e+001	1.547328e+002	-2.540282e+001	-1.683050e+002	-2.004697e+000	1.646275e+002
9520014400	-1.339606e+001	1.534753e+002	-2.138009e+001	1.537385e+002	-2.532736e+001	-1.693301e+002	-2.008023e+000	1.645744e+002
9530014100	-1.327943e+001	1.535023e+002	-2.142823e+001	1.537392e+002	-2.537274e+001	-1.712217e+002	-2.003651e+000	1.645591e+002
9540013800	-1.322092e+001	1.534406e+002	-2.144334e+001	1.527411e+002	-2.535913e+001	-1.722842e+002	-1.995066e+000	1.645228e+002
9550013500	-1.310423e+001	1.538364e+002	-2.148053e+001	1.521127e+002	-2.530188e+001	-1.731276e+002	-1.996760e+000	1.643388e+002
9560013200	-1.306978e+001	1.539687e+002	-2.145846e+001	1.515044e+002	-2.530014e+001	-1.739454e+002	-1.998362e+000	1.645267e+002
9570012900	-1.296414e+001	1.540222e+002	-2.151828e+001	1.504442e+002	-2.535350e+001	-1.756006e+002	-1.989058e+000	1.645995e+002
9580012600	-1.289803e+001	1.538522e+002	-2.139568e+001	1.508888e+002	-2.521845e+001	-1.762241e+002	-2.008370e+000	1.646883e+002
9590012300	-1.286020e+001	1.538695e+002	-2.138510e+001	1.497507e+002	-2.526562e+001	-1.776203e+002	-2.006836e+000	1.647882e+002
9600012000	-1.277783e+001	1.534742e+002	-2.131913e+001	1.489453e+002	-2.522391e+001	-1.781075e+002	-2.003081e+000	1.649624e+002
9610011700	-1.276372e+001	1.535153e+002	-2.136370e+001	1.482488e+002	-2.514548e+001	1.796944e+002	-2.004931e+000	1.651502e+002
9620011400	-1.264983e+001	1.530392e+002	-2.129326e+001	1.479871e+002	-2.515718e+001	1.794646e+002	-2.011577e+000	1.653013e+002
9630011100	-1.262672e+001	1.530742e+002	-2.126345e+001	1.469930e+002	-2.510562e+001	1.791877e+002	-2.000570e+000	1.654053e+002
9640010800	-1.256707e+001	1.527200e+002	-2.129213e+001	1.458988e+002	-2.518886e+001	1.761683e+002	-2.029236e+000	1.652498e+002
9650010500	-1.244503e+001	1.522721e+002	-2.123611e+001	1.452172e+002	-2.509515e+001	1.760015e+002	-2.041393e+000	1.653935e+002
9660010200	-1.244596e+001	1.517286e+002	-2.119321e+001	1.444952e+002	-2.491583e+001	1.752351e+002	-2.064919e+000	1.651069e+002
9670009900	-1.235935e+001	1.513921e+002	-2.116072e+001	1.430635e+002	-2.511866e+001	1.722108e+002	-2.053999e+000	1.650971e+002
9680009600	-1.228446e+001	1.506882e+002	-2.121009e+001	1.420840e+002	-2.510013e+001	1.710212e+002	-2.087085e+000	1.649232e+002
9690009300	-1.222366e+001	1.503591e+002	-2.123223e+001	1.414617e+002	-2.508770e+001	1.687095e+002	-2.091062e+000	1.649365e+002
9700009000	-1.216989e+001	1.494320e+002	-2.120573e+001	1.398357e+002	-2.515408e+001	1.670105e+002	-2.087087e+000	1.649285e+002
9710008700	-1.214866e+001	1.487650e+002	-2.122245e+001	1.392346e+002	-2.518621e+001	1.661302e+002	-2.097300e+000	1.649188e+002
9720008400	-1.216184e+001	1.482593e+002	-2.123858e+001	1.378555e+002	-2.533478e+001	1.645188e+002	-2.091781e+000	1.648102e+002
9730008100	-1.212320e+001	1.477016e+002	-2.124095e+001	1.371792e+002	-2.517109e+001	1.632596e+002	-2.106559e+000	1.648740e+002
9740007800	-1.215307e+001	1.471576e+002	-2.116658e+001	1.363232e+002	-2.528905e+001	1.612818e+002	-2.094863e+000	1.649530e+002
9750007500	-1.217327e+001	1.461284e+002	-2.131490e+001	1.346284e+002	-2.538216e+001	1.603892e+002	-2.098869e+000	1.651497e+002
9760007200	-1.219751e+001	1.453651e+002	-2.131884e+001	1.339249e+002	-2.533695e+001	1.580330e+002	-2.086381e+000	1.650907e+002
9770006900	-1.225604e+001	1.447360e+002	-2.139227e+001	1.329395e+002	-2.535746e+001	1.571096e+002	-2.079560e+000	1.652520e+002
9780006600	-1.231404e+001	1.440629e+002	-2.137776e+001	1.320543e+002	-2.548223e+001	1.543072e+002	-2.056441e+000	1.653132e+002
9790006300	-1.240859e+001	1.433377e+002	-2.149917e+001	1.310730e+002	-2.557202e+001	1.539239e+002	-2.069577e+000	1.653999e+002
9800006000	-1.246081e+001	1.427431e+002	-2.148165e+001	1.300636e+002	-2.554069e+001	1.521103e+002	-2.066115e+000	1.653157e+002
9810005700	-1.253036e+001	1.418481e+002	-2.149208e+001	1.283793e+002	-2.557854e+001	1.496612e+002	-2.069051e+000	1.652715e+002
9820005400	-1.257558e+001	1.412059e+002	-2.158382e+001	1.277819e+002	-2.585564e+001	1.483654e+002	-2.104293e+000	1.652821e+002
9830005100	-1.270622e+001	1.403748e+002	-2.164779e+001	1.262958e+002	-2.578185e+001	1.451346e+002	-2.130498e+000	1.651364e+002
9840004800	-1.279472e+001	1.397412e+002	-2.157365e+001	1.250912e+002	-2.601324e+001	1.434538e+002	-2.154649e+000	1.649185e+002
9850004500	-1.285623e+001	1.394894e+002	-2.154794e+001	1.234226e+002	-2.613006e+001	1.426405e+002	-2.152705e+000	1.648496e+002
9860004200	-1.292555e+001	1.389968e+002	-2.172026e+001	1.220574e+002	-2.621310e+001	1.398321e+002	-2.172084e+000	1.648073e+002
9870003900	-1.305007e+001	1.381503e+002	-2.172541e+001	1.211675e+002	-2.635367e+001	1.380588e+002	-2.158818e+000	1.645857e+002
9880003600	-1.317935e+001	1.379022e+002	-2.185322e+001	1.197172e+002	-2.665732e+001	1.348919e+002	-2.190563e+000	1.645577e+002
9890003300	-1.332221e+001	1.372907e+002	-2.188924e+001	1.180994e+002	-2.661730e+001	1.329115e+002	-2.200179e+000	1.645748e+002
9900003000	-1.342984e+001	1.367641e+002	-2.193932e+001	1.167736e+002	-2.678688e+001	1.302821e+002	-2.185039e+000	1.646250e+002
9910002700	-1.353534e+001	1.362877e+002	-2.215528e+001	1.153882e+002	-2.701716e+001	1.286968e+002	-2.202131e+000	1.648422e+002
9920002400	-1.372430e+001	1.354431e+002	-2.224333e+001	1.138500e+002	-2.752286e+001	1.264476e+002	-2.211828e+000	1.648304e+002
9930002100	-1.391668e+001	1.344439e+002	-2.251155e+001	1.121405e+002	-2.756566e+001	1.240472e+002	-2.213611e+000	1.648263e+002
9940001800	-1.420695e+001	1.339942e+002	-2.263281e+001	1.108213e+002	-2.802671e+001	1.201207e+002	-2.199663e+000	1.648265e+002
9950001500	-1.440265e+001	1.336921e+002	-2.273873e+001	1.098345e+002	-2.825770e+001	1.183151e+002	-2.195682e+000	1.648663e+002
9960001200	-1.464799e+001	1.331534e+002	-2.304074e+001	1.078400e+002	-2.871609e+001	1.170155e+002	-2.236765e+000	1.647539e+002
9970000900	-1.491695e+001	1.326735e+002	-2.326209e+001	1.067697e+002	-2.894487e+001	1.153152e+002	-2.242692e+000	1.647076e+002
9980000600	-1.518167e+001	1.329543e+002	-2.345034e+001	1.058343e+002	-2.945787e+001	1.121450e+002	-2.259214e+000	1.647880e+002
9990000300	-1.549122e+001	1.326477e+002	-2.371282e+001	1.050122e+002	-3.005647e+001	1.108816e+002	-2.272840e+000	1.647029e+002
10000000000	-1.581359e+001	1.330905e+002	-2.386384e+001	1.045429e+002	-3.018342e+001	1.099726e+002	-2.313713e+000	1.646481e+002


!Noise Parameters
!Freq  NFmin(dB)  Mag(GammaOpt)  Ang(GammaOpt)(deg)  rn(normalized)
6.5e+008 1.2342 0.4751  65.753 0.28697
7e+008   1.1846 0.50085 69.21  0.28421
7.5e+008 1.1416 0.48563 68.708 0.246
8e+008   1.1298 0.45557 72.295 0.23647
8.5e+008 1.1493 0.46372 78.442 0.20738
9e+008   1.1611 0.4475  80.85  0.21109
9.5e+008 1.1888 0.43767 84.608 0.25585
1e+009   1.2275 0.37582 88.554 0.19935