!Agilent Technologies,E5071C,MY46316587,B.13.01
!Date: Fri Dec 08 11:03:35 2017
!Data & Calibration Information:
!Freq	S11:SOLT2(ON)	S21:SOLT2(ON)	S12:SOLT2(ON)	S22:SOLT2(ON)
!PortZ  Port1:50+j0    Port2:50+j0
!Above PortZ is port z conversion or system Z0 setting when saving the data.
!When reading, reference impedance value at option line is always used.
# Hz S dB R 50
300000	-7.544969e-002	-3.511306e-001	-5.763537e+001	-1.169671e+002	-6.152299e+001	-1.756573e+002	-8.719534e-002	-2.099922e-001
10299700	-2.737416e-001	-4.153706e+000	-2.883652e+001	9.789341e+001	-2.857586e+001	9.739438e+001	-8.627708e-002	-2.900168e+000
20299400	-3.369693e-001	-7.669564e+000	-2.268560e+001	8.933478e+001	-2.249226e+001	8.925600e+001	-1.175135e-001	-5.595167e+000
30299100	-4.067300e-001	-1.111000e+001	-1.912299e+001	8.377173e+001	-1.897540e+001	8.375095e+001	-1.681192e-001	-8.296346e+000
40298800	-4.859399e-001	-1.448161e+001	-1.668187e+001	7.950934e+001	-1.655214e+001	7.942363e+001	-2.338049e-001	-1.092164e+001
50298500	-5.880060e-001	-1.781541e+001	-1.481286e+001	7.534205e+001	-1.471216e+001	7.538403e+001	-3.116811e-001	-1.349552e+001
60298200	-6.913011e-001	-2.107005e+001	-1.334096e+001	7.153820e+001	-1.324647e+001	7.154963e+001	-4.118576e-001	-1.599808e+001
70297900	-8.118489e-001	-2.422495e+001	-1.212691e+001	6.803310e+001	-1.206171e+001	6.802057e+001	-5.125078e-001	-1.839813e+001
80297600	-9.357402e-001	-2.724428e+001	-1.112236e+001	6.470552e+001	-1.106494e+001	6.455777e+001	-6.379612e-001	-2.074751e+001
90297300	-1.081239e+000	-3.019403e+001	-1.027322e+001	6.152508e+001	-1.022574e+001	6.139386e+001	-7.678790e-001	-2.297242e+001
100297000	-1.225888e+000	-3.303046e+001	-9.547826e+000	5.842434e+001	-9.499098e+000	5.823484e+001	-9.023456e-001	-2.515204e+001
110296700	-1.377919e+000	-3.575996e+001	-8.923022e+000	5.547017e+001	-8.885442e+000	5.528615e+001	-1.049402e+000	-2.723136e+001
120296400	-1.528602e+000	-3.840030e+001	-8.384516e+000	5.257615e+001	-8.334342e+000	5.244393e+001	-1.196026e+000	-2.918042e+001
130296100	-1.685309e+000	-4.091240e+001	-7.912636e+000	4.986515e+001	-7.853117e+000	4.972827e+001	-1.344667e+000	-3.106019e+001
140295800	-1.847334e+000	-4.334894e+001	-7.477870e+000	4.730834e+001	-7.431635e+000	4.717395e+001	-1.495775e+000	-3.285365e+001
150295500	-2.004316e+000	-4.571320e+001	-7.105030e+000	4.492696e+001	-7.061768e+000	4.466441e+001	-1.644475e+000	-3.455846e+001
160295200	-2.165550e+000	-4.787688e+001	-6.785533e+000	4.250523e+001	-6.741260e+000	4.233964e+001	-1.793945e+000	-3.620910e+001
170294900	-2.309971e+000	-4.999138e+001	-6.501681e+000	4.028587e+001	-6.460493e+000	4.007396e+001	-1.942996e+000	-3.773903e+001
180294600	-2.456044e+000	-5.200964e+001	-6.244739e+000	3.809553e+001	-6.204347e+000	3.794339e+001	-2.088153e+000	-3.923137e+001
190294300	-2.607873e+000	-5.398166e+001	-6.012169e+000	3.601170e+001	-5.978954e+000	3.586964e+001	-2.228875e+000	-4.062584e+001
200294000	-2.745847e+000	-5.581632e+001	-5.809664e+000	3.402586e+001	-5.777932e+000	3.387216e+001	-2.373581e+000	-4.197295e+001
210293700	-2.887821e+000	-5.765486e+001	-5.624994e+000	3.212909e+001	-5.593131e+000	3.202598e+001	-2.505678e+000	-4.328382e+001
220293400	-3.027137e+000	-5.935142e+001	-5.466317e+000	3.029955e+001	-5.433327e+000	3.015423e+001	-2.639209e+000	-4.451239e+001
230293100	-3.155703e+000	-6.102689e+001	-5.311285e+000	2.856654e+001	-5.287637e+000	2.840229e+001	-2.766764e+000	-4.567213e+001
240292800	-3.281286e+000	-6.258105e+001	-5.182441e+000	2.684260e+001	-5.153242e+000	2.670608e+001	-2.892631e+000	-4.684210e+001
250292500	-3.394337e+000	-6.414610e+001	-5.059254e+000	2.520746e+001	-5.025467e+000	2.510301e+001	-3.007920e+000	-4.788943e+001
260292200	-3.503031e+000	-6.556936e+001	-4.959870e+000	2.368831e+001	-4.921922e+000	2.349770e+001	-3.123590e+000	-4.894086e+001
270291900	-3.617742e+000	-6.703411e+001	-4.849971e+000	2.214367e+001	-4.836763e+000	2.198861e+001	-3.223197e+000	-4.993812e+001
280291600	-3.719136e+000	-6.842782e+001	-4.762488e+000	2.070608e+001	-4.751457e+000	2.052422e+001	-3.330726e+000	-5.095824e+001
290291300	-3.818493e+000	-6.968813e+001	-4.684581e+000	1.924803e+001	-4.661977e+000	1.912852e+001	-3.430774e+000	-5.197191e+001
300291000	-3.908607e+000	-7.101996e+001	-4.613469e+000	1.788732e+001	-4.595892e+000	1.777485e+001	-3.527483e+000	-5.290012e+001
310290700	-3.996332e+000	-7.225931e+001	-4.557099e+000	1.663845e+001	-4.527772e+000	1.647432e+001	-3.620169e+000	-5.377716e+001
320290400	-4.073101e+000	-7.341855e+001	-4.494462e+000	1.537096e+001	-4.468735e+000	1.513848e+001	-3.705733e+000	-5.464793e+001
330290100	-4.149051e+000	-7.457313e+001	-4.435273e+000	1.408284e+001	-4.414350e+000	1.396498e+001	-3.784056e+000	-5.552806e+001
340289800	-4.214826e+000	-7.572116e+001	-4.384354e+000	1.297247e+001	-4.375502e+000	1.275361e+001	-3.861731e+000	-5.637305e+001
350289500	-4.291689e+000	-7.678423e+001	-4.342783e+000	1.176370e+001	-4.319480e+000	1.158462e+001	-3.931895e+000	-5.716592e+001
360289200	-4.350716e+000	-7.783260e+001	-4.303622e+000	1.063152e+001	-4.290124e+000	1.042240e+001	-4.003940e+000	-5.797495e+001
370288900	-4.413766e+000	-7.889124e+001	-4.277804e+000	9.569997e+000	-4.258079e+000	9.346598e+000	-4.066166e+000	-5.874493e+001
380288600	-4.468436e+000	-7.987719e+001	-4.242825e+000	8.412761e+000	-4.220706e+000	8.286035e+000	-4.139163e+000	-5.962194e+001
390288300	-4.528272e+000	-8.085610e+001	-4.214995e+000	7.362750e+000	-4.195284e+000	7.199306e+000	-4.197526e+000	-6.034470e+001
400288000	-4.573514e+000	-8.178594e+001	-4.193104e+000	6.351021e+000	-4.173814e+000	6.179230e+000	-4.251303e+000	-6.108486e+001
410287700	-4.614382e+000	-8.266207e+001	-4.173263e+000	5.328650e+000	-4.152439e+000	5.198778e+000	-4.308237e+000	-6.187193e+001
420287400	-4.658327e+000	-8.363171e+001	-4.149417e+000	4.345340e+000	-4.134625e+000	4.245868e+000	-4.362835e+000	-6.262370e+001
430287100	-4.693949e+000	-8.448624e+001	-4.132233e+000	3.472194e+000	-4.106810e+000	3.329023e+000	-4.409095e+000	-6.339895e+001
440286800	-4.731059e+000	-8.538869e+001	-4.117212e+000	2.482536e+000	-4.092375e+000	2.392374e+000	-4.456258e+000	-6.404802e+001
450286500	-4.764664e+000	-8.625027e+001	-4.112000e+000	1.624013e+000	-4.080183e+000	1.472839e+000	-4.497160e+000	-6.481330e+001
460286200	-4.789106e+000	-8.709182e+001	-4.093598e+000	7.212611e-001	-4.077659e+000	6.208264e-001	-4.531761e+000	-6.549634e+001
470285900	-4.816017e+000	-8.784005e+001	-4.087677e+000	-1.930616e-001	-4.064382e+000	-2.802300e-001	-4.576943e+000	-6.624660e+001
480285600	-4.829393e+000	-8.862661e+001	-4.082463e+000	-1.017168e+000	-4.060323e+000	-1.197403e+000	-4.615935e+000	-6.694964e+001
490285300	-4.853319e+000	-8.940894e+001	-4.075961e+000	-1.858376e+000	-4.059638e+000	-2.014663e+000	-4.640908e+000	-6.763849e+001
500285000	-4.872337e+000	-9.020799e+001	-4.073266e+000	-2.698422e+000	-4.056438e+000	-2.862934e+000	-4.678525e+000	-6.826973e+001
510284700	-4.890414e+000	-9.098483e+001	-4.071276e+000	-3.479380e+000	-4.060814e+000	-3.645031e+000	-4.699315e+000	-6.896709e+001
520284400	-4.893663e+000	-9.172280e+001	-4.071844e+000	-4.317241e+000	-4.052038e+000	-4.466627e+000	-4.728663e+000	-6.962244e+001
530284100	-4.906626e+000	-9.239924e+001	-4.067214e+000	-5.036567e+000	-4.054500e+000	-5.215119e+000	-4.752073e+000	-7.030997e+001
540283800	-4.920090e+000	-9.313779e+001	-4.074976e+000	-5.785532e+000	-4.060400e+000	-5.994726e+000	-4.781730e+000	-7.092320e+001
550283500	-4.931322e+000	-9.379574e+001	-4.077540e+000	-6.568086e+000	-4.060560e+000	-6.704288e+000	-4.791542e+000	-7.164059e+001
560283200	-4.930069e+000	-9.452517e+001	-4.083075e+000	-7.308873e+000	-4.058549e+000	-7.502902e+000	-4.819823e+000	-7.225563e+001
570282900	-4.931766e+000	-9.521049e+001	-4.086295e+000	-8.052196e+000	-4.065926e+000	-8.243358e+000	-4.839950e+000	-7.287001e+001
580282600	-4.940230e+000	-9.583007e+001	-4.096114e+000	-8.788571e+000	-4.075729e+000	-8.907582e+000	-4.853244e+000	-7.357454e+001
590282300	-4.937406e+000	-9.653584e+001	-4.097413e+000	-9.508359e+000	-4.081232e+000	-9.651217e+000	-4.867366e+000	-7.415674e+001
600282000	-4.935420e+000	-9.710998e+001	-4.112825e+000	-1.022991e+001	-4.089193e+000	-1.033238e+001	-4.879825e+000	-7.476963e+001
610281700	-4.928168e+000	-9.777588e+001	-4.121682e+000	-1.087017e+001	-4.100052e+000	-1.101883e+001	-4.891679e+000	-7.539447e+001
620281400	-4.935214e+000	-9.841060e+001	-4.129873e+000	-1.154573e+001	-4.111025e+000	-1.170255e+001	-4.915942e+000	-7.600245e+001
630281100	-4.925564e+000	-9.901128e+001	-4.144508e+000	-1.225586e+001	-4.114285e+000	-1.234656e+001	-4.921523e+000	-7.669042e+001
640280800	-4.920334e+000	-9.959324e+001	-4.157185e+000	-1.285423e+001	-4.130717e+000	-1.300829e+001	-4.934071e+000	-7.730675e+001
650280500	-4.907344e+000	-1.002093e+002	-4.164460e+000	-1.351325e+001	-4.144130e+000	-1.362967e+001	-4.946985e+000	-7.789111e+001
660280200	-4.900415e+000	-1.008101e+002	-4.174498e+000	-1.416294e+001	-4.156332e+000	-1.428696e+001	-4.949358e+000	-7.847714e+001
670279900	-4.895182e+000	-1.013528e+002	-4.188801e+000	-1.481463e+001	-4.166167e+000	-1.493005e+001	-4.957000e+000	-7.910465e+001
680279600	-4.883115e+000	-1.019525e+002	-4.197968e+000	-1.544364e+001	-4.186814e+000	-1.555756e+001	-4.956856e+000	-7.969738e+001
690279300	-4.872761e+000	-1.025013e+002	-4.214207e+000	-1.606050e+001	-4.198353e+000	-1.625706e+001	-4.964600e+000	-8.023172e+001
700279000	-4.868010e+000	-1.030853e+002	-4.227769e+000	-1.667900e+001	-4.213981e+000	-1.687501e+001	-4.973160e+000	-8.080962e+001
710278700	-4.850375e+000	-1.036263e+002	-4.240503e+000	-1.725675e+001	-4.219629e+000	-1.745646e+001	-4.985915e+000	-8.139693e+001
720278400	-4.843134e+000	-1.041623e+002	-4.260124e+000	-1.784432e+001	-4.238243e+000	-1.796479e+001	-4.980341e+000	-8.200787e+001
730278100	-4.829866e+000	-1.046832e+002	-4.279015e+000	-1.850652e+001	-4.256900e+000	-1.861430e+001	-4.987276e+000	-8.257011e+001
740277800	-4.809720e+000	-1.052454e+002	-4.302868e+000	-1.902032e+001	-4.276230e+000	-1.916769e+001	-4.994252e+000	-8.317392e+001
750277500	-4.803002e+000	-1.057149e+002	-4.316090e+000	-1.964025e+001	-4.297584e+000	-1.977140e+001	-4.999259e+000	-8.372377e+001
760277200	-4.783803e+000	-1.062317e+002	-4.333801e+000	-2.018749e+001	-4.309905e+000	-2.033295e+001	-4.993170e+000	-8.432496e+001
770276900	-4.769165e+000	-1.068051e+002	-4.351571e+000	-2.077497e+001	-4.330027e+000	-2.087938e+001	-4.994542e+000	-8.489539e+001
780276600	-4.753280e+000	-1.072621e+002	-4.367790e+000	-2.132094e+001	-4.347399e+000	-2.144657e+001	-4.991629e+000	-8.542801e+001
790276300	-4.743287e+000	-1.078025e+002	-4.383854e+000	-2.191711e+001	-4.359539e+000	-2.202084e+001	-4.994491e+000	-8.599206e+001
800276000	-4.715627e+000	-1.082777e+002	-4.409889e+000	-2.245095e+001	-4.381848e+000	-2.254923e+001	-4.991044e+000	-8.654801e+001
810275700	-4.702800e+000	-1.087607e+002	-4.426931e+000	-2.294797e+001	-4.402826e+000	-2.306659e+001	-4.990021e+000	-8.714312e+001
820275400	-4.685061e+000	-1.092246e+002	-4.449873e+000	-2.351795e+001	-4.423915e+000	-2.358634e+001	-4.987195e+000	-8.767947e+001
830275100	-4.660372e+000	-1.097388e+002	-4.471703e+000	-2.403895e+001	-4.442065e+000	-2.414080e+001	-4.997306e+000	-8.820622e+001
840274800	-4.644561e+000	-1.102177e+002	-4.492499e+000	-2.459663e+001	-4.464572e+000	-2.468071e+001	-4.988793e+000	-8.875677e+001
850274500	-4.626187e+000	-1.106513e+002	-4.519104e+000	-2.507177e+001	-4.493549e+000	-2.523255e+001	-4.979439e+000	-8.926439e+001
860274200	-4.609296e+000	-1.111149e+002	-4.539219e+000	-2.562799e+001	-4.513576e+000	-2.573580e+001	-4.981683e+000	-8.976502e+001
870273900	-4.597070e+000	-1.115983e+002	-4.555874e+000	-2.614943e+001	-4.529372e+000	-2.627267e+001	-4.980784e+000	-9.025169e+001
880273600	-4.565202e+000	-1.120211e+002	-4.575506e+000	-2.663742e+001	-4.552311e+000	-2.680636e+001	-4.976521e+000	-9.070597e+001
890273300	-4.554838e+000	-1.124752e+002	-4.605222e+000	-2.712884e+001	-4.575608e+000	-2.727125e+001	-4.970434e+000	-9.127112e+001
900273000	-4.530911e+000	-1.128983e+002	-4.629585e+000	-2.763882e+001	-4.592860e+000	-2.775422e+001	-4.979300e+000	-9.180430e+001
910272700	-4.518451e+000	-1.133778e+002	-4.646278e+000	-2.813204e+001	-4.616031e+000	-2.820813e+001	-4.973047e+000	-9.230724e+001
920272400	-4.500474e+000	-1.138120e+002	-4.673556e+000	-2.861587e+001	-4.640490e+000	-2.873353e+001	-4.967894e+000	-9.282131e+001
930272100	-4.485727e+000	-1.142305e+002	-4.697946e+000	-2.912577e+001	-4.660650e+000	-2.919897e+001	-4.958414e+000	-9.335916e+001
940271800	-4.468557e+000	-1.147256e+002	-4.720882e+000	-2.958228e+001	-4.690016e+000	-2.966506e+001	-4.951100e+000	-9.393989e+001
950271500	-4.451155e+000	-1.151453e+002	-4.747217e+000	-3.004713e+001	-4.711232e+000	-3.015501e+001	-4.942831e+000	-9.440983e+001
960271200	-4.421416e+000	-1.155547e+002	-4.772061e+000	-3.058394e+001	-4.736320e+000	-3.066586e+001	-4.938018e+000	-9.492494e+001
970270900	-4.401682e+000	-1.160003e+002	-4.790277e+000	-3.105911e+001	-4.767016e+000	-3.111778e+001	-4.932206e+000	-9.546631e+001
980270600	-4.379625e+000	-1.164432e+002	-4.817434e+000	-3.150158e+001	-4.787148e+000	-3.158957e+001	-4.927177e+000	-9.598377e+001
990270300	-4.358987e+000	-1.168547e+002	-4.842500e+000	-3.198645e+001	-4.812448e+000	-3.209169e+001	-4.917982e+000	-9.642024e+001
1000270000	-4.336124e+000	-1.172911e+002	-4.866678e+000	-3.241823e+001	-4.835947e+000	-3.251123e+001	-4.917136e+000	-9.695714e+001
1010269700	-4.317039e+000	-1.177153e+002	-4.893632e+000	-3.291757e+001	-4.865138e+000	-3.297561e+001	-4.909302e+000	-9.734732e+001
1020269400	-4.299607e+000	-1.181520e+002	-4.920428e+000	-3.334930e+001	-4.893966e+000	-3.343866e+001	-4.900264e+000	-9.786202e+001
1030269100	-4.280427e+000	-1.185472e+002	-4.948834e+000	-3.379588e+001	-4.922915e+000	-3.391812e+001	-4.892082e+000	-9.830555e+001
1040268800	-4.259943e+000	-1.189413e+002	-4.973064e+000	-3.425443e+001	-4.948047e+000	-3.440583e+001	-4.887061e+000	-9.873895e+001
1050268500	-4.238363e+000	-1.193366e+002	-5.004322e+000	-3.471794e+001	-4.970914e+000	-3.482243e+001	-4.877516e+000	-9.926681e+001
1060268200	-4.215792e+000	-1.197529e+002	-5.036090e+000	-3.517712e+001	-4.998389e+000	-3.529861e+001	-4.875604e+000	-9.968015e+001
1070267900	-4.199860e+000	-1.201581e+002	-5.057261e+000	-3.560403e+001	-5.020197e+000	-3.570634e+001	-4.876535e+000	-1.001761e+002
1080267600	-4.182536e+000	-1.205623e+002	-5.084449e+000	-3.603368e+001	-5.049504e+000	-3.615819e+001	-4.854198e+000	-1.006442e+002
1090267300	-4.164790e+000	-1.209752e+002	-5.112349e+000	-3.649499e+001	-5.070581e+000	-3.658470e+001	-4.857489e+000	-1.011068e+002
1100267000	-4.152921e+000	-1.213755e+002	-5.133671e+000	-3.691765e+001	-5.098177e+000	-3.699743e+001	-4.857000e+000	-1.015749e+002
1110266700	-4.128223e+000	-1.218148e+002	-5.168529e+000	-3.734125e+001	-5.130278e+000	-3.742497e+001	-4.839495e+000	-1.020616e+002
1120266400	-4.111557e+000	-1.221463e+002	-5.202540e+000	-3.781072e+001	-5.163714e+000	-3.787517e+001	-4.831988e+000	-1.025328e+002
1130266100	-4.093471e+000	-1.226458e+002	-5.229025e+000	-3.821660e+001	-5.196986e+000	-3.824571e+001	-4.811931e+000	-1.030281e+002
1140265800	-4.074411e+000	-1.230267e+002	-5.258397e+000	-3.864450e+001	-5.224463e+000	-3.873699e+001	-4.819662e+000	-1.034681e+002
1150265500	-4.057590e+000	-1.234125e+002	-5.295780e+000	-3.908548e+001	-5.253264e+000	-3.916349e+001	-4.817550e+000	-1.039027e+002
1160265200	-4.034331e+000	-1.238204e+002	-5.323862e+000	-3.951388e+001	-5.289643e+000	-3.953250e+001	-4.800476e+000	-1.044051e+002
1170264900	-4.029120e+000	-1.242222e+002	-5.350058e+000	-3.992731e+001	-5.322967e+000	-3.999712e+001	-4.796019e+000	-1.047505e+002
1180264600	-4.006303e+000	-1.246101e+002	-5.389066e+000	-4.036894e+001	-5.351288e+000	-4.044671e+001	-4.788891e+000	-1.052106e+002
1190264300	-3.989375e+000	-1.250385e+002	-5.419252e+000	-4.083162e+001	-5.392719e+000	-4.083976e+001	-4.784259e+000	-1.056146e+002
1200264000	-3.975034e+000	-1.254628e+002	-5.451101e+000	-4.117602e+001	-5.419123e+000	-4.129213e+001	-4.777173e+000	-1.060481e+002
1210263700	-3.955758e+000	-1.258199e+002	-5.489408e+000	-4.158034e+001	-5.455487e+000	-4.164605e+001	-4.766184e+000	-1.065368e+002
1220263400	-3.947314e+000	-1.262897e+002	-5.524890e+000	-4.197578e+001	-5.494671e+000	-4.205112e+001	-4.761438e+000	-1.069658e+002
1230263100	-3.931259e+000	-1.266622e+002	-5.559750e+000	-4.237774e+001	-5.520940e+000	-4.246481e+001	-4.754633e+000	-1.073743e+002
1240262800	-3.912415e+000	-1.270921e+002	-5.598173e+000	-4.279861e+001	-5.556711e+000	-4.285983e+001	-4.750624e+000	-1.079214e+002
1250262500	-3.901996e+000	-1.274610e+002	-5.636751e+000	-4.319647e+001	-5.599246e+000	-4.323738e+001	-4.735026e+000	-1.083654e+002
1260262200	-3.889013e+000	-1.279253e+002	-5.675838e+000	-4.359744e+001	-5.636684e+000	-4.359595e+001	-4.740086e+000	-1.088352e+002
1270261900	-3.876059e+000	-1.283436e+002	-5.720265e+000	-4.392304e+001	-5.674154e+000	-4.396329e+001	-4.731009e+000	-1.092774e+002
1280261600	-3.870787e+000	-1.287584e+002	-5.754058e+000	-4.430756e+001	-5.719943e+000	-4.430823e+001	-4.726819e+000	-1.097919e+002
1290261300	-3.861004e+000	-1.291542e+002	-5.798280e+000	-4.471191e+001	-5.768167e+000	-4.463801e+001	-4.725338e+000	-1.103302e+002
1300261000	-3.848676e+000	-1.295756e+002	-5.841471e+000	-4.508941e+001	-5.805889e+000	-4.500907e+001	-4.724811e+000	-1.108098e+002
1310260700	-3.848403e+000	-1.299569e+002	-5.882694e+000	-4.541004e+001	-5.853271e+000	-4.538402e+001	-4.726633e+000	-1.112391e+002
1320260400	-3.845106e+000	-1.304156e+002	-5.927187e+000	-4.575289e+001	-5.896417e+000	-4.571620e+001	-4.724640e+000	-1.116777e+002
1330260100	-3.841211e+000	-1.308328e+002	-5.971698e+000	-4.610130e+001	-5.941999e+000	-4.610772e+001	-4.734208e+000	-1.120216e+002
1340259800	-3.838709e+000	-1.312494e+002	-6.026214e+000	-4.634095e+001	-5.990331e+000	-4.641984e+001	-4.725322e+000	-1.124248e+002
1350259500	-3.840663e+000	-1.316436e+002	-6.072702e+000	-4.665161e+001	-6.031245e+000	-4.669522e+001	-4.741282e+000	-1.128567e+002
1360259200	-3.849131e+000	-1.320220e+002	-6.113704e+000	-4.699046e+001	-6.085434e+000	-4.698929e+001	-4.740592e+000	-1.132866e+002
1370258900	-3.863950e+000	-1.324078e+002	-6.162220e+000	-4.716705e+001	-6.130883e+000	-4.722956e+001	-4.759111e+000	-1.137588e+002
1380258600	-3.869154e+000	-1.327692e+002	-6.217005e+000	-4.742428e+001	-6.172057e+000	-4.741153e+001	-4.783064e+000	-1.142248e+002
1390258300	-3.885942e+000	-1.332150e+002	-6.258757e+000	-4.764491e+001	-6.221959e+000	-4.763975e+001	-4.793886e+000	-1.146112e+002
1400258000	-3.893381e+000	-1.335752e+002	-6.304164e+000	-4.777595e+001	-6.264148e+000	-4.774771e+001	-4.805985e+000	-1.151104e+002
1410257700	-3.909127e+000	-1.339016e+002	-6.351448e+000	-4.794132e+001	-6.309020e+000	-4.799401e+001	-4.819624e+000	-1.154377e+002
1420257400	-3.923611e+000	-1.341750e+002	-6.397469e+000	-4.806731e+001	-6.345538e+000	-4.805427e+001	-4.840948e+000	-1.159027e+002
1430257100	-3.944948e+000	-1.345112e+002	-6.425703e+000	-4.819092e+001	-6.388293e+000	-4.817209e+001	-4.855877e+000	-1.163431e+002
1440256800	-3.962296e+000	-1.347524e+002	-6.468072e+000	-4.824979e+001	-6.416594e+000	-4.824109e+001	-4.874937e+000	-1.166749e+002
1450256500	-3.979474e+000	-1.350079e+002	-6.484006e+000	-4.837134e+001	-6.445656e+000	-4.835791e+001	-4.894379e+000	-1.170219e+002
1460256200	-3.993555e+000	-1.352118e+002	-6.503441e+000	-4.850047e+001	-6.468578e+000	-4.844138e+001	-4.921026e+000	-1.174160e+002
1470255900	-4.005089e+000	-1.353769e+002	-6.533159e+000	-4.863072e+001	-6.492813e+000	-4.853886e+001	-4.938936e+000	-1.177499e+002
1480255600	-4.013024e+000	-1.355358e+002	-6.548585e+000	-4.869285e+001	-6.515243e+000	-4.864709e+001	-4.960555e+000	-1.179757e+002
1490255300	-4.022066e+000	-1.356705e+002	-6.552146e+000	-4.886375e+001	-6.517035e+000	-4.877020e+001	-4.978574e+000	-1.181739e+002
1500255000	-4.033560e+000	-1.358128e+002	-6.558971e+000	-4.894511e+001	-6.531541e+000	-4.891960e+001	-4.984972e+000	-1.184120e+002
1510254700	-4.033007e+000	-1.358921e+002	-6.563860e+000	-4.910493e+001	-6.520620e+000	-4.907125e+001	-5.003308e+000	-1.185065e+002
1520254400	-4.030558e+000	-1.360155e+002	-6.567768e+000	-4.930671e+001	-6.521547e+000	-4.928012e+001	-5.016967e+000	-1.187532e+002
1530254100	-4.031396e+000	-1.360901e+002	-6.568952e+000	-4.949008e+001	-6.529837e+000	-4.949229e+001	-5.025612e+000	-1.189434e+002
1540253800	-4.015009e+000	-1.362350e+002	-6.569531e+000	-4.969275e+001	-6.526715e+000	-4.965288e+001	-5.040319e+000	-1.191296e+002
1550253500	-4.010344e+000	-1.363190e+002	-6.574563e+000	-4.997664e+001	-6.531350e+000	-4.988956e+001	-5.044319e+000	-1.193832e+002
1560253200	-4.002126e+000	-1.364711e+002	-6.574383e+000	-5.020620e+001	-6.540760e+000	-5.013065e+001	-5.041767e+000	-1.195898e+002
1570252900	-3.984426e+000	-1.366570e+002	-6.575631e+000	-5.046502e+001	-6.532364e+000	-5.045266e+001	-5.056122e+000	-1.197649e+002
1580252600	-3.978400e+000	-1.367881e+002	-6.578342e+000	-5.076932e+001	-6.529494e+000	-5.070554e+001	-5.051573e+000	-1.199731e+002
1590252300	-3.957701e+000	-1.369296e+002	-6.586509e+000	-5.107724e+001	-6.543165e+000	-5.099131e+001	-5.052900e+000	-1.202869e+002
1600252000	-3.939754e+000	-1.371460e+002	-6.589079e+000	-5.135964e+001	-6.544317e+000	-5.128181e+001	-5.055736e+000	-1.205345e+002
1610251700	-3.927497e+000	-1.373688e+002	-6.595092e+000	-5.167791e+001	-6.557967e+000	-5.158438e+001	-5.053599e+000	-1.206617e+002
1620251400	-3.899521e+000	-1.375332e+002	-6.603237e+000	-5.200766e+001	-6.557753e+000	-5.186186e+001	-5.046585e+000	-1.209368e+002
1630251100	-3.882446e+000	-1.377215e+002	-6.611021e+000	-5.232812e+001	-6.578901e+000	-5.220281e+001	-5.034565e+000	-1.212350e+002
1640250800	-3.866876e+000	-1.378701e+002	-6.609316e+000	-5.271203e+001	-6.581813e+000	-5.252911e+001	-5.027283e+000	-1.214629e+002
1650250500	-3.847075e+000	-1.381318e+002	-6.624572e+000	-5.298185e+001	-6.594359e+000	-5.288687e+001	-5.022575e+000	-1.216418e+002
1660250200	-3.829003e+000	-1.383488e+002	-6.633783e+000	-5.331211e+001	-6.592876e+000	-5.318793e+001	-5.017495e+000	-1.218300e+002
1670249900	-3.805160e+000	-1.385306e+002	-6.649120e+000	-5.368819e+001	-6.596875e+000	-5.359656e+001	-5.009148e+000	-1.219831e+002
1680249600	-3.783393e+000	-1.387591e+002	-6.656160e+000	-5.403584e+001	-6.616960e+000	-5.392942e+001	-4.997545e+000	-1.222913e+002
1690249300	-3.767131e+000	-1.389855e+002	-6.671250e+000	-5.436763e+001	-6.625280e+000	-5.423434e+001	-4.995151e+000	-1.225026e+002
1700249000	-3.753754e+000	-1.392271e+002	-6.683513e+000	-5.468353e+001	-6.644293e+000	-5.458314e+001	-4.992872e+000	-1.227534e+002
1710248700	-3.724591e+000	-1.394613e+002	-6.704224e+000	-5.503814e+001	-6.656518e+000	-5.486959e+001	-4.994809e+000	-1.230198e+002
1720248400	-3.716535e+000	-1.397159e+002	-6.708751e+000	-5.535670e+001	-6.672490e+000	-5.523243e+001	-4.982073e+000	-1.233078e+002
1730248100	-3.694664e+000	-1.399735e+002	-6.738417e+000	-5.568228e+001	-6.686465e+000	-5.559835e+001	-4.975645e+000	-1.235523e+002
1740247800	-3.688150e+000	-1.401996e+002	-6.745401e+000	-5.602097e+001	-6.709518e+000	-5.589529e+001	-4.975984e+000	-1.238406e+002
1750247500	-3.667414e+000	-1.404700e+002	-6.774204e+000	-5.638048e+001	-6.728629e+000	-5.621920e+001	-4.968995e+000	-1.241366e+002
1760247200	-3.652341e+000	-1.407224e+002	-6.789355e+000	-5.672686e+001	-6.745889e+000	-5.650420e+001	-4.968051e+000	-1.244369e+002
1770246900	-3.634956e+000	-1.409810e+002	-6.809293e+000	-5.707248e+001	-6.778511e+000	-5.686904e+001	-4.955971e+000	-1.247306e+002
1780246600	-3.619783e+000	-1.412504e+002	-6.830616e+000	-5.737230e+001	-6.795500e+000	-5.722007e+001	-4.949752e+000	-1.249952e+002
1790246300	-3.607695e+000	-1.415385e+002	-6.845842e+000	-5.765791e+001	-6.809531e+000	-5.754746e+001	-4.951278e+000	-1.252542e+002
1800246000	-3.600475e+000	-1.417890e+002	-6.869185e+000	-5.802125e+001	-6.843243e+000	-5.784190e+001	-4.941346e+000	-1.255619e+002
1810245700	-3.578889e+000	-1.420145e+002	-6.880967e+000	-5.838851e+001	-6.859866e+000	-5.815832e+001	-4.946238e+000	-1.258219e+002
1820245400	-3.561806e+000	-1.422509e+002	-6.904883e+000	-5.872345e+001	-6.872358e+000	-5.855712e+001	-4.935782e+000	-1.259995e+002
1830245100	-3.552979e+000	-1.425670e+002	-6.929373e+000	-5.903003e+001	-6.873453e+000	-5.892727e+001	-4.932381e+000	-1.261072e+002
1840244800	-3.545210e+000	-1.428506e+002	-6.945022e+000	-5.928970e+001	-6.892835e+000	-5.922250e+001	-4.925030e+000	-1.263346e+002
1850244500	-3.530443e+000	-1.431188e+002	-6.960815e+000	-5.967452e+001	-6.923128e+000	-5.956231e+001	-4.908732e+000	-1.266511e+002
1860244200	-3.512228e+000	-1.434108e+002	-6.984684e+000	-6.001851e+001	-6.934738e+000	-5.982811e+001	-4.907287e+000	-1.268781e+002
1870243900	-3.508089e+000	-1.436950e+002	-7.009068e+000	-6.032766e+001	-6.952018e+000	-6.010267e+001	-4.912732e+000	-1.272200e+002
1880243600	-3.493279e+000	-1.439645e+002	-7.029850e+000	-6.064693e+001	-6.989006e+000	-6.044899e+001	-4.920499e+000	-1.275085e+002
1890243300	-3.485781e+000	-1.442802e+002	-7.053586e+000	-6.091755e+001	-7.005040e+000	-6.075305e+001	-4.914466e+000	-1.277796e+002
1900243000	-3.462716e+000	-1.445510e+002	-7.085493e+000	-6.129100e+001	-7.030728e+000	-6.105426e+001	-4.919900e+000	-1.280416e+002
1910242700	-3.457101e+000	-1.448271e+002	-7.100240e+000	-6.160807e+001	-7.062674e+000	-6.134627e+001	-4.918203e+000	-1.283332e+002
1920242400	-3.447840e+000	-1.451086e+002	-7.125247e+000	-6.188536e+001	-7.086102e+000	-6.169993e+001	-4.909683e+000	-1.286300e+002
1930242100	-3.432679e+000	-1.453763e+002	-7.140154e+000	-6.222311e+001	-7.111333e+000	-6.201894e+001	-4.915620e+000	-1.289671e+002
1940241800	-3.422020e+000	-1.456677e+002	-7.162408e+000	-6.253714e+001	-7.131170e+000	-6.231295e+001	-4.905553e+000	-1.292057e+002
1950241500	-3.407567e+000	-1.459176e+002	-7.187947e+000	-6.277907e+001	-7.168484e+000	-6.265333e+001	-4.898379e+000	-1.295449e+002
1960241200	-3.399531e+000	-1.462005e+002	-7.218943e+000	-6.312383e+001	-7.208943e+000	-6.293734e+001	-4.894977e+000	-1.298660e+002
1970240900	-3.390572e+000	-1.464608e+002	-7.246224e+000	-6.342899e+001	-7.229406e+000	-6.331173e+001	-4.889773e+000	-1.301609e+002
1980240600	-3.379424e+000	-1.466853e+002	-7.256370e+000	-6.373231e+001	-7.241290e+000	-6.367877e+001	-4.873567e+000	-1.303207e+002
1990240300	-3.370159e+000	-1.469560e+002	-7.284907e+000	-6.406023e+001	-7.242672e+000	-6.405919e+001	-4.854503e+000	-1.304606e+002
2000240000	-3.360205e+000	-1.472358e+002	-7.308363e+000	-6.432001e+001	-7.264445e+000	-6.426557e+001	-4.866531e+000	-1.307137e+002
2010239700	-3.355862e+000	-1.475235e+002	-7.329985e+000	-6.462760e+001	-7.281593e+000	-6.449107e+001	-4.872996e+000	-1.309497e+002
2020239400	-3.345174e+000	-1.478170e+002	-7.350532e+000	-6.497494e+001	-7.315010e+000	-6.476503e+001	-4.883790e+000	-1.311884e+002
2030239100	-3.339879e+000	-1.480794e+002	-7.366921e+000	-6.525398e+001	-7.332108e+000	-6.495954e+001	-4.891895e+000	-1.314357e+002
2040238800	-3.334872e+000	-1.483206e+002	-7.392079e+000	-6.548807e+001	-7.351518e+000	-6.525897e+001	-4.893340e+000	-1.316878e+002
2050238500	-3.323429e+000	-1.486523e+002	-7.409342e+000	-6.591017e+001	-7.379927e+000	-6.564016e+001	-4.897859e+000	-1.320009e+002
2060238200	-3.314831e+000	-1.489248e+002	-7.443794e+000	-6.622637e+001	-7.396899e+000	-6.594658e+001	-4.907801e+000	-1.321973e+002
2070237900	-3.306711e+000	-1.492309e+002	-7.461724e+000	-6.645831e+001	-7.422540e+000	-6.620954e+001	-4.923923e+000	-1.324286e+002
2080237600	-3.300605e+000	-1.495304e+002	-7.492645e+000	-6.677020e+001	-7.443732e+000	-6.651260e+001	-4.908593e+000	-1.327076e+002
2090237300	-3.287651e+000	-1.498438e+002	-7.511242e+000	-6.710000e+001	-7.480164e+000	-6.682087e+001	-4.916743e+000	-1.330134e+002
2100237000	-3.282277e+000	-1.501192e+002	-7.538444e+000	-6.737690e+001	-7.509716e+000	-6.712785e+001	-4.911113e+000	-1.333286e+002
2110236700	-3.265942e+000	-1.504008e+002	-7.560347e+000	-6.772353e+001	-7.542726e+000	-6.740519e+001	-4.912072e+000	-1.336689e+002
2120236400	-3.266942e+000	-1.506945e+002	-7.584997e+000	-6.795123e+001	-7.575626e+000	-6.774365e+001	-4.910381e+000	-1.339527e+002
2130236100	-3.254689e+000	-1.509632e+002	-7.618079e+000	-6.822808e+001	-7.613922e+000	-6.804508e+001	-4.914812e+000	-1.342571e+002
2140235800	-3.239146e+000	-1.512323e+002	-7.643801e+000	-6.856326e+001	-7.631123e+000	-6.833122e+001	-4.912993e+000	-1.345035e+002
2150235500	-3.238485e+000	-1.515174e+002	-7.665968e+000	-6.885099e+001	-7.658742e+000	-6.868910e+001	-4.906446e+000	-1.347553e+002
2160235200	-3.230190e+000	-1.517870e+002	-7.684418e+000	-6.905964e+001	-7.658930e+000	-6.900158e+001	-4.887568e+000	-1.349166e+002
2170234900	-3.219420e+000	-1.520442e+002	-7.710176e+000	-6.943029e+001	-7.664029e+000	-6.928609e+001	-4.872078e+000	-1.350537e+002
2180234600	-3.214810e+000	-1.522877e+002	-7.723234e+000	-6.969353e+001	-7.677067e+000	-6.959407e+001	-4.869392e+000	-1.352738e+002
2190234300	-3.209853e+000	-1.526027e+002	-7.751803e+000	-7.004996e+001	-7.710188e+000	-6.989230e+001	-4.881814e+000	-1.355450e+002
2200234000	-3.199450e+000	-1.529011e+002	-7.786327e+000	-7.039907e+001	-7.737037e+000	-7.005878e+001	-4.897510e+000	-1.357841e+002
2210233700	-3.197511e+000	-1.532134e+002	-7.824153e+000	-7.062774e+001	-7.767758e+000	-7.029831e+001	-4.906368e+000	-1.360968e+002
2220233400	-3.188304e+000	-1.534952e+002	-7.847075e+000	-7.092667e+001	-7.796056e+000	-7.058903e+001	-4.913613e+000	-1.363295e+002
2230233100	-3.187866e+000	-1.537961e+002	-7.868012e+000	-7.113540e+001	-7.822568e+000	-7.084135e+001	-4.932956e+000	-1.366285e+002
2240232800	-3.185548e+000	-1.540637e+002	-7.880680e+000	-7.141692e+001	-7.847079e+000	-7.109236e+001	-4.936031e+000	-1.368850e+002
2250232500	-3.175867e+000	-1.544045e+002	-7.906732e+000	-7.172575e+001	-7.865692e+000	-7.139435e+001	-4.946047e+000	-1.370279e+002
2260232200	-3.170484e+000	-1.546753e+002	-7.921041e+000	-7.198828e+001	-7.895244e+000	-7.166053e+001	-4.951317e+000	-1.373243e+002
2270231900	-3.160911e+000	-1.549138e+002	-7.939627e+000	-7.231955e+001	-7.908039e+000	-7.204202e+001	-4.940646e+000	-1.375671e+002
2280231600	-3.152354e+000	-1.552184e+002	-7.961902e+000	-7.264523e+001	-7.945909e+000	-7.232364e+001	-4.945907e+000	-1.378492e+002
2290231300	-3.143310e+000	-1.555627e+002	-7.992316e+000	-7.299476e+001	-7.975432e+000	-7.271245e+001	-4.944166e+000	-1.381880e+002
2300231000	-3.132597e+000	-1.558778e+002	-8.024971e+000	-7.332198e+001	-8.002381e+000	-7.301640e+001	-4.950347e+000	-1.384164e+002
2310230700	-3.132233e+000	-1.562151e+002	-8.053398e+000	-7.359305e+001	-8.046185e+000	-7.332475e+001	-4.950762e+000	-1.386871e+002
2320230400	-3.125952e+000	-1.564770e+002	-8.084556e+000	-7.385617e+001	-8.068046e+000	-7.355849e+001	-4.939413e+000	-1.389100e+002
2330230100	-3.128533e+000	-1.567651e+002	-8.101904e+000	-7.410254e+001	-8.093165e+000	-7.384111e+001	-4.945156e+000	-1.391616e+002
2340229800	-3.120521e+000	-1.570400e+002	-8.136922e+000	-7.438108e+001	-8.111494e+000	-7.412548e+001	-4.943488e+000	-1.394172e+002
2350229500	-3.117309e+000	-1.573962e+002	-8.165055e+000	-7.470477e+001	-8.134184e+000	-7.443910e+001	-4.949001e+000	-1.396276e+002
2360229200	-3.120961e+000	-1.576366e+002	-8.178642e+000	-7.493388e+001	-8.156974e+000	-7.462771e+001	-4.963602e+000	-1.398700e+002
2370228900	-3.121248e+000	-1.579226e+002	-8.206553e+000	-7.515691e+001	-8.164179e+000	-7.487346e+001	-4.966682e+000	-1.400549e+002
2380228600	-3.111168e+000	-1.582148e+002	-8.224537e+000	-7.549573e+001	-8.187746e+000	-7.508810e+001	-4.965882e+000	-1.402300e+002
2390228300	-3.105593e+000	-1.584869e+002	-8.250858e+000	-7.581122e+001	-8.198760e+000	-7.543307e+001	-4.968902e+000	-1.404432e+002
2400228000	-3.095882e+000	-1.588066e+002	-8.263357e+000	-7.610371e+001	-8.235290e+000	-7.579072e+001	-4.969498e+000	-1.408175e+002
2410227700	-3.092335e+000	-1.590960e+002	-8.293931e+000	-7.644823e+001	-8.261637e+000	-7.604088e+001	-4.972852e+000	-1.409869e+002
2420227400	-3.077579e+000	-1.593877e+002	-8.329836e+000	-7.676610e+001	-8.299477e+000	-7.637881e+001	-4.977087e+000	-1.413481e+002
2430227100	-3.062644e+000	-1.597189e+002	-8.349506e+000	-7.707753e+001	-8.321739e+000	-7.672777e+001	-4.981171e+000	-1.415797e+002
2440226800	-3.062088e+000	-1.600431e+002	-8.378913e+000	-7.738343e+001	-8.362574e+000	-7.697661e+001	-4.995486e+000	-1.418735e+002
2450226500	-3.055422e+000	-1.602944e+002	-8.405343e+000	-7.765287e+001	-8.385816e+000	-7.734173e+001	-4.997886e+000	-1.421381e+002
2460226200	-3.048079e+000	-1.606683e+002	-8.445233e+000	-7.792362e+001	-8.430246e+000	-7.757533e+001	-5.009481e+000	-1.424379e+002
2470225900	-3.046695e+000	-1.609846e+002	-8.472511e+000	-7.820488e+001	-8.464139e+000	-7.786331e+001	-5.012275e+000	-1.426012e+002
2480225600	-3.045672e+000	-1.613104e+002	-8.487298e+000	-7.847678e+001	-8.483524e+000	-7.811427e+001	-5.020579e+000	-1.427946e+002
2490225300	-3.039860e+000	-1.615766e+002	-8.509693e+000	-7.875357e+001	-8.491023e+000	-7.842244e+001	-5.012774e+000	-1.429612e+002
2500225000	-3.040673e+000	-1.618778e+002	-8.525560e+000	-7.908095e+001	-8.520550e+000	-7.875142e+001	-5.005375e+000	-1.431994e+002
2510224700	-3.035718e+000	-1.622422e+002	-8.568249e+000	-7.949442e+001	-8.551512e+000	-7.911442e+001	-5.006542e+000	-1.435479e+002
2520224400	-3.032808e+000	-1.625632e+002	-8.588828e+000	-7.979766e+001	-8.567542e+000	-7.942342e+001	-5.010084e+000	-1.438208e+002
2530224100	-3.029666e+000	-1.628596e+002	-8.641257e+000	-8.001403e+001	-8.607806e+000	-7.969207e+001	-5.023933e+000	-1.441136e+002
2540223800	-3.030509e+000	-1.632548e+002	-8.674975e+000	-8.034154e+001	-8.646556e+000	-7.992379e+001	-5.038019e+000	-1.443819e+002
2550223500	-3.032110e+000	-1.635695e+002	-8.695288e+000	-8.067591e+001	-8.674697e+000	-8.018036e+001	-5.047761e+000	-1.446316e+002
2560223200	-3.031029e+000	-1.638712e+002	-8.720519e+000	-8.079599e+001	-8.700198e+000	-8.044327e+001	-5.050833e+000	-1.448778e+002
2570222900	-3.021688e+000	-1.642264e+002	-8.745888e+000	-8.111505e+001	-8.730608e+000	-8.069971e+001	-5.074754e+000	-1.451409e+002
2580222600	-3.019731e+000	-1.645666e+002	-8.763434e+000	-8.132413e+001	-8.751295e+000	-8.090398e+001	-5.085864e+000	-1.453424e+002
2590222300	-3.011595e+000	-1.648342e+002	-8.785726e+000	-8.163438e+001	-8.765829e+000	-8.130967e+001	-5.079562e+000	-1.455383e+002
2600222000	-3.006824e+000	-1.651519e+002	-8.805741e+000	-8.190094e+001	-8.778687e+000	-8.154785e+001	-5.077574e+000	-1.457173e+002
2610221700	-3.000748e+000	-1.654391e+002	-8.841483e+000	-8.224010e+001	-8.805855e+000	-8.196357e+001	-5.070476e+000	-1.460016e+002
2620221400	-2.989039e+000	-1.657977e+002	-8.856215e+000	-8.260892e+001	-8.832892e+000	-8.226208e+001	-5.075404e+000	-1.462218e+002
2630221100	-2.984537e+000	-1.661080e+002	-8.884885e+000	-8.301745e+001	-8.873529e+000	-8.264346e+001	-5.071871e+000	-1.465155e+002
2640220800	-2.979130e+000	-1.663996e+002	-8.918415e+000	-8.329837e+001	-8.910148e+000	-8.295668e+001	-5.070432e+000	-1.467680e+002
2650220500	-2.981068e+000	-1.667117e+002	-8.951361e+000	-8.371078e+001	-8.935277e+000	-8.333313e+001	-5.070983e+000	-1.470701e+002
2660220200	-2.978767e+000	-1.669620e+002	-8.980291e+000	-8.395415e+001	-8.971417e+000	-8.356262e+001	-5.082816e+000	-1.473052e+002
2670219900	-2.971320e+000	-1.673059e+002	-9.003423e+000	-8.425171e+001	-8.999972e+000	-8.397184e+001	-5.083543e+000	-1.476323e+002
2680219600	-2.970105e+000	-1.676599e+002	-9.033676e+000	-8.463932e+001	-9.031873e+000	-8.423935e+001	-5.085281e+000	-1.478988e+002
2690219300	-2.966069e+000	-1.679938e+002	-9.071674e+000	-8.490315e+001	-9.067081e+000	-8.457008e+001	-5.097003e+000	-1.481886e+002
2700219000	-2.960053e+000	-1.683965e+002	-9.109737e+000	-8.526953e+001	-9.084934e+000	-8.485683e+001	-5.108165e+000	-1.484296e+002
2710218700	-2.951801e+000	-1.687406e+002	-9.138370e+000	-8.556604e+001	-9.119331e+000	-8.512628e+001	-5.124251e+000	-1.486896e+002
2720218400	-2.951003e+000	-1.691506e+002	-9.180654e+000	-8.586894e+001	-9.158363e+000	-8.545970e+001	-5.136911e+000	-1.489538e+002
2730218100	-2.953051e+000	-1.695724e+002	-9.227381e+000	-8.617597e+001	-9.185716e+000	-8.578284e+001	-5.133377e+000	-1.492743e+002
2740217800	-2.945896e+000	-1.699754e+002	-9.253821e+000	-8.648473e+001	-9.227363e+000	-8.612058e+001	-5.145976e+000	-1.495865e+002
2750217500	-2.940681e+000	-1.703235e+002	-9.291552e+000	-8.682770e+001	-9.273410e+000	-8.640676e+001	-5.152679e+000	-1.499081e+002
2760217200	-2.938536e+000	-1.706855e+002	-9.336435e+000	-8.709891e+001	-9.320463e+000	-8.670629e+001	-5.170955e+000	-1.502300e+002
2770216900	-2.935881e+000	-1.710790e+002	-9.356365e+000	-8.738987e+001	-9.353683e+000	-8.702170e+001	-5.175150e+000	-1.505246e+002
2780216600	-2.939337e+000	-1.714399e+002	-9.401988e+000	-8.762991e+001	-9.384317e+000	-8.724300e+001	-5.187863e+000	-1.507880e+002
2790216300	-2.934564e+000	-1.717477e+002	-9.435027e+000	-8.782636e+001	-9.410068e+000	-8.756631e+001	-5.190716e+000	-1.510405e+002
2800216000	-2.928444e+000	-1.720594e+002	-9.463287e+000	-8.811332e+001	-9.446091e+000	-8.772705e+001	-5.210696e+000	-1.512264e+002
2810215700	-2.919240e+000	-1.724271e+002	-9.472018e+000	-8.837992e+001	-9.476107e+000	-8.800118e+001	-5.210593e+000	-1.513717e+002
2820215400	-2.926042e+000	-1.727162e+002	-9.502117e+000	-8.873888e+001	-9.490951e+000	-8.833727e+001	-5.210582e+000	-1.515116e+002
2830215100	-2.918232e+000	-1.730371e+002	-9.521826e+000	-8.901486e+001	-9.517920e+000	-8.866511e+001	-5.201484e+000	-1.518025e+002
2840214800	-2.906048e+000	-1.733896e+002	-9.553250e+000	-8.943907e+001	-9.551230e+000	-8.903210e+001	-5.203628e+000	-1.519915e+002
2850214500	-2.903184e+000	-1.737960e+002	-9.578619e+000	-8.981416e+001	-9.580533e+000	-8.939971e+001	-5.206499e+000	-1.522950e+002
2860214200	-2.909247e+000	-1.741701e+002	-9.627580e+000	-9.011402e+001	-9.613102e+000	-8.973686e+001	-5.201485e+000	-1.526183e+002
2870213900	-2.909505e+000	-1.745690e+002	-9.669772e+000	-9.056945e+001	-9.644217e+000	-9.009674e+001	-5.207178e+000	-1.528821e+002
2880213600	-2.902170e+000	-1.749506e+002	-9.696677e+000	-9.090908e+001	-9.689200e+000	-9.042722e+001	-5.212273e+000	-1.532328e+002
2890213300	-2.905938e+000	-1.753340e+002	-9.745021e+000	-9.117927e+001	-9.722550e+000	-9.080433e+001	-5.215876e+000	-1.536537e+002
2900213000	-2.905459e+000	-1.757352e+002	-9.781709e+000	-9.148296e+001	-9.765121e+000	-9.110597e+001	-5.221267e+000	-1.539939e+002
2910212700	-2.899058e+000	-1.760950e+002	-9.830721e+000	-9.182997e+001	-9.811984e+000	-9.145623e+001	-5.233966e+000	-1.542975e+002
2920212400	-2.892542e+000	-1.764803e+002	-9.864496e+000	-9.222517e+001	-9.854601e+000	-9.179617e+001	-5.239522e+000	-1.546804e+002
2930212100	-2.891100e+000	-1.769093e+002	-9.913874e+000	-9.259377e+001	-9.898181e+000	-9.216527e+001	-5.252762e+000	-1.550241e+002
2940211800	-2.881492e+000	-1.772545e+002	-9.955454e+000	-9.284251e+001	-9.940465e+000	-9.242378e+001	-5.256879e+000	-1.552964e+002
2950211500	-2.866782e+000	-1.776582e+002	-1.000183e+001	-9.311131e+001	-9.988024e+000	-9.274919e+001	-5.270972e+000	-1.555471e+002
2960211200	-2.862093e+000	-1.780457e+002	-1.003926e+001	-9.342797e+001	-1.004509e+001	-9.310157e+001	-5.279845e+000	-1.558468e+002
2970210900	-2.860302e+000	-1.784075e+002	-1.008280e+001	-9.370727e+001	-1.007698e+001	-9.335095e+001	-5.284531e+000	-1.561150e+002
2980210600	-2.858488e+000	-1.788602e+002	-1.011783e+001	-9.405854e+001	-1.012256e+001	-9.361580e+001	-5.286719e+000	-1.564390e+002
2990210300	-2.858804e+000	-1.791612e+002	-1.016093e+001	-9.435881e+001	-1.016778e+001	-9.392469e+001	-5.304970e+000	-1.566875e+002
3000210000	-2.858133e+000	-1.796257e+002	-1.020414e+001	-9.463080e+001	-1.021279e+001	-9.427343e+001	-5.313340e+000	-1.569519e+002
3010209700	-2.855789e+000	1.799894e+002	-1.025041e+001	-9.491181e+001	-1.026014e+001	-9.458703e+001	-5.341109e+000	-1.571814e+002
3020209400	-2.858641e+000	1.796029e+002	-1.029153e+001	-9.523886e+001	-1.029666e+001	-9.485562e+001	-5.345360e+000	-1.574807e+002
3030209100	-2.864721e+000	1.791580e+002	-1.034268e+001	-9.558787e+001	-1.032869e+001	-9.512954e+001	-5.354081e+000	-1.577298e+002
3040208800	-2.857636e+000	1.788096e+002	-1.037938e+001	-9.580661e+001	-1.036345e+001	-9.539696e+001	-5.365893e+000	-1.579451e+002
3050208500	-2.860813e+000	1.784083e+002	-1.042501e+001	-9.606003e+001	-1.040269e+001	-9.572770e+001	-5.361510e+000	-1.581722e+002
3060208200	-2.862712e+000	1.779501e+002	-1.047171e+001	-9.647992e+001	-1.042927e+001	-9.612915e+001	-5.359780e+000	-1.585206e+002
3070207900	-2.856851e+000	1.774894e+002	-1.051365e+001	-9.689172e+001	-1.048331e+001	-9.645800e+001	-5.356158e+000	-1.587892e+002
3080207600	-2.844336e+000	1.770625e+002	-1.055739e+001	-9.714153e+001	-1.052655e+001	-9.684155e+001	-5.356719e+000	-1.592290e+002
3090207300	-2.842480e+000	1.766378e+002	-1.059119e+001	-9.754716e+001	-1.057526e+001	-9.718550e+001	-5.358283e+000	-1.595712e+002
3100207000	-2.838401e+000	1.762347e+002	-1.064414e+001	-9.784002e+001	-1.064495e+001	-9.741464e+001	-5.370309e+000	-1.598992e+002
3110206700	-2.828299e+000	1.758713e+002	-1.069655e+001	-9.821493e+001	-1.068218e+001	-9.778283e+001	-5.366245e+000	-1.602871e+002
3120206400	-2.832841e+000	1.754174e+002	-1.075257e+001	-9.847121e+001	-1.073880e+001	-9.810643e+001	-5.382539e+000	-1.606168e+002
3130206100	-2.820022e+000	1.750204e+002	-1.080533e+001	-9.881188e+001	-1.078427e+001	-9.841636e+001	-5.379447e+000	-1.609162e+002
3140205800	-2.821935e+000	1.746062e+002	-1.085314e+001	-9.913496e+001	-1.086269e+001	-9.883530e+001	-5.406270e+000	-1.612553e+002
3150205500	-2.825833e+000	1.742029e+002	-1.091479e+001	-9.954767e+001	-1.089123e+001	-9.907532e+001	-5.407587e+000	-1.615478e+002
3160205200	-2.823198e+000	1.738147e+002	-1.096324e+001	-9.978900e+001	-1.095456e+001	-9.947925e+001	-5.422928e+000	-1.618257e+002
3170204900	-2.822450e+000	1.734110e+002	-1.101980e+001	-1.000732e+002	-1.101033e+001	-9.978006e+001	-5.431593e+000	-1.621363e+002
3180204600	-2.823918e+000	1.729431e+002	-1.107033e+001	-1.004408e+002	-1.106715e+001	-1.002046e+002	-5.449644e+000	-1.624076e+002
3190204300	-2.820883e+000	1.724951e+002	-1.112321e+001	-1.007177e+002	-1.111712e+001	-1.003659e+002	-5.459200e+000	-1.626731e+002
3200204000	-2.825646e+000	1.720889e+002	-1.117993e+001	-1.010061e+002	-1.117294e+001	-1.007976e+002	-5.464957e+000	-1.630388e+002
3210203700	-2.824046e+000	1.715927e+002	-1.123374e+001	-1.014338e+002	-1.121219e+001	-1.010674e+002	-5.466542e+000	-1.633934e+002
3220203400	-2.817761e+000	1.711278e+002	-1.128657e+001	-1.016983e+002	-1.127290e+001	-1.013546e+002	-5.470309e+000	-1.637754e+002
3230203100	-2.816042e+000	1.706372e+002	-1.136328e+001	-1.021435e+002	-1.132009e+001	-1.016799e+002	-5.483666e+000	-1.641724e+002
3240202800	-2.814030e+000	1.701373e+002	-1.142759e+001	-1.023274e+002	-1.141229e+001	-1.019493e+002	-5.500262e+000	-1.645272e+002
3250202500	-2.814738e+000	1.696869e+002	-1.148881e+001	-1.026500e+002	-1.146512e+001	-1.022724e+002	-5.509640e+000	-1.648490e+002
3260202200	-2.799604e+000	1.692621e+002	-1.154032e+001	-1.028945e+002	-1.152713e+001	-1.024359e+002	-5.520386e+000	-1.652008e+002
3270201900	-2.793611e+000	1.687480e+002	-1.160432e+001	-1.031458e+002	-1.158718e+001	-1.027961e+002	-5.530234e+000	-1.655067e+002
3280201600	-2.796344e+000	1.682837e+002	-1.167604e+001	-1.035526e+002	-1.165060e+001	-1.030820e+002	-5.539209e+000	-1.658417e+002
3290201300	-2.791812e+000	1.678717e+002	-1.172552e+001	-1.038671e+002	-1.171336e+001	-1.033715e+002	-5.532868e+000	-1.660931e+002
3300201000	-2.799689e+000	1.674251e+002	-1.179377e+001	-1.041801e+002	-1.177966e+001	-1.036712e+002	-5.541477e+000	-1.664189e+002
3310200700	-2.787369e+000	1.669774e+002	-1.184803e+001	-1.044857e+002	-1.185219e+001	-1.041007e+002	-5.546759e+000	-1.667500e+002
3320200400	-2.794844e+000	1.665441e+002	-1.192298e+001	-1.047889e+002	-1.192804e+001	-1.043741e+002	-5.553716e+000	-1.670619e+002
3330200100	-2.799100e+000	1.660760e+002	-1.199931e+001	-1.049816e+002	-1.199549e+001	-1.047395e+002	-5.568510e+000	-1.673593e+002
3340199800	-2.792934e+000	1.656323e+002	-1.206697e+001	-1.052696e+002	-1.206119e+001	-1.049044e+002	-5.585909e+000	-1.676662e+002
3350199500	-2.804588e+000	1.651837e+002	-1.213227e+001	-1.055427e+002	-1.213039e+001	-1.053441e+002	-5.605159e+000	-1.680399e+002
3360199200	-2.804409e+000	1.647086e+002	-1.220222e+001	-1.059051e+002	-1.219132e+001	-1.056239e+002	-5.607622e+000	-1.683148e+002
3370198900	-2.806350e+000	1.642043e+002	-1.227991e+001	-1.061742e+002	-1.225106e+001	-1.058762e+002	-5.605939e+000	-1.686929e+002
3380198600	-2.807363e+000	1.637434e+002	-1.233807e+001	-1.064009e+002	-1.232071e+001	-1.060646e+002	-5.608801e+000	-1.690156e+002
3390198300	-2.807032e+000	1.632536e+002	-1.241774e+001	-1.067301e+002	-1.238048e+001	-1.063752e+002	-5.615155e+000	-1.694032e+002
3400198000	-2.812730e+000	1.627071e+002	-1.248607e+001	-1.069843e+002	-1.246619e+001	-1.066628e+002	-5.627491e+000	-1.698329e+002
3410197700	-2.816213e+000	1.622442e+002	-1.256114e+001	-1.073260e+002	-1.253162e+001	-1.068928e+002	-5.642599e+000	-1.702285e+002
3420197400	-2.803998e+000	1.617117e+002	-1.263829e+001	-1.076111e+002	-1.262407e+001	-1.072280e+002	-5.653361e+000	-1.706492e+002
3430197100	-2.811782e+000	1.612312e+002	-1.271379e+001	-1.079107e+002	-1.269335e+001	-1.074072e+002	-5.662863e+000	-1.710216e+002
3440196800	-2.804381e+000	1.606813e+002	-1.280198e+001	-1.082246e+002	-1.279580e+001	-1.077526e+002	-5.678969e+000	-1.713991e+002
3450196500	-2.802358e+000	1.602170e+002	-1.289926e+001	-1.086198e+002	-1.287461e+001	-1.081087e+002	-5.687478e+000	-1.718242e+002
3460196200	-2.800255e+000	1.596888e+002	-1.298332e+001	-1.088045e+002	-1.297520e+001	-1.083981e+002	-5.696867e+000	-1.721589e+002
3470195900	-2.802072e+000	1.591992e+002	-1.307128e+001	-1.091206e+002	-1.305852e+001	-1.087995e+002	-5.717479e+000	-1.725605e+002
3480195600	-2.795402e+000	1.587383e+002	-1.316121e+001	-1.093305e+002	-1.317238e+001	-1.090290e+002	-5.731706e+000	-1.729153e+002
3490195300	-2.799484e+000	1.582198e+002	-1.328037e+001	-1.095822e+002	-1.328323e+001	-1.093754e+002	-5.749333e+000	-1.732008e+002
3500195000	-2.802137e+000	1.577191e+002	-1.337876e+001	-1.097626e+002	-1.337469e+001	-1.096680e+002	-5.773244e+000	-1.735472e+002
3510194700	-2.815797e+000	1.571543e+002	-1.347768e+001	-1.099596e+002	-1.347331e+001	-1.098446e+002	-5.789681e+000	-1.738325e+002
3520194400	-2.811796e+000	1.566952e+002	-1.356900e+001	-1.100267e+002	-1.353300e+001	-1.099703e+002	-5.788894e+000	-1.742485e+002
3530194100	-2.822425e+000	1.561082e+002	-1.367923e+001	-1.101998e+002	-1.362250e+001	-1.101342e+002	-5.791037e+000	-1.746133e+002
3540193800	-2.830631e+000	1.556196e+002	-1.376723e+001	-1.103150e+002	-1.368937e+001	-1.100137e+002	-5.801875e+000	-1.749039e+002
3550193500	-2.844895e+000	1.550858e+002	-1.386732e+001	-1.104153e+002	-1.380622e+001	-1.100902e+002	-5.804526e+000	-1.751643e+002
3560193200	-2.850134e+000	1.544878e+002	-1.395924e+001	-1.106692e+002	-1.392134e+001	-1.103219e+002	-5.834744e+000	-1.754792e+002
3570192900	-2.858265e+000	1.539439e+002	-1.405661e+001	-1.108019e+002	-1.400785e+001	-1.104396e+002	-5.839783e+000	-1.758336e+002
3580192600	-2.859091e+000	1.534092e+002	-1.414559e+001	-1.110547e+002	-1.410680e+001	-1.106718e+002	-5.848592e+000	-1.762235e+002
3590192300	-2.861013e+000	1.528077e+002	-1.424376e+001	-1.113357e+002	-1.421931e+001	-1.109664e+002	-5.855454e+000	-1.765715e+002
3600192000	-2.852386e+000	1.522892e+002	-1.433280e+001	-1.114687e+002	-1.431172e+001	-1.111427e+002	-5.864071e+000	-1.770727e+002
3610191700	-2.866415e+000	1.517726e+002	-1.446352e+001	-1.116566e+002	-1.445204e+001	-1.112564e+002	-5.881931e+000	-1.774504e+002
3620191400	-2.862542e+000	1.512165e+002	-1.459075e+001	-1.117726e+002	-1.455581e+001	-1.114494e+002	-5.892815e+000	-1.778899e+002
3630191100	-2.869831e+000	1.507052e+002	-1.469748e+001	-1.120518e+002	-1.467636e+001	-1.117524e+002	-5.905801e+000	-1.783206e+002
3640190800	-2.869144e+000	1.501693e+002	-1.479741e+001	-1.119922e+002	-1.481542e+001	-1.118920e+002	-5.923288e+000	-1.786684e+002
3650190500	-2.875173e+000	1.495776e+002	-1.494078e+001	-1.121473e+002	-1.491956e+001	-1.121153e+002	-5.937184e+000	-1.791071e+002
3660190200	-2.892185e+000	1.490392e+002	-1.508412e+001	-1.122774e+002	-1.506589e+001	-1.121501e+002	-5.962427e+000	-1.794047e+002
3670189900	-2.902227e+000	1.484863e+002	-1.520618e+001	-1.123661e+002	-1.517916e+001	-1.123080e+002	-5.975090e+000	-1.798136e+002
3680189600	-2.913870e+000	1.479456e+002	-1.534029e+001	-1.124235e+002	-1.529073e+001	-1.124351e+002	-5.986660e+000	1.797412e+002
3690189300	-2.924201e+000	1.473488e+002	-1.548407e+001	-1.123976e+002	-1.540460e+001	-1.124358e+002	-6.002657e+000	1.792782e+002
3700189000	-2.935140e+000	1.467733e+002	-1.565012e+001	-1.124289e+002	-1.553098e+001	-1.123009e+002	-6.002104e+000	1.788658e+002
3710188700	-2.945513e+000	1.460696e+002	-1.579885e+001	-1.123991e+002	-1.571024e+001	-1.120713e+002	-6.020122e+000	1.785644e+002
3720188400	-2.954180e+000	1.454740e+002	-1.593134e+001	-1.121838e+002	-1.585434e+001	-1.120044e+002	-6.037924e+000	1.782420e+002
3730188100	-2.968217e+000	1.448225e+002	-1.608215e+001	-1.121634e+002	-1.603359e+001	-1.118660e+002	-6.072991e+000	1.778412e+002
3740187800	-2.984057e+000	1.442220e+002	-1.624327e+001	-1.119013e+002	-1.619453e+001	-1.115714e+002	-6.097738e+000	1.774901e+002
3750187500	-2.986734e+000	1.436303e+002	-1.636972e+001	-1.115429e+002	-1.632383e+001	-1.113511e+002	-6.130262e+000	1.771495e+002
3760187200	-3.010652e+000	1.430477e+002	-1.652031e+001	-1.113008e+002	-1.647281e+001	-1.109856e+002	-6.156297e+000	1.767867e+002
3770186900	-3.016020e+000	1.424561e+002	-1.665186e+001	-1.109963e+002	-1.662785e+001	-1.105799e+002	-6.178643e+000	1.765502e+002
3780186600	-3.030405e+000	1.418684e+002	-1.678575e+001	-1.107205e+002	-1.675001e+001	-1.104135e+002	-6.199654e+000	1.761867e+002
3790186300	-3.047583e+000	1.413304e+002	-1.693166e+001	-1.105664e+002	-1.688579e+001	-1.102457e+002	-6.201506e+000	1.759044e+002
3800186000	-3.056174e+000	1.407492e+002	-1.704248e+001	-1.102490e+002	-1.702934e+001	-1.100935e+002	-6.216671e+000	1.755247e+002
3810185700	-3.076806e+000	1.401798e+002	-1.720836e+001	-1.101370e+002	-1.717237e+001	-1.100023e+002	-6.221663e+000	1.751441e+002
3820185400	-3.093425e+000	1.395674e+002	-1.736591e+001	-1.097977e+002	-1.733408e+001	-1.097283e+002	-6.231027e+000	1.747807e+002
3830185100	-3.104942e+000	1.389784e+002	-1.753298e+001	-1.094321e+002	-1.750138e+001	-1.094575e+002	-6.249283e+000	1.743992e+002
3840184800	-3.120007e+000	1.382958e+002	-1.771544e+001	-1.090556e+002	-1.765667e+001	-1.091250e+002	-6.252615e+000	1.739703e+002
3850184500	-3.153917e+000	1.377357e+002	-1.789996e+001	-1.084796e+002	-1.781347e+001	-1.087307e+002	-6.262371e+000	1.735436e+002
3860184200	-3.176244e+000	1.370509e+002	-1.806579e+001	-1.079138e+002	-1.795418e+001	-1.079696e+002	-6.267139e+000	1.730250e+002
3870183900	-3.207093e+000	1.363812e+002	-1.826253e+001	-1.074646e+002	-1.814073e+001	-1.073738e+002	-6.284638e+000	1.726041e+002
3880183600	-3.231653e+000	1.357382e+002	-1.845542e+001	-1.067124e+002	-1.830517e+001	-1.064316e+002	-6.303561e+000	1.722095e+002
3890183300	-3.253456e+000	1.349994e+002	-1.862299e+001	-1.059335e+002	-1.853181e+001	-1.057052e+002	-6.338967e+000	1.718920e+002
3900183000	-3.272774e+000	1.343125e+002	-1.879918e+001	-1.051031e+002	-1.873430e+001	-1.048649e+002	-6.371617e+000	1.715124e+002
3910182700	-3.304916e+000	1.336588e+002	-1.900851e+001	-1.040710e+002	-1.892371e+001	-1.038048e+002	-6.398809e+000	1.711440e+002
3920182400	-3.320891e+000	1.329650e+002	-1.913970e+001	-1.028341e+002	-1.910676e+001	-1.026475e+002	-6.441992e+000	1.708297e+002
3930182100	-3.347188e+000	1.323139e+002	-1.931074e+001	-1.017998e+002	-1.927015e+001	-1.013950e+002	-6.472045e+000	1.704049e+002
3940181800	-3.366182e+000	1.316406e+002	-1.949568e+001	-1.004630e+002	-1.942994e+001	-1.002194e+002	-6.492620e+000	1.700723e+002
3950181500	-3.390252e+000	1.309223e+002	-1.965704e+001	-9.922610e+001	-1.955803e+001	-9.880377e+001	-6.533371e+000	1.697202e+002
3960181200	-3.414098e+000	1.303192e+002	-1.977508e+001	-9.762021e+001	-1.972408e+001	-9.752023e+001	-6.569026e+000	1.693022e+002
3970180900	-3.450765e+000	1.296361e+002	-1.990254e+001	-9.604561e+001	-1.986219e+001	-9.596996e+001	-6.608800e+000	1.690421e+002
3980180600	-3.488095e+000	1.289252e+002	-2.001915e+001	-9.440166e+001	-1.993805e+001	-9.438280e+001	-6.633152e+000	1.687632e+002
3990180300	-3.523905e+000	1.283405e+002	-2.010788e+001	-9.265014e+001	-2.000544e+001	-9.282759e+001	-6.672993e+000	1.685635e+002
4000180000	-3.569932e+000	1.276718e+002	-2.016131e+001	-9.098949e+001	-2.007731e+001	-9.135580e+001	-6.704916e+000	1.683247e+002
4010179700	-3.614810e+000	1.269897e+002	-2.023022e+001	-8.944064e+001	-2.010806e+001	-8.966651e+001	-6.706916e+000	1.680787e+002
4020179400	-3.666656e+000	1.262953e+002	-2.027885e+001	-8.779789e+001	-2.011765e+001	-8.806579e+001	-6.711907e+000	1.676936e+002
4030179100	-3.710676e+000	1.256429e+002	-2.034041e+001	-8.623196e+001	-2.017115e+001	-8.601546e+001	-6.716433e+000	1.673827e+002
4040178800	-3.758164e+000	1.249356e+002	-2.035040e+001	-8.458489e+001	-2.020419e+001	-8.458262e+001	-6.731548e+000	1.670546e+002
4050178500	-3.811779e+000	1.242216e+002	-2.042129e+001	-8.288294e+001	-2.023636e+001	-8.260328e+001	-6.746674e+000	1.667334e+002
4060178200	-3.850444e+000	1.234577e+002	-2.043654e+001	-8.103460e+001	-2.028292e+001	-8.091228e+001	-6.776218e+000	1.664060e+002
4070177900	-3.902103e+000	1.226703e+002	-2.041279e+001	-7.917191e+001	-2.026711e+001	-7.895865e+001	-6.813830e+000	1.660766e+002
4080177600	-3.944807e+000	1.219545e+002	-2.038413e+001	-7.734097e+001	-2.029632e+001	-7.709369e+001	-6.835934e+000	1.657707e+002
4090177300	-3.985681e+000	1.212035e+002	-2.032868e+001	-7.554915e+001	-2.023802e+001	-7.521789e+001	-6.872159e+000	1.653539e+002
4100177000	-4.043112e+000	1.204647e+002	-2.025883e+001	-7.353345e+001	-2.020435e+001	-7.328772e+001	-6.906360e+000	1.650050e+002
4110176700	-4.097039e+000	1.196894e+002	-2.022305e+001	-7.168450e+001	-2.012227e+001	-7.148556e+001	-6.933040e+000	1.646662e+002
4120176400	-4.152179e+000	1.190013e+002	-2.009096e+001	-6.984681e+001	-2.004370e+001	-6.953210e+001	-6.969614e+000	1.643255e+002
4130176100	-4.204729e+000	1.182800e+002	-1.997893e+001	-6.776415e+001	-1.993163e+001	-6.769006e+001	-7.006445e+000	1.640049e+002
4140175800	-4.257937e+000	1.175566e+002	-1.983662e+001	-6.594152e+001	-1.977512e+001	-6.581153e+001	-7.044371e+000	1.637011e+002
4150175500	-4.333184e+000	1.167513e+002	-1.967515e+001	-6.419596e+001	-1.959785e+001	-6.415630e+001	-7.097803e+000	1.634211e+002
4160175200	-4.396443e+000	1.160460e+002	-1.949123e+001	-6.246419e+001	-1.943467e+001	-6.253114e+001	-7.140938e+000	1.632034e+002
4170174900	-4.474458e+000	1.152903e+002	-1.931549e+001	-6.078644e+001	-1.922928e+001	-6.083233e+001	-7.196683e+000	1.629308e+002
4180174600	-4.548255e+000	1.144999e+002	-1.906197e+001	-5.932816e+001	-1.896758e+001	-5.943803e+001	-7.248207e+000	1.628157e+002
4190174300	-4.643329e+000	1.137566e+002	-1.881661e+001	-5.789983e+001	-1.868102e+001	-5.788403e+001	-7.288624e+000	1.626275e+002
4200174000	-4.728135e+000	1.129502e+002	-1.852953e+001	-5.690468e+001	-1.841777e+001	-5.674917e+001	-7.323526e+000	1.625779e+002
4210173700	-4.821764e+000	1.122266e+002	-1.827532e+001	-5.587399e+001	-1.815253e+001	-5.587599e+001	-7.347932e+000	1.625210e+002
4220173400	-4.915632e+000	1.113419e+002	-1.802456e+001	-5.531338e+001	-1.792013e+001	-5.515483e+001	-7.370853e+000	1.623916e+002
4230173100	-5.008561e+000	1.106705e+002	-1.778495e+001	-5.462627e+001	-1.770868e+001	-5.432071e+001	-7.385819e+000	1.623310e+002
4240172800	-5.101274e+000	1.097955e+002	-1.755210e+001	-5.401051e+001	-1.746262e+001	-5.384207e+001	-7.423237e+000	1.620945e+002
4250172500	-5.196905e+000	1.090363e+002	-1.731021e+001	-5.352824e+001	-1.726696e+001	-5.322534e+001	-7.459125e+000	1.619686e+002
4260172200	-5.302463e+000	1.082157e+002	-1.707950e+001	-5.317834e+001	-1.705241e+001	-5.297885e+001	-7.492074e+000	1.618024e+002
4270171900	-5.400688e+000	1.074822e+002	-1.684564e+001	-5.272270e+001	-1.682851e+001	-5.253509e+001	-7.512839e+000	1.615977e+002
4280171600	-5.506154e+000	1.067509e+002	-1.662502e+001	-5.246914e+001	-1.661425e+001	-5.219263e+001	-7.542252e+000	1.614415e+002
4290171300	-5.622752e+000	1.060088e+002	-1.642100e+001	-5.216414e+001	-1.639429e+001	-5.193179e+001	-7.576975e+000	1.612954e+002
4300171000	-5.733649e+000	1.052732e+002	-1.621103e+001	-5.188681e+001	-1.617626e+001	-5.183772e+001	-7.587345e+000	1.611641e+002
4310170700	-5.864075e+000	1.046397e+002	-1.598961e+001	-5.180007e+001	-1.596244e+001	-5.170537e+001	-7.613298e+000	1.610563e+002
4320170400	-5.992569e+000	1.039248e+002	-1.578721e+001	-5.158576e+001	-1.576733e+001	-5.163364e+001	-7.642437e+000	1.609479e+002
4330170100	-6.120911e+000	1.032517e+002	-1.558780e+001	-5.147983e+001	-1.553635e+001	-5.159536e+001	-7.672242e+000	1.607046e+002
4340169800	-6.257569e+000	1.025047e+002	-1.538886e+001	-5.143104e+001	-1.532634e+001	-5.156464e+001	-7.700869e+000	1.604986e+002
4350169500	-6.404295e+000	1.017663e+002	-1.519058e+001	-5.139301e+001	-1.512130e+001	-5.127953e+001	-7.728660e+000	1.603687e+002
4360169200	-6.545676e+000	1.010750e+002	-1.499411e+001	-5.127150e+001	-1.492063e+001	-5.117969e+001	-7.764724e+000	1.602261e+002
4370168900	-6.687846e+000	1.002962e+002	-1.481198e+001	-5.121202e+001	-1.473867e+001	-5.102057e+001	-7.809986e+000	1.601674e+002
4380168600	-6.849352e+000	9.956419e+001	-1.460285e+001	-5.119658e+001	-1.454458e+001	-5.093180e+001	-7.869421e+000	1.600977e+002
4390168300	-6.994142e+000	9.869225e+001	-1.438577e+001	-5.103968e+001	-1.435192e+001	-5.084149e+001	-7.939694e+000	1.600872e+002
4400168000	-7.143774e+000	9.787838e+001	-1.414252e+001	-5.102422e+001	-1.411979e+001	-5.078537e+001	-8.003916e+000	1.602476e+002
4410167700	-7.316918e+000	9.699395e+001	-1.390401e+001	-5.117753e+001	-1.387688e+001	-5.098948e+001	-8.065059e+000	1.604811e+002
4420167400	-7.507115e+000	9.623932e+001	-1.365450e+001	-5.160530e+001	-1.364115e+001	-5.148978e+001	-8.095707e+000	1.607107e+002
4430167100	-7.702547e+000	9.553737e+001	-1.343484e+001	-5.227825e+001	-1.343513e+001	-5.208821e+001	-8.109265e+000	1.609191e+002
4440166800	-7.906068e+000	9.484736e+001	-1.324541e+001	-5.296765e+001	-1.324351e+001	-5.270511e+001	-8.099408e+000	1.610047e+002
4450166500	-8.120405e+000	9.429183e+001	-1.307165e+001	-5.355800e+001	-1.306791e+001	-5.345326e+001	-8.108198e+000	1.610296e+002
4460166200	-8.336071e+000	9.374454e+001	-1.291707e+001	-5.409359e+001	-1.291328e+001	-5.401650e+001	-8.107911e+000	1.610144e+002
4470165900	-8.550066e+000	9.320019e+001	-1.275480e+001	-5.463568e+001	-1.274787e+001	-5.452842e+001	-8.116415e+000	1.610529e+002
4480165600	-8.798478e+000	9.263485e+001	-1.258464e+001	-5.514568e+001	-1.256847e+001	-5.525668e+001	-8.139257e+000	1.611360e+002
4490165300	-9.054158e+000	9.207239e+001	-1.242365e+001	-5.588288e+001	-1.238558e+001	-5.593696e+001	-8.138920e+000	1.613077e+002
4500165000	-9.327962e+000	9.165206e+001	-1.225507e+001	-5.659376e+001	-1.221851e+001	-5.651780e+001	-8.133591e+000	1.614268e+002
4510164700	-9.608761e+000	9.128383e+001	-1.212209e+001	-5.731283e+001	-1.206517e+001	-5.723787e+001	-8.125889e+000	1.614990e+002
4520164400	-9.902718e+000	9.089763e+001	-1.199246e+001	-5.801164e+001	-1.194957e+001	-5.785017e+001	-8.122903e+000	1.616927e+002
4530164100	-1.019297e+001	9.063198e+001	-1.186591e+001	-5.874345e+001	-1.184252e+001	-5.853671e+001	-8.113643e+000	1.618774e+002
4540163800	-1.048471e+001	9.036765e+001	-1.175992e+001	-5.940779e+001	-1.173245e+001	-5.926636e+001	-8.115156e+000	1.620011e+002
4550163500	-1.078674e+001	9.018466e+001	-1.165678e+001	-5.999619e+001	-1.163151e+001	-5.998362e+001	-8.118580e+000	1.620905e+002
4560163200	-1.109670e+001	9.011907e+001	-1.154928e+001	-6.079268e+001	-1.153908e+001	-6.066678e+001	-8.127958e+000	1.620614e+002
4570162900	-1.139833e+001	9.012021e+001	-1.145684e+001	-6.133148e+001	-1.144973e+001	-6.123987e+001	-8.130071e+000	1.620406e+002
4580162600	-1.168893e+001	9.013391e+001	-1.137421e+001	-6.191043e+001	-1.136445e+001	-6.176401e+001	-8.157524e+000	1.619267e+002
4590162300	-1.197370e+001	9.014553e+001	-1.127467e+001	-6.219610e+001	-1.127568e+001	-6.215134e+001	-8.187319e+000	1.619375e+002
4600162000	-1.225099e+001	9.001157e+001	-1.115756e+001	-6.255184e+001	-1.115462e+001	-6.251014e+001	-8.233738e+000	1.620127e+002
4610161700	-1.258223e+001	8.988270e+001	-1.099849e+001	-6.301955e+001	-1.101157e+001	-6.297965e+001	-8.267411e+000	1.622585e+002
4620161400	-1.295953e+001	8.965441e+001	-1.083892e+001	-6.358826e+001	-1.084501e+001	-6.359225e+001	-8.277646e+000	1.627152e+002
4630161100	-1.338249e+001	8.967933e+001	-1.067868e+001	-6.429477e+001	-1.067115e+001	-6.438273e+001	-8.252944e+000	1.631760e+002
4640160800	-1.386618e+001	8.996525e+001	-1.053429e+001	-6.524808e+001	-1.051118e+001	-6.519758e+001	-8.209467e+000	1.635852e+002
4650160500	-1.438111e+001	9.076576e+001	-1.041066e+001	-6.630816e+001	-1.037649e+001	-6.627515e+001	-8.147481e+000	1.638988e+002
4660160200	-1.490318e+001	9.180512e+001	-1.031399e+001	-6.738764e+001	-1.028193e+001	-6.723704e+001	-8.079715e+000	1.641526e+002
4670159900	-1.543949e+001	9.310747e+001	-1.022026e+001	-6.835178e+001	-1.019948e+001	-6.821593e+001	-8.017381e+000	1.642780e+002
4680159600	-1.597497e+001	9.488584e+001	-1.015249e+001	-6.932835e+001	-1.012676e+001	-6.915818e+001	-7.962747e+000	1.643733e+002
4690159300	-1.651942e+001	9.681306e+001	-1.010025e+001	-7.019826e+001	-1.007495e+001	-7.004005e+001	-7.923195e+000	1.644442e+002
4700159000	-1.703356e+001	9.894993e+001	-1.002794e+001	-7.101226e+001	-1.001345e+001	-7.089333e+001	-7.903066e+000	1.645435e+002
4710158700	-1.759732e+001	1.014530e+002	-9.956066e+000	-7.182174e+001	-9.941742e+000	-7.175828e+001	-7.887265e+000	1.646221e+002
4720158400	-1.816190e+001	1.043461e+002	-9.874680e+000	-7.277890e+001	-9.872207e+000	-7.265101e+001	-7.866992e+000	1.648082e+002
4730158100	-1.869484e+001	1.083002e+002	-9.811697e+000	-7.363517e+001	-9.805383e+000	-7.368748e+001	-7.834728e+000	1.649629e+002
4740157800	-1.915004e+001	1.126844e+002	-9.755715e+000	-7.471963e+001	-9.767251e+000	-7.465004e+001	-7.789404e+000	1.649744e+002
4750157500	-1.951043e+001	1.175418e+002	-9.727561e+000	-7.559165e+001	-9.730705e+000	-7.558690e+001	-7.745303e+000	1.649560e+002
4760157200	-1.970370e+001	1.229335e+002	-9.697538e+000	-7.650697e+001	-9.703761e+000	-7.648595e+001	-7.717243e+000	1.649256e+002
4770156900	-1.979929e+001	1.283240e+002	-9.676558e+000	-7.730435e+001	-9.677480e+000	-7.732522e+001	-7.689642e+000	1.647763e+002
4780156600	-1.978458e+001	1.336124e+002	-9.660799e+000	-7.806897e+001	-9.650438e+000	-7.810449e+001	-7.650481e+000	1.647917e+002
4790156300	-1.966079e+001	1.383315e+002	-9.639594e+000	-7.871421e+001	-9.632597e+000	-7.881285e+001	-7.609317e+000	1.647084e+002
4800156000	-1.944280e+001	1.426826e+002	-9.645717e+000	-7.924176e+001	-9.612925e+000	-7.920850e+001	-7.578656e+000	1.645580e+002
4810155700	-1.926487e+001	1.463248e+002	-9.618796e+000	-7.966485e+001	-9.581440e+000	-7.955274e+001	-7.568966e+000	1.645422e+002
4820155400	-1.917948e+001	1.496019e+002	-9.535327e+000	-7.997009e+001	-9.518447e+000	-7.985399e+001	-7.575202e+000	1.648551e+002
4830155100	-1.913248e+001	1.539201e+002	-9.446439e+000	-8.059671e+001	-9.417858e+000	-8.051092e+001	-7.532477e+000	1.652520e+002
4840154800	-1.895375e+001	1.587218e+002	-9.350789e+000	-8.146243e+001	-9.323558e+000	-8.132345e+001	-7.455847e+000	1.655730e+002
4850154500	-1.866922e+001	1.632158e+002	-9.294625e+000	-8.242457e+001	-9.274668e+000	-8.231896e+001	-7.383006e+000	1.656760e+002
4860154200	-1.829362e+001	1.670512e+002	-9.245222e+000	-8.321288e+001	-9.231065e+000	-8.321099e+001	-7.334143e+000	1.657788e+002
4870153900	-1.788333e+001	1.707225e+002	-9.178354e+000	-8.410479e+001	-9.176788e+000	-8.407876e+001	-7.290152e+000	1.659473e+002
4880153600	-1.742377e+001	1.739817e+002	-9.127715e+000	-8.510227e+001	-9.116928e+000	-8.508078e+001	-7.225387e+000	1.661015e+002
4890153300	-1.691594e+001	1.764942e+002	-9.089571e+000	-8.615071e+001	-9.096072e+000	-8.613512e+001	-7.146086e+000	1.661562e+002
4900153000	-1.640370e+001	1.784245e+002	-9.080348e+000	-8.711654e+001	-9.082489e+000	-8.719978e+001	-7.070013e+000	1.660304e+002
4910152700	-1.590875e+001	1.799546e+002	-9.078315e+000	-8.805931e+001	-9.080386e+000	-8.815796e+001	-7.006484e+000	1.658335e+002
4920152400	-1.546866e+001	-1.789987e+002	-9.073080e+000	-8.895130e+001	-9.082790e+000	-8.905219e+001	-6.948921e+000	1.655380e+002
4930152100	-1.503158e+001	-1.780793e+002	-9.081952e+000	-8.975135e+001	-9.067052e+000	-8.982307e+001	-6.912733e+000	1.652417e+002
4940151800	-1.461834e+001	-1.772149e+002	-9.075190e+000	-9.054682e+001	-9.061373e+000	-9.060786e+001	-6.876638e+000	1.650080e+002
4950151500	-1.419530e+001	-1.765079e+002	-9.074136e+000	-9.138972e+001	-9.045223e+000	-9.143842e+001	-6.832464e+000	1.648852e+002
4960151200	-1.377675e+001	-1.760560e+002	-9.075227e+000	-9.226919e+001	-9.047332e+000	-9.216852e+001	-6.790070e+000	1.647394e+002
4970150900	-1.339209e+001	-1.758314e+002	-9.091414e+000	-9.302621e+001	-9.068926e+000	-9.291626e+001	-6.752281e+000	1.644983e+002
4980150600	-1.302946e+001	-1.757642e+002	-9.119068e+000	-9.379161e+001	-9.096847e+000	-9.358239e+001	-6.727316e+000	1.643892e+002
4990150300	-1.270577e+001	-1.757964e+002	-9.146590e+000	-9.437558e+001	-9.115525e+000	-9.422618e+001	-6.706357e+000	1.643506e+002
5000150000	-1.241570e+001	-1.757771e+002	-9.156025e+000	-9.491552e+001	-9.125429e+000	-9.480561e+001	-6.665938e+000	1.644826e+002
5010149700	-1.215016e+001	-1.758097e+002	-9.163595e+000	-9.554186e+001	-9.133082e+000	-9.545465e+001	-6.616330e+000	1.645390e+002
5020149400	-1.192002e+001	-1.759114e+002	-9.173220e+000	-9.613291e+001	-9.148772e+000	-9.606711e+001	-6.573764e+000	1.644941e+002
5030149100	-1.171403e+001	-1.759950e+002	-9.193619e+000	-9.655963e+001	-9.169717e+000	-9.658894e+001	-6.540779e+000	1.643507e+002
5040148800	-1.155696e+001	-1.759445e+002	-9.170978e+000	-9.688145e+001	-9.150511e+000	-9.690383e+001	-6.532918e+000	1.644362e+002
5050148500	-1.139129e+001	-1.754328e+002	-9.103885e+000	-9.738095e+001	-9.103096e+000	-9.742073e+001	-6.487120e+000	1.646575e+002
5060148200	-1.115589e+001	-1.750023e+002	-9.058205e+000	-9.826244e+001	-9.040191e+000	-9.829993e+001	-6.405213e+000	1.646982e+002
5070147900	-1.090004e+001	-1.747478e+002	-9.039602e+000	-9.915577e+001	-9.026191e+000	-9.931855e+001	-6.322082e+000	1.645549e+002
5080147600	-1.065863e+001	-1.748079e+002	-9.036382e+000	-1.001313e+002	-9.032938e+000	-1.002759e+002	-6.261224e+000	1.643278e+002
5090147300	-1.042902e+001	-1.749852e+002	-9.061765e+000	-1.009367e+002	-9.039056e+000	-1.010255e+002	-6.210775e+000	1.639834e+002
5100147000	-1.021823e+001	-1.751697e+002	-9.068218e+000	-1.016845e+002	-9.047820e+000	-1.017925e+002	-6.159210e+000	1.636529e+002
5110146700	-1.000240e+001	-1.753294e+002	-9.092331e+000	-1.023937e+002	-9.060596e+000	-1.023857e+002	-6.129122e+000	1.634601e+002
5120146400	-9.786106e+000	-1.755142e+002	-9.100210e+000	-1.031027e+002	-9.071312e+000	-1.030976e+002	-6.077255e+000	1.633101e+002
5130146100	-9.590673e+000	-1.757405e+002	-9.119413e+000	-1.039043e+002	-9.079282e+000	-1.037875e+002	-6.035599e+000	1.630975e+002
5140145800	-9.375443e+000	-1.760277e+002	-9.137994e+000	-1.046718e+002	-9.098054e+000	-1.045334e+002	-5.981807e+000	1.629766e+002
5150145500	-9.166969e+000	-1.763490e+002	-9.172294e+000	-1.054594e+002	-9.133801e+000	-1.053372e+002	-5.930620e+000	1.626964e+002
5160145200	-8.992036e+000	-1.767192e+002	-9.213646e+000	-1.061821e+002	-9.185068e+000	-1.061009e+002	-5.892303e+000	1.623878e+002
5170144900	-8.828748e+000	-1.770411e+002	-9.264991e+000	-1.068971e+002	-9.236243e+000	-1.067050e+002	-5.860562e+000	1.621008e+002
5180144600	-8.671848e+000	-1.774481e+002	-9.313904e+000	-1.074721e+002	-9.284089e+000	-1.073232e+002	-5.851972e+000	1.617805e+002
5190144300	-8.522000e+000	-1.777879e+002	-9.364858e+000	-1.079199e+002	-9.337897e+000	-1.078919e+002	-5.854941e+000	1.615822e+002
5200144000	-8.394960e+000	-1.781715e+002	-9.418181e+000	-1.082802e+002	-9.378747e+000	-1.082358e+002	-5.876915e+000	1.614158e+002
5210143700	-8.286582e+000	-1.784909e+002	-9.416800e+000	-1.085367e+002	-9.389595e+000	-1.085225e+002	-5.890387e+000	1.616298e+002
5220143400	-8.180110e+000	-1.787182e+002	-9.403098e+000	-1.089664e+002	-9.382916e+000	-1.090831e+002	-5.845126e+000	1.619239e+002
5230143100	-8.049988e+000	-1.789978e+002	-9.390965e+000	-1.096786e+002	-9.380619e+000	-1.097920e+002	-5.776661e+000	1.619073e+002
5240142800	-7.915469e+000	-1.793411e+002	-9.409773e+000	-1.104634e+002	-9.396101e+000	-1.106044e+002	-5.701657e+000	1.617120e+002
5250142500	-7.798144e+000	-1.797781e+002	-9.456203e+000	-1.111347e+002	-9.441880e+000	-1.112767e+002	-5.659355e+000	1.614047e+002
5260142200	-7.707428e+000	1.797801e+002	-9.513736e+000	-1.115768e+002	-9.485695e+000	-1.116850e+002	-5.649756e+000	1.610677e+002
5270141900	-7.641519e+000	1.793502e+002	-9.544629e+000	-1.119350e+002	-9.513816e+000	-1.119540e+002	-5.641317e+000	1.609120e+002
5280141600	-7.574209e+000	1.792619e+002	-9.535919e+000	-1.121413e+002	-9.501581e+000	-1.121237e+002	-5.619302e+000	1.610042e+002
5290141300	-7.460925e+000	1.792909e+002	-9.498514e+000	-1.126561e+002	-9.457040e+000	-1.125963e+002	-5.568190e+000	1.610412e+002
5300141000	-7.320191e+000	1.791676e+002	-9.490298e+000	-1.135301e+002	-9.451770e+000	-1.133752e+002	-5.499343e+000	1.609532e+002
5310140700	-7.189876e+000	1.789009e+002	-9.510723e+000	-1.143677e+002	-9.478381e+000	-1.142517e+002	-5.440078e+000	1.606834e+002
5320140400	-7.062707e+000	1.784929e+002	-9.551303e+000	-1.151886e+002	-9.524157e+000	-1.149427e+002	-5.395895e+000	1.603329e+002
5330140100	-6.960440e+000	1.781767e+002	-9.617257e+000	-1.157507e+002	-9.582840e+000	-1.156530e+002	-5.376471e+000	1.600376e+002
5340139800	-6.854737e+000	1.779052e+002	-9.644204e+000	-1.163184e+002	-9.617394e+000	-1.162205e+002	-5.347754e+000	1.597971e+002
5350139500	-6.759689e+000	1.776556e+002	-9.700656e+000	-1.169084e+002	-9.649625e+000	-1.168598e+002	-5.324149e+000	1.596052e+002
5360139200	-6.656425e+000	1.773160e+002	-9.736072e+000	-1.175999e+002	-9.683402e+000	-1.175124e+002	-5.297320e+000	1.593508e+002
5370138900	-6.556021e+000	1.769568e+002	-9.780476e+000	-1.181954e+002	-9.748045e+000	-1.181124e+002	-5.281525e+000	1.590818e+002
5380138600	-6.477446e+000	1.765883e+002	-9.857456e+000	-1.187276e+002	-9.815029e+000	-1.186900e+002	-5.276085e+000	1.587577e+002
5390138300	-6.397514e+000	1.762454e+002	-9.911724e+000	-1.191861e+002	-9.893812e+000	-1.193804e+002	-5.264660e+000	1.586346e+002
5400138000	-6.331358e+000	1.758730e+002	-9.964014e+000	-1.195816e+002	-9.941923e+000	-1.199037e+002	-5.257446e+000	1.583552e+002
5410137700	-6.251271e+000	1.754488e+002	-1.003950e+001	-1.201542e+002	-9.998006e+000	-1.203309e+002	-5.240974e+000	1.581301e+002
5420137400	-6.194481e+000	1.750097e+002	-1.010236e+001	-1.205337e+002	-1.006693e+001	-1.206079e+002	-5.240345e+000	1.578584e+002
5430137100	-6.140931e+000	1.746895e+002	-1.017546e+001	-1.206935e+002	-1.013436e+001	-1.208709e+002	-5.264931e+000	1.575936e+002
5440136800	-6.103713e+000	1.742339e+002	-1.023293e+001	-1.207335e+002	-1.019510e+001	-1.208131e+002	-5.293817e+000	1.575241e+002
5450136500	-6.080101e+000	1.740915e+002	-1.024401e+001	-1.205348e+002	-1.019990e+001	-1.205420e+002	-5.340565e+000	1.577604e+002
5460136200	-6.022490e+000	1.741355e+002	-1.017705e+001	-1.207596e+002	-1.013913e+001	-1.206030e+002	-5.324868e+000	1.582984e+002
5470135900	-5.936877e+000	1.740516e+002	-1.012295e+001	-1.215238e+002	-1.008412e+001	-1.213319e+002	-5.241696e+000	1.585673e+002
5480135600	-5.836408e+000	1.736945e+002	-1.014840e+001	-1.224894e+002	-1.011697e+001	-1.223225e+002	-5.164913e+000	1.582837e+002
5490135300	-5.768601e+000	1.732914e+002	-1.021221e+001	-1.232030e+002	-1.019254e+001	-1.230569e+002	-5.119563e+000	1.579666e+002
5500135000	-5.715871e+000	1.728946e+002	-1.029977e+001	-1.236337e+002	-1.026224e+001	-1.234936e+002	-5.111517e+000	1.576477e+002
5510134700	-5.685005e+000	1.726346e+002	-1.036303e+001	-1.237992e+002	-1.031077e+001	-1.236866e+002	-5.112958e+000	1.574876e+002
5520134400	-5.657005e+000	1.725328e+002	-1.038099e+001	-1.239672e+002	-1.033503e+001	-1.239207e+002	-5.113529e+000	1.574851e+002
5530134100	-5.602748e+000	1.725312e+002	-1.036064e+001	-1.242988e+002	-1.032421e+001	-1.243483e+002	-5.092638e+000	1.575549e+002
5540133800	-5.525490e+000	1.724516e+002	-1.035316e+001	-1.251196e+002	-1.031416e+001	-1.250263e+002	-5.044281e+000	1.574250e+002
5550133500	-5.456993e+000	1.721948e+002	-1.039268e+001	-1.258291e+002	-1.034592e+001	-1.259121e+002	-4.992886e+000	1.571653e+002
5560133200	-5.387781e+000	1.718354e+002	-1.045363e+001	-1.265380e+002	-1.042945e+001	-1.267130e+002	-4.965142e+000	1.567800e+002
5570132900	-5.338840e+000	1.714851e+002	-1.054054e+001	-1.270592e+002	-1.050740e+001	-1.272709e+002	-4.962347e+000	1.563895e+002
5580132600	-5.298975e+000	1.711882e+002	-1.059602e+001	-1.274641e+002	-1.056531e+001	-1.275492e+002	-4.962847e+000	1.561647e+002
5590132300	-5.245318e+000	1.709699e+002	-1.066309e+001	-1.278685e+002	-1.059164e+001	-1.279798e+002	-4.947635e+000	1.559306e+002
5600132000	-5.191510e+000	1.706018e+002	-1.072083e+001	-1.284479e+002	-1.067688e+001	-1.284901e+002	-4.936100e+000	1.556897e+002
5610131700	-5.148126e+000	1.701650e+002	-1.082272e+001	-1.289194e+002	-1.078295e+001	-1.288911e+002	-4.939530e+000	1.553587e+002
5620131400	-5.115703e+000	1.698099e+002	-1.093220e+001	-1.291688e+002	-1.090066e+001	-1.291150e+002	-4.973315e+000	1.551187e+002
5630131100	-5.090097e+000	1.693807e+002	-1.105859e+001	-1.292688e+002	-1.100823e+001	-1.290962e+002	-5.016766e+000	1.549307e+002
5640130800	-5.087080e+000	1.690996e+002	-1.113801e+001	-1.289894e+002	-1.109985e+001	-1.288170e+002	-5.077538e+000	1.548702e+002
5650130500	-5.080945e+000	1.689954e+002	-1.117209e+001	-1.287564e+002	-1.113753e+001	-1.285501e+002	-5.125333e+000	1.550102e+002
5660130200	-5.052083e+000	1.689945e+002	-1.117753e+001	-1.287007e+002	-1.113594e+001	-1.286235e+002	-5.142565e+000	1.552041e+002
5670129900	-5.020386e+000	1.688207e+002	-1.118931e+001	-1.288529e+002	-1.114237e+001	-1.287985e+002	-5.136935e+000	1.552131e+002
5680129600	-5.005865e+000	1.686591e+002	-1.125796e+001	-1.288696e+002	-1.119342e+001	-1.287984e+002	-5.162096e+000	1.552007e+002
5690129300	-5.004883e+000	1.685530e+002	-1.126134e+001	-1.285588e+002	-1.121398e+001	-1.284688e+002	-5.211295e+000	1.554053e+002
5700129000	-4.991233e+000	1.687658e+002	-1.117997e+001	-1.281538e+002	-1.113287e+001	-1.281954e+002	-5.238693e+000	1.560161e+002
5710128700	-4.934046e+000	1.689880e+002	-1.105147e+001	-1.286689e+002	-1.100399e+001	-1.286637e+002	-5.163533e+000	1.565670e+002
5720128400	-4.851941e+000	1.688833e+002	-1.099773e+001	-1.298432e+002	-1.095050e+001	-1.299192e+002	-5.052359e+000	1.566012e+002
5730128100	-4.792037e+000	1.685162e+002	-1.106106e+001	-1.309214e+002	-1.101202e+001	-1.310331e+002	-4.975414e+000	1.562388e+002
5740127800	-4.764250e+000	1.680421e+002	-1.117208e+001	-1.315401e+002	-1.112013e+001	-1.316588e+002	-4.948345e+000	1.558218e+002
5750127500	-4.762576e+000	1.678186e+002	-1.126069e+001	-1.316562e+002	-1.120895e+001	-1.317016e+002	-4.955109e+000	1.555661e+002
5760127200	-4.755620e+000	1.677197e+002	-1.131139e+001	-1.316995e+002	-1.125517e+001	-1.316592e+002	-4.961043e+000	1.555479e+002
5770126900	-4.734393e+000	1.676714e+002	-1.131776e+001	-1.319313e+002	-1.127249e+001	-1.318270e+002	-4.954460e+000	1.555850e+002
5780126600	-4.686057e+000	1.675926e+002	-1.133909e+001	-1.323405e+002	-1.130383e+001	-1.322693e+002	-4.950420e+000	1.555618e+002
5790126300	-4.648322e+000	1.674087e+002	-1.139244e+001	-1.328186e+002	-1.134999e+001	-1.326828e+002	-4.936366e+000	1.554006e+002
5800126000	-4.606958e+000	1.671200e+002	-1.147244e+001	-1.332885e+002	-1.144662e+001	-1.332536e+002	-4.941778e+000	1.551086e+002
5810125700	-4.597091e+000	1.668941e+002	-1.158088e+001	-1.334379e+002	-1.154148e+001	-1.333552e+002	-4.980876e+000	1.548346e+002
5820125400	-4.583699e+000	1.667589e+002	-1.166095e+001	-1.333356e+002	-1.161079e+001	-1.332522e+002	-5.032030e+000	1.547237e+002
5830125100	-4.562062e+000	1.666171e+002	-1.170255e+001	-1.333607e+002	-1.164561e+001	-1.332912e+002	-5.047244e+000	1.547148e+002
5840124800	-4.547112e+000	1.663841e+002	-1.178476e+001	-1.334382e+002	-1.173022e+001	-1.334248e+002	-5.086191e+000	1.546307e+002
5850124500	-4.562174e+000	1.662611e+002	-1.188541e+001	-1.330265e+002	-1.183696e+001	-1.330535e+002	-5.161224e+000	1.545853e+002
5860124200	-4.586746e+000	1.662439e+002	-1.192921e+001	-1.322851e+002	-1.187325e+001	-1.321593e+002	-5.242153e+000	1.548434e+002
5870123900	-4.607207e+000	1.664054e+002	-1.187928e+001	-1.313264e+002	-1.182060e+001	-1.313957e+002	-5.304731e+000	1.554750e+002
5880123600	-4.606560e+000	1.667321e+002	-1.174895e+001	-1.308128e+002	-1.168128e+001	-1.309341e+002	-5.309227e+000	1.563195e+002
5890123300	-4.575168e+000	1.670903e+002	-1.157526e+001	-1.309658e+002	-1.151279e+001	-1.310882e+002	-5.252426e+000	1.570701e+002
5900123000	-4.505834e+000	1.673194e+002	-1.143414e+001	-1.315752e+002	-1.137009e+001	-1.316898e+002	-5.153043e+000	1.575231e+002
5910122700	-4.435378e+000	1.673877e+002	-1.137301e+001	-1.326296e+002	-1.131270e+001	-1.326546e+002	-5.046448e+000	1.576758e+002
5920122400	-4.385549e+000	1.672269e+002	-1.137133e+001	-1.334997e+002	-1.132765e+001	-1.334186e+002	-4.979015e+000	1.576258e+002
5930122100	-4.355652e+000	1.671047e+002	-1.139792e+001	-1.339356e+002	-1.136232e+001	-1.338489e+002	-4.964855e+000	1.576639e+002
5940121800	-4.316654e+000	1.670970e+002	-1.138981e+001	-1.342830e+002	-1.135710e+001	-1.342086e+002	-4.943965e+000	1.578343e+002
5950121500	-4.265330e+000	1.670603e+002	-1.137310e+001	-1.348092e+002	-1.132592e+001	-1.347662e+002	-4.897555e+000	1.579789e+002
5960121200	-4.212014e+000	1.668870e+002	-1.134494e+001	-1.356883e+002	-1.132163e+001	-1.355730e+002	-4.844929e+000	1.580002e+002
5970120900	-4.173273e+000	1.665994e+002	-1.139292e+001	-1.365827e+002	-1.137253e+001	-1.364896e+002	-4.794978e+000	1.577058e+002
5980120600	-4.144343e+000	1.662499e+002	-1.150406e+001	-1.372481e+002	-1.146686e+001	-1.371411e+002	-4.776156e+000	1.573290e+002
5990120300	-4.154559e+000	1.660136e+002	-1.161664e+001	-1.373749e+002	-1.158315e+001	-1.372329e+002	-4.796012e+000	1.570281e+002
6000120000	-4.166065e+000	1.660120e+002	-1.167193e+001	-1.371713e+002	-1.163032e+001	-1.370859e+002	-4.817302e+000	1.570100e+002
6010119700	-4.163110e+000	1.661027e+002	-1.168348e+001	-1.371591e+002	-1.162838e+001	-1.369690e+002	-4.838452e+000	1.570781e+002
6020119400	-4.137281e+000	1.662234e+002	-1.165888e+001	-1.371955e+002	-1.160820e+001	-1.370928e+002	-4.843913e+000	1.572623e+002
6030119100	-4.103904e+000	1.662734e+002	-1.163891e+001	-1.374650e+002	-1.157277e+001	-1.373284e+002	-4.828039e+000	1.574099e+002
6040118800	-4.070535e+000	1.662629e+002	-1.163774e+001	-1.378939e+002	-1.156504e+001	-1.378394e+002	-4.808230e+000	1.574328e+002
6050118500	-4.055809e+000	1.662340e+002	-1.165413e+001	-1.381004e+002	-1.160043e+001	-1.381423e+002	-4.802308e+000	1.575164e+002
6060118200	-4.036659e+000	1.661687e+002	-1.165681e+001	-1.383540e+002	-1.161606e+001	-1.382576e+002	-4.793961e+000	1.575789e+002
6070117900	-4.016304e+000	1.661709e+002	-1.166225e+001	-1.384353e+002	-1.162258e+001	-1.383407e+002	-4.772905e+000	1.578213e+002
6080117600	-3.996230e+000	1.661841e+002	-1.166169e+001	-1.385627e+002	-1.163535e+001	-1.383957e+002	-4.765461e+000	1.581331e+002
6090117300	-3.980475e+000	1.663050e+002	-1.162662e+001	-1.386151e+002	-1.159041e+001	-1.385248e+002	-4.749620e+000	1.585961e+002
6100117000	-3.950958e+000	1.663954e+002	-1.155125e+001	-1.388585e+002	-1.152496e+001	-1.387447e+002	-4.715621e+000	1.589732e+002
6110116700	-3.916078e+000	1.664427e+002	-1.149389e+001	-1.393846e+002	-1.146169e+001	-1.392773e+002	-4.656789e+000	1.591873e+002
6120116400	-3.860598e+000	1.664306e+002	-1.146062e+001	-1.400730e+002	-1.142935e+001	-1.399861e+002	-4.600091e+000	1.592056e+002
6130116100	-3.815537e+000	1.664085e+002	-1.144769e+001	-1.407898e+002	-1.141620e+001	-1.406515e+002	-4.556739e+000	1.591845e+002
6140115800	-3.771605e+000	1.663097e+002	-1.146081e+001	-1.414783e+002	-1.141631e+001	-1.413944e+002	-4.516213e+000	1.589745e+002
6150115500	-3.740036e+000	1.661676e+002	-1.148101e+001	-1.422132e+002	-1.143057e+001	-1.420567e+002	-4.490798e+000	1.587939e+002
6160115200	-3.706946e+000	1.660850e+002	-1.152410e+001	-1.428785e+002	-1.146806e+001	-1.426557e+002	-4.462111e+000	1.587077e+002
6170114900	-3.671804e+000	1.659343e+002	-1.154992e+001	-1.433146e+002	-1.149938e+001	-1.431904e+002	-4.446092e+000	1.586227e+002
6180114600	-3.642498e+000	1.658723e+002	-1.156829e+001	-1.438980e+002	-1.152441e+001	-1.437507e+002	-4.430252e+000	1.585700e+002
6190114300	-3.613554e+000	1.657439e+002	-1.160508e+001	-1.444901e+002	-1.153835e+001	-1.443676e+002	-4.397784e+000	1.584947e+002
6200114000	-3.580804e+000	1.656114e+002	-1.164152e+001	-1.449737e+002	-1.157032e+001	-1.449524e+002	-4.374426e+000	1.583386e+002
6210113700	-3.567101e+000	1.654089e+002	-1.168176e+001	-1.456120e+002	-1.162256e+001	-1.455565e+002	-4.362024e+000	1.581901e+002
6220113400	-3.541192e+000	1.652362e+002	-1.174312e+001	-1.460916e+002	-1.167915e+001	-1.459350e+002	-4.349581e+000	1.580930e+002
6230113100	-3.537070e+000	1.649716e+002	-1.181492e+001	-1.464855e+002	-1.176197e+001	-1.463056e+002	-4.334182e+000	1.579731e+002
6240112800	-3.547998e+000	1.648821e+002	-1.190221e+001	-1.467088e+002	-1.184430e+001	-1.465160e+002	-4.339123e+000	1.580247e+002
6250112500	-3.563675e+000	1.648424e+002	-1.194018e+001	-1.466227e+002	-1.190206e+001	-1.465497e+002	-4.355134e+000	1.582410e+002
6260112200	-3.562203e+000	1.649450e+002	-1.193579e+001	-1.466417e+002	-1.191796e+001	-1.465752e+002	-4.368412e+000	1.584496e+002
6270111900	-3.537704e+000	1.650579e+002	-1.193986e+001	-1.468645e+002	-1.190045e+001	-1.467263e+002	-4.357603e+000	1.586038e+002
6280111600	-3.509601e+000	1.650486e+002	-1.192684e+001	-1.472243e+002	-1.190660e+001	-1.471090e+002	-4.337580e+000	1.586750e+002
6290111300	-3.493657e+000	1.650400e+002	-1.195269e+001	-1.475616e+002	-1.192604e+001	-1.474080e+002	-4.332988e+000	1.586695e+002
6300111000	-3.471809e+000	1.651000e+002	-1.199179e+001	-1.478130e+002	-1.193858e+001	-1.477079e+002	-4.335918e+000	1.587191e+002
6310110700	-3.453514e+000	1.650784e+002	-1.197495e+001	-1.481401e+002	-1.193097e+001	-1.479561e+002	-4.329192e+000	1.587147e+002
6320110400	-3.427720e+000	1.650705e+002	-1.198806e+001	-1.484801e+002	-1.194625e+001	-1.482823e+002	-4.305867e+000	1.587962e+002
6330110100	-3.408211e+000	1.650692e+002	-1.199956e+001	-1.488997e+002	-1.195126e+001	-1.486486e+002	-4.293772e+000	1.588739e+002
6340109800	-3.379116e+000	1.650698e+002	-1.199585e+001	-1.492655e+002	-1.195319e+001	-1.490593e+002	-4.276613e+000	1.589384e+002
6350109500	-3.355228e+000	1.650225e+002	-1.200221e+001	-1.497268e+002	-1.195387e+001	-1.495201e+002	-4.252613e+000	1.589161e+002
6360109200	-3.331683e+000	1.649985e+002	-1.202523e+001	-1.501836e+002	-1.196077e+001	-1.501160e+002	-4.234863e+000	1.589144e+002
6370108900	-3.310049e+000	1.649242e+002	-1.204776e+001	-1.507330e+002	-1.198624e+001	-1.506407e+002	-4.208984e+000	1.588727e+002
6380108600	-3.291224e+000	1.649024e+002	-1.206675e+001	-1.511702e+002	-1.201735e+001	-1.510827e+002	-4.196982e+000	1.588871e+002
6390108300	-3.270689e+000	1.648204e+002	-1.209773e+001	-1.515935e+002	-1.204585e+001	-1.515243e+002	-4.166937e+000	1.589195e+002
6400108000	-3.247548e+000	1.647596e+002	-1.213359e+001	-1.520256e+002	-1.210398e+001	-1.519584e+002	-4.147225e+000	1.589904e+002
6410107700	-3.232577e+000	1.646486e+002	-1.216998e+001	-1.524565e+002	-1.213553e+001	-1.523032e+002	-4.140737e+000	1.590493e+002
6420107400	-3.211716e+000	1.645573e+002	-1.220513e+001	-1.528237e+002	-1.217360e+001	-1.527125e+002	-4.132998e+000	1.590738e+002
6430107100	-3.187180e+000	1.644489e+002	-1.223862e+001	-1.532204e+002	-1.221116e+001	-1.530922e+002	-4.123173e+000	1.591351e+002
6440106800	-3.173360e+000	1.643111e+002	-1.227353e+001	-1.535942e+002	-1.224451e+001	-1.534612e+002	-4.120259e+000	1.591088e+002
6450106500	-3.167900e+000	1.641855e+002	-1.230318e+001	-1.539447e+002	-1.228090e+001	-1.537571e+002	-4.112661e+000	1.590502e+002
6460106200	-3.157785e+000	1.640648e+002	-1.235674e+001	-1.542880e+002	-1.231812e+001	-1.540689e+002	-4.117263e+000	1.590118e+002
6470105900	-3.163506e+000	1.639300e+002	-1.239670e+001	-1.545963e+002	-1.235802e+001	-1.544250e+002	-4.116667e+000	1.589707e+002
6480105600	-3.168891e+000	1.638776e+002	-1.244226e+001	-1.548821e+002	-1.240138e+001	-1.547065e+002	-4.120406e+000	1.589589e+002
6490105300	-3.176468e+000	1.638584e+002	-1.249259e+001	-1.552080e+002	-1.243444e+001	-1.550178e+002	-4.132690e+000	1.589678e+002
6500105000	-3.181261e+000	1.639314e+002	-1.253380e+001	-1.553917e+002	-1.248689e+001	-1.552034e+002	-4.142288e+000	1.590748e+002
6510104700	-3.184642e+000	1.639751e+002	-1.257532e+001	-1.555946e+002	-1.251765e+001	-1.553520e+002	-4.148682e+000	1.592013e+002
6520104400	-3.184189e+000	1.640453e+002	-1.259136e+001	-1.556748e+002	-1.254037e+001	-1.555699e+002	-4.146791e+000	1.592934e+002
6530104100	-3.169830e+000	1.641958e+002	-1.259358e+001	-1.560359e+002	-1.254131e+001	-1.558018e+002	-4.130508e+000	1.593976e+002
6540103800	-3.156122e+000	1.642435e+002	-1.261862e+001	-1.562655e+002	-1.255190e+001	-1.559918e+002	-4.121682e+000	1.594931e+002
6550103500	-3.134835e+000	1.643241e+002	-1.262447e+001	-1.565575e+002	-1.258233e+001	-1.563516e+002	-4.096783e+000	1.596320e+002
6560103200	-3.111547e+000	1.643584e+002	-1.263422e+001	-1.568525e+002	-1.259297e+001	-1.567078e+002	-4.079936e+000	1.597850e+002
6570102900	-3.088828e+000	1.643523e+002	-1.264119e+001	-1.572758e+002	-1.261519e+001	-1.570651e+002	-4.066548e+000	1.598949e+002
6580102600	-3.064357e+000	1.643159e+002	-1.266206e+001	-1.576039e+002	-1.263554e+001	-1.575155e+002	-4.052267e+000	1.600067e+002
6590102300	-3.045626e+000	1.642369e+002	-1.269274e+001	-1.579568e+002	-1.266546e+001	-1.578565e+002	-4.044142e+000	1.600238e+002
6600102000	-3.027342e+000	1.641331e+002	-1.272706e+001	-1.583467e+002	-1.268691e+001	-1.582321e+002	-4.037049e+000	1.600558e+002
6610101700	-3.007250e+000	1.640758e+002	-1.276094e+001	-1.585872e+002	-1.272382e+001	-1.585354e+002	-4.035243e+000	1.600471e+002
6620101400	-2.995657e+000	1.639830e+002	-1.279318e+001	-1.588814e+002	-1.275846e+001	-1.587634e+002	-4.023180e+000	1.601074e+002
6630101100	-2.989585e+000	1.638555e+002	-1.282723e+001	-1.591793e+002	-1.280085e+001	-1.590866e+002	-4.022354e+000	1.601346e+002
6640100800	-2.987241e+000	1.637198e+002	-1.285979e+001	-1.594781e+002	-1.282904e+001	-1.592120e+002	-4.022416e+000	1.601879e+002
6650100500	-2.990913e+000	1.636255e+002	-1.289362e+001	-1.596366e+002	-1.286362e+001	-1.594560e+002	-4.016838e+000	1.602470e+002
6660100200	-3.003287e+000	1.635632e+002	-1.292212e+001	-1.597806e+002	-1.287724e+001	-1.596707e+002	-4.003160e+000	1.603364e+002
6670099900	-3.014999e+000	1.635156e+002	-1.293269e+001	-1.599932e+002	-1.288321e+001	-1.597937e+002	-4.001878e+000	1.603975e+002
6680099600	-3.037056e+000	1.635484e+002	-1.293865e+001	-1.602573e+002	-1.288773e+001	-1.599802e+002	-3.995479e+000	1.604427e+002
6690099300	-3.048139e+000	1.636156e+002	-1.294283e+001	-1.605082e+002	-1.288349e+001	-1.603651e+002	-3.981048e+000	1.604516e+002
6700099000	-3.060266e+000	1.637074e+002	-1.295198e+001	-1.608379e+002	-1.290876e+001	-1.606636e+002	-3.969161e+000	1.604769e+002
6710098700	-3.064592e+000	1.638287e+002	-1.295972e+001	-1.613147e+002	-1.292282e+001	-1.612217e+002	-3.961515e+000	1.605944e+002
6720098400	-3.054088e+000	1.639172e+002	-1.297703e+001	-1.617610e+002	-1.294137e+001	-1.616374e+002	-3.958092e+000	1.607169e+002
6730098100	-3.044292e+000	1.639654e+002	-1.301666e+001	-1.622287e+002	-1.297859e+001	-1.619915e+002	-3.961946e+000	1.608131e+002
6740097800	-3.030725e+000	1.640028e+002	-1.307083e+001	-1.626257e+002	-1.302430e+001	-1.624907e+002	-3.957974e+000	1.608913e+002
6750097500	-3.022913e+000	1.639860e+002	-1.311492e+001	-1.629273e+002	-1.309647e+001	-1.627658e+002	-3.967722e+000	1.609823e+002
6760097200	-3.020474e+000	1.639739e+002	-1.317030e+001	-1.630554e+002	-1.313251e+001	-1.628773e+002	-3.968927e+000	1.610922e+002
6770096900	-3.025922e+000	1.639852e+002	-1.320048e+001	-1.631414e+002	-1.317812e+001	-1.629277e+002	-3.967706e+000	1.611856e+002
6780096600	-3.022983e+000	1.641583e+002	-1.320765e+001	-1.631153e+002	-1.318011e+001	-1.629625e+002	-3.963447e+000	1.612862e+002
6790096300	-3.015728e+000	1.642949e+002	-1.320935e+001	-1.632747e+002	-1.317507e+001	-1.631134e+002	-3.953989e+000	1.613656e+002
6800096000	-2.993863e+000	1.643965e+002	-1.319710e+001	-1.635836e+002	-1.317243e+001	-1.634178e+002	-3.942245e+000	1.614430e+002
6810095700	-2.962218e+000	1.644805e+002	-1.320901e+001	-1.639702e+002	-1.318062e+001	-1.637742e+002	-3.930542e+000	1.615756e+002
6820095400	-2.942795e+000	1.644670e+002	-1.322472e+001	-1.642476e+002	-1.320072e+001	-1.640929e+002	-3.923908e+000	1.616368e+002
6830095100	-2.933348e+000	1.643860e+002	-1.326267e+001	-1.645130e+002	-1.321885e+001	-1.642977e+002	-3.917626e+000	1.617348e+002
6840094800	-2.936508e+000	1.643296e+002	-1.326016e+001	-1.647440e+002	-1.323062e+001	-1.645273e+002	-3.910520e+000	1.618063e+002
6850094500	-2.944555e+000	1.643192e+002	-1.327252e+001	-1.649985e+002	-1.324084e+001	-1.647307e+002	-3.895104e+000	1.618298e+002
6860094200	-2.963538e+000	1.643771e+002	-1.327242e+001	-1.652700e+002	-1.323226e+001	-1.650205e+002	-3.882308e+000	1.618917e+002
6870093900	-2.974391e+000	1.644663e+002	-1.326227e+001	-1.656561e+002	-1.323943e+001	-1.653965e+002	-3.872933e+000	1.619890e+002
6880093600	-2.986986e+000	1.645594e+002	-1.326420e+001	-1.659950e+002	-1.322955e+001	-1.658070e+002	-3.867147e+000	1.621136e+002
6890093300	-2.981091e+000	1.647013e+002	-1.327087e+001	-1.663867e+002	-1.323482e+001	-1.663215e+002	-3.855740e+000	1.621948e+002
6900093000	-2.980954e+000	1.648151e+002	-1.328661e+001	-1.668359e+002	-1.324840e+001	-1.667011e+002	-3.853412e+000	1.622504e+002
6910092700	-2.973932e+000	1.649187e+002	-1.330192e+001	-1.673607e+002	-1.328236e+001	-1.671352e+002	-3.856084e+000	1.623184e+002
6920092400	-2.969818e+000	1.650173e+002	-1.331650e+001	-1.677379e+002	-1.328739e+001	-1.675827e+002	-3.854730e+000	1.623698e+002
6930092100	-2.950050e+000	1.650868e+002	-1.334809e+001	-1.682075e+002	-1.331405e+001	-1.680388e+002	-3.859276e+000	1.624345e+002
6940091800	-2.943808e+000	1.651606e+002	-1.336855e+001	-1.685749e+002	-1.333858e+001	-1.683839e+002	-3.861865e+000	1.624973e+002
6950091500	-2.925382e+000	1.652255e+002	-1.340334e+001	-1.689698e+002	-1.337842e+001	-1.688302e+002	-3.863563e+000	1.625993e+002
6960091200	-2.908051e+000	1.652647e+002	-1.344298e+001	-1.693642e+002	-1.341780e+001	-1.692861e+002	-3.861553e+000	1.626656e+002
6970090900	-2.897838e+000	1.653011e+002	-1.348891e+001	-1.696896e+002	-1.345088e+001	-1.695930e+002	-3.854702e+000	1.627904e+002
6980090600	-2.887120e+000	1.653215e+002	-1.353440e+001	-1.700686e+002	-1.350458e+001	-1.698161e+002	-3.862259e+000	1.628937e+002
6990090300	-2.880896e+000	1.653650e+002	-1.357576e+001	-1.702226e+002	-1.353340e+001	-1.700082e+002	-3.857469e+000	1.630342e+002
7000090000	-2.872767e+000	1.654011e+002	-1.360013e+001	-1.703279e+002	-1.354555e+001	-1.701481e+002	-3.848327e+000	1.632101e+002
7010089700	-2.874916e+000	1.654847e+002	-1.361740e+001	-1.706481e+002	-1.357621e+001	-1.703363e+002	-3.842982e+000	1.633178e+002
7020089400	-2.875695e+000	1.656085e+002	-1.363632e+001	-1.708356e+002	-1.359159e+001	-1.705179e+002	-3.837432e+000	1.634098e+002
7030089100	-2.871262e+000	1.656829e+002	-1.364970e+001	-1.710374e+002	-1.360687e+001	-1.708752e+002	-3.823853e+000	1.634706e+002
7040088800	-2.866939e+000	1.658054e+002	-1.365112e+001	-1.713323e+002	-1.361280e+001	-1.711679e+002	-3.808025e+000	1.636314e+002
7050088500	-2.857758e+000	1.658964e+002	-1.366157e+001	-1.716665e+002	-1.361768e+001	-1.715229e+002	-3.797556e+000	1.637773e+002
7060088200	-2.848272e+000	1.659225e+002	-1.366998e+001	-1.720145e+002	-1.362426e+001	-1.719058e+002	-3.788695e+000	1.638832e+002
7070087900	-2.840814e+000	1.659799e+002	-1.367993e+001	-1.723858e+002	-1.364220e+001	-1.722866e+002	-3.786943e+000	1.639204e+002
7080087600	-2.834642e+000	1.660202e+002	-1.369121e+001	-1.727824e+002	-1.366230e+001	-1.726146e+002	-3.792604e+000	1.640102e+002
7090087300	-2.828796e+000	1.660625e+002	-1.371020e+001	-1.731074e+002	-1.367611e+001	-1.730202e+002	-3.786987e+000	1.641054e+002
7100087000	-2.827920e+000	1.660876e+002	-1.373158e+001	-1.734197e+002	-1.370498e+001	-1.732894e+002	-3.790179e+000	1.641807e+002
7110086700	-2.820230e+000	1.661389e+002	-1.374378e+001	-1.737182e+002	-1.370919e+001	-1.736616e+002	-3.784818e+000	1.642337e+002
7120086400	-2.815615e+000	1.662288e+002	-1.375090e+001	-1.741262e+002	-1.371328e+001	-1.740538e+002	-3.784982e+000	1.643347e+002
7130086100	-2.806293e+000	1.663313e+002	-1.377340e+001	-1.745536e+002	-1.373554e+001	-1.744079e+002	-3.782217e+000	1.644646e+002
7140085800	-2.799286e+000	1.664154e+002	-1.379634e+001	-1.749919e+002	-1.375947e+001	-1.748868e+002	-3.781505e+000	1.645702e+002
7150085500	-2.787857e+000	1.665100e+002	-1.382569e+001	-1.753791e+002	-1.379603e+001	-1.752929e+002	-3.782970e+000	1.646894e+002
7160085200	-2.783334e+000	1.666362e+002	-1.385883e+001	-1.757752e+002	-1.380923e+001	-1.755438e+002	-3.777309e+000	1.648167e+002
7170084900	-2.769273e+000	1.666781e+002	-1.388489e+001	-1.761340e+002	-1.384196e+001	-1.758700e+002	-3.776007e+000	1.649825e+002
7180084600	-2.764387e+000	1.667711e+002	-1.392096e+001	-1.765601e+002	-1.387665e+001	-1.763038e+002	-3.775605e+000	1.650950e+002
7190084300	-2.753934e+000	1.668347e+002	-1.396146e+001	-1.769038e+002	-1.390751e+001	-1.767485e+002	-3.767078e+000	1.651665e+002
7200084000	-2.749146e+000	1.668945e+002	-1.398526e+001	-1.771572e+002	-1.394164e+001	-1.770643e+002	-3.754728e+000	1.652937e+002
7210083700	-2.738638e+000	1.669366e+002	-1.402316e+001	-1.775038e+002	-1.396820e+001	-1.773471e+002	-3.738917e+000	1.654382e+002
7220083400	-2.736691e+000	1.669956e+002	-1.404814e+001	-1.777345e+002	-1.400204e+001	-1.776448e+002	-3.731625e+000	1.655398e+002
7230083100	-2.728197e+000	1.670049e+002	-1.406519e+001	-1.780551e+002	-1.402296e+001	-1.778837e+002	-3.725353e+000	1.656901e+002
7240082800	-2.721650e+000	1.670989e+002	-1.408682e+001	-1.782563e+002	-1.405408e+001	-1.781931e+002	-3.721356e+000	1.657896e+002
7250082500	-2.714947e+000	1.671492e+002	-1.409873e+001	-1.785482e+002	-1.407251e+001	-1.784367e+002	-3.715784e+000	1.658715e+002
7260082200	-2.710618e+000	1.671960e+002	-1.411973e+001	-1.788972e+002	-1.409428e+001	-1.788306e+002	-3.714007e+000	1.659882e+002
7270081900	-2.705765e+000	1.672983e+002	-1.415516e+001	-1.792134e+002	-1.411491e+001	-1.791201e+002	-3.706932e+000	1.660538e+002
7280081600	-2.693111e+000	1.673284e+002	-1.417075e+001	-1.795935e+002	-1.413449e+001	-1.794693e+002	-3.707293e+000	1.661799e+002
7290081300	-2.685833e+000	1.673988e+002	-1.419635e+001	-1.798864e+002	-1.415821e+001	-1.798105e+002	-3.706346e+000	1.662795e+002
7300081000	-2.681663e+000	1.674529e+002	-1.421295e+001	1.797695e+002	-1.416356e+001	1.798687e+002	-3.699611e+000	1.664318e+002
7310080700	-2.675048e+000	1.675590e+002	-1.423372e+001	1.794945e+002	-1.419533e+001	1.794902e+002	-3.697443e+000	1.665504e+002
7320080400	-2.673324e+000	1.676665e+002	-1.426085e+001	1.792698e+002	-1.420042e+001	1.793899e+002	-3.694974e+000	1.667636e+002
7330080100	-2.665109e+000	1.677707e+002	-1.426722e+001	1.787437e+002	-1.422362e+001	1.790132e+002	-3.693857e+000	1.668762e+002
7340079800	-2.660195e+000	1.678566e+002	-1.429492e+001	1.784041e+002	-1.426232e+001	1.786457e+002	-3.695838e+000	1.670264e+002
7350079500	-2.650749e+000	1.679321e+002	-1.431913e+001	1.780402e+002	-1.428457e+001	1.782247e+002	-3.691017e+000	1.671414e+002
7360079200	-2.646421e+000	1.680210e+002	-1.434135e+001	1.777513e+002	-1.430409e+001	1.778771e+002	-3.682454e+000	1.672558e+002
7370078900	-2.635265e+000	1.680690e+002	-1.436859e+001	1.774403e+002	-1.430954e+001	1.774423e+002	-3.657549e+000	1.673150e+002
7380078600	-2.636725e+000	1.681514e+002	-1.438504e+001	1.770602e+002	-1.432902e+001	1.771161e+002	-3.654508e+000	1.674010e+002
7390078300	-2.623891e+000	1.681985e+002	-1.439018e+001	1.766284e+002	-1.434787e+001	1.766972e+002	-3.647548e+000	1.675368e+002
7400078000	-2.622194e+000	1.682460e+002	-1.442720e+001	1.762107e+002	-1.437250e+001	1.762909e+002	-3.635713e+000	1.676361e+002
7410077700	-2.616654e+000	1.682645e+002	-1.443952e+001	1.758025e+002	-1.439701e+001	1.758653e+002	-3.640967e+000	1.677927e+002
7420077400	-2.603864e+000	1.682976e+002	-1.447056e+001	1.754819e+002	-1.443439e+001	1.755246e+002	-3.630992e+000	1.679310e+002
7430077100	-2.593351e+000	1.683743e+002	-1.450958e+001	1.750624e+002	-1.447023e+001	1.751375e+002	-3.624578e+000	1.680366e+002
7440076800	-2.583267e+000	1.684132e+002	-1.453801e+001	1.748641e+002	-1.449632e+001	1.747605e+002	-3.617890e+000	1.681713e+002
7450076500	-2.573341e+000	1.684625e+002	-1.457091e+001	1.744282e+002	-1.453149e+001	1.744587e+002	-3.609860e+000	1.682802e+002
7460076200	-2.570325e+000	1.684909e+002	-1.461154e+001	1.741389e+002	-1.455773e+001	1.742114e+002	-3.603117e+000	1.684136e+002
7470075900	-2.557452e+000	1.685706e+002	-1.464215e+001	1.739380e+002	-1.459902e+001	1.739059e+002	-3.595255e+000	1.685595e+002
7480075600	-2.551458e+000	1.686208e+002	-1.467244e+001	1.735488e+002	-1.463542e+001	1.737893e+002	-3.589640e+000	1.686977e+002
7490075300	-2.543537e+000	1.686875e+002	-1.471568e+001	1.732166e+002	-1.465690e+001	1.734644e+002	-3.590972e+000	1.688931e+002
7500075000	-2.533854e+000	1.687593e+002	-1.473541e+001	1.728129e+002	-1.467713e+001	1.730866e+002	-3.590314e+000	1.689828e+002
7510074700	-2.531131e+000	1.688525e+002	-1.474220e+001	1.724176e+002	-1.468228e+001	1.726467e+002	-3.584664e+000	1.691311e+002
7520074400	-2.534343e+000	1.689143e+002	-1.477002e+001	1.721726e+002	-1.471279e+001	1.722316e+002	-3.569281e+000	1.691404e+002
7530074100	-2.525717e+000	1.689667e+002	-1.479828e+001	1.718167e+002	-1.472780e+001	1.719500e+002	-3.543887e+000	1.691691e+002
7540073800	-2.527322e+000	1.690613e+002	-1.481172e+001	1.714010e+002	-1.475687e+001	1.715697e+002	-3.540474e+000	1.692475e+002
7550073500	-2.532017e+000	1.691066e+002	-1.483762e+001	1.711453e+002	-1.477603e+001	1.712908e+002	-3.541132e+000	1.693803e+002
7560073200	-2.523949e+000	1.691563e+002	-1.487096e+001	1.708120e+002	-1.479810e+001	1.709038e+002	-3.534483e+000	1.694696e+002
7570072900	-2.524881e+000	1.692531e+002	-1.487511e+001	1.705349e+002	-1.482367e+001	1.705665e+002	-3.529687e+000	1.696576e+002
7580072600	-2.511917e+000	1.693236e+002	-1.490500e+001	1.701753e+002	-1.484921e+001	1.701831e+002	-3.530416e+000	1.697740e+002
7590072300	-2.511755e+000	1.694391e+002	-1.493345e+001	1.698458e+002	-1.488766e+001	1.699067e+002	-3.524861e+000	1.699186e+002
7600072000	-2.498255e+000	1.694712e+002	-1.495540e+001	1.694057e+002	-1.490238e+001	1.694444e+002	-3.511251e+000	1.700703e+002
7610071700	-2.487050e+000	1.695376e+002	-1.498961e+001	1.691498e+002	-1.491846e+001	1.691385e+002	-3.498536e+000	1.701834e+002
7620071400	-2.468427e+000	1.695515e+002	-1.501011e+001	1.687558e+002	-1.493745e+001	1.687499e+002	-3.490776e+000	1.703313e+002
7630071100	-2.453159e+000	1.696412e+002	-1.503774e+001	1.683177e+002	-1.497409e+001	1.683600e+002	-3.480316e+000	1.704469e+002
7640070800	-2.442442e+000	1.696784e+002	-1.506394e+001	1.679300e+002	-1.503050e+001	1.681625e+002	-3.472448e+000	1.706151e+002
7650070500	-2.441746e+000	1.697732e+002	-1.510429e+001	1.676145e+002	-1.505781e+001	1.677718e+002	-3.470569e+000	1.707674e+002
7660070200	-2.430839e+000	1.698346e+002	-1.513751e+001	1.672086e+002	-1.507425e+001	1.674305e+002	-3.466155e+000	1.709014e+002
7670069900	-2.428584e+000	1.699413e+002	-1.517755e+001	1.668081e+002	-1.510525e+001	1.669585e+002	-3.466762e+000	1.709781e+002
7680069600	-2.419964e+000	1.699833e+002	-1.519854e+001	1.664810e+002	-1.512341e+001	1.665379e+002	-3.446664e+000	1.710212e+002
7690069300	-2.410708e+000	1.700872e+002	-1.523969e+001	1.661899e+002	-1.516984e+001	1.662404e+002	-3.425064e+000	1.710672e+002
7700069000	-2.408794e+000	1.701525e+002	-1.527822e+001	1.658618e+002	-1.518941e+001	1.659737e+002	-3.416984e+000	1.711453e+002
7710068700	-2.398338e+000	1.701788e+002	-1.530388e+001	1.656278e+002	-1.523132e+001	1.656258e+002	-3.415840e+000	1.713013e+002
7720068400	-2.401720e+000	1.701865e+002	-1.532327e+001	1.653397e+002	-1.526145e+001	1.653567e+002	-3.412512e+000	1.714492e+002
7730068100	-2.398436e+000	1.701900e+002	-1.536015e+001	1.650604e+002	-1.530077e+001	1.650362e+002	-3.402833e+000	1.715578e+002
7740067800	-2.400463e+000	1.702675e+002	-1.537525e+001	1.647260e+002	-1.532014e+001	1.647128e+002	-3.398007e+000	1.716838e+002
7750067500	-2.400724e+000	1.703121e+002	-1.539269e+001	1.644419e+002	-1.533875e+001	1.644423e+002	-3.393036e+000	1.717340e+002
7760067200	-2.398145e+000	1.703737e+002	-1.541498e+001	1.641111e+002	-1.535035e+001	1.640930e+002	-3.381519e+000	1.718450e+002
7770066900	-2.386099e+000	1.704028e+002	-1.541973e+001	1.637449e+002	-1.536126e+001	1.637653e+002	-3.370976e+000	1.719420e+002
7780066600	-2.372067e+000	1.704655e+002	-1.545581e+001	1.633668e+002	-1.537668e+001	1.634496e+002	-3.365933e+000	1.720038e+002
7790066300	-2.361110e+000	1.704905e+002	-1.546312e+001	1.630286e+002	-1.539492e+001	1.629285e+002	-3.360871e+000	1.721082e+002
7800066000	-2.352428e+000	1.705745e+002	-1.549671e+001	1.625628e+002	-1.545809e+001	1.626855e+002	-3.356595e+000	1.722419e+002
7810065700	-2.345963e+000	1.706532e+002	-1.554492e+001	1.622473e+002	-1.548139e+001	1.622324e+002	-3.351768e+000	1.723756e+002
7820065400	-2.341410e+000	1.707384e+002	-1.558279e+001	1.618340e+002	-1.550222e+001	1.617344e+002	-3.353600e+000	1.724570e+002
7830065100	-2.332801e+000	1.707865e+002	-1.560853e+001	1.613596e+002	-1.552487e+001	1.613896e+002	-3.351172e+000	1.725562e+002
7840064800	-2.326389e+000	1.708772e+002	-1.564214e+001	1.609841e+002	-1.556538e+001	1.609695e+002	-3.329246e+000	1.726131e+002
7850064500	-2.319852e+000	1.710019e+002	-1.569309e+001	1.606693e+002	-1.559727e+001	1.607012e+002	-3.313037e+000	1.726235e+002
7860064200	-2.316334e+000	1.710883e+002	-1.571265e+001	1.602735e+002	-1.561995e+001	1.603039e+002	-3.304910e+000	1.727787e+002
7870063900	-2.309741e+000	1.711009e+002	-1.576214e+001	1.599453e+002	-1.566841e+001	1.600738e+002	-3.302315e+000	1.729344e+002
7880063600	-2.302141e+000	1.711522e+002	-1.579015e+001	1.596459e+002	-1.570475e+001	1.596295e+002	-3.292116e+000	1.730483e+002
7890063300	-2.291335e+000	1.711571e+002	-1.582375e+001	1.593312e+002	-1.575523e+001	1.593322e+002	-3.281675e+000	1.732283e+002
7900063000	-2.285487e+000	1.711485e+002	-1.585710e+001	1.590690e+002	-1.578843e+001	1.589774e+002	-3.278816e+000	1.733360e+002
7910062700	-2.285998e+000	1.711078e+002	-1.589972e+001	1.586039e+002	-1.583069e+001	1.586268e+002	-3.264744e+000	1.734402e+002
7920062400	-2.280158e+000	1.711123e+002	-1.595504e+001	1.582791e+002	-1.585209e+001	1.583140e+002	-3.259782e+000	1.735000e+002
7930062100	-2.267842e+000	1.710412e+002	-1.598532e+001	1.580511e+002	-1.589184e+001	1.580613e+002	-3.251542e+000	1.735603e+002
7940061800	-2.269619e+000	1.710235e+002	-1.602037e+001	1.578264e+002	-1.591645e+001	1.577535e+002	-3.243020e+000	1.736114e+002
7950061500	-2.269927e+000	1.709843e+002	-1.604941e+001	1.575790e+002	-1.594284e+001	1.575744e+002	-3.230149e+000	1.736783e+002
7960061200	-2.264008e+000	1.709681e+002	-1.607145e+001	1.572819e+002	-1.601207e+001	1.573503e+002	-3.222433e+000	1.737102e+002
7970060900	-2.265839e+000	1.709913e+002	-1.610403e+001	1.571165e+002	-1.607141e+001	1.572502e+002	-3.215562e+000	1.738226e+002
7980060600	-2.274102e+000	1.710438e+002	-1.611720e+001	1.570428e+002	-1.607734e+001	1.568226e+002	-3.219105e+000	1.738967e+002
7990060300	-2.277986e+000	1.711877e+002	-1.613107e+001	1.566162e+002	-1.605209e+001	1.567084e+002	-3.224089e+000	1.739076e+002
8000060000	-2.273217e+000	1.713534e+002	-1.611346e+001	1.562476e+002	-1.605072e+001	1.563464e+002	-3.209952e+000	1.739102e+002
8010059700	-2.264195e+000	1.715033e+002	-1.614761e+001	1.559625e+002	-1.604792e+001	1.559337e+002	-3.198811e+000	1.738699e+002
8020059400	-2.258621e+000	1.716143e+002	-1.614837e+001	1.554552e+002	-1.607168e+001	1.555296e+002	-3.188270e+000	1.739927e+002
8030059100	-2.256817e+000	1.716903e+002	-1.619714e+001	1.550246e+002	-1.609237e+001	1.548994e+002	-3.187376e+000	1.740988e+002
8040058800	-2.259268e+000	1.717055e+002	-1.620561e+001	1.545276e+002	-1.610851e+001	1.546111e+002	-3.183084e+000	1.742470e+002
8050058500	-2.258756e+000	1.717792e+002	-1.622690e+001	1.541685e+002	-1.613612e+001	1.540215e+002	-3.182832e+000	1.743378e+002
8060058200	-2.259195e+000	1.718682e+002	-1.623895e+001	1.536869e+002	-1.615287e+001	1.535779e+002	-3.181709e+000	1.744683e+002
8070057900	-2.255298e+000	1.719178e+002	-1.626455e+001	1.531446e+002	-1.618763e+001	1.530516e+002	-3.186359e+000	1.745619e+002
8080057600	-2.249090e+000	1.719373e+002	-1.630867e+001	1.525863e+002	-1.620702e+001	1.525006e+002	-3.181931e+000	1.746352e+002
8090057300	-2.247100e+000	1.718985e+002	-1.636436e+001	1.521398e+002	-1.626392e+001	1.520496e+002	-3.176609e+000	1.747405e+002
8100057000	-2.241545e+000	1.718524e+002	-1.641021e+001	1.517714e+002	-1.632542e+001	1.517312e+002	-3.167831e+000	1.747668e+002
8110056700	-2.238132e+000	1.718525e+002	-1.645667e+001	1.513076e+002	-1.636059e+001	1.514473e+002	-3.168794e+000	1.748556e+002
8120056400	-2.233478e+000	1.718289e+002	-1.650795e+001	1.510656e+002	-1.639437e+001	1.511298e+002	-3.160519e+000	1.749362e+002
8130056100	-2.229663e+000	1.718165e+002	-1.654084e+001	1.507685e+002	-1.650640e+001	1.508315e+002	-3.153516e+000	1.750578e+002
8140055800	-2.224871e+000	1.718609e+002	-1.658756e+001	1.503803e+002	-1.654592e+001	1.502974e+002	-3.149302e+000	1.751764e+002
8150055500	-2.220596e+000	1.718983e+002	-1.664516e+001	1.499612e+002	-1.655478e+001	1.500379e+002	-3.145698e+000	1.751724e+002
8160055200	-2.216402e+000	1.719228e+002	-1.665838e+001	1.499280e+002	-1.656608e+001	1.498232e+002	-3.146523e+000	1.752205e+002
8170054900	-2.218440e+000	1.719734e+002	-1.666998e+001	1.495896e+002	-1.658531e+001	1.496295e+002	-3.127363e+000	1.752507e+002
8180054600	-2.226932e+000	1.720258e+002	-1.665805e+001	1.491662e+002	-1.655730e+001	1.492769e+002	-3.121678e+000	1.752214e+002
8190054300	-2.221680e+000	1.721555e+002	-1.667194e+001	1.485773e+002	-1.656491e+001	1.487378e+002	-3.115660e+000	1.754504e+002
8200054000	-2.225668e+000	1.721998e+002	-1.669197e+001	1.478803e+002	-1.658070e+001	1.479628e+002	-3.103040e+000	1.756075e+002
8210053700	-2.223882e+000	1.723057e+002	-1.672638e+001	1.471975e+002	-1.664499e+001	1.471142e+002	-3.108654e+000	1.757759e+002
8220053400	-2.229233e+000	1.723697e+002	-1.680556e+001	1.464954e+002	-1.669185e+001	1.463170e+002	-3.109505e+000	1.759485e+002
8230053100	-2.233454e+000	1.724352e+002	-1.688088e+001	1.458886e+002	-1.676429e+001	1.458995e+002	-3.100468e+000	1.761502e+002
8240052800	-2.230786e+000	1.724836e+002	-1.695836e+001	1.454735e+002	-1.683232e+001	1.452528e+002	-3.096528e+000	1.762274e+002
8250052500	-2.231837e+000	1.724543e+002	-1.703683e+001	1.450082e+002	-1.692966e+001	1.449363e+002	-3.089454e+000	1.763557e+002
8260052200	-2.233443e+000	1.724569e+002	-1.710699e+001	1.445798e+002	-1.698470e+001	1.445367e+002	-3.075289e+000	1.764550e+002
8270051900	-2.222709e+000	1.723872e+002	-1.716930e+001	1.440529e+002	-1.703109e+001	1.440815e+002	-3.063997e+000	1.765209e+002
8280051600	-2.229346e+000	1.723529e+002	-1.724558e+001	1.436241e+002	-1.712579e+001	1.437764e+002	-3.056502e+000	1.765864e+002
8290051300	-2.225063e+000	1.722865e+002	-1.732142e+001	1.432245e+002	-1.722568e+001	1.432700e+002	-3.050898e+000	1.766628e+002
8300051000	-2.223868e+000	1.722055e+002	-1.741737e+001	1.426917e+002	-1.735490e+001	1.425871e+002	-3.034409e+000	1.767718e+002
8310050700	-2.226174e+000	1.721758e+002	-1.752562e+001	1.422991e+002	-1.747540e+001	1.420966e+002	-3.030148e+000	1.768460e+002
8320050400	-2.238415e+000	1.721299e+002	-1.764957e+001	1.418264e+002	-1.755165e+001	1.417307e+002	-3.013347e+000	1.768983e+002
8330050100	-2.251210e+000	1.721139e+002	-1.778181e+001	1.414949e+002	-1.768079e+001	1.413979e+002	-3.000823e+000	1.769352e+002
8340049800	-2.269645e+000	1.721256e+002	-1.791595e+001	1.412345e+002	-1.782576e+001	1.414579e+002	-2.973365e+000	1.769440e+002
8350049500	-2.293077e+000	1.722389e+002	-1.805882e+001	1.412388e+002	-1.794036e+001	1.414483e+002	-2.951178e+000	1.770623e+002
8360049200	-2.319430e+000	1.723804e+002	-1.816803e+001	1.415157e+002	-1.806995e+001	1.415113e+002	-2.928560e+000	1.772242e+002
8370048900	-2.341827e+000	1.724931e+002	-1.827256e+001	1.418108e+002	-1.815262e+001	1.417180e+002	-2.902976e+000	1.773422e+002
8380048600	-2.373529e+000	1.727061e+002	-1.835856e+001	1.421922e+002	-1.825786e+001	1.419815e+002	-2.896342e+000	1.774600e+002
8390048300	-2.395099e+000	1.728763e+002	-1.845012e+001	1.426516e+002	-1.832162e+001	1.425483e+002	-2.895233e+000	1.775750e+002
8400048000	-2.413819e+000	1.730720e+002	-1.851910e+001	1.431271e+002	-1.838518e+001	1.428552e+002	-2.873047e+000	1.776520e+002
8410047700	-2.425381e+000	1.733155e+002	-1.852298e+001	1.436140e+002	-1.839167e+001	1.434789e+002	-2.866999e+000	1.777543e+002
8420047400	-2.424355e+000	1.735165e+002	-1.852473e+001	1.439833e+002	-1.838723e+001	1.439089e+002	-2.849700e+000	1.777528e+002
8430047100	-2.416648e+000	1.736679e+002	-1.847761e+001	1.442669e+002	-1.833829e+001	1.440937e+002	-2.837523e+000	1.777550e+002
8440046800	-2.397912e+000	1.737452e+002	-1.845893e+001	1.441575e+002	-1.829663e+001	1.441499e+002	-2.820971e+000	1.777394e+002
8450046500	-2.398657e+000	1.737639e+002	-1.844931e+001	1.439461e+002	-1.831220e+001	1.439408e+002	-2.817528e+000	1.776865e+002
8460046200	-2.403891e+000	1.737873e+002	-1.847467e+001	1.437740e+002	-1.836036e+001	1.436764e+002	-2.804639e+000	1.776544e+002
8470045900	-2.405740e+000	1.739101e+002	-1.846741e+001	1.436470e+002	-1.839320e+001	1.434771e+002	-2.792638e+000	1.775964e+002
8480045600	-2.405575e+000	1.740518e+002	-1.848436e+001	1.434642e+002	-1.840530e+001	1.429683e+002	-2.775762e+000	1.775597e+002
8490045300	-2.409735e+000	1.742122e+002	-1.850175e+001	1.432013e+002	-1.840104e+001	1.429706e+002	-2.761281e+000	1.775191e+002
8500045000	-2.411237e+000	1.744176e+002	-1.861950e+001	1.427425e+002	-1.847223e+001	1.422140e+002	-2.717481e+000	1.774108e+002
8510044700	-2.406638e+000	1.746880e+002	-1.869347e+001	1.425764e+002	-1.849068e+001	1.419820e+002	-2.706866e+000	1.771662e+002
8520044400	-2.374267e+000	1.749167e+002	-1.880225e+001	1.430577e+002	-1.849661e+001	1.425172e+002	-2.690028e+000	1.773931e+002
8530044100	-2.393232e+000	1.749782e+002	-1.876071e+001	1.430392e+002	-1.846233e+001	1.420306e+002	-2.680428e+000	1.774690e+002
8540043800	-2.383143e+000	1.752404e+002	-1.882573e+001	1.428194e+002	-1.854994e+001	1.419563e+002	-2.676208e+000	1.774850e+002
8550043500	-2.362088e+000	1.753539e+002	-1.889567e+001	1.426416e+002	-1.861960e+001	1.424918e+002	-2.670778e+000	1.776517e+002
8560043200	-2.352521e+000	1.756331e+002	-1.893568e+001	1.433214e+002	-1.865420e+001	1.427952e+002	-2.668391e+000	1.777858e+002
8570042900	-2.340238e+000	1.757488e+002	-1.887953e+001	1.437759e+002	-1.869275e+001	1.433113e+002	-2.668129e+000	1.777270e+002
8580042600	-2.332056e+000	1.758429e+002	-1.886114e+001	1.439752e+002	-1.854207e+001	1.433360e+002	-2.650620e+000	1.778857e+002
8590042300	-2.307132e+000	1.760115e+002	-1.884259e+001	1.443294e+002	-1.856555e+001	1.441628e+002	-2.677046e+000	1.780041e+002
8600042000	-2.293381e+000	1.760578e+002	-1.876529e+001	1.440757e+002	-1.846956e+001	1.443491e+002	-2.671502e+000	1.779217e+002
8610041700	-2.288615e+000	1.761261e+002	-1.873450e+001	1.446717e+002	-1.838422e+001	1.441301e+002	-2.673587e+000	1.779644e+002
8620041400	-2.256210e+000	1.760991e+002	-1.860617e+001	1.442360e+002	-1.832797e+001	1.436799e+002	-2.671884e+000	1.780568e+002
8630041100	-2.234470e+000	1.761476e+002	-1.859074e+001	1.438533e+002	-1.835100e+001	1.428174e+002	-2.679767e+000	1.779679e+002
8640040800	-2.239544e+000	1.761958e+002	-1.852848e+001	1.433340e+002	-1.827973e+001	1.426661e+002	-2.667919e+000	1.778455e+002
8650040500	-2.204665e+000	1.762067e+002	-1.848667e+001	1.430070e+002	-1.828658e+001	1.421741e+002	-2.638801e+000	1.777671e+002
8660040200	-2.177784e+000	1.763397e+002	-1.841025e+001	1.425015e+002	-1.824005e+001	1.412556e+002	-2.618741e+000	1.776411e+002
8670039900	-2.157003e+000	1.762888e+002	-1.844784e+001	1.419838e+002	-1.814242e+001	1.409673e+002	-2.622459e+000	1.774984e+002
8680039600	-2.134656e+000	1.764008e+002	-1.846015e+001	1.414470e+002	-1.818467e+001	1.403836e+002	-2.602686e+000	1.774464e+002
8690039300	-2.107403e+000	1.763844e+002	-1.841364e+001	1.402157e+002	-1.814713e+001	1.400929e+002	-2.604820e+000	1.775281e+002
8700039000	-2.117485e+000	1.765075e+002	-1.836283e+001	1.398482e+002	-1.812214e+001	1.395893e+002	-2.598749e+000	1.774742e+002
8710038700	-2.101575e+000	1.765797e+002	-1.841482e+001	1.395016e+002	-1.815154e+001	1.387605e+002	-2.586220e+000	1.776058e+002
8720038400	-2.097390e+000	1.765443e+002	-1.847457e+001	1.388994e+002	-1.815533e+001	1.381461e+002	-2.600245e+000	1.776277e+002
8730038100	-2.077503e+000	1.767390e+002	-1.851654e+001	1.383278e+002	-1.824350e+001	1.380997e+002	-2.611994e+000	1.776979e+002
8740037800	-2.077655e+000	1.768665e+002	-1.853139e+001	1.377565e+002	-1.828541e+001	1.381588e+002	-2.629303e+000	1.779465e+002
8750037500	-2.083909e+000	1.768056e+002	-1.859295e+001	1.382193e+002	-1.839833e+001	1.379647e+002	-2.623112e+000	1.779803e+002
8760037200	-2.069083e+000	1.768012e+002	-1.859032e+001	1.383942e+002	-1.831197e+001	1.380773e+002	-2.657516e+000	1.780695e+002
8770036900	-2.046326e+000	1.768791e+002	-1.861281e+001	1.382803e+002	-1.832039e+001	1.371298e+002	-2.653145e+000	1.781325e+002
8780036600	-2.039088e+000	1.767977e+002	-1.863685e+001	1.379153e+002	-1.837111e+001	1.372302e+002	-2.656127e+000	1.782195e+002
8790036300	-2.053663e+000	1.767642e+002	-1.865020e+001	1.375676e+002	-1.838954e+001	1.365312e+002	-2.654154e+000	1.780294e+002
8800036000	-2.032670e+000	1.767647e+002	-1.857578e+001	1.366419e+002	-1.829147e+001	1.361100e+002	-2.648103e+000	1.780451e+002
8810035700	-2.016766e+000	1.768393e+002	-1.853836e+001	1.366440e+002	-1.833234e+001	1.357442e+002	-2.626075e+000	1.778930e+002
8820035400	-1.985680e+000	1.767770e+002	-1.859772e+001	1.357410e+002	-1.830932e+001	1.352223e+002	-2.595808e+000	1.778372e+002
8830035100	-1.997644e+000	1.767921e+002	-1.857027e+001	1.356087e+002	-1.832306e+001	1.347343e+002	-2.604595e+000	1.777045e+002
8840034800	-1.967538e+000	1.766803e+002	-1.860153e+001	1.349745e+002	-1.827340e+001	1.342640e+002	-2.584107e+000	1.777495e+002
8850034500	-1.953023e+000	1.767973e+002	-1.854903e+001	1.345743e+002	-1.832650e+001	1.337975e+002	-2.581001e+000	1.775869e+002
8860034200	-1.942615e+000	1.768499e+002	-1.861561e+001	1.342136e+002	-1.832225e+001	1.340039e+002	-2.565041e+000	1.776530e+002
8870033900	-1.922593e+000	1.768985e+002	-1.856405e+001	1.333728e+002	-1.829090e+001	1.334195e+002	-2.562959e+000	1.777166e+002
8880033600	-1.915761e+000	1.768040e+002	-1.860932e+001	1.332224e+002	-1.834400e+001	1.328620e+002	-2.548822e+000	1.778162e+002
8890033300	-1.919296e+000	1.769017e+002	-1.865396e+001	1.325406e+002	-1.838045e+001	1.325719e+002	-2.567182e+000	1.777812e+002
8900033000	-1.913308e+000	1.768471e+002	-1.860559e+001	1.325147e+002	-1.835213e+001	1.322977e+002	-2.575186e+000	1.779135e+002
8910032700	-1.885987e+000	1.767617e+002	-1.865015e+001	1.316419e+002	-1.838224e+001	1.316042e+002	-2.569824e+000	1.779017e+002
8920032400	-1.897432e+000	1.768462e+002	-1.871786e+001	1.315367e+002	-1.837345e+001	1.309128e+002	-2.597305e+000	1.780930e+002
8930032100	-1.894366e+000	1.768078e+002	-1.868317e+001	1.311792e+002	-1.835977e+001	1.301584e+002	-2.613621e+000	1.780772e+002
8940031800	-1.888495e+000	1.768437e+002	-1.876128e+001	1.302823e+002	-1.849401e+001	1.292370e+002	-2.618031e+000	1.780872e+002
8950031500	-1.897769e+000	1.766514e+002	-1.877034e+001	1.297379e+002	-1.854167e+001	1.290996e+002	-2.639880e+000	1.780567e+002
8960031200	-1.880252e+000	1.766994e+002	-1.887476e+001	1.293940e+002	-1.856882e+001	1.285493e+002	-2.636374e+000	1.779976e+002
8970030900	-1.879414e+000	1.765752e+002	-1.886117e+001	1.288883e+002	-1.857401e+001	1.283827e+002	-2.638463e+000	1.779551e+002
8980030600	-1.853196e+000	1.766145e+002	-1.889177e+001	1.292275e+002	-1.860594e+001	1.279225e+002	-2.622755e+000	1.778189e+002
8990030300	-1.860899e+000	1.765970e+002	-1.896787e+001	1.281950e+002	-1.859558e+001	1.272414e+002	-2.632421e+000	1.777117e+002
9000030000	-1.847217e+000	1.765347e+002	-1.902027e+001	1.280199e+002	-1.865885e+001	1.279517e+002	-2.605296e+000	1.777260e+002
9010029700	-1.854298e+000	1.765772e+002	-1.905651e+001	1.276728e+002	-1.871358e+001	1.273755e+002	-2.616115e+000	1.774545e+002
9020029400	-1.816975e+000	1.765860e+002	-1.899067e+001	1.270194e+002	-1.867655e+001	1.269592e+002	-2.606080e+000	1.773649e+002
9030029100	-1.816892e+000	1.766190e+002	-1.902333e+001	1.268348e+002	-1.873962e+001	1.263683e+002	-2.602358e+000	1.773787e+002
9040028800	-1.806081e+000	1.765008e+002	-1.905555e+001	1.262432e+002	-1.876019e+001	1.261111e+002	-2.589439e+000	1.775341e+002
9050028500	-1.807520e+000	1.764677e+002	-1.902634e+001	1.257640e+002	-1.878488e+001	1.255923e+002	-2.584780e+000	1.775175e+002
9060028200	-1.802534e+000	1.765041e+002	-1.915538e+001	1.255875e+002	-1.872530e+001	1.255564e+002	-2.578229e+000	1.774514e+002
9070027900	-1.813135e+000	1.765843e+002	-1.915215e+001	1.249074e+002	-1.879627e+001	1.248080e+002	-2.595438e+000	1.774987e+002
9080027600	-1.818100e+000	1.765929e+002	-1.914526e+001	1.244572e+002	-1.882628e+001	1.246822e+002	-2.601550e+000	1.775514e+002
9090027300	-1.823418e+000	1.764803e+002	-1.924390e+001	1.239980e+002	-1.884423e+001	1.235413e+002	-2.626071e+000	1.776647e+002
9100027000	-1.807770e+000	1.765713e+002	-1.921596e+001	1.234315e+002	-1.890641e+001	1.225211e+002	-2.653743e+000	1.776089e+002
9110026700	-1.812385e+000	1.764203e+002	-1.923439e+001	1.229454e+002	-1.900236e+001	1.219197e+002	-2.652232e+000	1.776470e+002
9120026400	-1.802501e+000	1.764990e+002	-1.926558e+001	1.226611e+002	-1.902754e+001	1.218228e+002	-2.650340e+000	1.776580e+002
9130026100	-1.814985e+000	1.763623e+002	-1.933858e+001	1.221557e+002	-1.906936e+001	1.212238e+002	-2.669458e+000	1.777009e+002
9140025800	-1.838622e+000	1.761225e+002	-1.937590e+001	1.211885e+002	-1.909470e+001	1.208078e+002	-2.671267e+000	1.775340e+002
9150025500	-1.814584e+000	1.761985e+002	-1.945336e+001	1.210026e+002	-1.913954e+001	1.200112e+002	-2.673957e+000	1.772845e+002
9160025200	-1.800663e+000	1.761809e+002	-1.948852e+001	1.210750e+002	-1.920684e+001	1.200738e+002	-2.664317e+000	1.772744e+002
9170024900	-1.793791e+000	1.761875e+002	-1.959362e+001	1.201865e+002	-1.926833e+001	1.195322e+002	-2.684165e+000	1.769934e+002
9180024600	-1.792677e+000	1.761730e+002	-1.965845e+001	1.195135e+002	-1.930440e+001	1.197169e+002	-2.678861e+000	1.769440e+002
9190024300	-1.757797e+000	1.762088e+002	-1.965199e+001	1.190067e+002	-1.930839e+001	1.190763e+002	-2.666348e+000	1.768167e+002
9200024000	-1.787313e+000	1.761934e+002	-1.975518e+001	1.183430e+002	-1.944339e+001	1.184322e+002	-2.677497e+000	1.768306e+002
9210023700	-1.774990e+000	1.762901e+002	-1.987068e+001	1.181659e+002	-1.945072e+001	1.185748e+002	-2.691762e+000	1.769296e+002
9220023400	-1.780762e+000	1.761800e+002	-1.988847e+001	1.174953e+002	-1.954865e+001	1.179117e+002	-2.693038e+000	1.768683e+002
9230023100	-1.779181e+000	1.762021e+002	-1.989442e+001	1.175098e+002	-1.970230e+001	1.176178e+002	-2.690407e+000	1.769587e+002
9240022800	-1.787013e+000	1.764272e+002	-2.003208e+001	1.170356e+002	-1.971596e+001	1.170160e+002	-2.712582e+000	1.770710e+002
9250022500	-1.777657e+000	1.762965e+002	-2.008577e+001	1.164351e+002	-1.979435e+001	1.162918e+002	-2.700372e+000	1.771383e+002
9260022200	-1.783511e+000	1.764102e+002	-2.023354e+001	1.164683e+002	-1.983288e+001	1.159350e+002	-2.721424e+000	1.772612e+002
9270021900	-1.772252e+000	1.762980e+002	-2.030074e+001	1.165281e+002	-1.998349e+001	1.155645e+002	-2.738634e+000	1.773634e+002
9280021600	-1.779073e+000	1.764235e+002	-2.032650e+001	1.162856e+002	-2.007916e+001	1.157965e+002	-2.724535e+000	1.776457e+002
9290021300	-1.762308e+000	1.762215e+002	-2.045615e+001	1.159947e+002	-2.014739e+001	1.153953e+002	-2.739513e+000	1.777287e+002
9300021000	-1.786459e+000	1.763411e+002	-2.052199e+001	1.160289e+002	-2.015207e+001	1.155061e+002	-2.740724e+000	1.776788e+002
9310020700	-1.725229e+000	1.762733e+002	-2.057182e+001	1.165138e+002	-2.022368e+001	1.159399e+002	-2.743406e+000	1.776155e+002
9320020400	-1.740830e+000	1.760391e+002	-2.061801e+001	1.157708e+002	-2.022898e+001	1.160520e+002	-2.780370e+000	1.777676e+002
9330020100	-1.729807e+000	1.760062e+002	-2.065636e+001	1.160113e+002	-2.030277e+001	1.159454e+002	-2.752761e+000	1.774159e+002
9340019800	-1.717324e+000	1.760964e+002	-2.068177e+001	1.157380e+002	-2.025749e+001	1.161447e+002	-2.764839e+000	1.772950e+002
9350019500	-1.695185e+000	1.759714e+002	-2.072789e+001	1.164121e+002	-2.034048e+001	1.162571e+002	-2.748936e+000	1.772312e+002
9360019200	-1.687490e+000	1.758760e+002	-2.068564e+001	1.158698e+002	-2.041087e+001	1.159219e+002	-2.767216e+000	1.771653e+002
9370018900	-1.686559e+000	1.758296e+002	-2.078769e+001	1.163388e+002	-2.039361e+001	1.155730e+002	-2.749627e+000	1.771879e+002
9380018600	-1.690981e+000	1.758638e+002	-2.079414e+001	1.158613e+002	-2.042878e+001	1.165731e+002	-2.747412e+000	1.771288e+002
9390018300	-1.664240e+000	1.757173e+002	-2.085386e+001	1.153864e+002	-2.054446e+001	1.158603e+002	-2.741367e+000	1.771246e+002
9400018000	-1.673735e+000	1.755519e+002	-2.077324e+001	1.156153e+002	-2.052696e+001	1.150403e+002	-2.751678e+000	1.772709e+002
9410017700	-1.683422e+000	1.755893e+002	-2.088374e+001	1.151430e+002	-2.047794e+001	1.152217e+002	-2.738067e+000	1.772311e+002
9420017400	-1.662622e+000	1.756320e+002	-2.087904e+001	1.145310e+002	-2.050423e+001	1.149311e+002	-2.737273e+000	1.772866e+002
9430017100	-1.665065e+000	1.755766e+002	-2.090432e+001	1.149753e+002	-2.049026e+001	1.146071e+002	-2.742871e+000	1.772939e+002
9440016800	-1.677364e+000	1.753522e+002	-2.092115e+001	1.147327e+002	-2.057087e+001	1.138229e+002	-2.734082e+000	1.776082e+002
9450016500	-1.683606e+000	1.754322e+002	-2.092044e+001	1.144069e+002	-2.050766e+001	1.134955e+002	-2.741430e+000	1.776139e+002
9460016200	-1.682016e+000	1.753800e+002	-2.098524e+001	1.140321e+002	-2.060646e+001	1.135295e+002	-2.742178e+000	1.776846e+002
9470015900	-1.680660e+000	1.753385e+002	-2.093771e+001	1.138846e+002	-2.062827e+001	1.137077e+002	-2.769408e+000	1.776463e+002
9480015600	-1.679974e+000	1.750020e+002	-2.098851e+001	1.133546e+002	-2.051913e+001	1.138649e+002	-2.757142e+000	1.776059e+002
9490015300	-1.678595e+000	1.748896e+002	-2.102951e+001	1.135809e+002	-2.061327e+001	1.132353e+002	-2.763544e+000	1.774534e+002
9500015000	-1.676686e+000	1.748615e+002	-2.097947e+001	1.133965e+002	-2.066458e+001	1.136510e+002	-2.797283e+000	1.773175e+002
9510014700	-1.669125e+000	1.747309e+002	-2.114592e+001	1.130685e+002	-2.069856e+001	1.128069e+002	-2.814039e+000	1.770852e+002
9520014400	-1.676060e+000	1.747502e+002	-2.107568e+001	1.125928e+002	-2.078195e+001	1.130353e+002	-2.797603e+000	1.769129e+002
9530014100	-1.678626e+000	1.746710e+002	-2.113291e+001	1.126418e+002	-2.072580e+001	1.129953e+002	-2.814593e+000	1.769264e+002
9540013800	-1.681280e+000	1.744641e+002	-2.109359e+001	1.121321e+002	-2.075865e+001	1.124142e+002	-2.792228e+000	1.768396e+002
9550013500	-1.646399e+000	1.744773e+002	-2.112476e+001	1.115291e+002	-2.083158e+001	1.123304e+002	-2.795292e+000	1.765339e+002
9560013200	-1.680713e+000	1.744622e+002	-2.116092e+001	1.118080e+002	-2.073296e+001	1.119556e+002	-2.797554e+000	1.765916e+002
9570012900	-1.667657e+000	1.744192e+002	-2.118535e+001	1.110643e+002	-2.082921e+001	1.117307e+002	-2.787211e+000	1.766890e+002
9580012600	-1.667464e+000	1.742542e+002	-2.116254e+001	1.112507e+002	-2.088009e+001	1.112954e+002	-2.820988e+000	1.766591e+002
9590012300	-1.690114e+000	1.742107e+002	-2.119392e+001	1.109533e+002	-2.089505e+001	1.104764e+002	-2.805604e+000	1.767338e+002
9600012000	-1.692339e+000	1.740554e+002	-2.115960e+001	1.106183e+002	-2.098012e+001	1.103030e+002	-2.794747e+000	1.768159e+002
9610011700	-1.695639e+000	1.740157e+002	-2.131026e+001	1.104941e+002	-2.086613e+001	1.103238e+002	-2.794718e+000	1.769957e+002
9620011400	-1.704533e+000	1.738839e+002	-2.124740e+001	1.104021e+002	-2.087028e+001	1.103144e+002	-2.816431e+000	1.771973e+002
9630011100	-1.701579e+000	1.739021e+002	-2.124262e+001	1.099061e+002	-2.097749e+001	1.099534e+002	-2.799345e+000	1.772654e+002
9640010800	-1.728471e+000	1.737958e+002	-2.131980e+001	1.091729e+002	-2.090487e+001	1.099573e+002	-2.842118e+000	1.771164e+002
9650010500	-1.695419e+000	1.735871e+002	-2.137383e+001	1.096307e+002	-2.106261e+001	1.091402e+002	-2.850080e+000	1.771686e+002
9660010200	-1.727423e+000	1.735567e+002	-2.143991e+001	1.092550e+002	-2.099766e+001	1.093855e+002	-2.880751e+000	1.768566e+002
9670009900	-1.717554e+000	1.732728e+002	-2.143842e+001	1.083867e+002	-2.107471e+001	1.087058e+002	-2.876555e+000	1.769074e+002
9680009600	-1.743941e+000	1.731900e+002	-2.147683e+001	1.080278e+002	-2.104450e+001	1.084846e+002	-2.894645e+000	1.766090e+002
9690009300	-1.718340e+000	1.730483e+002	-2.146490e+001	1.080135e+002	-2.117479e+001	1.089798e+002	-2.902283e+000	1.765879e+002
9700009000	-1.745999e+000	1.729537e+002	-2.150479e+001	1.070926e+002	-2.118512e+001	1.081987e+002	-2.902898e+000	1.764611e+002
9710008700	-1.760842e+000	1.727371e+002	-2.163706e+001	1.074549e+002	-2.117621e+001	1.083693e+002	-2.911745e+000	1.764623e+002
9720008400	-1.765412e+000	1.729267e+002	-2.163655e+001	1.073765e+002	-2.118885e+001	1.078836e+002	-2.902225e+000	1.763212e+002
9730008100	-1.753481e+000	1.727737e+002	-2.161377e+001	1.075205e+002	-2.120722e+001	1.082589e+002	-2.920443e+000	1.762343e+002
9740007800	-1.784947e+000	1.727992e+002	-2.156804e+001	1.070134e+002	-2.121791e+001	1.072644e+002	-2.899979e+000	1.763585e+002
9750007500	-1.780498e+000	1.725309e+002	-2.167626e+001	1.068014e+002	-2.128927e+001	1.069742e+002	-2.920381e+000	1.764718e+002
9760007200	-1.780717e+000	1.723756e+002	-2.162446e+001	1.065425e+002	-2.125428e+001	1.065044e+002	-2.901963e+000	1.763877e+002
9770006900	-1.775021e+000	1.722842e+002	-2.166733e+001	1.064347e+002	-2.122445e+001	1.068639e+002	-2.901740e+000	1.766186e+002
9780006600	-1.793552e+000	1.721567e+002	-2.167286e+001	1.059968e+002	-2.124736e+001	1.067424e+002	-2.873949e+000	1.765894e+002
9790006300	-1.837354e+000	1.721352e+002	-2.174877e+001	1.058611e+002	-2.126329e+001	1.067068e+002	-2.889291e+000	1.767151e+002
9800006000	-1.842240e+000	1.720639e+002	-2.174859e+001	1.059637e+002	-2.130828e+001	1.058131e+002	-2.868102e+000	1.766259e+002
9810005700	-1.864867e+000	1.719864e+002	-2.171150e+001	1.054765e+002	-2.135594e+001	1.054490e+002	-2.883695e+000	1.765734e+002
9820005400	-1.854633e+000	1.716987e+002	-2.169298e+001	1.053698e+002	-2.134456e+001	1.054876e+002	-2.915289e+000	1.765590e+002
9830005100	-1.875322e+000	1.715263e+002	-2.169560e+001	1.045536e+002	-2.143224e+001	1.050150e+002	-2.928179e+000	1.764229e+002
9840004800	-1.902379e+000	1.712450e+002	-2.173756e+001	1.050941e+002	-2.135843e+001	1.050811e+002	-2.936572e+000	1.761145e+002
9850004500	-1.905453e+000	1.714407e+002	-2.163896e+001	1.044392e+002	-2.141470e+001	1.050334e+002	-2.929521e+000	1.761639e+002
9860004200	-1.911113e+000	1.713625e+002	-2.168881e+001	1.039738e+002	-2.139872e+001	1.048626e+002	-2.945155e+000	1.759221e+002
9870003900	-1.936859e+000	1.711620e+002	-2.169010e+001	1.035672e+002	-2.135184e+001	1.042486e+002	-2.920593e+000	1.758561e+002
9880003600	-1.946393e+000	1.711146e+002	-2.165380e+001	1.032510e+002	-2.132729e+001	1.033791e+002	-2.958253e+000	1.756216e+002
9890003300	-1.994861e+000	1.709667e+002	-2.172370e+001	1.027900e+002	-2.132507e+001	1.030862e+002	-2.957069e+000	1.756380e+002
9900003000	-2.000739e+000	1.708767e+002	-2.166183e+001	1.018349e+002	-2.135472e+001	1.022016e+002	-2.933912e+000	1.756204e+002
9910002700	-2.009480e+000	1.709327e+002	-2.172678e+001	1.018288e+002	-2.136412e+001	1.020086e+002	-2.932965e+000	1.757079e+002
9920002400	-2.007343e+000	1.706984e+002	-2.169725e+001	1.015862e+002	-2.134754e+001	1.015049e+002	-2.933064e+000	1.756136e+002
9930002100	-2.084926e+000	1.705017e+002	-2.169846e+001	1.002156e+002	-2.141110e+001	1.013828e+002	-2.924879e+000	1.755556e+002
9940001800	-2.099029e+000	1.705305e+002	-2.176511e+001	1.001346e+002	-2.145784e+001	1.011694e+002	-2.915079e+000	1.754730e+002
9950001500	-2.116897e+000	1.703761e+002	-2.175209e+001	9.968733e+001	-2.143795e+001	1.003264e+002	-2.897947e+000	1.753879e+002
9960001200	-2.149237e+000	1.703897e+002	-2.170814e+001	9.879544e+001	-2.147667e+001	9.993952e+001	-2.919875e+000	1.751563e+002
9970000900	-2.171836e+000	1.702321e+002	-2.179041e+001	9.872341e+001	-2.147596e+001	9.910896e+001	-2.931655e+000	1.750194e+002
9980000600	-2.205815e+000	1.703414e+002	-2.185377e+001	9.806319e+001	-2.149259e+001	9.877385e+001	-2.933330e+000	1.749353e+002
9990000300	-2.247816e+000	1.700495e+002	-2.181636e+001	9.700867e+001	-2.161270e+001	9.810934e+001	-2.953364e+000	1.748553e+002
10000000000	-2.274603e+000	1.701743e+002	-2.191407e+001	9.697939e+001	-2.157761e+001	9.754162e+001	-2.979565e+000	1.746833e+002
