!Agilent Technologies,E5071C,MY46316587,B.13.01
!Date: Fri Dec 08 11:11:40 2017
!Data & Calibration Information:
!Freq	S11:SOLT2(ON)	S21:SOLT2(ON)	S12:SOLT2(ON)	S22:SOLT2(ON)
!PortZ  Port1:50+j0    Port2:50+j0
!Above PortZ is port z conversion or system Z0 setting when saving the data.
!When reading, reference impedance value at option line is always used.
# Hz S dB R 50
300000	-5.149502e-002	-4.018019e-001	-5.264563e+001	-1.566006e+002	-5.794024e+001	2.711925e+001	-4.265240e-002	-6.006793e-002
10299700	-2.749832e-001	-4.139222e+000	-2.881348e+001	9.757183e+001	-2.852953e+001	9.783619e+001	-8.498613e-002	-2.911075e+000
20299400	-3.356369e-001	-7.613420e+000	-2.269092e+001	8.899918e+001	-2.251620e+001	8.911376e+001	-1.219367e-001	-5.591777e+000
30299100	-4.076313e-001	-1.107403e+001	-1.914323e+001	8.378566e+001	-1.901304e+001	8.391937e+001	-1.680750e-001	-8.300859e+000
40298800	-4.922163e-001	-1.439770e+001	-1.667381e+001	7.938511e+001	-1.656838e+001	7.929916e+001	-2.310887e-001	-1.094347e+001
50298500	-5.838137e-001	-1.771412e+001	-1.482930e+001	7.531142e+001	-1.473202e+001	7.535417e+001	-3.124229e-001	-1.350045e+001
60298200	-6.921631e-001	-2.097047e+001	-1.334294e+001	7.154084e+001	-1.325166e+001	7.148749e+001	-4.074821e-001	-1.603531e+001
70297900	-8.172312e-001	-2.408971e+001	-1.212742e+001	6.797498e+001	-1.207085e+001	6.793966e+001	-5.163879e-001	-1.847276e+001
80297600	-9.436217e-001	-2.709966e+001	-1.112423e+001	6.464080e+001	-1.107433e+001	6.449831e+001	-6.386106e-001	-2.079058e+001
90297300	-1.089270e+000	-3.008944e+001	-1.027661e+001	6.137503e+001	-1.023187e+001	6.131346e+001	-7.676753e-001	-2.304485e+001
100297000	-1.235488e+000	-3.288395e+001	-9.549555e+000	5.836286e+001	-9.507815e+000	5.817738e+001	-9.032107e-001	-2.520006e+001
110296700	-1.390063e+000	-3.562192e+001	-8.922940e+000	5.535657e+001	-8.884709e+000	5.520521e+001	-1.049757e+000	-2.730955e+001
120296400	-1.546028e+000	-3.824370e+001	-8.377911e+000	5.251580e+001	-8.338343e+000	5.230633e+001	-1.198515e+000	-2.925886e+001
130296100	-1.702886e+000	-4.077025e+001	-7.905233e+000	4.974422e+001	-7.859250e+000	4.959123e+001	-1.352782e+000	-3.114159e+001
140295800	-1.868751e+000	-4.324665e+001	-7.476020e+000	4.718207e+001	-7.437501e+000	4.705328e+001	-1.498139e+000	-3.294751e+001
150295500	-2.028064e+000	-4.557565e+001	-7.099713e+000	4.476275e+001	-7.062753e+000	4.449560e+001	-1.654599e+000	-3.465871e+001
160295200	-2.192391e+000	-4.779363e+001	-6.770859e+000	4.230691e+001	-6.741655e+000	4.212365e+001	-1.802690e+000	-3.631568e+001
170294900	-2.338830e+000	-4.988248e+001	-6.490653e+000	4.007069e+001	-6.452071e+000	3.989224e+001	-1.947796e+000	-3.784468e+001
180294600	-2.493907e+000	-5.192303e+001	-6.232026e+000	3.787886e+001	-6.196290e+000	3.772842e+001	-2.097503e+000	-3.932146e+001
190294300	-2.651729e+000	-5.390689e+001	-5.999796e+000	3.575714e+001	-5.971802e+000	3.564854e+001	-2.242365e+000	-4.072705e+001
200294000	-2.791554e+000	-5.573717e+001	-5.791723e+000	3.380782e+001	-5.768654e+000	3.364721e+001	-2.388770e+000	-4.204816e+001
210293700	-2.939574e+000	-5.762034e+001	-5.607860e+000	3.186700e+001	-5.582969e+000	3.175410e+001	-2.517799e+000	-4.337388e+001
220293400	-3.087606e+000	-5.932513e+001	-5.454036e+000	3.002420e+001	-5.426102e+000	2.987757e+001	-2.655063e+000	-4.458096e+001
230293100	-3.213728e+000	-6.102731e+001	-5.286729e+000	2.830375e+001	-5.273164e+000	2.808950e+001	-2.782537e+000	-4.572841e+001
240292800	-3.350547e+000	-6.267818e+001	-5.162414e+000	2.651548e+001	-5.141438e+000	2.636221e+001	-2.911815e+000	-4.690707e+001
250292500	-3.471030e+000	-6.418682e+001	-5.043052e+000	2.487723e+001	-5.010500e+000	2.473564e+001	-3.026173e+000	-4.794266e+001
260292200	-3.590261e+000	-6.565969e+001	-4.935872e+000	2.332648e+001	-4.907455e+000	2.311095e+001	-3.149004e+000	-4.898936e+001
270291900	-3.703805e+000	-6.715342e+001	-4.829416e+000	2.177483e+001	-4.812401e+000	2.160665e+001	-3.246039e+000	-4.995677e+001
280291600	-3.814513e+000	-6.859934e+001	-4.736558e+000	2.028794e+001	-4.732854e+000	2.012405e+001	-3.355756e+000	-5.098205e+001
290291300	-3.920942e+000	-6.991111e+001	-4.661428e+000	1.880069e+001	-4.643440e+000	1.871210e+001	-3.463232e+000	-5.199541e+001
300291000	-4.017021e+000	-7.121975e+001	-4.586490e+000	1.746516e+001	-4.575505e+000	1.735043e+001	-3.556585e+000	-5.284979e+001
310290700	-4.110975e+000	-7.248761e+001	-4.525300e+000	1.623881e+001	-4.505043e+000	1.602913e+001	-3.650719e+000	-5.372999e+001
320290400	-4.194704e+000	-7.372704e+001	-4.464943e+000	1.488995e+001	-4.443681e+000	1.467141e+001	-3.735377e+000	-5.461133e+001
330290100	-4.277755e+000	-7.492051e+001	-4.404111e+000	1.357580e+001	-4.388203e+000	1.347162e+001	-3.818288e+000	-5.546145e+001
340289800	-4.356015e+000	-7.610195e+001	-4.350947e+000	1.246080e+001	-4.348037e+000	1.226252e+001	-3.890568e+000	-5.626712e+001
350289500	-4.433877e+000	-7.717744e+001	-4.310978e+000	1.125519e+001	-4.295489e+000	1.103036e+001	-3.971707e+000	-5.709114e+001
360289200	-4.499369e+000	-7.830845e+001	-4.271469e+000	1.010908e+001	-4.263858e+000	9.855466e+000	-4.039473e+000	-5.783961e+001
370288900	-4.570999e+000	-7.945458e+001	-4.245837e+000	8.994618e+000	-4.234394e+000	8.751031e+000	-4.102437e+000	-5.859765e+001
380288600	-4.630409e+000	-8.049986e+001	-4.208894e+000	7.806570e+000	-4.194695e+000	7.669526e+000	-4.175417e+000	-5.945266e+001
390288300	-4.697461e+000	-8.150219e+001	-4.177837e+000	6.753090e+000	-4.168929e+000	6.577778e+000	-4.233235e+000	-6.014076e+001
400288000	-4.748027e+000	-8.249843e+001	-4.158957e+000	5.679510e+000	-4.147368e+000	5.524264e+000	-4.292592e+000	-6.086747e+001
410287700	-4.800424e+000	-8.348846e+001	-4.137007e+000	4.598802e+000	-4.117672e+000	4.483411e+000	-4.348124e+000	-6.165959e+001
420287400	-4.849043e+000	-8.451367e+001	-4.107888e+000	3.624432e+000	-4.098306e+000	3.542502e+000	-4.403992e+000	-6.237357e+001
430287100	-4.893536e+000	-8.537975e+001	-4.099577e+000	2.716056e+000	-4.075000e+000	2.613992e+000	-4.449887e+000	-6.309409e+001
440286800	-4.937821e+000	-8.625101e+001	-4.076308e+000	1.813546e+000	-4.056632e+000	1.686341e+000	-4.498137e+000	-6.369180e+001
450286500	-4.974608e+000	-8.720815e+001	-4.065374e+000	8.807756e-001	-4.039999e+000	7.128843e-001	-4.544699e+000	-6.447035e+001
460286200	-5.008289e+000	-8.815571e+001	-4.049704e+000	-7.942732e-002	-4.037594e+000	-1.578832e-001	-4.578314e+000	-6.512178e+001
470285900	-5.038236e+000	-8.895484e+001	-4.045531e+000	-1.005617e+000	-4.026371e+000	-1.111449e+000	-4.622378e+000	-6.582330e+001
480285600	-5.063008e+000	-8.983933e+001	-4.039182e+000	-1.848415e+000	-4.018957e+000	-2.016920e+000	-4.656835e+000	-6.649168e+001
490285300	-5.097934e+000	-9.066747e+001	-4.026132e+000	-2.716868e+000	-4.015139e+000	-2.837881e+000	-4.684073e+000	-6.716328e+001
500285000	-5.120580e+000	-9.152605e+001	-4.024311e+000	-3.539588e+000	-4.013513e+000	-3.726858e+000	-4.726935e+000	-6.777444e+001
510284700	-5.143019e+000	-9.234993e+001	-4.024932e+000	-4.377191e+000	-4.016042e+000	-4.510309e+000	-4.745410e+000	-6.837372e+001
520284400	-5.155799e+000	-9.315157e+001	-4.024596e+000	-5.225630e+000	-4.008511e+000	-5.384919e+000	-4.776215e+000	-6.903628e+001
530284100	-5.175578e+000	-9.391426e+001	-4.016696e+000	-5.985540e+000	-4.005605e+000	-6.130419e+000	-4.794192e+000	-6.969529e+001
540283800	-5.187194e+000	-9.470899e+001	-4.022285e+000	-6.735385e+000	-4.007677e+000	-6.937393e+000	-4.825824e+000	-7.027367e+001
550283500	-5.209066e+000	-9.545238e+001	-4.022042e+000	-7.516287e+000	-4.009941e+000	-7.656805e+000	-4.840518e+000	-7.093201e+001
560283200	-5.215700e+000	-9.623947e+001	-4.027250e+000	-8.290821e+000	-4.012062e+000	-8.438122e+000	-4.866513e+000	-7.149008e+001
570282900	-5.226734e+000	-9.700856e+001	-4.031638e+000	-9.057316e+000	-4.015075e+000	-9.235560e+000	-4.884883e+000	-7.209699e+001
580282600	-5.235228e+000	-9.772938e+001	-4.034175e+000	-9.801681e+000	-4.021549e+000	-9.970093e+000	-4.899635e+000	-7.276413e+001
590282300	-5.238257e+000	-9.844363e+001	-4.043302e+000	-1.053238e+001	-4.023453e+000	-1.071591e+001	-4.909656e+000	-7.332335e+001
600282000	-5.242430e+000	-9.913034e+001	-4.052109e+000	-1.128194e+001	-4.026126e+000	-1.139950e+001	-4.927771e+000	-7.391529e+001
610281700	-5.245465e+000	-9.986820e+001	-4.060511e+000	-1.194902e+001	-4.042670e+000	-1.208355e+001	-4.942898e+000	-7.448403e+001
620281400	-5.251102e+000	-1.005801e+002	-4.067167e+000	-1.264217e+001	-4.055093e+000	-1.278795e+001	-4.960426e+000	-7.505555e+001
630281100	-5.252686e+000	-1.012772e+002	-4.078205e+000	-1.336622e+001	-4.052094e+000	-1.347260e+001	-4.966262e+000	-7.571172e+001
640280800	-5.250846e+000	-1.019112e+002	-4.092949e+000	-1.401481e+001	-4.070829e+000	-1.418131e+001	-4.983917e+000	-7.628686e+001
650280500	-5.247225e+000	-1.026150e+002	-4.097812e+000	-1.468415e+001	-4.079800e+000	-1.482227e+001	-4.991720e+000	-7.682788e+001
660280200	-5.244483e+000	-1.032573e+002	-4.107473e+000	-1.537814e+001	-4.088886e+000	-1.549271e+001	-4.993181e+000	-7.742143e+001
670279900	-5.243343e+000	-1.038750e+002	-4.121549e+000	-1.603497e+001	-4.098472e+000	-1.615986e+001	-5.000174e+000	-7.800776e+001
680279600	-5.241300e+000	-1.045583e+002	-4.129870e+000	-1.669102e+001	-4.119610e+000	-1.683221e+001	-5.001473e+000	-7.851635e+001
690279300	-5.229821e+000	-1.051998e+002	-4.143366e+000	-1.733745e+001	-4.126994e+000	-1.750356e+001	-5.011804e+000	-7.905769e+001
700279000	-5.226622e+000	-1.058423e+002	-4.154864e+000	-1.797815e+001	-4.140314e+000	-1.814288e+001	-5.015608e+000	-7.959016e+001
710278700	-5.216476e+000	-1.064527e+002	-4.166775e+000	-1.858393e+001	-4.147872e+000	-1.875139e+001	-5.029042e+000	-8.011968e+001
720278400	-5.221299e+000	-1.070552e+002	-4.189953e+000	-1.920939e+001	-4.164985e+000	-1.931805e+001	-5.026401e+000	-8.072674e+001
730278100	-5.208094e+000	-1.076599e+002	-4.202441e+000	-1.983199e+001	-4.187582e+000	-1.994662e+001	-5.031339e+000	-8.122965e+001
740277800	-5.197798e+000	-1.083051e+002	-4.220265e+000	-2.038833e+001	-4.200611e+000	-2.054236e+001	-5.040484e+000	-8.177642e+001
750277500	-5.193232e+000	-1.088733e+002	-4.238402e+000	-2.103009e+001	-4.216764e+000	-2.118318e+001	-5.038803e+000	-8.230954e+001
760277200	-5.178651e+000	-1.094920e+002	-4.250951e+000	-2.164786e+001	-4.231780e+000	-2.173000e+001	-5.038881e+000	-8.285981e+001
770276900	-5.168325e+000	-1.100457e+002	-4.268569e+000	-2.219011e+001	-4.247498e+000	-2.230013e+001	-5.037170e+000	-8.339721e+001
780276600	-5.156799e+000	-1.106713e+002	-4.282389e+000	-2.278196e+001	-4.262178e+000	-2.292749e+001	-5.035132e+000	-8.390566e+001
790276300	-5.149522e+000	-1.112471e+002	-4.297857e+000	-2.339159e+001	-4.270483e+000	-2.350424e+001	-5.038156e+000	-8.443489e+001
800276000	-5.129446e+000	-1.118107e+002	-4.319090e+000	-2.395263e+001	-4.290257e+000	-2.404168e+001	-5.027369e+000	-8.495596e+001
810275700	-5.118233e+000	-1.123840e+002	-4.335258e+000	-2.449711e+001	-4.313663e+000	-2.458156e+001	-5.028083e+000	-8.547294e+001
820275400	-5.107837e+000	-1.129303e+002	-4.353676e+000	-2.503396e+001	-4.331034e+000	-2.515855e+001	-5.031428e+000	-8.602269e+001
830275100	-5.088760e+000	-1.135181e+002	-4.379543e+000	-2.561715e+001	-4.350893e+000	-2.574026e+001	-5.036967e+000	-8.648460e+001
840274800	-5.078008e+000	-1.140546e+002	-4.398145e+000	-2.616021e+001	-4.370669e+000	-2.628099e+001	-5.032571e+000	-8.698787e+001
850274500	-5.055763e+000	-1.145990e+002	-4.419570e+000	-2.668319e+001	-4.397703e+000	-2.687123e+001	-5.022739e+000	-8.748703e+001
860274200	-5.046470e+000	-1.151362e+002	-4.439563e+000	-2.726838e+001	-4.414085e+000	-2.738163e+001	-5.021475e+000	-8.792517e+001
870273900	-5.035706e+000	-1.156876e+002	-4.455424e+000	-2.780759e+001	-4.431202e+000	-2.793155e+001	-5.024606e+000	-8.837214e+001
880273600	-5.011886e+000	-1.161855e+002	-4.471983e+000	-2.831581e+001	-4.450289e+000	-2.849149e+001	-5.015741e+000	-8.881336e+001
890273300	-4.998385e+000	-1.167242e+002	-4.497582e+000	-2.882656e+001	-4.472891e+000	-2.899167e+001	-5.012566e+000	-8.935965e+001
900273000	-4.980426e+000	-1.172392e+002	-4.515866e+000	-2.935427e+001	-4.484849e+000	-2.950008e+001	-5.016487e+000	-8.983287e+001
910272700	-4.977849e+000	-1.178132e+002	-4.531769e+000	-2.986862e+001	-4.510761e+000	-3.000778e+001	-5.011285e+000	-9.030887e+001
920272400	-4.959450e+000	-1.183429e+002	-4.560343e+000	-3.041209e+001	-4.533530e+000	-3.051840e+001	-5.008148e+000	-9.080172e+001
930272100	-4.947684e+000	-1.188321e+002	-4.581358e+000	-3.094071e+001	-4.547108e+000	-3.104902e+001	-4.999073e+000	-9.129791e+001
940271800	-4.930511e+000	-1.194063e+002	-4.599084e+000	-3.143178e+001	-4.572574e+000	-3.152100e+001	-4.994736e+000	-9.180088e+001
950271500	-4.917472e+000	-1.198892e+002	-4.624838e+000	-3.190709e+001	-4.594502e+000	-3.203357e+001	-4.990083e+000	-9.224673e+001
960271200	-4.894527e+000	-1.203915e+002	-4.647149e+000	-3.247125e+001	-4.621008e+000	-3.257165e+001	-4.983857e+000	-9.276651e+001
970270900	-4.881002e+000	-1.209229e+002	-4.670100e+000	-3.296989e+001	-4.643711e+000	-3.298201e+001	-4.976006e+000	-9.324856e+001
980270600	-4.860245e+000	-1.214650e+002	-4.688873e+000	-3.343460e+001	-4.657671e+000	-3.352508e+001	-4.968107e+000	-9.373273e+001
990270300	-4.843851e+000	-1.219498e+002	-4.712918e+000	-3.395482e+001	-4.688393e+000	-3.403891e+001	-4.960346e+000	-9.416130e+001
1000270000	-4.823663e+000	-1.224985e+002	-4.734072e+000	-3.440793e+001	-4.709079e+000	-3.452464e+001	-4.959593e+000	-9.465627e+001
1010269700	-4.807486e+000	-1.230001e+002	-4.761279e+000	-3.492598e+001	-4.733083e+000	-3.500071e+001	-4.950116e+000	-9.503463e+001
1020269400	-4.795997e+000	-1.235174e+002	-4.784043e+000	-3.540835e+001	-4.756808e+000	-3.549850e+001	-4.938512e+000	-9.548323e+001
1030269100	-4.774281e+000	-1.239883e+002	-4.811070e+000	-3.588405e+001	-4.784008e+000	-3.602750e+001	-4.935046e+000	-9.592301e+001
1040268800	-4.761003e+000	-1.244530e+002	-4.834522e+000	-3.633777e+001	-4.806118e+000	-3.649746e+001	-4.926899e+000	-9.630544e+001
1050268500	-4.743554e+000	-1.249060e+002	-4.860669e+000	-3.683088e+001	-4.831091e+000	-3.695080e+001	-4.918286e+000	-9.681975e+001
1060268200	-4.722954e+000	-1.254093e+002	-4.887721e+000	-3.732826e+001	-4.855729e+000	-3.745606e+001	-4.913347e+000	-9.721920e+001
1070267900	-4.709062e+000	-1.259223e+002	-4.909317e+000	-3.778517e+001	-4.879142e+000	-3.787910e+001	-4.915426e+000	-9.765408e+001
1080267600	-4.693034e+000	-1.264200e+002	-4.932424e+000	-3.823827e+001	-4.902746e+000	-3.837089e+001	-4.898067e+000	-9.809383e+001
1090267300	-4.672107e+000	-1.269240e+002	-4.955385e+000	-3.875790e+001	-4.928241e+000	-3.885335e+001	-4.900792e+000	-9.853934e+001
1100267000	-4.668999e+000	-1.274371e+002	-4.976409e+000	-3.918039e+001	-4.951446e+000	-3.930647e+001	-4.901708e+000	-9.901517e+001
1110266700	-4.650325e+000	-1.279486e+002	-5.013217e+000	-3.966241e+001	-4.979155e+000	-3.974282e+001	-4.881518e+000	-9.943606e+001
1120266400	-4.632012e+000	-1.283756e+002	-5.046449e+000	-4.013190e+001	-5.013278e+000	-4.020701e+001	-4.881677e+000	-9.989045e+001
1130266100	-4.616190e+000	-1.289618e+002	-5.066706e+000	-4.057786e+001	-5.042409e+000	-4.066357e+001	-4.858826e+000	-1.003930e+002
1140265800	-4.596240e+000	-1.294191e+002	-5.097129e+000	-4.102166e+001	-5.065965e+000	-4.117135e+001	-4.867537e+000	-1.007916e+002
1150265500	-4.585161e+000	-1.298665e+002	-5.125771e+000	-4.149360e+001	-5.087498e+000	-4.159560e+001	-4.859576e+000	-1.011697e+002
1160265200	-4.563150e+000	-1.303725e+002	-5.156605e+000	-4.195659e+001	-5.124006e+000	-4.199982e+001	-4.843524e+000	-1.016511e+002
1170264900	-4.560046e+000	-1.308994e+002	-5.177458e+000	-4.241418e+001	-5.154316e+000	-4.248326e+001	-4.839264e+000	-1.019937e+002
1180264600	-4.537453e+000	-1.313388e+002	-5.217589e+000	-4.285392e+001	-5.185535e+000	-4.293296e+001	-4.834282e+000	-1.024030e+002
1190264300	-4.525858e+000	-1.318218e+002	-5.243663e+000	-4.332193e+001	-5.219694e+000	-4.340096e+001	-4.827199e+000	-1.028298e+002
1200264000	-4.512749e+000	-1.323894e+002	-5.275110e+000	-4.371644e+001	-5.247135e+000	-4.385300e+001	-4.823645e+000	-1.031920e+002
1210263700	-4.496511e+000	-1.328310e+002	-5.308948e+000	-4.419887e+001	-5.278727e+000	-4.425868e+001	-4.815283e+000	-1.036741e+002
1220263400	-4.485860e+000	-1.333765e+002	-5.343757e+000	-4.461580e+001	-5.312838e+000	-4.471488e+001	-4.808670e+000	-1.041093e+002
1230263100	-4.475097e+000	-1.338580e+002	-5.374793e+000	-4.503018e+001	-5.341478e+000	-4.512501e+001	-4.805092e+000	-1.044992e+002
1240262800	-4.454799e+000	-1.343687e+002	-5.410777e+000	-4.549392e+001	-5.372833e+000	-4.557388e+001	-4.802211e+000	-1.049852e+002
1250262500	-4.450426e+000	-1.348621e+002	-5.445163e+000	-4.594472e+001	-5.409946e+000	-4.595886e+001	-4.789429e+000	-1.054398e+002
1260262200	-4.442048e+000	-1.353707e+002	-5.487342e+000	-4.634588e+001	-5.449144e+000	-4.634794e+001	-4.792657e+000	-1.058583e+002
1270261900	-4.427213e+000	-1.359204e+002	-5.522987e+000	-4.673817e+001	-5.484836e+000	-4.679983e+001	-4.786599e+000	-1.063182e+002
1280261600	-4.425072e+000	-1.364062e+002	-5.558301e+000	-4.713462e+001	-5.524761e+000	-4.714619e+001	-4.783377e+000	-1.067934e+002
1290261300	-4.417134e+000	-1.369213e+002	-5.598589e+000	-4.753957e+001	-5.566210e+000	-4.753095e+001	-4.783768e+000	-1.073402e+002
1300261000	-4.412587e+000	-1.374304e+002	-5.637973e+000	-4.797185e+001	-5.606157e+000	-4.788889e+001	-4.786423e+000	-1.077802e+002
1310260700	-4.409880e+000	-1.379266e+002	-5.682908e+000	-4.831718e+001	-5.649525e+000	-4.829828e+001	-4.782783e+000	-1.081675e+002
1320260400	-4.410695e+000	-1.384784e+002	-5.724772e+000	-4.866402e+001	-5.695734e+000	-4.868906e+001	-4.783740e+000	-1.086111e+002
1330260100	-4.413480e+000	-1.389827e+002	-5.759739e+000	-4.905340e+001	-5.737784e+000	-4.912431e+001	-4.788507e+000	-1.089466e+002
1340259800	-4.413942e+000	-1.395143e+002	-5.816650e+000	-4.939299e+001	-5.787248e+000	-4.946666e+001	-4.786143e+000	-1.093187e+002
1350259500	-4.414567e+000	-1.400519e+002	-5.862624e+000	-4.972767e+001	-5.826850e+000	-4.978310e+001	-4.798341e+000	-1.097513e+002
1360259200	-4.432944e+000	-1.404696e+002	-5.903407e+000	-5.002373e+001	-5.876777e+000	-5.011543e+001	-4.802761e+000	-1.101861e+002
1370258900	-4.450612e+000	-1.409542e+002	-5.948501e+000	-5.030750e+001	-5.917240e+000	-5.039292e+001	-4.819201e+000	-1.106459e+002
1380258600	-4.455356e+000	-1.414412e+002	-6.002613e+000	-5.059587e+001	-5.959306e+000	-5.060064e+001	-4.843128e+000	-1.110571e+002
1390258300	-4.474143e+000	-1.419751e+002	-6.042688e+000	-5.080269e+001	-6.005917e+000	-5.087672e+001	-4.856832e+000	-1.114770e+002
1400258000	-4.492400e+000	-1.424189e+002	-6.083176e+000	-5.100645e+001	-6.049566e+000	-5.101350e+001	-4.878915e+000	-1.119367e+002
1410257700	-4.506923e+000	-1.428367e+002	-6.123659e+000	-5.117476e+001	-6.092456e+000	-5.128299e+001	-4.887722e+000	-1.122048e+002
1420257400	-4.527126e+000	-1.432318e+002	-6.172359e+000	-5.137614e+001	-6.124093e+000	-5.137285e+001	-4.917151e+000	-1.126904e+002
1430257100	-4.547042e+000	-1.436661e+002	-6.197158e+000	-5.150273e+001	-6.162027e+000	-5.149276e+001	-4.934165e+000	-1.131092e+002
1440256800	-4.570962e+000	-1.439966e+002	-6.234967e+000	-5.168115e+001	-6.190656e+000	-5.164444e+001	-4.962481e+000	-1.134336e+002
1450256500	-4.593439e+000	-1.443306e+002	-6.252529e+000	-5.177630e+001	-6.220674e+000	-5.179087e+001	-4.983025e+000	-1.137530e+002
1460256200	-4.610446e+000	-1.446241e+002	-6.274052e+000	-5.194016e+001	-6.236712e+000	-5.190132e+001	-5.012891e+000	-1.141287e+002
1470255900	-4.627954e+000	-1.448895e+002	-6.296490e+000	-5.208761e+001	-6.257719e+000	-5.202611e+001	-5.034176e+000	-1.144354e+002
1480255600	-4.641630e+000	-1.450931e+002	-6.307713e+000	-5.219444e+001	-6.274430e+000	-5.218845e+001	-5.055083e+000	-1.146685e+002
1490255300	-4.657279e+000	-1.453307e+002	-6.311649e+000	-5.237158e+001	-6.275353e+000	-5.235034e+001	-5.071562e+000	-1.148479e+002
1500255000	-4.667019e+000	-1.455618e+002	-6.315394e+000	-5.253373e+001	-6.291931e+000	-5.253684e+001	-5.086696e+000	-1.150578e+002
1510254700	-4.670168e+000	-1.457459e+002	-6.317889e+000	-5.271351e+001	-6.284826e+000	-5.274362e+001	-5.100563e+000	-1.151373e+002
1520254400	-4.670821e+000	-1.459093e+002	-6.318005e+000	-5.296118e+001	-6.284149e+000	-5.295088e+001	-5.121332e+000	-1.153706e+002
1530254100	-4.675830e+000	-1.461170e+002	-6.323910e+000	-5.319218e+001	-6.280685e+000	-5.318372e+001	-5.126122e+000	-1.155076e+002
1540253800	-4.662124e+000	-1.462948e+002	-6.320909e+000	-5.344573e+001	-6.276636e+000	-5.345010e+001	-5.139621e+000	-1.157051e+002
1550253500	-4.654330e+000	-1.464675e+002	-6.318929e+000	-5.374443e+001	-6.280540e+000	-5.368759e+001	-5.146259e+000	-1.159525e+002
1560253200	-4.649378e+000	-1.466957e+002	-6.319379e+000	-5.400080e+001	-6.293289e+000	-5.401006e+001	-5.149929e+000	-1.161760e+002
1570252900	-4.636587e+000	-1.469943e+002	-6.320707e+000	-5.428472e+001	-6.280148e+000	-5.433948e+001	-5.161371e+000	-1.163382e+002
1580252600	-4.630255e+000	-1.471896e+002	-6.320872e+000	-5.464542e+001	-6.277178e+000	-5.465280e+001	-5.165072e+000	-1.165144e+002
1590252300	-4.608050e+000	-1.474125e+002	-6.317404e+000	-5.497730e+001	-6.287799e+000	-5.491588e+001	-5.166330e+000	-1.167659e+002
1600252000	-4.589587e+000	-1.477111e+002	-6.328426e+000	-5.527169e+001	-6.289656e+000	-5.526106e+001	-5.172312e+000	-1.169876e+002
1610251700	-4.573563e+000	-1.479915e+002	-6.323945e+000	-5.560469e+001	-6.293045e+000	-5.559016e+001	-5.169649e+000	-1.171845e+002
1620251400	-4.557384e+000	-1.482553e+002	-6.336646e+000	-5.601883e+001	-6.293424e+000	-5.594098e+001	-5.162488e+000	-1.174382e+002
1630251100	-4.533687e+000	-1.485349e+002	-6.338273e+000	-5.638379e+001	-6.314251e+000	-5.631368e+001	-5.153841e+000	-1.177161e+002
1640250800	-4.524094e+000	-1.487603e+002	-6.338244e+000	-5.673546e+001	-6.311862e+000	-5.666749e+001	-5.147209e+000	-1.179070e+002
1650250500	-4.506045e+000	-1.491333e+002	-6.347630e+000	-5.710088e+001	-6.318867e+000	-5.707571e+001	-5.139296e+000	-1.181200e+002
1660250200	-4.488057e+000	-1.494181e+002	-6.358699e+000	-5.749798e+001	-6.322303e+000	-5.744068e+001	-5.144253e+000	-1.182894e+002
1670249900	-4.464078e+000	-1.496775e+002	-6.369061e+000	-5.787858e+001	-6.326600e+000	-5.789127e+001	-5.132600e+000	-1.184444e+002
1680249600	-4.443762e+000	-1.500253e+002	-6.381196e+000	-5.823730e+001	-6.343815e+000	-5.820959e+001	-5.123538e+000	-1.187380e+002
1690249300	-4.428904e+000	-1.503372e+002	-6.395088e+000	-5.866130e+001	-6.351940e+000	-5.862435e+001	-5.120202e+000	-1.189370e+002
1700249000	-4.411990e+000	-1.507038e+002	-6.404236e+000	-5.900230e+001	-6.364697e+000	-5.894692e+001	-5.117532e+000	-1.191960e+002
1710248700	-4.384327e+000	-1.510142e+002	-6.422302e+000	-5.941810e+001	-6.377402e+000	-5.931255e+001	-5.117648e+000	-1.194746e+002
1720248400	-4.370593e+000	-1.513551e+002	-6.426906e+000	-5.976636e+001	-6.389458e+000	-5.968072e+001	-5.108490e+000	-1.197434e+002
1730248100	-4.354158e+000	-1.517409e+002	-6.451927e+000	-6.014469e+001	-6.406627e+000	-6.006350e+001	-5.107493e+000	-1.200010e+002
1740247800	-4.350744e+000	-1.520553e+002	-6.460815e+000	-6.051044e+001	-6.425802e+000	-6.040853e+001	-5.104643e+000	-1.202585e+002
1750247500	-4.327557e+000	-1.524177e+002	-6.481285e+000	-6.088179e+001	-6.440722e+000	-6.078688e+001	-5.102881e+000	-1.205917e+002
1760247200	-4.312579e+000	-1.527576e+002	-6.496542e+000	-6.128368e+001	-6.464120e+000	-6.115275e+001	-5.100472e+000	-1.208931e+002
1770246900	-4.298285e+000	-1.531371e+002	-6.517575e+000	-6.165655e+001	-6.485457e+000	-6.152579e+001	-5.089181e+000	-1.211963e+002
1780246600	-4.286941e+000	-1.534828e+002	-6.535501e+000	-6.199756e+001	-6.504419e+000	-6.192798e+001	-5.086049e+000	-1.214463e+002
1790246300	-4.270817e+000	-1.538670e+002	-6.548207e+000	-6.234253e+001	-6.513982e+000	-6.227225e+001	-5.090867e+000	-1.216722e+002
1800246000	-4.267309e+000	-1.541957e+002	-6.565575e+000	-6.273591e+001	-6.538128e+000	-6.261449e+001	-5.085032e+000	-1.220125e+002
1810245700	-4.246435e+000	-1.544950e+002	-6.571436e+000	-6.310735e+001	-6.552524e+000	-6.298641e+001	-5.085491e+000	-1.222530e+002
1820245400	-4.229773e+000	-1.548458e+002	-6.597340e+000	-6.350986e+001	-6.568094e+000	-6.342280e+001	-5.073710e+000	-1.224501e+002
1830245100	-4.218158e+000	-1.552537e+002	-6.619052e+000	-6.388542e+001	-6.575431e+000	-6.384645e+001	-5.065816e+000	-1.225557e+002
1840244800	-4.211367e+000	-1.556833e+002	-6.638961e+000	-6.421088e+001	-6.592552e+000	-6.417642e+001	-5.063148e+000	-1.227595e+002
1850244500	-4.192979e+000	-1.560156e+002	-6.656395e+000	-6.459724e+001	-6.615721e+000	-6.454871e+001	-5.048475e+000	-1.231303e+002
1860244200	-4.180432e+000	-1.563885e+002	-6.671810e+000	-6.500680e+001	-6.628643e+000	-6.488691e+001	-5.050839e+000	-1.233698e+002
1870243900	-4.174913e+000	-1.568182e+002	-6.695948e+000	-6.533341e+001	-6.645068e+000	-6.524386e+001	-5.056854e+000	-1.236600e+002
1880243600	-4.158453e+000	-1.571371e+002	-6.718222e+000	-6.572678e+001	-6.675273e+000	-6.564655e+001	-5.063789e+000	-1.240021e+002
1890243300	-4.148904e+000	-1.575408e+002	-6.742241e+000	-6.609141e+001	-6.698912e+000	-6.598208e+001	-5.065717e+000	-1.242475e+002
1900243000	-4.127908e+000	-1.579033e+002	-6.767358e+000	-6.643571e+001	-6.721777e+000	-6.628122e+001	-5.068536e+000	-1.245538e+002
1910242700	-4.127642e+000	-1.582612e+002	-6.786466e+000	-6.678796e+001	-6.745256e+000	-6.662189e+001	-5.072099e+000	-1.248646e+002
1920242400	-4.110820e+000	-1.586501e+002	-6.800770e+000	-6.713494e+001	-6.769389e+000	-6.700862e+001	-5.066077e+000	-1.251447e+002
1930242100	-4.099780e+000	-1.590277e+002	-6.820763e+000	-6.750099e+001	-6.794246e+000	-6.733493e+001	-5.070653e+000	-1.254968e+002
1940241800	-4.082163e+000	-1.593840e+002	-6.845499e+000	-6.784195e+001	-6.816431e+000	-6.765901e+001	-5.071726e+000	-1.257522e+002
1950241500	-4.078433e+000	-1.597581e+002	-6.861914e+000	-6.817264e+001	-6.845954e+000	-6.809588e+001	-5.062867e+000	-1.261425e+002
1960241200	-4.056945e+000	-1.601551e+002	-6.885043e+000	-6.851741e+001	-6.877021e+000	-6.840050e+001	-5.055195e+000	-1.265002e+002
1970240900	-4.056311e+000	-1.605311e+002	-6.915893e+000	-6.887107e+001	-6.899753e+000	-6.880154e+001	-5.052653e+000	-1.267726e+002
1980240600	-4.042510e+000	-1.608768e+002	-6.925241e+000	-6.923929e+001	-6.915230e+000	-6.921436e+001	-5.032196e+000	-1.269916e+002
1990240300	-4.033765e+000	-1.612356e+002	-6.951554e+000	-6.959986e+001	-6.919493e+000	-6.964423e+001	-5.014741e+000	-1.271431e+002
2000240000	-4.026626e+000	-1.616650e+002	-6.975340e+000	-6.993075e+001	-6.939707e+000	-6.992322e+001	-5.024502e+000	-1.273551e+002
2010239700	-4.024721e+000	-1.620501e+002	-6.997954e+000	-7.025634e+001	-6.962061e+000	-7.022423e+001	-5.035899e+000	-1.275947e+002
2020239400	-4.019312e+000	-1.624279e+002	-7.025502e+000	-7.058967e+001	-6.987277e+000	-7.049132e+001	-5.046841e+000	-1.278768e+002
2030239100	-4.018104e+000	-1.627642e+002	-7.037247e+000	-7.092958e+001	-6.996818e+000	-7.073186e+001	-5.062312e+000	-1.281300e+002
2040238800	-4.009173e+000	-1.631453e+002	-7.051988e+000	-7.125901e+001	-7.012413e+000	-7.111051e+001	-5.066281e+000	-1.283841e+002
2050238500	-3.995631e+000	-1.635329e+002	-7.076945e+000	-7.173313e+001	-7.033917e+000	-7.149456e+001	-5.070245e+000	-1.286990e+002
2060238200	-3.980977e+000	-1.639062e+002	-7.103115e+000	-7.205608e+001	-7.056285e+000	-7.186661e+001	-5.082833e+000	-1.289522e+002
2070237900	-3.976822e+000	-1.643230e+002	-7.120328e+000	-7.240033e+001	-7.073831e+000	-7.218498e+001	-5.093919e+000	-1.291816e+002
2080237600	-3.964503e+000	-1.647635e+002	-7.143575e+000	-7.275488e+001	-7.113407e+000	-7.259905e+001	-5.086331e+000	-1.294786e+002
2090237300	-3.953268e+000	-1.651329e+002	-7.170841e+000	-7.312589e+001	-7.146083e+000	-7.291775e+001	-5.086298e+000	-1.297764e+002
2100237000	-3.949585e+000	-1.655365e+002	-7.200098e+000	-7.345457e+001	-7.171815e+000	-7.328771e+001	-5.084771e+000	-1.301511e+002
2110236700	-3.935862e+000	-1.659041e+002	-7.218531e+000	-7.383148e+001	-7.203992e+000	-7.356961e+001	-5.091810e+000	-1.305282e+002
2120236400	-3.933439e+000	-1.663199e+002	-7.251600e+000	-7.407250e+001	-7.234936e+000	-7.390843e+001	-5.095735e+000	-1.308658e+002
2130236100	-3.930823e+000	-1.666615e+002	-7.267913e+000	-7.443809e+001	-7.264664e+000	-7.422329e+001	-5.102564e+000	-1.311767e+002
2140235800	-3.915645e+000	-1.669719e+002	-7.295386e+000	-7.479933e+001	-7.291146e+000	-7.455645e+001	-5.100719e+000	-1.314362e+002
2150235500	-3.904435e+000	-1.673791e+002	-7.310812e+000	-7.513870e+001	-7.303789e+000	-7.497119e+001	-5.088989e+000	-1.316986e+002
2160235200	-3.896904e+000	-1.677406e+002	-7.336026e+000	-7.544241e+001	-7.306843e+000	-7.537181e+001	-5.062463e+000	-1.318879e+002
2170234900	-3.878568e+000	-1.681014e+002	-7.357551e+000	-7.589074e+001	-7.317652e+000	-7.575663e+001	-5.048440e+000	-1.320350e+002
2180234600	-3.875614e+000	-1.684664e+002	-7.379104e+000	-7.617200e+001	-7.334036e+000	-7.608479e+001	-5.049068e+000	-1.323250e+002
2190234300	-3.868750e+000	-1.689381e+002	-7.407320e+000	-7.654937e+001	-7.365284e+000	-7.642465e+001	-5.060243e+000	-1.326172e+002
2200234000	-3.858020e+000	-1.693349e+002	-7.435298e+000	-7.687433e+001	-7.389067e+000	-7.666974e+001	-5.083069e+000	-1.328894e+002
2210233700	-3.855049e+000	-1.697656e+002	-7.469870e+000	-7.723602e+001	-7.417675e+000	-7.696536e+001	-5.100737e+000	-1.331795e+002
2220233400	-3.850096e+000	-1.701819e+002	-7.500546e+000	-7.755318e+001	-7.445295e+000	-7.734483e+001	-5.103196e+000	-1.334722e+002
2230233100	-3.843272e+000	-1.706093e+002	-7.515011e+000	-7.785070e+001	-7.474747e+000	-7.763225e+001	-5.117464e+000	-1.338043e+002
2240232800	-3.844740e+000	-1.709888e+002	-7.533073e+000	-7.813148e+001	-7.500792e+000	-7.791127e+001	-5.131118e+000	-1.340743e+002
2250232500	-3.832758e+000	-1.713691e+002	-7.556699e+000	-7.846311e+001	-7.512600e+000	-7.819806e+001	-5.143038e+000	-1.342715e+002
2260232200	-3.826864e+000	-1.717418e+002	-7.569904e+000	-7.875394e+001	-7.543248e+000	-7.846390e+001	-5.154865e+000	-1.345831e+002
2270231900	-3.816589e+000	-1.721065e+002	-7.587455e+000	-7.916462e+001	-7.553118e+000	-7.901204e+001	-5.137157e+000	-1.348287e+002
2280231600	-3.804568e+000	-1.724986e+002	-7.604832e+000	-7.960807e+001	-7.580321e+000	-7.932761e+001	-5.143363e+000	-1.351323e+002
2290231300	-3.790034e+000	-1.729581e+002	-7.640897e+000	-7.995792e+001	-7.619848e+000	-7.971976e+001	-5.142515e+000	-1.355202e+002
2300231000	-3.783280e+000	-1.734083e+002	-7.673262e+000	-8.039166e+001	-7.658332e+000	-8.008368e+001	-5.142768e+000	-1.357736e+002
2310230700	-3.786805e+000	-1.738382e+002	-7.704426e+000	-8.073942e+001	-7.697916e+000	-8.050340e+001	-5.146801e+000	-1.361280e+002
2320230400	-3.785158e+000	-1.742472e+002	-7.749084e+000	-8.100193e+001	-7.719135e+000	-8.076554e+001	-5.136824e+000	-1.364032e+002
2330230100	-3.786830e+000	-1.746211e+002	-7.768245e+000	-8.129734e+001	-7.744510e+000	-8.104740e+001	-5.139801e+000	-1.366754e+002
2340229800	-3.776777e+000	-1.749744e+002	-7.788665e+000	-8.162976e+001	-7.759898e+000	-8.140659e+001	-5.141587e+000	-1.369605e+002
2350229500	-3.774413e+000	-1.754438e+002	-7.834435e+000	-8.201158e+001	-7.798620e+000	-8.175062e+001	-5.146066e+000	-1.372407e+002
2360229200	-3.779682e+000	-1.758543e+002	-7.852935e+000	-8.221698e+001	-7.818905e+000	-8.198133e+001	-5.166327e+000	-1.375229e+002
2370228900	-3.780766e+000	-1.762078e+002	-7.878581e+000	-8.243358e+001	-7.830800e+000	-8.219551e+001	-5.181738e+000	-1.377499e+002
2380228600	-3.773071e+000	-1.765778e+002	-7.889890e+000	-8.274940e+001	-7.839901e+000	-8.243972e+001	-5.191007e+000	-1.379075e+002
2390228300	-3.770878e+000	-1.769535e+002	-7.897477e+000	-8.315303e+001	-7.849180e+000	-8.285406e+001	-5.183980e+000	-1.381514e+002
2400228000	-3.757472e+000	-1.772559e+002	-7.913640e+000	-8.354702e+001	-7.874620e+000	-8.317554e+001	-5.184640e+000	-1.385067e+002
2410227700	-3.744440e+000	-1.776127e+002	-7.937565e+000	-8.392518e+001	-7.896451e+000	-8.353502e+001	-5.190146e+000	-1.387626e+002
2420227400	-3.728625e+000	-1.779907e+002	-7.962982e+000	-8.429132e+001	-7.930545e+000	-8.394601e+001	-5.192534e+000	-1.391271e+002
2430227100	-3.708251e+000	-1.784261e+002	-7.986168e+000	-8.472315e+001	-7.947141e+000	-8.436056e+001	-5.191378e+000	-1.393684e+002
2440226800	-3.693349e+000	-1.788804e+002	-8.014650e+000	-8.512985e+001	-7.988266e+000	-8.471145e+001	-5.206224e+000	-1.397372e+002
2450226500	-3.679588e+000	-1.792505e+002	-8.035891e+000	-8.545181e+001	-8.016943e+000	-8.516214e+001	-5.198744e+000	-1.400224e+002
2460226200	-3.672152e+000	-1.797192e+002	-8.077895e+000	-8.575629e+001	-8.060027e+000	-8.545931e+001	-5.209171e+000	-1.403774e+002
2470225900	-3.666877e+000	1.798371e+002	-8.108687e+000	-8.610166e+001	-8.089539e+000	-8.587937e+001	-5.211464e+000	-1.406303e+002
2480225600	-3.660577e+000	1.794082e+002	-8.139591e+000	-8.645852e+001	-8.117292e+000	-8.614359e+001	-5.225039e+000	-1.409142e+002
2490225300	-3.660682e+000	1.789739e+002	-8.164951e+000	-8.681577e+001	-8.133524e+000	-8.652745e+001	-5.216014e+000	-1.410551e+002
2500225000	-3.654656e+000	1.785810e+002	-8.174147e+000	-8.719387e+001	-8.168837e+000	-8.694003e+001	-5.212937e+000	-1.413628e+002
2510224700	-3.644984e+000	1.780902e+002	-8.231609e+000	-8.763817e+001	-8.194298e+000	-8.729241e+001	-5.207738e+000	-1.417007e+002
2520224400	-3.642440e+000	1.776282e+002	-8.257490e+000	-8.799458e+001	-8.220067e+000	-8.767561e+001	-5.215279e+000	-1.419924e+002
2530224100	-3.642663e+000	1.771997e+002	-8.307611e+000	-8.826046e+001	-8.272763e+000	-8.800338e+001	-5.226282e+000	-1.424034e+002
2540223800	-3.648356e+000	1.766910e+002	-8.345275e+000	-8.860591e+001	-8.304561e+000	-8.830585e+001	-5.243611e+000	-1.427316e+002
2550223500	-3.648533e+000	1.762783e+002	-8.375689e+000	-8.893166e+001	-8.336184e+000	-8.855460e+001	-5.255133e+000	-1.430258e+002
2560223200	-3.646020e+000	1.758807e+002	-8.407493e+000	-8.913979e+001	-8.372448e+000	-8.882781e+001	-5.262266e+000	-1.433701e+002
2570222900	-3.634671e+000	1.754315e+002	-8.433453e+000	-8.948541e+001	-8.400338e+000	-8.909847e+001	-5.285139e+000	-1.436595e+002
2580222600	-3.635565e+000	1.750222e+002	-8.453080e+000	-8.964725e+001	-8.420646e+000	-8.932572e+001	-5.296500e+000	-1.439431e+002
2590222300	-3.627499e+000	1.746461e+002	-8.472833e+000	-8.997258e+001	-8.441318e+000	-8.969886e+001	-5.302518e+000	-1.441580e+002
2600222000	-3.618840e+000	1.742737e+002	-8.492196e+000	-9.028250e+001	-8.452365e+000	-9.002319e+001	-5.301521e+000	-1.443743e+002
2610221700	-3.614502e+000	1.738972e+002	-8.512890e+000	-9.070381e+001	-8.468218e+000	-9.037724e+001	-5.293248e+000	-1.445931e+002
2620221400	-3.597294e+000	1.734891e+002	-8.522511e+000	-9.112484e+001	-8.484110e+000	-9.075183e+001	-5.295890e+000	-1.448584e+002
2630221100	-3.590921e+000	1.731053e+002	-8.553467e+000	-9.157626e+001	-8.529082e+000	-9.122764e+001	-5.289284e+000	-1.451525e+002
2640220800	-3.582664e+000	1.726952e+002	-8.585591e+000	-9.190012e+001	-8.568725e+000	-9.159169e+001	-5.282674e+000	-1.454903e+002
2650220500	-3.582307e+000	1.723140e+002	-8.624592e+000	-9.234385e+001	-8.596731e+000	-9.205412e+001	-5.278263e+000	-1.458132e+002
2660220200	-3.573198e+000	1.719474e+002	-8.651263e+000	-9.268990e+001	-8.634754e+000	-9.230990e+001	-5.294145e+000	-1.461443e+002
2670219900	-3.560275e+000	1.715450e+002	-8.673702e+000	-9.304093e+001	-8.659966e+000	-9.278052e+001	-5.290734e+000	-1.464780e+002
2680219600	-3.553456e+000	1.710735e+002	-8.708791e+000	-9.349902e+001	-8.685653e+000	-9.316321e+001	-5.287114e+000	-1.467733e+002
2690219300	-3.547377e+000	1.706201e+002	-8.741389e+000	-9.383876e+001	-8.719888e+000	-9.355077e+001	-5.294480e+000	-1.471472e+002
2700219000	-3.535160e+000	1.700874e+002	-8.781979e+000	-9.433864e+001	-8.747888e+000	-9.396983e+001	-5.302906e+000	-1.474528e+002
2710218700	-3.526399e+000	1.696197e+002	-8.827063e+000	-9.467691e+001	-8.783427e+000	-9.425782e+001	-5.320855e+000	-1.477489e+002
2720218400	-3.515311e+000	1.691205e+002	-8.863876e+000	-9.506630e+001	-8.832256e+000	-9.468049e+001	-5.326110e+000	-1.480803e+002
2730218100	-3.515695e+000	1.685756e+002	-8.926866e+000	-9.540940e+001	-8.874554e+000	-9.507362e+001	-5.326684e+000	-1.484959e+002
2740217800	-3.508190e+000	1.680869e+002	-8.948159e+000	-9.576637e+001	-8.916637e+000	-9.537064e+001	-5.339936e+000	-1.488576e+002
2750217500	-3.495097e+000	1.676100e+002	-8.992670e+000	-9.614629e+001	-8.968971e+000	-9.576016e+001	-5.341948e+000	-1.492358e+002
2760217200	-3.489186e+000	1.671267e+002	-9.041360e+000	-9.642568e+001	-9.017703e+000	-9.609993e+001	-5.358445e+000	-1.496335e+002
2770216900	-3.483957e+000	1.666757e+002	-9.080370e+000	-9.673400e+001	-9.062523e+000	-9.638647e+001	-5.367678e+000	-1.499698e+002
2780216600	-3.484879e+000	1.662294e+002	-9.119426e+000	-9.705643e+001	-9.096227e+000	-9.666355e+001	-5.376846e+000	-1.502947e+002
2790216300	-3.476345e+000	1.658395e+002	-9.148277e+000	-9.724787e+001	-9.119813e+000	-9.694991e+001	-5.387347e+000	-1.506263e+002
2800216000	-3.476000e+000	1.653937e+002	-9.185445e+000	-9.755292e+001	-9.168711e+000	-9.719853e+001	-5.408833e+000	-1.508360e+002
2810215700	-3.465583e+000	1.649638e+002	-9.199316e+000	-9.783156e+001	-9.195771e+000	-9.741630e+001	-5.412919e+000	-1.510227e+002
2820215400	-3.465143e+000	1.645973e+002	-9.219894e+000	-9.815203e+001	-9.205119e+000	-9.780016e+001	-5.413631e+000	-1.511975e+002
2830215100	-3.453691e+000	1.641877e+002	-9.245226e+000	-9.857035e+001	-9.221940e+000	-9.815252e+001	-5.402692e+000	-1.514438e+002
2840214800	-3.445607e+000	1.637220e+002	-9.276794e+000	-9.902544e+001	-9.256678e+000	-9.860840e+001	-5.398959e+000	-1.517023e+002
2850214500	-3.437133e+000	1.632190e+002	-9.303392e+000	-9.945061e+001	-9.288340e+000	-9.906678e+001	-5.399100e+000	-1.520438e+002
2860214200	-3.434934e+000	1.627519e+002	-9.349496e+000	-9.985355e+001	-9.330871e+000	-9.950523e+001	-5.393847e+000	-1.524512e+002
2870213900	-3.426959e+000	1.622504e+002	-9.397579e+000	-1.003099e+002	-9.356113e+000	-9.988491e+001	-5.385556e+000	-1.527694e+002
2880213600	-3.418975e+000	1.617823e+002	-9.435460e+000	-1.007113e+002	-9.407406e+000	-1.002010e+002	-5.397032e+000	-1.531794e+002
2890213300	-3.411806e+000	1.612815e+002	-9.488280e+000	-1.010603e+002	-9.447653e+000	-1.007345e+002	-5.396430e+000	-1.536484e+002
2900213000	-3.411863e+000	1.607706e+002	-9.528193e+000	-1.014054e+002	-9.494829e+000	-1.010603e+002	-5.402152e+000	-1.540374e+002
2910212700	-3.406982e+000	1.603218e+002	-9.576451e+000	-1.017144e+002	-9.543687e+000	-1.014030e+002	-5.406736e+000	-1.544004e+002
2920212400	-3.399975e+000	1.598576e+002	-9.611640e+000	-1.021590e+002	-9.581247e+000	-1.017592e+002	-5.416464e+000	-1.548357e+002
2930212100	-3.388821e+000	1.593998e+002	-9.654959e+000	-1.025503e+002	-9.636010e+000	-1.021781e+002	-5.424515e+000	-1.552094e+002
2940211800	-3.377333e+000	1.589359e+002	-9.707156e+000	-1.029658e+002	-9.673001e+000	-1.025209e+002	-5.423678e+000	-1.555755e+002
2950211500	-3.360556e+000	1.584607e+002	-9.761552e+000	-1.033008e+002	-9.733472e+000	-1.028880e+002	-5.431147e+000	-1.559067e+002
2960211200	-3.353770e+000	1.579897e+002	-9.805317e+000	-1.036324e+002	-9.787478e+000	-1.032889e+002	-5.433350e+000	-1.562423e+002
2970210900	-3.344704e+000	1.575355e+002	-9.848280e+000	-1.040038e+002	-9.830326e+000	-1.036807e+002	-5.437669e+000	-1.566038e+002
2980210600	-3.339794e+000	1.570091e+002	-9.882656e+000	-1.043648e+002	-9.873908e+000	-1.039750e+002	-5.442616e+000	-1.569517e+002
2990210300	-3.329898e+000	1.565928e+002	-9.935689e+000	-1.047261e+002	-9.914110e+000	-1.042607e+002	-5.458720e+000	-1.572221e+002
3000210000	-3.325619e+000	1.560910e+002	-9.986003e+000	-1.050260e+002	-9.969009e+000	-1.046773e+002	-5.462599e+000	-1.575832e+002
3010209700	-3.315493e+000	1.556040e+002	-1.003664e+001	-1.053975e+002	-1.002327e+001	-1.050246e+002	-5.482520e+000	-1.578622e+002
3020209400	-3.311556e+000	1.550798e+002	-1.007931e+001	-1.058562e+002	-1.006563e+001	-1.054203e+002	-5.491031e+000	-1.582935e+002
3030209100	-3.308983e+000	1.545429e+002	-1.013976e+001	-1.061577e+002	-1.010947e+001	-1.057688e+002	-5.498187e+000	-1.586032e+002
3040208800	-3.299941e+000	1.540689e+002	-1.019091e+001	-1.064280e+002	-1.015367e+001	-1.061295e+002	-5.518005e+000	-1.588306e+002
3050208500	-3.299419e+000	1.536022e+002	-1.023305e+001	-1.066852e+002	-1.019304e+001	-1.064637e+002	-5.516477e+000	-1.590940e+002
3060208200	-3.291183e+000	1.530212e+002	-1.028194e+001	-1.071189e+002	-1.022997e+001	-1.068311e+002	-5.508717e+000	-1.594618e+002
3070207900	-3.278465e+000	1.524957e+002	-1.032650e+001	-1.075484e+002	-1.028192e+001	-1.071769e+002	-5.496682e+000	-1.598432e+002
3080207600	-3.269661e+000	1.519590e+002	-1.037593e+001	-1.078805e+002	-1.033832e+001	-1.076394e+002	-5.494361e+000	-1.602857e+002
3090207300	-3.255517e+000	1.514653e+002	-1.042207e+001	-1.083035e+002	-1.039476e+001	-1.080083e+002	-5.495657e+000	-1.607096e+002
3100207000	-3.249409e+000	1.509879e+002	-1.048367e+001	-1.086150e+002	-1.046541e+001	-1.082737e+002	-5.502542e+000	-1.610617e+002
3110206700	-3.243306e+000	1.505165e+002	-1.053364e+001	-1.090827e+002	-1.051074e+001	-1.086643e+002	-5.499161e+000	-1.614605e+002
3120206400	-3.244196e+000	1.499654e+002	-1.060079e+001	-1.093551e+002	-1.057398e+001	-1.090141e+002	-5.505602e+000	-1.618616e+002
3130206100	-3.236813e+000	1.494669e+002	-1.066101e+001	-1.097198e+002	-1.062178e+001	-1.094121e+002	-5.505157e+000	-1.622063e+002
3140205800	-3.236351e+000	1.490012e+002	-1.071850e+001	-1.100281e+002	-1.070821e+001	-1.097223e+002	-5.522313e+000	-1.626672e+002
3150205500	-3.240193e+000	1.485155e+002	-1.077924e+001	-1.104347e+002	-1.074695e+001	-1.100665e+002	-5.524343e+000	-1.630182e+002
3160205200	-3.246398e+000	1.480518e+002	-1.083770e+001	-1.107509e+002	-1.080782e+001	-1.104231e+002	-5.535404e+000	-1.633183e+002
3170204900	-3.239252e+000	1.476509e+002	-1.087892e+001	-1.110177e+002	-1.086775e+001	-1.107693e+002	-5.539310e+000	-1.636615e+002
3180204600	-3.231580e+000	1.471423e+002	-1.093263e+001	-1.114438e+002	-1.091846e+001	-1.111723e+002	-5.553145e+000	-1.640214e+002
3190204300	-3.220375e+000	1.466011e+002	-1.100050e+001	-1.118266e+002	-1.097485e+001	-1.114589e+002	-5.559716e+000	-1.643332e+002
3200204000	-3.213275e+000	1.461022e+002	-1.105788e+001	-1.121502e+002	-1.104019e+001	-1.119489e+002	-5.562655e+000	-1.647474e+002
3210203700	-3.204244e+000	1.455575e+002	-1.112433e+001	-1.125952e+002	-1.107969e+001	-1.122682e+002	-5.562288e+000	-1.651482e+002
3220203400	-3.190167e+000	1.449901e+002	-1.119024e+001	-1.129390e+002	-1.113882e+001	-1.126404e+002	-5.563842e+000	-1.655517e+002
3230203100	-3.178572e+000	1.444349e+002	-1.124969e+001	-1.133136e+002	-1.120463e+001	-1.129794e+002	-5.568015e+000	-1.660182e+002
3240202800	-3.168374e+000	1.438756e+002	-1.132434e+001	-1.136657e+002	-1.129180e+001	-1.133982e+002	-5.587085e+000	-1.664111e+002
3250202500	-3.154917e+000	1.433165e+002	-1.139688e+001	-1.140392e+002	-1.136393e+001	-1.137353e+002	-5.586586e+000	-1.668318e+002
3260202200	-3.140253e+000	1.427709e+002	-1.146706e+001	-1.143786e+002	-1.144139e+001	-1.139592e+002	-5.594859e+000	-1.671989e+002
3270201900	-3.129158e+000	1.422102e+002	-1.152897e+001	-1.146341e+002	-1.150623e+001	-1.143084e+002	-5.611038e+000	-1.675901e+002
3280201600	-3.126421e+000	1.416718e+002	-1.161803e+001	-1.150332e+002	-1.158894e+001	-1.146273e+002	-5.613031e+000	-1.679339e+002
3290201300	-3.124332e+000	1.411902e+002	-1.167494e+001	-1.153658e+002	-1.164795e+001	-1.148731e+002	-5.607663e+000	-1.681781e+002
3300201000	-3.122278e+000	1.406679e+002	-1.175787e+001	-1.156796e+002	-1.173605e+001	-1.152520e+002	-5.610781e+000	-1.685646e+002
3310200700	-3.115741e+000	1.401396e+002	-1.182885e+001	-1.159397e+002	-1.181531e+001	-1.156525e+002	-5.609295e+000	-1.689673e+002
3320200400	-3.119054e+000	1.396323e+002	-1.191633e+001	-1.162644e+002	-1.188970e+001	-1.158233e+002	-5.617285e+000	-1.693311e+002
3330200100	-3.123426e+000	1.390836e+002	-1.199772e+001	-1.165163e+002	-1.197511e+001	-1.162361e+002	-5.627064e+000	-1.696716e+002
3340199800	-3.120118e+000	1.385493e+002	-1.206047e+001	-1.167980e+002	-1.204544e+001	-1.164103e+002	-5.646923e+000	-1.700332e+002
3350199500	-3.129204e+000	1.380432e+002	-1.213652e+001	-1.170549e+002	-1.212533e+001	-1.168011e+002	-5.657458e+000	-1.704052e+002
3360199200	-3.121527e+000	1.375335e+002	-1.219988e+001	-1.173161e+002	-1.218049e+001	-1.170660e+002	-5.660362e+000	-1.707202e+002
3370198900	-3.115953e+000	1.369751e+002	-1.228001e+001	-1.176980e+002	-1.224492e+001	-1.174592e+002	-5.646806e+000	-1.711263e+002
3380198600	-3.114386e+000	1.363960e+002	-1.235013e+001	-1.179467e+002	-1.231513e+001	-1.176376e+002	-5.652664e+000	-1.715385e+002
3390198300	-3.110696e+000	1.358301e+002	-1.243274e+001	-1.183692e+002	-1.238629e+001	-1.180165e+002	-5.652566e+000	-1.719559e+002
3400198000	-3.111784e+000	1.352495e+002	-1.251586e+001	-1.186592e+002	-1.246429e+001	-1.183092e+002	-5.662877e+000	-1.724398e+002
3410197700	-3.115703e+000	1.347344e+002	-1.258771e+001	-1.190031e+002	-1.255663e+001	-1.185255e+002	-5.673175e+000	-1.728601e+002
3420197400	-3.098413e+000	1.341819e+002	-1.266565e+001	-1.192886e+002	-1.264193e+001	-1.187741e+002	-5.686653e+000	-1.732640e+002
3430197100	-3.090942e+000	1.336904e+002	-1.275510e+001	-1.196444e+002	-1.272302e+001	-1.190364e+002	-5.682599e+000	-1.737128e+002
3440196800	-3.080649e+000	1.331037e+002	-1.285115e+001	-1.200494e+002	-1.283025e+001	-1.195099e+002	-5.696670e+000	-1.741256e+002
3450196500	-3.072777e+000	1.325673e+002	-1.295019e+001	-1.203316e+002	-1.291328e+001	-1.198791e+002	-5.695863e+000	-1.745588e+002
3460196200	-3.062094e+000	1.320087e+002	-1.305207e+001	-1.206190e+002	-1.301343e+001	-1.201364e+002	-5.699836e+000	-1.749497e+002
3470195900	-3.058049e+000	1.314867e+002	-1.315556e+001	-1.209813e+002	-1.311410e+001	-1.204631e+002	-5.714548e+000	-1.754030e+002
3480195600	-3.048818e+000	1.309299e+002	-1.325998e+001	-1.211994e+002	-1.324071e+001	-1.209145e+002	-5.730114e+000	-1.757477e+002
3490195300	-3.047146e+000	1.303447e+002	-1.338812e+001	-1.214379e+002	-1.336230e+001	-1.211840e+002	-5.743014e+000	-1.760909e+002
3500195000	-3.048739e+000	1.297787e+002	-1.349197e+001	-1.216762e+002	-1.348075e+001	-1.215085e+002	-5.764501e+000	-1.765214e+002
3510194700	-3.054653e+000	1.291703e+002	-1.360456e+001	-1.217447e+002	-1.359499e+001	-1.215786e+002	-5.773286e+000	-1.767997e+002
3520194400	-3.053911e+000	1.286236e+002	-1.372334e+001	-1.219028e+002	-1.367053e+001	-1.218019e+002	-5.774427e+000	-1.772406e+002
3530194100	-3.058363e+000	1.279883e+002	-1.382935e+001	-1.219558e+002	-1.376250e+001	-1.218410e+002	-5.767665e+000	-1.776480e+002
3540193800	-3.068358e+000	1.274439e+002	-1.392584e+001	-1.220883e+002	-1.385248e+001	-1.218382e+002	-5.768241e+000	-1.779475e+002
3550193500	-3.065402e+000	1.268260e+002	-1.402775e+001	-1.221628e+002	-1.393746e+001	-1.219099e+002	-5.777723e+000	-1.782345e+002
3560193200	-3.071948e+000	1.262161e+002	-1.412166e+001	-1.224578e+002	-1.405696e+001	-1.220895e+002	-5.798497e+000	-1.786021e+002
3570192900	-3.074479e+000	1.256237e+002	-1.421846e+001	-1.226489e+002	-1.414337e+001	-1.221578e+002	-5.804280e+000	-1.789462e+002
3580192600	-3.069083e+000	1.250841e+002	-1.431112e+001	-1.228120e+002	-1.425414e+001	-1.224173e+002	-5.808433e+000	-1.794010e+002
3590192300	-3.064672e+000	1.244822e+002	-1.441787e+001	-1.230675e+002	-1.437915e+001	-1.225717e+002	-5.815928e+000	-1.797715e+002
3600192000	-3.046766e+000	1.239129e+002	-1.453135e+001	-1.231704e+002	-1.449854e+001	-1.228883e+002	-5.810282e+000	1.797617e+002
3610191700	-3.055467e+000	1.233367e+002	-1.466911e+001	-1.234411e+002	-1.464146e+001	-1.229281e+002	-5.830338e+000	1.793572e+002
3620191400	-3.051214e+000	1.227714e+002	-1.479784e+001	-1.235313e+002	-1.475585e+001	-1.231792e+002	-5.840919e+000	1.789013e+002
3630191100	-3.054057e+000	1.221902e+002	-1.493280e+001	-1.237175e+002	-1.489483e+001	-1.233526e+002	-5.852567e+000	1.784467e+002
3640190800	-3.056006e+000	1.216185e+002	-1.506878e+001	-1.237673e+002	-1.503944e+001	-1.234961e+002	-5.859698e+000	1.780718e+002
3650190500	-3.053523e+000	1.210007e+002	-1.521098e+001	-1.238384e+002	-1.516105e+001	-1.237761e+002	-5.866178e+000	1.776327e+002
3660190200	-3.066450e+000	1.204102e+002	-1.533574e+001	-1.239234e+002	-1.531573e+001	-1.236808e+002	-5.890504e+000	1.772934e+002
3670189900	-3.073531e+000	1.198450e+002	-1.547258e+001	-1.239476e+002	-1.543634e+001	-1.238536e+002	-5.896317e+000	1.769013e+002
3680189600	-3.080114e+000	1.192454e+002	-1.562408e+001	-1.239446e+002	-1.555281e+001	-1.239409e+002	-5.905762e+000	1.764513e+002
3690189300	-3.085371e+000	1.186010e+002	-1.577833e+001	-1.240887e+002	-1.570136e+001	-1.239909e+002	-5.919308e+000	1.759596e+002
3700189000	-3.087234e+000	1.180087e+002	-1.592773e+001	-1.240542e+002	-1.581910e+001	-1.239599e+002	-5.909930e+000	1.755403e+002
3710188700	-3.094796e+000	1.173051e+002	-1.608047e+001	-1.239584e+002	-1.599738e+001	-1.237406e+002	-5.924244e+000	1.752303e+002
3720188400	-3.093289e+000	1.166713e+002	-1.625457e+001	-1.237039e+002	-1.618581e+001	-1.234298e+002	-5.935022e+000	1.748751e+002
3730188100	-3.103380e+000	1.160117e+002	-1.640834e+001	-1.234409e+002	-1.635938e+001	-1.231183e+002	-5.968829e+000	1.744497e+002
3740187800	-3.109030e+000	1.153494e+002	-1.658595e+001	-1.231090e+002	-1.653204e+001	-1.227454e+002	-5.992281e+000	1.740773e+002
3750187500	-3.112081e+000	1.147328e+002	-1.671757e+001	-1.226802e+002	-1.665317e+001	-1.223666e+002	-6.011148e+000	1.737743e+002
3760187200	-3.121065e+000	1.141584e+002	-1.684976e+001	-1.223908e+002	-1.679367e+001	-1.220458e+002	-6.038077e+000	1.733998e+002
3770186900	-3.121454e+000	1.135867e+002	-1.699339e+001	-1.222125e+002	-1.693471e+001	-1.215652e+002	-6.057926e+000	1.731944e+002
3780186600	-3.131715e+000	1.129599e+002	-1.711632e+001	-1.218764e+002	-1.707492e+001	-1.213769e+002	-6.069981e+000	1.727665e+002
3790186300	-3.149328e+000	1.124038e+002	-1.728127e+001	-1.215875e+002	-1.721796e+001	-1.210041e+002	-6.073930e+000	1.724723e+002
3800186000	-3.154558e+000	1.118187e+002	-1.741154e+001	-1.211761e+002	-1.736240e+001	-1.209308e+002	-6.082517e+000	1.720765e+002
3810185700	-3.167141e+000	1.112429e+002	-1.756928e+001	-1.210007e+002	-1.754494e+001	-1.208782e+002	-6.082501e+000	1.717482e+002
3820185400	-3.179702e+000	1.106166e+002	-1.775150e+001	-1.206543e+002	-1.770180e+001	-1.205053e+002	-6.087154e+000	1.713529e+002
3830185100	-3.184917e+000	1.099793e+002	-1.793740e+001	-1.201831e+002	-1.787131e+001	-1.202577e+002	-6.099502e+000	1.709734e+002
3840184800	-3.196424e+000	1.093031e+002	-1.812268e+001	-1.197733e+002	-1.804462e+001	-1.197008e+002	-6.103814e+000	1.705679e+002
3850184500	-3.222451e+000	1.086741e+002	-1.833026e+001	-1.191678e+002	-1.821103e+001	-1.192175e+002	-6.105635e+000	1.701282e+002
3860184200	-3.236517e+000	1.079615e+002	-1.849079e+001	-1.185433e+002	-1.836232e+001	-1.184020e+002	-6.110000e+000	1.696224e+002
3870183900	-3.257676e+000	1.072966e+002	-1.868624e+001	-1.178672e+002	-1.854780e+001	-1.176926e+002	-6.120341e+000	1.692377e+002
3880183600	-3.273109e+000	1.065613e+002	-1.886631e+001	-1.170266e+002	-1.871775e+001	-1.167983e+002	-6.134562e+000	1.688870e+002
3890183300	-3.281500e+000	1.058245e+002	-1.906408e+001	-1.160970e+002	-1.895593e+001	-1.158951e+002	-6.169517e+000	1.685618e+002
3900183000	-3.297804e+000	1.051416e+002	-1.926198e+001	-1.149920e+002	-1.914684e+001	-1.148279e+002	-6.197437e+000	1.681893e+002
3910182700	-3.318413e+000	1.044720e+002	-1.944538e+001	-1.140008e+002	-1.934992e+001	-1.136566e+002	-6.217572e+000	1.678181e+002
3920182400	-3.328254e+000	1.037983e+002	-1.960316e+001	-1.127453e+002	-1.951583e+001	-1.122870e+002	-6.253391e+000	1.674997e+002
3930182100	-3.348761e+000	1.031340e+002	-1.977747e+001	-1.113190e+002	-1.967495e+001	-1.109741e+002	-6.279461e+000	1.670791e+002
3940181800	-3.355584e+000	1.024620e+002	-1.993386e+001	-1.098093e+002	-1.984007e+001	-1.096312e+002	-6.301785e+000	1.667599e+002
3950181500	-3.376595e+000	1.017684e+002	-2.007000e+001	-1.083990e+002	-1.997828e+001	-1.077631e+002	-6.332193e+000	1.664294e+002
3960181200	-3.404187e+000	1.011155e+002	-2.019336e+001	-1.065435e+002	-2.008581e+001	-1.062976e+002	-6.364180e+000	1.660237e+002
3970180900	-3.427428e+000	1.004377e+002	-2.028303e+001	-1.048563e+002	-2.019887e+001	-1.045160e+002	-6.404276e+000	1.658029e+002
3980180600	-3.461104e+000	9.974656e+001	-2.034356e+001	-1.031276e+002	-2.026308e+001	-1.029585e+002	-6.423123e+000	1.655443e+002
3990180300	-3.490540e+000	9.915897e+001	-2.039883e+001	-1.015977e+002	-2.030429e+001	-1.016022e+002	-6.451350e+000	1.653808e+002
4000180000	-3.524769e+000	9.846768e+001	-2.045570e+001	-9.991678e+001	-2.035934e+001	-9.999641e+001	-6.476087e+000	1.651350e+002
4010179700	-3.564247e+000	9.776761e+001	-2.049982e+001	-9.834653e+001	-2.037202e+001	-9.826399e+001	-6.478096e+000	1.648666e+002
4020179400	-3.602569e+000	9.705582e+001	-2.055343e+001	-9.668946e+001	-2.037278e+001	-9.681129e+001	-6.480259e+000	1.645522e+002
4030179100	-3.639183e+000	9.639104e+001	-2.054079e+001	-9.507273e+001	-2.037620e+001	-9.500745e+001	-6.476115e+000	1.642250e+002
4040178800	-3.673802e+000	9.565222e+001	-2.058937e+001	-9.359193e+001	-2.042867e+001	-9.344557e+001	-6.492436e+000	1.639214e+002
4050178500	-3.708348e+000	9.494209e+001	-2.058819e+001	-9.190197e+001	-2.043240e+001	-9.173468e+001	-6.502537e+000	1.636111e+002
4060178200	-3.737287e+000	9.419786e+001	-2.063069e+001	-9.010520e+001	-2.046516e+001	-8.975424e+001	-6.526486e+000	1.633016e+002
4070177900	-3.772341e+000	9.343341e+001	-2.062120e+001	-8.825400e+001	-2.049558e+001	-8.797370e+001	-6.557752e+000	1.630293e+002
4080177600	-3.801269e+000	9.272824e+001	-2.058568e+001	-8.633230e+001	-2.045988e+001	-8.583378e+001	-6.575037e+000	1.627540e+002
4090177300	-3.827120e+000	9.199798e+001	-2.053230e+001	-8.449720e+001	-2.042168e+001	-8.390671e+001	-6.605781e+000	1.623947e+002
4100177000	-3.863105e+000	9.127536e+001	-2.044387e+001	-8.252156e+001	-2.035210e+001	-8.210736e+001	-6.634491e+000	1.620177e+002
4110176700	-3.908288e+000	9.053849e+001	-2.036750e+001	-8.065110e+001	-2.027586e+001	-8.028613e+001	-6.657975e+000	1.617068e+002
4120176400	-3.945344e+000	8.982563e+001	-2.025061e+001	-7.863989e+001	-2.017481e+001	-7.841009e+001	-6.687254e+000	1.614144e+002
4130176100	-3.987238e+000	8.909380e+001	-2.013888e+001	-7.670307e+001	-2.005674e+001	-7.658066e+001	-6.717138e+000	1.611141e+002
4140175800	-4.026274e+000	8.835295e+001	-1.995211e+001	-7.492371e+001	-1.988372e+001	-7.467429e+001	-6.758626e+000	1.608118e+002
4150175500	-4.083831e+000	8.755479e+001	-1.979695e+001	-7.337092e+001	-1.971408e+001	-7.304659e+001	-6.805881e+000	1.605967e+002
4160175200	-4.138902e+000	8.682973e+001	-1.958796e+001	-7.138859e+001	-1.950985e+001	-7.119377e+001	-6.840960e+000	1.604055e+002
4170174900	-4.200159e+000	8.601801e+001	-1.938069e+001	-6.995096e+001	-1.928189e+001	-7.005321e+001	-6.895554e+000	1.601786e+002
4180174600	-4.256650e+000	8.519915e+001	-1.910841e+001	-6.840941e+001	-1.899712e+001	-6.857075e+001	-6.944217e+000	1.600463e+002
4190174300	-4.332535e+000	8.445105e+001	-1.881280e+001	-6.733028e+001	-1.869233e+001	-6.729896e+001	-6.971581e+000	1.598461e+002
4200174000	-4.399521e+000	8.365824e+001	-1.855633e+001	-6.649483e+001	-1.844432e+001	-6.631811e+001	-7.000831e+000	1.598492e+002
4210173700	-4.470787e+000	8.291490e+001	-1.830610e+001	-6.588935e+001	-1.818328e+001	-6.581679e+001	-7.017017e+000	1.597930e+002
4220173400	-4.539570e+000	8.207847e+001	-1.806758e+001	-6.520904e+001	-1.796589e+001	-6.516755e+001	-7.033098e+000	1.597235e+002
4230173100	-4.610113e+000	8.137005e+001	-1.786706e+001	-6.467739e+001	-1.776704e+001	-6.439050e+001	-7.048785e+000	1.596309e+002
4240172800	-4.673342e+000	8.054456e+001	-1.765141e+001	-6.415245e+001	-1.758535e+001	-6.377723e+001	-7.078049e+000	1.593832e+002
4250172500	-4.741293e+000	7.976707e+001	-1.743462e+001	-6.356010e+001	-1.734989e+001	-6.328177e+001	-7.105170e+000	1.592525e+002
4260172200	-4.822262e+000	7.896653e+001	-1.719736e+001	-6.320727e+001	-1.716146e+001	-6.283201e+001	-7.148492e+000	1.591319e+002
4270171900	-4.897112e+000	7.822638e+001	-1.698954e+001	-6.299773e+001	-1.693868e+001	-6.247728e+001	-7.176099e+000	1.589401e+002
4280171600	-4.974329e+000	7.750792e+001	-1.679090e+001	-6.263793e+001	-1.676985e+001	-6.224153e+001	-7.197467e+000	1.587934e+002
4290171300	-5.066557e+000	7.676588e+001	-1.659685e+001	-6.222545e+001	-1.656625e+001	-6.199630e+001	-7.222906e+000	1.586767e+002
4300171000	-5.145322e+000	7.602060e+001	-1.638552e+001	-6.194155e+001	-1.636760e+001	-6.172984e+001	-7.241503e+000	1.585782e+002
4310170700	-5.243234e+000	7.530942e+001	-1.620628e+001	-6.174655e+001	-1.615562e+001	-6.155900e+001	-7.260789e+000	1.584787e+002
4320170400	-5.334327e+000	7.459926e+001	-1.599000e+001	-6.139701e+001	-1.597177e+001	-6.132688e+001	-7.295656e+000	1.583955e+002
4330170100	-5.430266e+000	7.388072e+001	-1.579846e+001	-6.130018e+001	-1.575903e+001	-6.132287e+001	-7.317667e+000	1.582133e+002
4340169800	-5.524571e+000	7.308201e+001	-1.560853e+001	-6.115174e+001	-1.554619e+001	-6.125588e+001	-7.338326e+000	1.580214e+002
4350169500	-5.626467e+000	7.233924e+001	-1.542200e+001	-6.105044e+001	-1.534501e+001	-6.095564e+001	-7.367247e+000	1.578496e+002
4360169200	-5.726949e+000	7.152252e+001	-1.522186e+001	-6.076746e+001	-1.516685e+001	-6.066240e+001	-7.404996e+000	1.577819e+002
4370168900	-5.816470e+000	7.069270e+001	-1.504174e+001	-6.055556e+001	-1.494914e+001	-6.041558e+001	-7.458435e+000	1.576726e+002
4380168600	-5.927649e+000	6.983061e+001	-1.479806e+001	-6.040937e+001	-1.473973e+001	-6.010648e+001	-7.515603e+000	1.576450e+002
4390168300	-6.031059e+000	6.885736e+001	-1.455602e+001	-6.027279e+001	-1.450394e+001	-5.997092e+001	-7.577108e+000	1.577081e+002
4400168000	-6.138484e+000	6.797993e+001	-1.430321e+001	-6.041418e+001	-1.426547e+001	-6.001301e+001	-7.638194e+000	1.579105e+002
4410167700	-6.270084e+000	6.704424e+001	-1.406041e+001	-6.062484e+001	-1.402869e+001	-6.037991e+001	-7.678946e+000	1.581667e+002
4420167400	-6.406696e+000	6.619735e+001	-1.382960e+001	-6.116168e+001	-1.381222e+001	-6.086656e+001	-7.711955e+000	1.583432e+002
4430167100	-6.549309e+000	6.539640e+001	-1.362248e+001	-6.181998e+001	-1.362694e+001	-6.145922e+001	-7.725886e+000	1.584898e+002
4440166800	-6.700145e+000	6.466695e+001	-1.344872e+001	-6.235122e+001	-1.343938e+001	-6.201068e+001	-7.720128e+000	1.585798e+002
4450166500	-6.855429e+000	6.400198e+001	-1.328233e+001	-6.286780e+001	-1.327483e+001	-6.267051e+001	-7.739212e+000	1.586344e+002
4460166200	-7.009586e+000	6.327876e+001	-1.314074e+001	-6.336594e+001	-1.311733e+001	-6.323314e+001	-7.743945e+000	1.586547e+002
4470165900	-7.156047e+000	6.255913e+001	-1.297191e+001	-6.379956e+001	-1.295804e+001	-6.363010e+001	-7.762648e+000	1.587200e+002
4480165600	-7.339805e+000	6.181241e+001	-1.279732e+001	-6.431733e+001	-1.278482e+001	-6.427052e+001	-7.776612e+000	1.588129e+002
4490165300	-7.521827e+000	6.108900e+001	-1.262794e+001	-6.490855e+001	-1.260961e+001	-6.492261e+001	-7.790164e+000	1.589885e+002
4500165000	-7.709368e+000	6.039667e+001	-1.247474e+001	-6.559491e+001	-1.243888e+001	-6.553313e+001	-7.786900e+000	1.591147e+002
4510164700	-7.908106e+000	5.974763e+001	-1.234247e+001	-6.620453e+001	-1.229956e+001	-6.611036e+001	-7.787534e+000	1.593010e+002
4520164400	-8.103988e+000	5.904889e+001	-1.221231e+001	-6.681108e+001	-1.216647e+001	-6.671094e+001	-7.786855e+000	1.594438e+002
4530164100	-8.306029e+000	5.841215e+001	-1.208490e+001	-6.745702e+001	-1.204444e+001	-6.726948e+001	-7.791039e+000	1.596710e+002
4540163800	-8.507010e+000	5.777161e+001	-1.197673e+001	-6.809184e+001	-1.195231e+001	-6.788811e+001	-7.802273e+000	1.598241e+002
4550163500	-8.705947e+000	5.726158e+001	-1.187980e+001	-6.867373e+001	-1.184775e+001	-6.845508e+001	-7.811270e+000	1.599710e+002
4560163200	-8.910642e+000	5.671852e+001	-1.176870e+001	-6.922041e+001	-1.175269e+001	-6.898256e+001	-7.820631e+000	1.600258e+002
4570162900	-9.111438e+000	5.622984e+001	-1.168080e+001	-6.969506e+001	-1.166451e+001	-6.946815e+001	-7.834776e+000	1.600573e+002
4580162600	-9.288993e+000	5.580875e+001	-1.157218e+001	-7.011740e+001	-1.157306e+001	-6.992125e+001	-7.870032e+000	1.600228e+002
4590162300	-9.467505e+000	5.528337e+001	-1.146075e+001	-7.035250e+001	-1.145906e+001	-7.013830e+001	-7.895238e+000	1.600522e+002
4600162000	-9.636828e+000	5.458831e+001	-1.132328e+001	-7.058167e+001	-1.132316e+001	-7.046974e+001	-7.950417e+000	1.601316e+002
4610161700	-9.852509e+000	5.376382e+001	-1.115871e+001	-7.098358e+001	-1.117167e+001	-7.084618e+001	-7.988052e+000	1.605173e+002
4620161400	-1.009616e+001	5.289099e+001	-1.098473e+001	-7.158613e+001	-1.099180e+001	-7.144972e+001	-8.002899e+000	1.609644e+002
4630161100	-1.037206e+001	5.213434e+001	-1.082639e+001	-7.233939e+001	-1.081898e+001	-7.230349e+001	-7.979077e+000	1.614143e+002
4640160800	-1.069528e+001	5.148978e+001	-1.067548e+001	-7.325756e+001	-1.065035e+001	-7.312324e+001	-7.937286e+000	1.618081e+002
4650160500	-1.102898e+001	5.100219e+001	-1.055243e+001	-7.419913e+001	-1.052100e+001	-7.412065e+001	-7.899429e+000	1.621225e+002
4660160200	-1.137070e+001	5.059275e+001	-1.044687e+001	-7.518429e+001	-1.041681e+001	-7.502783e+001	-7.851442e+000	1.624285e+002
4670159900	-1.171919e+001	5.024268e+001	-1.035659e+001	-7.610954e+001	-1.032985e+001	-7.594054e+001	-7.799663e+000	1.626608e+002
4680159600	-1.208713e+001	4.997418e+001	-1.027058e+001	-7.697627e+001	-1.023690e+001	-7.674840e+001	-7.756635e+000	1.628815e+002
4690159300	-1.244042e+001	4.986201e+001	-1.020157e+001	-7.775587e+001	-1.017369e+001	-7.754523e+001	-7.738633e+000	1.630010e+002
4700159000	-1.279496e+001	4.957728e+001	-1.012221e+001	-7.854213e+001	-1.010898e+001	-7.832297e+001	-7.723637e+000	1.632220e+002
4710158700	-1.317487e+001	4.932599e+001	-1.002718e+001	-7.927617e+001	-1.001625e+001	-7.909176e+001	-7.728387e+000	1.634459e+002
4720158400	-1.359122e+001	4.918930e+001	-9.931517e+000	-8.009793e+001	-9.942975e+000	-7.995782e+001	-7.714529e+000	1.637504e+002
4730158100	-1.401187e+001	4.926911e+001	-9.855663e+000	-8.106014e+001	-9.877863e+000	-8.096025e+001	-7.680805e+000	1.639737e+002
4740157800	-1.445556e+001	4.970049e+001	-9.801124e+000	-8.200573e+001	-9.811507e+000	-8.184885e+001	-7.650727e+000	1.641220e+002
4750157500	-1.490393e+001	5.030008e+001	-9.754592e+000	-8.289619e+001	-9.757235e+000	-8.274396e+001	-7.619640e+000	1.642209e+002
4760157200	-1.535329e+001	5.127948e+001	-9.712468e+000	-8.376624e+001	-9.733721e+000	-8.358884e+001	-7.587207e+000	1.643266e+002
4770156900	-1.580380e+001	5.252872e+001	-9.688278e+000	-8.452175e+001	-9.697730e+000	-8.444537e+001	-7.561544e+000	1.643543e+002
4780156600	-1.624032e+001	5.392719e+001	-9.659830e+000	-8.521669e+001	-9.656475e+000	-8.522448e+001	-7.531123e+000	1.644345e+002
4790156300	-1.662543e+001	5.558526e+001	-9.641665e+000	-8.586322e+001	-9.635211e+000	-8.581739e+001	-7.485377e+000	1.644889e+002
4800156000	-1.696357e+001	5.723824e+001	-9.619996e+000	-8.630974e+001	-9.602467e+000	-8.618020e+001	-7.459163e+000	1.644400e+002
4810155700	-1.729108e+001	5.831466e+001	-9.573430e+000	-8.656993e+001	-9.538319e+000	-8.639407e+001	-7.446097e+000	1.645256e+002
4820155400	-1.767157e+001	5.879011e+001	-9.471752e+000	-8.688597e+001	-9.453523e+000	-8.670233e+001	-7.450652e+000	1.649128e+002
4830155100	-1.824925e+001	5.936100e+001	-9.372193e+000	-8.749719e+001	-9.342976e+000	-8.729593e+001	-7.413864e+000	1.653413e+002
4840154800	-1.892573e+001	6.054804e+001	-9.266904e+000	-8.829891e+001	-9.245034e+000	-8.811643e+001	-7.364976e+000	1.656896e+002
4850154500	-1.960700e+001	6.248071e+001	-9.193469e+000	-8.926194e+001	-9.170668e+000	-8.906438e+001	-7.303854e+000	1.660231e+002
4860154200	-2.033961e+001	6.522557e+001	-9.122817e+000	-9.005985e+001	-9.108917e+000	-8.991386e+001	-7.257614e+000	1.663123e+002
4870153900	-2.107587e+001	6.859114e+001	-9.043288e+000	-9.095476e+001	-9.053556e+000	-9.085071e+001	-7.203471e+000	1.665891e+002
4880153600	-2.188194e+001	7.336931e+001	-8.988741e+000	-9.193661e+001	-8.990499e+000	-9.182626e+001	-7.135254e+000	1.668249e+002
4890153300	-2.247118e+001	7.921882e+001	-8.936021e+000	-9.292255e+001	-8.949484e+000	-9.282523e+001	-7.061726e+000	1.669498e+002
4900153000	-2.291826e+001	8.585350e+001	-8.911109e+000	-9.386232e+001	-8.920901e+000	-9.382780e+001	-6.994189e+000	1.669534e+002
4910152700	-2.318123e+001	9.359834e+001	-8.894612e+000	-9.477167e+001	-8.902089e+000	-9.478639e+001	-6.931545e+000	1.668779e+002
4920152400	-2.321966e+001	1.005953e+002	-8.871944e+000	-9.563272e+001	-8.891459e+000	-9.567833e+001	-6.881122e+000	1.667846e+002
4930152100	-2.311480e+001	1.077467e+002	-8.867118e+000	-9.645707e+001	-8.866567e+000	-9.650019e+001	-6.838336e+000	1.666373e+002
4940151800	-2.287790e+001	1.150762e+002	-8.848673e+000	-9.723734e+001	-8.837382e+000	-9.725658e+001	-6.799294e+000	1.664724e+002
4950151500	-2.248546e+001	1.213131e+002	-8.827378e+000	-9.803953e+001	-8.812555e+000	-9.803624e+001	-6.762668e+000	1.664623e+002
4960151200	-2.192336e+001	1.273933e+002	-8.816900e+000	-9.889304e+001	-8.792677e+000	-9.881690e+001	-6.726224e+000	1.663950e+002
4970150900	-2.131972e+001	1.320633e+002	-8.812526e+000	-9.971517e+001	-8.791691e+000	-9.957157e+001	-6.687903e+000	1.663410e+002
4980150600	-2.064639e+001	1.358970e+002	-8.825731e+000	-1.004702e+002	-8.806983e+000	-1.002016e+002	-6.657581e+000	1.664162e+002
4990150300	-2.004684e+001	1.385914e+002	-8.831344e+000	-1.011367e+002	-8.812068e+000	-1.009228e+002	-6.624982e+000	1.664722e+002
5000150000	-1.948493e+001	1.409995e+002	-8.838236e+000	-1.017119e+002	-8.808347e+000	-1.016011e+002	-6.576577e+000	1.667189e+002
5010149700	-1.894924e+001	1.425349e+002	-8.832456e+000	-1.023762e+002	-8.810900e+000	-1.022416e+002	-6.510530e+000	1.668782e+002
5020149400	-1.853503e+001	1.437405e+002	-8.836896e+000	-1.029716e+002	-8.825684e+000	-1.028530e+002	-6.459510e+000	1.668940e+002
5030149100	-1.820089e+001	1.443946e+002	-8.850312e+000	-1.034117e+002	-8.841169e+000	-1.033536e+002	-6.430324e+000	1.668084e+002
5040148800	-1.796490e+001	1.453467e+002	-8.827446e+000	-1.037071e+002	-8.823996e+000	-1.036492e+002	-6.410681e+000	1.668800e+002
5050148500	-1.778649e+001	1.473707e+002	-8.759195e+000	-1.041795e+002	-8.767767e+000	-1.041222e+002	-6.368635e+000	1.671080e+002
5060148200	-1.743267e+001	1.495991e+002	-8.694602e+000	-1.049121e+002	-8.698135e+000	-1.049480e+002	-6.295363e+000	1.672456e+002
5070147900	-1.700505e+001	1.514047e+002	-8.661404e+000	-1.058143e+002	-8.665286e+000	-1.058512e+002	-6.223901e+000	1.672171e+002
5080147600	-1.657775e+001	1.523668e+002	-8.645686e+000	-1.067577e+002	-8.650446e+000	-1.067662e+002	-6.165295e+000	1.671146e+002
5090147300	-1.619411e+001	1.532564e+002	-8.648815e+000	-1.075151e+002	-8.641586e+000	-1.075753e+002	-6.111181e+000	1.669193e+002
5100147000	-1.580424e+001	1.539580e+002	-8.635597e+000	-1.082417e+002	-8.620709e+000	-1.083014e+002	-6.071364e+000	1.667771e+002
5110146700	-1.542100e+001	1.547542e+002	-8.628083e+000	-1.089431e+002	-8.606553e+000	-1.089590e+002	-6.032391e+000	1.666968e+002
5120146400	-1.502515e+001	1.552692e+002	-8.616743e+000	-1.096625e+002	-8.593976e+000	-1.096385e+002	-5.972802e+000	1.666784e+002
5130146100	-1.463900e+001	1.557144e+002	-8.619775e+000	-1.105781e+002	-8.579837e+000	-1.104133e+002	-5.919588e+000	1.665935e+002
5140145800	-1.425888e+001	1.558882e+002	-8.624192e+000	-1.114015e+002	-8.593122e+000	-1.111715e+002	-5.860555e+000	1.665261e+002
5150145500	-1.391701e+001	1.558658e+002	-8.649218e+000	-1.122198e+002	-8.607881e+000	-1.120540e+002	-5.802585e+000	1.663099e+002
5160145200	-1.358894e+001	1.557692e+002	-8.678670e+000	-1.130018e+002	-8.643221e+000	-1.128530e+002	-5.748796e+000	1.660781e+002
5170144900	-1.330345e+001	1.557480e+002	-8.711319e+000	-1.136780e+002	-8.681592e+000	-1.135678e+002	-5.712756e+000	1.658813e+002
5180144600	-1.303675e+001	1.556201e+002	-8.740535e+000	-1.143403e+002	-8.717751e+000	-1.142114e+002	-5.700474e+000	1.656143e+002
5190144300	-1.277287e+001	1.553663e+002	-8.776632e+000	-1.148720e+002	-8.762953e+000	-1.147937e+002	-5.691439e+000	1.655026e+002
5200144000	-1.255184e+001	1.550108e+002	-8.817268e+000	-1.153139e+002	-8.806559e+000	-1.153128e+002	-5.706269e+000	1.653511e+002
5210143700	-1.235776e+001	1.546302e+002	-8.821874e+000	-1.156655e+002	-8.814761e+000	-1.156922e+002	-5.716553e+000	1.655970e+002
5220143400	-1.218781e+001	1.544460e+002	-8.809970e+000	-1.161493e+002	-8.813072e+000	-1.161787e+002	-5.674792e+000	1.659653e+002
5230143100	-1.197793e+001	1.542859e+002	-8.786030e+000	-1.168354e+002	-8.790430e+000	-1.168756e+002	-5.597938e+000	1.660811e+002
5240142800	-1.178178e+001	1.540222e+002	-8.796453e+000	-1.175833e+002	-8.803169e+000	-1.176024e+002	-5.519165e+000	1.659648e+002
5250142500	-1.158242e+001	1.534262e+002	-8.833184e+000	-1.182798e+002	-8.830510e+000	-1.183683e+002	-5.467372e+000	1.656754e+002
5260142200	-1.143782e+001	1.529199e+002	-8.880279e+000	-1.188088e+002	-8.864091e+000	-1.188710e+002	-5.442141e+000	1.653897e+002
5270141900	-1.133081e+001	1.524634e+002	-8.918604e+000	-1.191927e+002	-8.884594e+000	-1.191668e+002	-5.426621e+000	1.652409e+002
5280141600	-1.124323e+001	1.523884e+002	-8.907657e+000	-1.193995e+002	-8.876392e+000	-1.192932e+002	-5.410028e+000	1.653347e+002
5290141300	-1.111041e+001	1.526929e+002	-8.861318e+000	-1.199043e+002	-8.833647e+000	-1.197740e+002	-5.365185e+000	1.653738e+002
5300141000	-1.090718e+001	1.529446e+002	-8.841669e+000	-1.206729e+002	-8.805734e+000	-1.204559e+002	-5.298849e+000	1.653667e+002
5310140700	-1.070111e+001	1.528864e+002	-8.848966e+000	-1.214926e+002	-8.819577e+000	-1.212978e+002	-5.244043e+000	1.651582e+002
5320140400	-1.052587e+001	1.526265e+002	-8.872175e+000	-1.222339e+002	-8.844828e+000	-1.220105e+002	-5.197191e+000	1.649379e+002
5330140100	-1.035692e+001	1.523080e+002	-8.922701e+000	-1.228066e+002	-8.884770e+000	-1.226964e+002	-5.179029e+000	1.646705e+002
5340139800	-1.020862e+001	1.521589e+002	-8.934767e+000	-1.233813e+002	-8.905787e+000	-1.232786e+002	-5.154842e+000	1.644961e+002
5350139500	-1.007434e+001	1.520550e+002	-8.962952e+000	-1.239787e+002	-8.923832e+000	-1.239095e+002	-5.131588e+000	1.644267e+002
5360139200	-9.911769e+000	1.518221e+002	-8.979987e+000	-1.246249e+002	-8.951219e+000	-1.246134e+002	-5.101913e+000	1.642836e+002
5370138900	-9.760286e+000	1.515245e+002	-9.013589e+000	-1.252583e+002	-8.991493e+000	-1.251859e+002	-5.085808e+000	1.640849e+002
5380138600	-9.626008e+000	1.511112e+002	-9.063395e+000	-1.258096e+002	-9.022610e+000	-1.258418e+002	-5.069704e+000	1.639515e+002
5390138300	-9.496018e+000	1.508066e+002	-9.091510e+000	-1.263185e+002	-9.091306e+000	-1.265168e+002	-5.043569e+000	1.638906e+002
5400138000	-9.375039e+000	1.503698e+002	-9.116685e+000	-1.269604e+002	-9.117673e+000	-1.271690e+002	-5.014544e+000	1.636757e+002
5410137700	-9.246931e+000	1.498622e+002	-9.173066e+000	-1.276457e+002	-9.162007e+000	-1.277993e+002	-4.981182e+000	1.634794e+002
5420137400	-9.137736e+000	1.492976e+002	-9.231306e+000	-1.281620e+002	-9.221492e+000	-1.282667e+002	-4.968177e+000	1.631970e+002
5430137100	-9.044727e+000	1.487169e+002	-9.306807e+000	-1.284788e+002	-9.286694e+000	-1.286284e+002	-4.986355e+000	1.629343e+002
5440136800	-8.985105e+000	1.481174e+002	-9.362862e+000	-1.286954e+002	-9.337717e+000	-1.286914e+002	-5.013278e+000	1.628251e+002
5450136500	-8.950776e+000	1.477943e+002	-9.397497e+000	-1.285451e+002	-9.361230e+000	-1.285400e+002	-5.060304e+000	1.630540e+002
5460136200	-8.892745e+000	1.478622e+002	-9.340738e+000	-1.287338e+002	-9.317830e+000	-1.284956e+002	-5.043870e+000	1.635988e+002
5470135900	-8.778738e+000	1.478631e+002	-9.286505e+000	-1.293743e+002	-9.256106e+000	-1.290938e+002	-4.960819e+000	1.639306e+002
5480135600	-8.644674e+000	1.475453e+002	-9.299638e+000	-1.303197e+002	-9.271635e+000	-1.301243e+002	-4.881463e+000	1.636571e+002
5490135300	-8.550845e+000	1.470118e+002	-9.356285e+000	-1.310002e+002	-9.335864e+000	-1.308173e+002	-4.842414e+000	1.633838e+002
5500135000	-8.482868e+000	1.465031e+002	-9.433349e+000	-1.315055e+002	-9.406745e+000	-1.312982e+002	-4.828436e+000	1.630903e+002
5510134700	-8.452428e+000	1.461777e+002	-9.485374e+000	-1.316609e+002	-9.441912e+000	-1.315571e+002	-4.826564e+000	1.629791e+002
5520134400	-8.420782e+000	1.461014e+002	-9.491513e+000	-1.318707e+002	-9.457010e+000	-1.317667e+002	-4.825439e+000	1.629665e+002
5530134100	-8.360124e+000	1.461888e+002	-9.471441e+000	-1.321900e+002	-9.450667e+000	-1.322192e+002	-4.808850e+000	1.630735e+002
5540133800	-8.268103e+000	1.461704e+002	-9.458844e+000	-1.329008e+002	-9.430150e+000	-1.328865e+002	-4.764819e+000	1.629522e+002
5550133500	-8.165966e+000	1.460187e+002	-9.484207e+000	-1.336359e+002	-9.455666e+000	-1.337530e+002	-4.716397e+000	1.627912e+002
5560133200	-8.068119e+000	1.455970e+002	-9.532565e+000	-1.343171e+002	-9.519372e+000	-1.344402e+002	-4.686900e+000	1.624680e+002
5570132900	-8.001045e+000	1.451852e+002	-9.588507e+000	-1.348544e+002	-9.581700e+000	-1.350444e+002	-4.676091e+000	1.621363e+002
5580132600	-7.937652e+000	1.448537e+002	-9.637004e+000	-1.352899e+002	-9.620202e+000	-1.354191e+002	-4.676782e+000	1.619582e+002
5590132300	-7.855912e+000	1.445268e+002	-9.684168e+000	-1.357390e+002	-9.644750e+000	-1.359091e+002	-4.663798e+000	1.617507e+002
5600132000	-7.774307e+000	1.441074e+002	-9.734029e+000	-1.363191e+002	-9.701959e+000	-1.364112e+002	-4.656502e+000	1.615576e+002
5610131700	-7.707310e+000	1.435875e+002	-9.820404e+000	-1.368003e+002	-9.794656e+000	-1.367228e+002	-4.665336e+000	1.612952e+002
5620131400	-7.659814e+000	1.431038e+002	-9.922220e+000	-1.370367e+002	-9.901745e+000	-1.369683e+002	-4.700566e+000	1.611166e+002
5630131100	-7.629935e+000	1.425735e+002	-1.002077e+001	-1.371265e+002	-9.988031e+000	-1.369125e+002	-4.742014e+000	1.610633e+002
5640130800	-7.622801e+000	1.422820e+002	-1.005887e+001	-1.368573e+002	-1.003768e+001	-1.367139e+002	-4.796192e+000	1.611848e+002
5650130500	-7.609631e+000	1.423172e+002	-1.003686e+001	-1.368214e+002	-1.002218e+001	-1.366007e+002	-4.807157e+000	1.614837e+002
5660130200	-7.546068e+000	1.423013e+002	-1.003096e+001	-1.372148e+002	-9.996476e+000	-1.370725e+002	-4.786532e+000	1.616713e+002
5670129900	-7.481160e+000	1.419721e+002	-1.006436e+001	-1.377124e+002	-1.003388e+001	-1.376584e+002	-4.759458e+000	1.614492e+002
5680129600	-7.458726e+000	1.415774e+002	-1.015771e+001	-1.379071e+002	-1.011925e+001	-1.378142e+002	-4.796456e+000	1.612926e+002
5690129300	-7.465384e+000	1.412333e+002	-1.019348e+001	-1.375903e+002	-1.017222e+001	-1.375838e+002	-4.857159e+000	1.614215e+002
5700129000	-7.485631e+000	1.413426e+002	-1.015508e+001	-1.371369e+002	-1.011840e+001	-1.371477e+002	-4.897225e+000	1.620243e+002
5710128700	-7.455016e+000	1.417212e+002	-1.002562e+001	-1.374011e+002	-9.997883e+000	-1.374210e+002	-4.833015e+000	1.626766e+002
5720128400	-7.339876e+000	1.417380e+002	-9.941175e+000	-1.384484e+002	-9.921608e+000	-1.386452e+002	-4.713881e+000	1.628028e+002
5730128100	-7.245696e+000	1.413197e+002	-9.971328e+000	-1.396050e+002	-9.953083e+000	-1.397523e+002	-4.629272e+000	1.624767e+002
5740127800	-7.192602e+000	1.406742e+002	-1.007597e+001	-1.402816e+002	-1.005345e+001	-1.404897e+002	-4.596294e+000	1.620432e+002
5750127500	-7.204463e+000	1.402166e+002	-1.017506e+001	-1.406224e+002	-1.013865e+001	-1.406417e+002	-4.600246e+000	1.617593e+002
5760127200	-7.203852e+000	1.399890e+002	-1.023219e+001	-1.406347e+002	-1.019278e+001	-1.406141e+002	-4.603454e+000	1.616486e+002
5770126900	-7.188981e+000	1.399476e+002	-1.024753e+001	-1.408716e+002	-1.022040e+001	-1.408198e+002	-4.609565e+000	1.616725e+002
5780126600	-7.141803e+000	1.398647e+002	-1.028267e+001	-1.412755e+002	-1.025884e+001	-1.411443e+002	-4.613747e+000	1.616080e+002
5790126300	-7.097590e+000	1.396525e+002	-1.033201e+001	-1.416264e+002	-1.030654e+001	-1.414632e+002	-4.614791e+000	1.614574e+002
5800126000	-7.056425e+000	1.393337e+002	-1.040802e+001	-1.420160e+002	-1.038869e+001	-1.417961e+002	-4.635475e+000	1.612599e+002
5810125700	-7.046702e+000	1.390605e+002	-1.048561e+001	-1.420569e+002	-1.047445e+001	-1.418592e+002	-4.683789e+000	1.611278e+002
5820125400	-7.045444e+000	1.389335e+002	-1.054389e+001	-1.418733e+002	-1.051658e+001	-1.417808e+002	-4.731751e+000	1.610970e+002
5830125100	-7.021057e+000	1.387965e+002	-1.056308e+001	-1.419585e+002	-1.054661e+001	-1.418787e+002	-4.752145e+000	1.611815e+002
5840124800	-7.004500e+000	1.384930e+002	-1.062743e+001	-1.420587e+002	-1.060281e+001	-1.419431e+002	-4.787308e+000	1.611973e+002
5850124500	-7.020678e+000	1.382501e+002	-1.071965e+001	-1.418045e+002	-1.067238e+001	-1.417155e+002	-4.858257e+000	1.612299e+002
5860124200	-7.071863e+000	1.381932e+002	-1.074286e+001	-1.410836e+002	-1.069625e+001	-1.410256e+002	-4.930882e+000	1.616302e+002
5870123900	-7.117153e+000	1.383658e+002	-1.067971e+001	-1.403570e+002	-1.064259e+001	-1.403930e+002	-4.976029e+000	1.623045e+002
5880123600	-7.140187e+000	1.388183e+002	-1.055642e+001	-1.399332e+002	-1.050535e+001	-1.399928e+002	-4.961364e+000	1.631421e+002
5890123300	-7.117100e+000	1.393497e+002	-1.039006e+001	-1.400741e+002	-1.036193e+001	-1.401889e+002	-4.890796e+000	1.638722e+002
5900123000	-7.043269e+000	1.397697e+002	-1.026034e+001	-1.407161e+002	-1.021961e+001	-1.407899e+002	-4.793119e+000	1.642848e+002
5910122700	-6.955698e+000	1.398649e+002	-1.018768e+001	-1.416683e+002	-1.014666e+001	-1.416628e+002	-4.684860e+000	1.643958e+002
5920122400	-6.887674e+000	1.397179e+002	-1.018913e+001	-1.425393e+002	-1.014486e+001	-1.424980e+002	-4.614544e+000	1.643630e+002
5930122100	-6.840052e+000	1.395367e+002	-1.020824e+001	-1.430831e+002	-1.018151e+001	-1.429474e+002	-4.600855e+000	1.643555e+002
5940121800	-6.793488e+000	1.394621e+002	-1.020597e+001	-1.434539e+002	-1.018150e+001	-1.432970e+002	-4.574794e+000	1.645106e+002
5950121500	-6.740083e+000	1.394297e+002	-1.018705e+001	-1.439252e+002	-1.015012e+001	-1.438006e+002	-4.538039e+000	1.646400e+002
5960121200	-6.679570e+000	1.392439e+002	-1.015345e+001	-1.447319e+002	-1.014788e+001	-1.445390e+002	-4.482182e+000	1.646949e+002
5970120900	-6.621214e+000	1.389318e+002	-1.018432e+001	-1.455978e+002	-1.017182e+001	-1.454824e+002	-4.424234e+000	1.643515e+002
5980120600	-6.581176e+000	1.384332e+002	-1.028773e+001	-1.463372e+002	-1.026797e+001	-1.462471e+002	-4.414762e+000	1.639416e+002
5990120300	-6.606009e+000	1.379948e+002	-1.039914e+001	-1.465129e+002	-1.036585e+001	-1.464030e+002	-4.442945e+000	1.635879e+002
6000120000	-6.641727e+000	1.378650e+002	-1.046777e+001	-1.463155e+002	-1.043582e+001	-1.462295e+002	-4.476262e+000	1.635615e+002
6010119700	-6.676824e+000	1.380365e+002	-1.047278e+001	-1.461390e+002	-1.043758e+001	-1.460316e+002	-4.515290e+000	1.636989e+002
6020119400	-6.667094e+000	1.382596e+002	-1.045052e+001	-1.460246e+002	-1.041824e+001	-1.459945e+002	-4.530800e+000	1.639817e+002
6030119100	-6.644245e+000	1.384943e+002	-1.039790e+001	-1.461223e+002	-1.035266e+001	-1.460624e+002	-4.515874e+000	1.642941e+002
6040118800	-6.598805e+000	1.386469e+002	-1.036729e+001	-1.465487e+002	-1.031182e+001	-1.465848e+002	-4.484537e+000	1.644610e+002
6050118500	-6.575923e+000	1.386513e+002	-1.035122e+001	-1.468821e+002	-1.031267e+001	-1.469890e+002	-4.460687e+000	1.645929e+002
6060118200	-6.545425e+000	1.385413e+002	-1.033431e+001	-1.471977e+002	-1.030086e+001	-1.472626e+002	-4.443327e+000	1.646800e+002
6070117900	-6.519038e+000	1.385384e+002	-1.034540e+001	-1.474598e+002	-1.030399e+001	-1.473992e+002	-4.418364e+000	1.648629e+002
6080117600	-6.497696e+000	1.384916e+002	-1.033948e+001	-1.476361e+002	-1.031282e+001	-1.474671e+002	-4.408056e+000	1.651730e+002
6090117300	-6.495302e+000	1.386222e+002	-1.030020e+001	-1.476681e+002	-1.028140e+001	-1.475721e+002	-4.389290e+000	1.656393e+002
6100117000	-6.465308e+000	1.387958e+002	-1.022592e+001	-1.479490e+002	-1.022045e+001	-1.477768e+002	-4.348580e+000	1.660266e+002
6110116700	-6.424797e+000	1.389559e+002	-1.015944e+001	-1.484503e+002	-1.015733e+001	-1.482545e+002	-4.286436e+000	1.662299e+002
6120116400	-6.358533e+000	1.389973e+002	-1.011338e+001	-1.491331e+002	-1.010757e+001	-1.489215e+002	-4.228781e+000	1.662691e+002
6130116100	-6.299645e+000	1.390063e+002	-1.008896e+001	-1.498484e+002	-1.008055e+001	-1.496583e+002	-4.184579e+000	1.662118e+002
6140115800	-6.237849e+000	1.389018e+002	-1.008235e+001	-1.505149e+002	-1.006814e+001	-1.504097e+002	-4.140854e+000	1.660732e+002
6150115500	-6.196131e+000	1.387753e+002	-1.009361e+001	-1.512882e+002	-1.006879e+001	-1.511105e+002	-4.110654e+000	1.658576e+002
6160115200	-6.153464e+000	1.386631e+002	-1.012515e+001	-1.518737e+002	-1.008427e+001	-1.516643e+002	-4.085110e+000	1.657424e+002
6170114900	-6.108034e+000	1.385094e+002	-1.014458e+001	-1.523781e+002	-1.009747e+001	-1.522521e+002	-4.071323e+000	1.657039e+002
6180114600	-6.068621e+000	1.384378e+002	-1.013692e+001	-1.529358e+002	-1.009924e+001	-1.528816e+002	-4.046477e+000	1.656383e+002
6190114300	-6.029533e+000	1.382219e+002	-1.016314e+001	-1.535629e+002	-1.011662e+001	-1.535178e+002	-4.021183e+000	1.655678e+002
6200114000	-5.981353e+000	1.380227e+002	-1.019282e+001	-1.541611e+002	-1.013799e+001	-1.541855e+002	-3.989480e+000	1.654461e+002
6210113700	-5.959782e+000	1.376811e+002	-1.022507e+001	-1.547593e+002	-1.017016e+001	-1.548666e+002	-3.972748e+000	1.652499e+002
6220113400	-5.930773e+000	1.373673e+002	-1.028230e+001	-1.553733e+002	-1.023619e+001	-1.553163e+002	-3.962136e+000	1.651434e+002
6230113100	-5.929904e+000	1.369081e+002	-1.034899e+001	-1.558178e+002	-1.030582e+001	-1.556955e+002	-3.946756e+000	1.649915e+002
6240112800	-5.965664e+000	1.366470e+002	-1.043264e+001	-1.560659e+002	-1.040400e+001	-1.558785e+002	-3.956615e+000	1.650125e+002
6250112500	-6.010860e+000	1.365436e+002	-1.048641e+001	-1.559933e+002	-1.046419e+001	-1.557920e+002	-3.978901e+000	1.652567e+002
6260112200	-6.036891e+000	1.366945e+002	-1.047980e+001	-1.558422e+002	-1.048226e+001	-1.556957e+002	-3.996441e+000	1.655022e+002
6270111900	-6.025517e+000	1.369447e+002	-1.045515e+001	-1.559449e+002	-1.044668e+001	-1.557510e+002	-3.989233e+000	1.657299e+002
6280111600	-5.992009e+000	1.370727e+002	-1.042175e+001	-1.563298e+002	-1.041269e+001	-1.560319e+002	-3.959780e+000	1.658538e+002
6290111300	-5.966915e+000	1.371186e+002	-1.041375e+001	-1.566839e+002	-1.040122e+001	-1.565111e+002	-3.944941e+000	1.658627e+002
6300111000	-5.921702e+000	1.372038e+002	-1.042156e+001	-1.570935e+002	-1.039248e+001	-1.569179e+002	-3.940276e+000	1.659004e+002
6310110700	-5.902738e+000	1.371796e+002	-1.041033e+001	-1.575266e+002	-1.038190e+001	-1.573029e+002	-3.926055e+000	1.658695e+002
6320110400	-5.872728e+000	1.371517e+002	-1.042672e+001	-1.579170e+002	-1.038995e+001	-1.576715e+002	-3.910721e+000	1.659426e+002
6330110100	-5.863431e+000	1.371123e+002	-1.041844e+001	-1.582957e+002	-1.038104e+001	-1.581341e+002	-3.893717e+000	1.659813e+002
6340109800	-5.830846e+000	1.371427e+002	-1.041687e+001	-1.587261e+002	-1.038352e+001	-1.585813e+002	-3.876021e+000	1.660287e+002
6350109500	-5.799918e+000	1.370790e+002	-1.042002e+001	-1.591619e+002	-1.036962e+001	-1.590561e+002	-3.851636e+000	1.660211e+002
6360109200	-5.772087e+000	1.370124e+002	-1.042669e+001	-1.596024e+002	-1.037103e+001	-1.596637e+002	-3.831319e+000	1.660468e+002
6370108900	-5.749634e+000	1.369604e+002	-1.044651e+001	-1.601833e+002	-1.039480e+001	-1.601288e+002	-3.803009e+000	1.659736e+002
6380108600	-5.725325e+000	1.369205e+002	-1.044792e+001	-1.606071e+002	-1.040183e+001	-1.606264e+002	-3.791264e+000	1.659612e+002
6390108300	-5.697431e+000	1.367365e+002	-1.047307e+001	-1.610779e+002	-1.043096e+001	-1.610101e+002	-3.766029e+000	1.659853e+002
6400108000	-5.671993e+000	1.366301e+002	-1.049468e+001	-1.615526e+002	-1.046429e+001	-1.614691e+002	-3.741652e+000	1.660093e+002
6410107700	-5.648588e+000	1.364508e+002	-1.050991e+001	-1.620128e+002	-1.050337e+001	-1.618461e+002	-3.735762e+000	1.660562e+002
6420107400	-5.625510e+000	1.363110e+002	-1.053801e+001	-1.624531e+002	-1.053053e+001	-1.622932e+002	-3.727541e+000	1.661049e+002
6430107100	-5.596114e+000	1.360977e+002	-1.056267e+001	-1.629089e+002	-1.056945e+001	-1.627359e+002	-3.719532e+000	1.661285e+002
6440106800	-5.583741e+000	1.358568e+002	-1.059414e+001	-1.633112e+002	-1.057944e+001	-1.631068e+002	-3.717624e+000	1.660785e+002
6450106500	-5.574912e+000	1.356015e+002	-1.061004e+001	-1.636610e+002	-1.060423e+001	-1.634716e+002	-3.711945e+000	1.660381e+002
6460106200	-5.569256e+000	1.353966e+002	-1.065580e+001	-1.640776e+002	-1.063017e+001	-1.638418e+002	-3.714304e+000	1.660153e+002
6470105900	-5.586843e+000	1.351589e+002	-1.067949e+001	-1.644116e+002	-1.066306e+001	-1.642560e+002	-3.716592e+000	1.659715e+002
6480105600	-5.612546e+000	1.349962e+002	-1.073574e+001	-1.647874e+002	-1.069591e+001	-1.645534e+002	-3.722097e+000	1.659382e+002
6490105300	-5.635335e+000	1.349353e+002	-1.078553e+001	-1.651138e+002	-1.073807e+001	-1.649419e+002	-3.736725e+000	1.660020e+002
6500105000	-5.652540e+000	1.350126e+002	-1.082184e+001	-1.652569e+002	-1.077448e+001	-1.651125e+002	-3.750289e+000	1.660895e+002
6510104700	-5.681114e+000	1.351011e+002	-1.084062e+001	-1.653559e+002	-1.079277e+001	-1.652255e+002	-3.754147e+000	1.662412e+002
6520104400	-5.684204e+000	1.352481e+002	-1.084214e+001	-1.654965e+002	-1.078723e+001	-1.654062e+002	-3.744703e+000	1.663678e+002
6530104100	-5.672852e+000	1.353914e+002	-1.083982e+001	-1.658535e+002	-1.078816e+001	-1.657477e+002	-3.726078e+000	1.664485e+002
6540103800	-5.653339e+000	1.354430e+002	-1.083863e+001	-1.661364e+002	-1.078426e+001	-1.660253e+002	-3.713011e+000	1.665059e+002
6550103500	-5.630745e+000	1.355163e+002	-1.084065e+001	-1.665410e+002	-1.080884e+001	-1.663274e+002	-3.690784e+000	1.666099e+002
6560103200	-5.602333e+000	1.355402e+002	-1.084489e+001	-1.668528e+002	-1.083235e+001	-1.666912e+002	-3.672512e+000	1.667400e+002
6570102900	-5.576278e+000	1.354980e+002	-1.085253e+001	-1.672323e+002	-1.084403e+001	-1.670588e+002	-3.665186e+000	1.668230e+002
6580102600	-5.551895e+000	1.354560e+002	-1.085969e+001	-1.676289e+002	-1.085921e+001	-1.675023e+002	-3.646026e+000	1.669299e+002
6590102300	-5.527932e+000	1.353093e+002	-1.088123e+001	-1.679893e+002	-1.086422e+001	-1.678380e+002	-3.638893e+000	1.669284e+002
6600102000	-5.505058e+000	1.351294e+002	-1.089590e+001	-1.683957e+002	-1.088892e+001	-1.682804e+002	-3.633318e+000	1.669660e+002
6610101700	-5.481670e+000	1.349812e+002	-1.092345e+001	-1.687158e+002	-1.089729e+001	-1.686257e+002	-3.630001e+000	1.669363e+002
6620101400	-5.468635e+000	1.347737e+002	-1.094992e+001	-1.690406e+002	-1.092802e+001	-1.689549e+002	-3.621041e+000	1.669721e+002
6630101100	-5.464088e+000	1.345188e+002	-1.097393e+001	-1.693885e+002	-1.094565e+001	-1.693128e+002	-3.620192e+000	1.670183e+002
6640100800	-5.462707e+000	1.342522e+002	-1.099940e+001	-1.697361e+002	-1.097046e+001	-1.695142e+002	-3.623662e+000	1.670492e+002
6650100500	-5.472757e+000	1.340455e+002	-1.102704e+001	-1.700135e+002	-1.099559e+001	-1.697944e+002	-3.618445e+000	1.671388e+002
6660100200	-5.506763e+000	1.338155e+002	-1.104587e+001	-1.701486e+002	-1.101193e+001	-1.700617e+002	-3.609461e+000	1.672133e+002
6670099900	-5.534904e+000	1.336126e+002	-1.106719e+001	-1.704253e+002	-1.102552e+001	-1.703164e+002	-3.604954e+000	1.672884e+002
6680099600	-5.592198e+000	1.335862e+002	-1.108055e+001	-1.706446e+002	-1.102549e+001	-1.705492e+002	-3.600339e+000	1.673419e+002
6690099300	-5.635689e+000	1.335895e+002	-1.106799e+001	-1.709667e+002	-1.102853e+001	-1.708093e+002	-3.593836e+000	1.673354e+002
6700099000	-5.672399e+000	1.337083e+002	-1.107254e+001	-1.712087e+002	-1.103552e+001	-1.711019e+002	-3.582463e+000	1.673614e+002
6710098700	-5.695850e+000	1.338970e+002	-1.107946e+001	-1.716092e+002	-1.106210e+001	-1.714688e+002	-3.574299e+000	1.674694e+002
6720098400	-5.701981e+000	1.340181e+002	-1.109117e+001	-1.720505e+002	-1.107218e+001	-1.720047e+002	-3.573717e+000	1.675238e+002
6730098100	-5.691057e+000	1.341417e+002	-1.112197e+001	-1.725615e+002	-1.110168e+001	-1.723892e+002	-3.572688e+000	1.676236e+002
6740097800	-5.683924e+000	1.342100e+002	-1.115058e+001	-1.729603e+002	-1.114618e+001	-1.727748e+002	-3.571292e+000	1.676837e+002
6750097500	-5.686034e+000	1.341629e+002	-1.120348e+001	-1.732144e+002	-1.119058e+001	-1.730508e+002	-3.575958e+000	1.677536e+002
6760097200	-5.683195e+000	1.341472e+002	-1.123128e+001	-1.733800e+002	-1.121339e+001	-1.731799e+002	-3.582095e+000	1.678701e+002
6770096900	-5.702857e+000	1.341904e+002	-1.125524e+001	-1.734204e+002	-1.124123e+001	-1.732613e+002	-3.578452e+000	1.679803e+002
6780096600	-5.712074e+000	1.343043e+002	-1.126165e+001	-1.734855e+002	-1.123909e+001	-1.733400e+002	-3.573583e+000	1.680943e+002
6790096300	-5.709789e+000	1.345187e+002	-1.124381e+001	-1.737345e+002	-1.121361e+001	-1.734952e+002	-3.567044e+000	1.681406e+002
6800096000	-5.688385e+000	1.346421e+002	-1.122761e+001	-1.740298e+002	-1.120089e+001	-1.737657e+002	-3.556910e+000	1.682169e+002
6810095700	-5.657980e+000	1.347252e+002	-1.123051e+001	-1.744051e+002	-1.120236e+001	-1.741762e+002	-3.546219e+000	1.682892e+002
6820095400	-5.644767e+000	1.346839e+002	-1.123388e+001	-1.747048e+002	-1.120195e+001	-1.745279e+002	-3.537449e+000	1.683670e+002
6830095100	-5.637025e+000	1.345218e+002	-1.126158e+001	-1.750535e+002	-1.120904e+001	-1.748131e+002	-3.533062e+000	1.684623e+002
6840094800	-5.644122e+000	1.343544e+002	-1.127066e+001	-1.753212e+002	-1.121837e+001	-1.751893e+002	-3.530513e+000	1.685412e+002
6850094500	-5.677668e+000	1.342034e+002	-1.126029e+001	-1.756151e+002	-1.122098e+001	-1.753809e+002	-3.517636e+000	1.685689e+002
6860094200	-5.723306e+000	1.341531e+002	-1.127714e+001	-1.758805e+002	-1.122956e+001	-1.756257e+002	-3.507437e+000	1.686178e+002
6870093900	-5.760617e+000	1.342204e+002	-1.125387e+001	-1.761927e+002	-1.123904e+001	-1.759634e+002	-3.497183e+000	1.686911e+002
6880093600	-5.796422e+000	1.343489e+002	-1.124884e+001	-1.765762e+002	-1.124395e+001	-1.764018e+002	-3.486645e+000	1.687926e+002
6890093300	-5.824792e+000	1.345583e+002	-1.125000e+001	-1.768875e+002	-1.123709e+001	-1.767618e+002	-3.479694e+000	1.688313e+002
6900093000	-5.847035e+000	1.347446e+002	-1.125289e+001	-1.773341e+002	-1.124156e+001	-1.771411e+002	-3.476015e+000	1.688991e+002
6910092700	-5.851223e+000	1.348964e+002	-1.126482e+001	-1.777218e+002	-1.125643e+001	-1.775561e+002	-3.479649e+000	1.689261e+002
6920092400	-5.859323e+000	1.350866e+002	-1.126586e+001	-1.781444e+002	-1.125486e+001	-1.779308e+002	-3.476949e+000	1.689782e+002
6930092100	-5.844368e+000	1.352672e+002	-1.128253e+001	-1.786065e+002	-1.125949e+001	-1.783818e+002	-3.481534e+000	1.690211e+002
6940091800	-5.840444e+000	1.354160e+002	-1.129626e+001	-1.789727e+002	-1.127678e+001	-1.787540e+002	-3.484705e+000	1.690766e+002
6950091500	-5.825049e+000	1.355320e+002	-1.131406e+001	-1.793930e+002	-1.128757e+001	-1.791663e+002	-3.488484e+000	1.691530e+002
6960091200	-5.812073e+000	1.356152e+002	-1.134203e+001	-1.798109e+002	-1.131562e+001	-1.796170e+002	-3.487244e+000	1.692121e+002
6970090900	-5.799716e+000	1.356824e+002	-1.136570e+001	1.798387e+002	-1.134993e+001	-1.799922e+002	-3.483620e+000	1.693087e+002
6980090600	-5.791368e+000	1.357063e+002	-1.140120e+001	1.795081e+002	-1.136830e+001	1.797934e+002	-3.492581e+000	1.694226e+002
6990090300	-5.796688e+000	1.357089e+002	-1.143031e+001	1.793600e+002	-1.138693e+001	1.796260e+002	-3.486520e+000	1.695464e+002
7000090000	-5.799479e+000	1.357232e+002	-1.144386e+001	1.790722e+002	-1.139848e+001	1.793228e+002	-3.480979e+000	1.696898e+002
7010089700	-5.813209e+000	1.358148e+002	-1.146150e+001	1.788692e+002	-1.141767e+001	1.790441e+002	-3.478526e+000	1.698047e+002
7020089400	-5.832475e+000	1.359347e+002	-1.146376e+001	1.785915e+002	-1.142798e+001	1.788815e+002	-3.476967e+000	1.698907e+002
7030089100	-5.840860e+000	1.360242e+002	-1.147524e+001	1.784054e+002	-1.145363e+001	1.786213e+002	-3.465940e+000	1.699151e+002
7040088800	-5.853404e+000	1.361942e+002	-1.147455e+001	1.780988e+002	-1.144978e+001	1.783217e+002	-3.455852e+000	1.700661e+002
7050088500	-5.845633e+000	1.363254e+002	-1.147535e+001	1.778793e+002	-1.145551e+001	1.779913e+002	-3.440289e+000	1.701703e+002
7060088200	-5.852706e+000	1.364056e+002	-1.147293e+001	1.774548e+002	-1.144530e+001	1.776274e+002	-3.430538e+000	1.702632e+002
7070087900	-5.846801e+000	1.364420e+002	-1.146384e+001	1.771027e+002	-1.144452e+001	1.772713e+002	-3.430049e+000	1.702961e+002
7080087600	-5.854169e+000	1.364967e+002	-1.146519e+001	1.767600e+002	-1.144937e+001	1.769475e+002	-3.435255e+000	1.703795e+002
7090087300	-5.864840e+000	1.365769e+002	-1.147647e+001	1.764402e+002	-1.144989e+001	1.765168e+002	-3.432748e+000	1.704518e+002
7100087000	-5.875930e+000	1.366849e+002	-1.147089e+001	1.760697e+002	-1.145872e+001	1.762795e+002	-3.433830e+000	1.704977e+002
7110086700	-5.882139e+000	1.368233e+002	-1.148073e+001	1.756184e+002	-1.145087e+001	1.758466e+002	-3.437611e+000	1.705416e+002
7120086400	-5.888590e+000	1.369547e+002	-1.148416e+001	1.752529e+002	-1.145880e+001	1.754513e+002	-3.434833e+000	1.706387e+002
7130086100	-5.888807e+000	1.371697e+002	-1.149471e+001	1.748281e+002	-1.147232e+001	1.750651e+002	-3.432400e+000	1.707397e+002
7140085800	-5.889724e+000	1.373428e+002	-1.150184e+001	1.745039e+002	-1.148324e+001	1.746483e+002	-3.428757e+000	1.708413e+002
7150085500	-5.881441e+000	1.375013e+002	-1.152563e+001	1.740577e+002	-1.148872e+001	1.743371e+002	-3.432591e+000	1.709438e+002
7160085200	-5.881141e+000	1.376645e+002	-1.154017e+001	1.736963e+002	-1.149360e+001	1.739403e+002	-3.431255e+000	1.710674e+002
7170084900	-5.877805e+000	1.377759e+002	-1.155874e+001	1.733314e+002	-1.151031e+001	1.735624e+002	-3.433174e+000	1.712047e+002
7180084600	-5.877077e+000	1.379119e+002	-1.157250e+001	1.729074e+002	-1.153195e+001	1.731874e+002	-3.433747e+000	1.712840e+002
7190084300	-5.875470e+000	1.380285e+002	-1.159432e+001	1.725441e+002	-1.156474e+001	1.727893e+002	-3.427047e+000	1.713178e+002
7200084000	-5.874244e+000	1.381369e+002	-1.161606e+001	1.722304e+002	-1.158253e+001	1.723786e+002	-3.419505e+000	1.714498e+002
7210083700	-5.863288e+000	1.381681e+002	-1.163353e+001	1.718467e+002	-1.160357e+001	1.720127e+002	-3.401886e+000	1.715305e+002
7220083400	-5.859476e+000	1.382251e+002	-1.165357e+001	1.715592e+002	-1.162977e+001	1.716491e+002	-3.397323e+000	1.716259e+002
7230083100	-5.853192e+000	1.382671e+002	-1.166261e+001	1.712897e+002	-1.165181e+001	1.714452e+002	-3.390248e+000	1.717357e+002
7240082800	-5.858919e+000	1.383429e+002	-1.167754e+001	1.709909e+002	-1.166602e+001	1.711603e+002	-3.389931e+000	1.718225e+002
7250082500	-5.862229e+000	1.384232e+002	-1.168445e+001	1.707309e+002	-1.168110e+001	1.708528e+002	-3.390862e+000	1.718834e+002
7260082200	-5.868046e+000	1.384671e+002	-1.169484e+001	1.704002e+002	-1.168011e+001	1.705321e+002	-3.387920e+000	1.719738e+002
7270081900	-5.869653e+000	1.385844e+002	-1.170872e+001	1.700712e+002	-1.169542e+001	1.703033e+002	-3.387741e+000	1.720649e+002
7280081600	-5.868752e+000	1.386996e+002	-1.172233e+001	1.697916e+002	-1.169705e+001	1.699180e+002	-3.385786e+000	1.721976e+002
7290081300	-5.873730e+000	1.388092e+002	-1.172861e+001	1.694954e+002	-1.171844e+001	1.696346e+002	-3.388242e+000	1.722846e+002
7300081000	-5.877293e+000	1.389225e+002	-1.174029e+001	1.691100e+002	-1.171994e+001	1.693185e+002	-3.384172e+000	1.724108e+002
7310080700	-5.887375e+000	1.391157e+002	-1.174596e+001	1.688423e+002	-1.171407e+001	1.690473e+002	-3.383759e+000	1.725292e+002
7320080400	-5.900730e+000	1.392678e+002	-1.176149e+001	1.685021e+002	-1.170755e+001	1.688051e+002	-3.379488e+000	1.726965e+002
7330080100	-5.902654e+000	1.394814e+002	-1.175754e+001	1.680629e+002	-1.171494e+001	1.684148e+002	-3.381999e+000	1.728092e+002
7340079800	-5.905989e+000	1.396500e+002	-1.177240e+001	1.676791e+002	-1.173717e+001	1.680333e+002	-3.389686e+000	1.729405e+002
7350079500	-5.906247e+000	1.398210e+002	-1.177809e+001	1.673588e+002	-1.174393e+001	1.676539e+002	-3.385544e+000	1.730220e+002
7360079200	-5.907028e+000	1.399552e+002	-1.178167e+001	1.669519e+002	-1.175216e+001	1.671665e+002	-3.373419e+000	1.731072e+002
7370078900	-5.900866e+000	1.400649e+002	-1.179660e+001	1.666090e+002	-1.175602e+001	1.667611e+002	-3.353021e+000	1.731359e+002
7380078600	-5.905284e+000	1.401743e+002	-1.181020e+001	1.661646e+002	-1.177356e+001	1.663206e+002	-3.345320e+000	1.732027e+002
7390078300	-5.904439e+000	1.402735e+002	-1.182301e+001	1.657570e+002	-1.178766e+001	1.659425e+002	-3.344215e+000	1.732703e+002
7400078000	-5.894587e+000	1.403371e+002	-1.184157e+001	1.654414e+002	-1.180974e+001	1.655358e+002	-3.339700e+000	1.733636e+002
7410077700	-5.891319e+000	1.404304e+002	-1.184899e+001	1.649987e+002	-1.181862e+001	1.651055e+002	-3.344708e+000	1.734624e+002
7420077400	-5.878267e+000	1.404933e+002	-1.186691e+001	1.646749e+002	-1.184289e+001	1.647855e+002	-3.336205e+000	1.735924e+002
7430077100	-5.866132e+000	1.406132e+002	-1.187836e+001	1.643014e+002	-1.186738e+001	1.644563e+002	-3.341700e+000	1.737071e+002
7440076800	-5.858502e+000	1.406709e+002	-1.189539e+001	1.639746e+002	-1.187617e+001	1.641053e+002	-3.335756e+000	1.738267e+002
7450076500	-5.853701e+000	1.407396e+002	-1.191767e+001	1.636326e+002	-1.189286e+001	1.638288e+002	-3.332040e+000	1.739093e+002
7460076200	-5.851460e+000	1.408236e+002	-1.194706e+001	1.632381e+002	-1.191733e+001	1.634698e+002	-3.325708e+000	1.740220e+002
7470075900	-5.842441e+000	1.409753e+002	-1.196517e+001	1.629977e+002	-1.193372e+001	1.632213e+002	-3.318064e+000	1.741470e+002
7480075600	-5.841116e+000	1.411217e+002	-1.197334e+001	1.626350e+002	-1.193608e+001	1.630257e+002	-3.316353e+000	1.743229e+002
7490075300	-5.846199e+000	1.412317e+002	-1.200144e+001	1.623718e+002	-1.194688e+001	1.627027e+002	-3.320259e+000	1.744719e+002
7500075000	-5.848946e+000	1.413533e+002	-1.201311e+001	1.619632e+002	-1.197333e+001	1.622392e+002	-3.320932e+000	1.745408e+002
7510074700	-5.853485e+000	1.414710e+002	-1.201544e+001	1.616317e+002	-1.198539e+001	1.618967e+002	-3.322012e+000	1.746879e+002
7520074400	-5.863522e+000	1.416093e+002	-1.203692e+001	1.613243e+002	-1.199745e+001	1.614645e+002	-3.308978e+000	1.746718e+002
7530074100	-5.867712e+000	1.417191e+002	-1.204818e+001	1.609374e+002	-1.200172e+001	1.611174e+002	-3.286817e+000	1.747026e+002
7540073800	-5.877928e+000	1.419007e+002	-1.205750e+001	1.605883e+002	-1.202265e+001	1.607764e+002	-3.285213e+000	1.747279e+002
7550073500	-5.880404e+000	1.419814e+002	-1.206468e+001	1.602358e+002	-1.202986e+001	1.604284e+002	-3.284816e+000	1.748140e+002
7560073200	-5.885510e+000	1.421041e+002	-1.207036e+001	1.599483e+002	-1.204098e+001	1.601211e+002	-3.285950e+000	1.749211e+002
7570072900	-5.885381e+000	1.422638e+002	-1.207366e+001	1.596437e+002	-1.205437e+001	1.597951e+002	-3.280080e+000	1.750935e+002
7580072600	-5.884046e+000	1.424377e+002	-1.210401e+001	1.593339e+002	-1.206645e+001	1.594445e+002	-3.282160e+000	1.751759e+002
7590072300	-5.884402e+000	1.425634e+002	-1.209641e+001	1.588662e+002	-1.207615e+001	1.591033e+002	-3.278265e+000	1.753073e+002
7600072000	-5.865158e+000	1.427431e+002	-1.211258e+001	1.585754e+002	-1.208359e+001	1.587220e+002	-3.276411e+000	1.754380e+002
7610071700	-5.859097e+000	1.428842e+002	-1.212819e+001	1.581523e+002	-1.208872e+001	1.583194e+002	-3.266549e+000	1.755320e+002
7620071400	-5.836697e+000	1.430412e+002	-1.214348e+001	1.577485e+002	-1.209795e+001	1.580107e+002	-3.262331e+000	1.756516e+002
7630071100	-5.829660e+000	1.431781e+002	-1.215651e+001	1.574322e+002	-1.211889e+001	1.576159e+002	-3.255582e+000	1.757858e+002
7640070800	-5.814006e+000	1.433254e+002	-1.217495e+001	1.569956e+002	-1.213775e+001	1.573302e+002	-3.249360e+000	1.759327e+002
7650070500	-5.813092e+000	1.434977e+002	-1.218766e+001	1.566241e+002	-1.214597e+001	1.569142e+002	-3.249156e+000	1.761010e+002
7660070200	-5.805279e+000	1.436485e+002	-1.220389e+001	1.563232e+002	-1.217126e+001	1.565846e+002	-3.252974e+000	1.761843e+002
7670069900	-5.801189e+000	1.437764e+002	-1.223069e+001	1.558648e+002	-1.219282e+001	1.561043e+002	-3.249720e+000	1.762086e+002
7680069600	-5.790910e+000	1.439221e+002	-1.224266e+001	1.555387e+002	-1.220739e+001	1.557104e+002	-3.237768e+000	1.762702e+002
7690069300	-5.777782e+000	1.440514e+002	-1.226952e+001	1.552470e+002	-1.221968e+001	1.552661e+002	-3.220510e+000	1.762602e+002
7700069000	-5.779264e+000	1.441507e+002	-1.229507e+001	1.548864e+002	-1.223318e+001	1.549934e+002	-3.211895e+000	1.763183e+002
7710068700	-5.770957e+000	1.442100e+002	-1.232275e+001	1.545229e+002	-1.226122e+001	1.545838e+002	-3.219732e+000	1.764575e+002
7720068400	-5.770704e+000	1.441515e+002	-1.232053e+001	1.541925e+002	-1.227848e+001	1.542970e+002	-3.214560e+000	1.766005e+002
7730068100	-5.770060e+000	1.442139e+002	-1.233809e+001	1.538763e+002	-1.230657e+001	1.540371e+002	-3.211647e+000	1.766822e+002
7740067800	-5.778653e+000	1.442324e+002	-1.235642e+001	1.535777e+002	-1.231348e+001	1.536904e+002	-3.205755e+000	1.768241e+002
7750067500	-5.784583e+000	1.443329e+002	-1.237220e+001	1.533386e+002	-1.232960e+001	1.534497e+002	-3.213712e+000	1.768524e+002
7760067200	-5.782477e+000	1.444848e+002	-1.237480e+001	1.529568e+002	-1.232711e+001	1.531289e+002	-3.203313e+000	1.769714e+002
7770066900	-5.774791e+000	1.445714e+002	-1.237307e+001	1.526223e+002	-1.233786e+001	1.527910e+002	-3.200135e+000	1.770402e+002
7780066600	-5.766544e+000	1.447021e+002	-1.239735e+001	1.522801e+002	-1.233976e+001	1.524241e+002	-3.193061e+000	1.771033e+002
7790066300	-5.753103e+000	1.448439e+002	-1.239430e+001	1.518821e+002	-1.234486e+001	1.520123e+002	-3.194667e+000	1.771775e+002
7800066000	-5.754120e+000	1.450029e+002	-1.241075e+001	1.514397e+002	-1.237429e+001	1.517168e+002	-3.191024e+000	1.773200e+002
7810065700	-5.749544e+000	1.451803e+002	-1.242672e+001	1.511181e+002	-1.239505e+001	1.513150e+002	-3.189538e+000	1.774295e+002
7820065400	-5.752018e+000	1.454005e+002	-1.245659e+001	1.507275e+002	-1.241651e+001	1.508814e+002	-3.198553e+000	1.774793e+002
7830065100	-5.748440e+000	1.455808e+002	-1.247249e+001	1.503635e+002	-1.243178e+001	1.504610e+002	-3.196950e+000	1.775618e+002
7840064800	-5.744902e+000	1.458578e+002	-1.248988e+001	1.499997e+002	-1.244351e+001	1.500829e+002	-3.175111e+000	1.776076e+002
7850064500	-5.736948e+000	1.460511e+002	-1.251551e+001	1.496512e+002	-1.245363e+001	1.496985e+002	-3.160198e+000	1.775996e+002
7860064200	-5.726579e+000	1.462301e+002	-1.253248e+001	1.492916e+002	-1.246369e+001	1.493895e+002	-3.156161e+000	1.777177e+002
7870063900	-5.703842e+000	1.463421e+002	-1.255056e+001	1.489081e+002	-1.249294e+001	1.489811e+002	-3.156148e+000	1.778749e+002
7880063600	-5.696508e+000	1.464236e+002	-1.256352e+001	1.485439e+002	-1.250158e+001	1.486704e+002	-3.150629e+000	1.780025e+002
7890063300	-5.671341e+000	1.464374e+002	-1.257963e+001	1.482203e+002	-1.252603e+001	1.483335e+002	-3.148368e+000	1.781584e+002
7900063000	-5.654116e+000	1.464451e+002	-1.260193e+001	1.479045e+002	-1.256613e+001	1.479579e+002	-3.153241e+000	1.782440e+002
7910062700	-5.640727e+000	1.464162e+002	-1.262690e+001	1.475058e+002	-1.257793e+001	1.475680e+002	-3.144328e+000	1.783397e+002
7920062400	-5.628877e+000	1.464222e+002	-1.265843e+001	1.471788e+002	-1.258892e+001	1.471984e+002	-3.141505e+000	1.783545e+002
7930062100	-5.609989e+000	1.463022e+002	-1.268721e+001	1.467824e+002	-1.261411e+001	1.468964e+002	-3.138853e+000	1.784497e+002
7940061800	-5.603364e+000	1.462278e+002	-1.270323e+001	1.465070e+002	-1.262530e+001	1.465823e+002	-3.133444e+000	1.784520e+002
7950061500	-5.597629e+000	1.460747e+002	-1.272171e+001	1.461838e+002	-1.265827e+001	1.463081e+002	-3.127343e+000	1.785082e+002
7960061200	-5.605120e+000	1.460678e+002	-1.274421e+001	1.458600e+002	-1.268892e+001	1.461169e+002	-3.122496e+000	1.785936e+002
7970060900	-5.621189e+000	1.460481e+002	-1.276674e+001	1.456992e+002	-1.273908e+001	1.458869e+002	-3.124424e+000	1.786855e+002
7980060600	-5.655599e+000	1.461771e+002	-1.275519e+001	1.454745e+002	-1.274627e+001	1.456143e+002	-3.131060e+000	1.787553e+002
7990060300	-5.683933e+000	1.464674e+002	-1.277275e+001	1.452807e+002	-1.272528e+001	1.453688e+002	-3.135488e+000	1.787531e+002
8000060000	-5.700645e+000	1.468644e+002	-1.277085e+001	1.449194e+002	-1.272852e+001	1.451185e+002	-3.123728e+000	1.787515e+002
8010059700	-5.691470e+000	1.471929e+002	-1.275617e+001	1.446267e+002	-1.269766e+001	1.447182e+002	-3.107086e+000	1.787080e+002
8020059400	-5.683369e+000	1.474602e+002	-1.276559e+001	1.442412e+002	-1.268447e+001	1.443446e+002	-3.102937e+000	1.788167e+002
8030059100	-5.680961e+000	1.476792e+002	-1.276759e+001	1.438348e+002	-1.269223e+001	1.438082e+002	-3.100134e+000	1.789221e+002
8040058800	-5.671694e+000	1.478604e+002	-1.274803e+001	1.434128e+002	-1.269451e+001	1.434431e+002	-3.103393e+000	1.790288e+002
8050058500	-5.665827e+000	1.480005e+002	-1.276514e+001	1.429729e+002	-1.270579e+001	1.429479e+002	-3.108095e+000	1.791022e+002
8060058200	-5.667897e+000	1.481456e+002	-1.276417e+001	1.424361e+002	-1.271136e+001	1.425002e+002	-3.108338e+000	1.792387e+002
8070057900	-5.649591e+000	1.482574e+002	-1.277112e+001	1.419502e+002	-1.271406e+001	1.419377e+002	-3.115539e+000	1.793184e+002
8080057600	-5.633028e+000	1.482845e+002	-1.278188e+001	1.414392e+002	-1.273408e+001	1.415032e+002	-3.118860e+000	1.793762e+002
8090057300	-5.612998e+000	1.483089e+002	-1.281511e+001	1.409906e+002	-1.276035e+001	1.410220e+002	-3.118482e+000	1.794402e+002
8100057000	-5.593798e+000	1.482095e+002	-1.283349e+001	1.405345e+002	-1.277792e+001	1.406330e+002	-3.115966e+000	1.794894e+002
8110056700	-5.583070e+000	1.481903e+002	-1.285169e+001	1.402149e+002	-1.280290e+001	1.402806e+002	-3.123765e+000	1.795620e+002
8120056400	-5.572292e+000	1.482253e+002	-1.288549e+001	1.397941e+002	-1.281968e+001	1.399034e+002	-3.115163e+000	1.796367e+002
8130056100	-5.561507e+000	1.482300e+002	-1.290853e+001	1.393447e+002	-1.287686e+001	1.394924e+002	-3.116720e+000	1.797940e+002
8140055800	-5.550563e+000	1.482757e+002	-1.293422e+001	1.388939e+002	-1.290673e+001	1.390299e+002	-3.111577e+000	1.798838e+002
8150055500	-5.548735e+000	1.482778e+002	-1.296423e+001	1.385180e+002	-1.292646e+001	1.385917e+002	-3.116190e+000	1.798791e+002
8160055200	-5.550761e+000	1.483137e+002	-1.298341e+001	1.382764e+002	-1.292976e+001	1.382689e+002	-3.116647e+000	1.799415e+002
8170054900	-5.561409e+000	1.484487e+002	-1.298808e+001	1.378377e+002	-1.292556e+001	1.380250e+002	-3.098097e+000	1.799445e+002
8180054600	-5.580183e+000	1.486394e+002	-1.297241e+001	1.375369e+002	-1.291006e+001	1.376339e+002	-3.088444e+000	1.799406e+002
8190054300	-5.580191e+000	1.488573e+002	-1.297456e+001	1.369609e+002	-1.290605e+001	1.370746e+002	-3.075797e+000	-1.798546e+002
8200054000	-5.586353e+000	1.489768e+002	-1.299007e+001	1.363857e+002	-1.291887e+001	1.363848e+002	-3.069764e+000	-1.797167e+002
8210053700	-5.584262e+000	1.491510e+002	-1.302585e+001	1.357123e+002	-1.297073e+001	1.356943e+002	-3.075775e+000	-1.795824e+002
8220053400	-5.585650e+000	1.492851e+002	-1.307516e+001	1.352421e+002	-1.300691e+001	1.351698e+002	-3.075750e+000	-1.794303e+002
8230053100	-5.585130e+000	1.494343e+002	-1.311098e+001	1.347173e+002	-1.305231e+001	1.348630e+002	-3.067820e+000	-1.793259e+002
8240052800	-5.573970e+000	1.495460e+002	-1.315091e+001	1.343319e+002	-1.308126e+001	1.343102e+002	-3.071554e+000	-1.792492e+002
8250052500	-5.555975e+000	1.495886e+002	-1.319105e+001	1.339168e+002	-1.311669e+001	1.338615e+002	-3.066196e+000	-1.791633e+002
8260052200	-5.534802e+000	1.495835e+002	-1.321719e+001	1.334047e+002	-1.313514e+001	1.333512e+002	-3.066331e+000	-1.791001e+002
8270051900	-5.511041e+000	1.494535e+002	-1.324190e+001	1.328146e+002	-1.316199e+001	1.328981e+002	-3.062687e+000	-1.790442e+002
8280051600	-5.494913e+000	1.494300e+002	-1.327414e+001	1.322686e+002	-1.320499e+001	1.324608e+002	-3.062286e+000	-1.789927e+002
8290051300	-5.467627e+000	1.493086e+002	-1.332045e+001	1.317910e+002	-1.325903e+001	1.319787e+002	-3.059323e+000	-1.789258e+002
8300051000	-5.458175e+000	1.490933e+002	-1.338900e+001	1.312234e+002	-1.334932e+001	1.312802e+002	-3.052158e+000	-1.788282e+002
8310050700	-5.448968e+000	1.489413e+002	-1.342908e+001	1.305795e+002	-1.341762e+001	1.306724e+002	-3.054114e+000	-1.787713e+002
8320050400	-5.458321e+000	1.487813e+002	-1.352269e+001	1.299707e+002	-1.348415e+001	1.301020e+002	-3.045852e+000	-1.786873e+002
8330050100	-5.475929e+000	1.486192e+002	-1.360970e+001	1.295887e+002	-1.354296e+001	1.296057e+002	-3.037596e+000	-1.786937e+002
8340049800	-5.500749e+000	1.484908e+002	-1.370444e+001	1.290394e+002	-1.363393e+001	1.292321e+002	-3.015817e+000	-1.786590e+002
8350049500	-5.545646e+000	1.484145e+002	-1.380245e+001	1.287910e+002	-1.372941e+001	1.288114e+002	-2.999728e+000	-1.785350e+002
8360049200	-5.601637e+000	1.484142e+002	-1.391251e+001	1.284714e+002	-1.381775e+001	1.285535e+002	-2.976966e+000	-1.783217e+002
8370048900	-5.657003e+000	1.483842e+002	-1.401590e+001	1.283558e+002	-1.393156e+001	1.284239e+002	-2.963012e+000	-1.781881e+002
8380048600	-5.722178e+000	1.485053e+002	-1.410748e+001	1.284018e+002	-1.404266e+001	1.283359e+002	-2.955472e+000	-1.780851e+002
8390048300	-5.794283e+000	1.485926e+002	-1.420361e+001	1.284682e+002	-1.412985e+001	1.284693e+002	-2.953837e+000	-1.779403e+002
8400048000	-5.852005e+000	1.487755e+002	-1.429290e+001	1.286853e+002	-1.421911e+001	1.287045e+002	-2.940362e+000	-1.778213e+002
8410047700	-5.913680e+000	1.491161e+002	-1.432789e+001	1.290966e+002	-1.426043e+001	1.290814e+002	-2.932374e+000	-1.777469e+002
8420047400	-5.953355e+000	1.494618e+002	-1.434188e+001	1.292856e+002	-1.427797e+001	1.293763e+002	-2.913614e+000	-1.777428e+002
8430047100	-5.959512e+000	1.497675e+002	-1.433768e+001	1.294857e+002	-1.426350e+001	1.294832e+002	-2.904654e+000	-1.777821e+002
8440046800	-5.950047e+000	1.499577e+002	-1.434016e+001	1.293659e+002	-1.423876e+001	1.294244e+002	-2.896039e+000	-1.778094e+002
8450046500	-5.967388e+000	1.500141e+002	-1.435395e+001	1.291099e+002	-1.426141e+001	1.292216e+002	-2.898302e+000	-1.778694e+002
8460046200	-6.008108e+000	1.501235e+002	-1.439526e+001	1.288840e+002	-1.434359e+001	1.289853e+002	-2.881902e+000	-1.778866e+002
8470045900	-6.026440e+000	1.503879e+002	-1.440816e+001	1.287800e+002	-1.436848e+001	1.288951e+002	-2.874526e+000	-1.778914e+002
8480045600	-6.052380e+000	1.506544e+002	-1.443309e+001	1.287036e+002	-1.439448e+001	1.286942e+002	-2.865614e+000	-1.779479e+002
8490045300	-6.081184e+000	1.509708e+002	-1.444538e+001	1.285173e+002	-1.439390e+001	1.284770e+002	-2.842721e+000	-1.780000e+002
8500045000	-6.123316e+000	1.515262e+002	-1.457551e+001	1.282513e+002	-1.445388e+001	1.284172e+002	-2.816572e+000	-1.780894e+002
8510044700	-6.135308e+000	1.521035e+002	-1.461891e+001	1.283556e+002	-1.446236e+001	1.282102e+002	-2.808934e+000	-1.781660e+002
8520044400	-6.141541e+000	1.526451e+002	-1.462681e+001	1.281627e+002	-1.447170e+001	1.279244e+002	-2.791282e+000	-1.780693e+002
8530044100	-6.173497e+000	1.529456e+002	-1.470023e+001	1.280073e+002	-1.447562e+001	1.278931e+002	-2.774652e+000	-1.779679e+002
8540043800	-6.202107e+000	1.534856e+002	-1.469732e+001	1.279595e+002	-1.453327e+001	1.275468e+002	-2.782695e+000	-1.779235e+002
8550043500	-6.203936e+000	1.537393e+002	-1.483390e+001	1.280353e+002	-1.459960e+001	1.280869e+002	-2.773000e+000	-1.777295e+002
8560043200	-6.236276e+000	1.541754e+002	-1.490125e+001	1.282429e+002	-1.467963e+001	1.281325e+002	-2.783054e+000	-1.776046e+002
8570042900	-6.258095e+000	1.545513e+002	-1.488208e+001	1.288472e+002	-1.469333e+001	1.283589e+002	-2.773110e+000	-1.775549e+002
8580042600	-6.265901e+000	1.551251e+002	-1.489004e+001	1.292673e+002	-1.467388e+001	1.291373e+002	-2.749945e+000	-1.774413e+002
8590042300	-6.239958e+000	1.556280e+002	-1.482011e+001	1.295301e+002	-1.467852e+001	1.294746e+002	-2.773648e+000	-1.773450e+002
8600042000	-6.209985e+000	1.558048e+002	-1.475852e+001	1.298082e+002	-1.457648e+001	1.298389e+002	-2.770933e+000	-1.773995e+002
8610041700	-6.184915e+000	1.562286e+002	-1.471767e+001	1.299726e+002	-1.451896e+001	1.299237e+002	-2.767499e+000	-1.774399e+002
8620041400	-6.147948e+000	1.564958e+002	-1.461262e+001	1.298985e+002	-1.450382e+001	1.298311e+002	-2.774464e+000	-1.775057e+002
8630041100	-6.092368e+000	1.567275e+002	-1.456073e+001	1.296033e+002	-1.447850e+001	1.291841e+002	-2.777500e+000	-1.775198e+002
8640040800	-6.046108e+000	1.570430e+002	-1.455153e+001	1.297970e+002	-1.440086e+001	1.287872e+002	-2.766102e+000	-1.776717e+002
8650040500	-5.963956e+000	1.572974e+002	-1.451998e+001	1.291275e+002	-1.434196e+001	1.288602e+002	-2.746968e+000	-1.779158e+002
8660040200	-5.901506e+000	1.576037e+002	-1.448088e+001	1.288264e+002	-1.427025e+001	1.285912e+002	-2.725800e+000	-1.780091e+002
8670039900	-5.864484e+000	1.577259e+002	-1.445154e+001	1.285839e+002	-1.424919e+001	1.278487e+002	-2.713604e+000	-1.781622e+002
8680039600	-5.821452e+000	1.579232e+002	-1.439608e+001	1.280509e+002	-1.420025e+001	1.276703e+002	-2.706082e+000	-1.782756e+002
8690039300	-5.789597e+000	1.581104e+002	-1.432898e+001	1.274768e+002	-1.414131e+001	1.271889e+002	-2.718143e+000	-1.781205e+002
8700039000	-5.783231e+000	1.582429e+002	-1.433787e+001	1.266881e+002	-1.415771e+001	1.266633e+002	-2.711767e+000	-1.782394e+002
8710038700	-5.772234e+000	1.583580e+002	-1.428200e+001	1.265985e+002	-1.409807e+001	1.260392e+002	-2.706241e+000	-1.781577e+002
8720038400	-5.768453e+000	1.584245e+002	-1.433830e+001	1.258801e+002	-1.411761e+001	1.256186e+002	-2.704795e+000	-1.780873e+002
8730038100	-5.761178e+000	1.588580e+002	-1.433323e+001	1.251370e+002	-1.416135e+001	1.252567e+002	-2.737534e+000	-1.780220e+002
8740037800	-5.749235e+000	1.590263e+002	-1.438011e+001	1.251551e+002	-1.417566e+001	1.250315e+002	-2.755985e+000	-1.779070e+002
8750037500	-5.740748e+000	1.593347e+002	-1.439736e+001	1.252420e+002	-1.424085e+001	1.250858e+002	-2.751462e+000	-1.778199e+002
8760037200	-5.719131e+000	1.592580e+002	-1.436770e+001	1.251883e+002	-1.425391e+001	1.250404e+002	-2.777602e+000	-1.777300e+002
8770036900	-5.689815e+000	1.595306e+002	-1.441291e+001	1.250927e+002	-1.420803e+001	1.248543e+002	-2.778060e+000	-1.777272e+002
8780036600	-5.667762e+000	1.595792e+002	-1.437026e+001	1.250570e+002	-1.423383e+001	1.243424e+002	-2.797327e+000	-1.777073e+002
8790036300	-5.643137e+000	1.596293e+002	-1.437178e+001	1.243567e+002	-1.418436e+001	1.241353e+002	-2.792042e+000	-1.778281e+002
8800036000	-5.580696e+000	1.597334e+002	-1.425968e+001	1.241185e+002	-1.414864e+001	1.237111e+002	-2.795914e+000	-1.778211e+002
8810035700	-5.548370e+000	1.599558e+002	-1.426215e+001	1.238601e+002	-1.413892e+001	1.233417e+002	-2.788046e+000	-1.779939e+002
8820035400	-5.521382e+000	1.600275e+002	-1.425630e+001	1.235145e+002	-1.408189e+001	1.231020e+002	-2.757199e+000	-1.780667e+002
8830035100	-5.480345e+000	1.602232e+002	-1.423353e+001	1.229091e+002	-1.408986e+001	1.226298e+002	-2.759237e+000	-1.782137e+002
8840034800	-5.420258e+000	1.602387e+002	-1.423808e+001	1.227314e+002	-1.409837e+001	1.227336e+002	-2.739297e+000	-1.782582e+002
8850034500	-5.394486e+000	1.603743e+002	-1.421587e+001	1.220497e+002	-1.409727e+001	1.217464e+002	-2.741824e+000	-1.784864e+002
8860034200	-5.363289e+000	1.605295e+002	-1.417977e+001	1.216969e+002	-1.402047e+001	1.215415e+002	-2.725700e+000	-1.784163e+002
8870033900	-5.320132e+000	1.606979e+002	-1.418874e+001	1.212034e+002	-1.400394e+001	1.210885e+002	-2.724867e+000	-1.784021e+002
8880033600	-5.295715e+000	1.607156e+002	-1.417680e+001	1.211396e+002	-1.401721e+001	1.207799e+002	-2.726462e+000	-1.782706e+002
8890033300	-5.273150e+000	1.608473e+002	-1.415768e+001	1.205187e+002	-1.400116e+001	1.203404e+002	-2.741667e+000	-1.783733e+002
8900033000	-5.246838e+000	1.607299e+002	-1.411755e+001	1.200612e+002	-1.399669e+001	1.199838e+002	-2.758934e+000	-1.782296e+002
8910032700	-5.218556e+000	1.605890e+002	-1.411864e+001	1.195666e+002	-1.399262e+001	1.195143e+002	-2.756849e+000	-1.781641e+002
8920032400	-5.212066e+000	1.607867e+002	-1.416096e+001	1.191734e+002	-1.394386e+001	1.188457e+002	-2.779352e+000	-1.780815e+002
8930032100	-5.194321e+000	1.607118e+002	-1.414765e+001	1.186862e+002	-1.399484e+001	1.183662e+002	-2.802791e+000	-1.780457e+002
8940031800	-5.160154e+000	1.606319e+002	-1.420711e+001	1.179723e+002	-1.402863e+001	1.175657e+002	-2.815109e+000	-1.780706e+002
8950031500	-5.163860e+000	1.604605e+002	-1.421491e+001	1.176544e+002	-1.405484e+001	1.172682e+002	-2.840268e+000	-1.780361e+002
8960031200	-5.120998e+000	1.605127e+002	-1.423736e+001	1.171554e+002	-1.408535e+001	1.166349e+002	-2.835062e+000	-1.780733e+002
8970030900	-5.112963e+000	1.604585e+002	-1.424249e+001	1.165366e+002	-1.408777e+001	1.164844e+002	-2.854435e+000	-1.781588e+002
8980030600	-5.065030e+000	1.605627e+002	-1.425546e+001	1.165711e+002	-1.408756e+001	1.159183e+002	-2.841936e+000	-1.782947e+002
8990030300	-5.050715e+000	1.605533e+002	-1.427568e+001	1.162761e+002	-1.409149e+001	1.156014e+002	-2.852306e+000	-1.785137e+002
9000030000	-5.020898e+000	1.605938e+002	-1.429318e+001	1.157577e+002	-1.411123e+001	1.156560e+002	-2.827805e+000	-1.784929e+002
9010029700	-4.994769e+000	1.606278e+002	-1.426600e+001	1.154208e+002	-1.407412e+001	1.152642e+002	-2.827178e+000	-1.787594e+002
9020029400	-4.946625e+000	1.606274e+002	-1.421693e+001	1.150085e+002	-1.410142e+001	1.146667e+002	-2.835663e+000	-1.788669e+002
9030029100	-4.960429e+000	1.607638e+002	-1.422886e+001	1.146181e+002	-1.406876e+001	1.144224e+002	-2.823053e+000	-1.788787e+002
9040028800	-4.926693e+000	1.607038e+002	-1.425940e+001	1.140462e+002	-1.407197e+001	1.137065e+002	-2.827970e+000	-1.788573e+002
9050028500	-4.927354e+000	1.606235e+002	-1.426780e+001	1.137010e+002	-1.408987e+001	1.136497e+002	-2.811944e+000	-1.788106e+002
9060028200	-4.907933e+000	1.607309e+002	-1.428963e+001	1.131991e+002	-1.406547e+001	1.130917e+002	-2.820701e+000	-1.788319e+002
9070027900	-4.914441e+000	1.607332e+002	-1.428345e+001	1.127608e+002	-1.413373e+001	1.125370e+002	-2.833435e+000	-1.788300e+002
9080027600	-4.907960e+000	1.608311e+002	-1.433731e+001	1.123699e+002	-1.415382e+001	1.122707e+002	-2.854354e+000	-1.788151e+002
9090027300	-4.895000e+000	1.606054e+002	-1.432395e+001	1.119240e+002	-1.415648e+001	1.114448e+002	-2.877074e+000	-1.786662e+002
9100027000	-4.865022e+000	1.606796e+002	-1.432128e+001	1.112836e+002	-1.419741e+001	1.108626e+002	-2.912077e+000	-1.786905e+002
9110026700	-4.871269e+000	1.604270e+002	-1.439468e+001	1.109260e+002	-1.424535e+001	1.104512e+002	-2.925497e+000	-1.786576e+002
9120026400	-4.855508e+000	1.604778e+002	-1.435416e+001	1.107477e+002	-1.419464e+001	1.099746e+002	-2.926378e+000	-1.786888e+002
9130026100	-4.848279e+000	1.603938e+002	-1.441183e+001	1.100859e+002	-1.426301e+001	1.096163e+002	-2.939642e+000	-1.786461e+002
9140025800	-4.835065e+000	1.601788e+002	-1.442737e+001	1.097594e+002	-1.426049e+001	1.089401e+002	-2.945620e+000	-1.787644e+002
9150025500	-4.814374e+000	1.602420e+002	-1.445381e+001	1.092860e+002	-1.427053e+001	1.087731e+002	-2.948197e+000	-1.790542e+002
9160025200	-4.792578e+000	1.602692e+002	-1.445447e+001	1.089465e+002	-1.429325e+001	1.084924e+002	-2.955543e+000	-1.791117e+002
9170024900	-4.761906e+000	1.603334e+002	-1.451905e+001	1.086129e+002	-1.431266e+001	1.081359e+002	-2.959394e+000	-1.793720e+002
9180024600	-4.762236e+000	1.603221e+002	-1.456018e+001	1.080460e+002	-1.432552e+001	1.076568e+002	-2.964071e+000	-1.794362e+002
9190024300	-4.711480e+000	1.603740e+002	-1.454421e+001	1.073740e+002	-1.435770e+001	1.072592e+002	-2.947797e+000	-1.796160e+002
9200024000	-4.727637e+000	1.604519e+002	-1.462491e+001	1.070241e+002	-1.441285e+001	1.072783e+002	-2.960096e+000	-1.795278e+002
9210023700	-4.712923e+000	1.604720e+002	-1.466203e+001	1.071162e+002	-1.443813e+001	1.068900e+002	-2.979804e+000	-1.796007e+002
9220023400	-4.698001e+000	1.605207e+002	-1.465713e+001	1.065573e+002	-1.443826e+001	1.065889e+002	-2.975699e+000	-1.795899e+002
9230023100	-4.712470e+000	1.605369e+002	-1.470290e+001	1.061601e+002	-1.450401e+001	1.062019e+002	-2.969681e+000	-1.794238e+002
9240022800	-4.697758e+000	1.606439e+002	-1.474118e+001	1.058153e+002	-1.452807e+001	1.056309e+002	-3.000553e+000	-1.793422e+002
9250022500	-4.675007e+000	1.605909e+002	-1.473233e+001	1.053747e+002	-1.454481e+001	1.052794e+002	-2.981757e+000	-1.792254e+002
9260022200	-4.683270e+000	1.606358e+002	-1.479928e+001	1.054299e+002	-1.461151e+001	1.047942e+002	-2.998109e+000	-1.792274e+002
9270021900	-4.658616e+000	1.604884e+002	-1.480039e+001	1.051299e+002	-1.463482e+001	1.043769e+002	-3.020933e+000	-1.791080e+002
9280021600	-4.650260e+000	1.604800e+002	-1.484917e+001	1.048151e+002	-1.466254e+001	1.045918e+002	-3.000693e+000	-1.788155e+002
9290021300	-4.628693e+000	1.602258e+002	-1.492192e+001	1.046256e+002	-1.470724e+001	1.041053e+002	-3.012776e+000	-1.788070e+002
9300021000	-4.626844e+000	1.603014e+002	-1.489886e+001	1.045512e+002	-1.466217e+001	1.042949e+002	-3.024621e+000	-1.787513e+002
9310020700	-4.548535e+000	1.600821e+002	-1.489310e+001	1.045699e+002	-1.469845e+001	1.038546e+002	-3.026542e+000	-1.789351e+002
9320020400	-4.535614e+000	1.599529e+002	-1.494565e+001	1.038706e+002	-1.470182e+001	1.041754e+002	-3.073079e+000	-1.790020e+002
9330020100	-4.520590e+000	1.598281e+002	-1.490794e+001	1.041029e+002	-1.472338e+001	1.039962e+002	-3.047216e+000	-1.792789e+002
9340019800	-4.487268e+000	1.597783e+002	-1.484254e+001	1.039002e+002	-1.469365e+001	1.037000e+002	-3.056845e+000	-1.793688e+002
9350019500	-4.475945e+000	1.596779e+002	-1.491860e+001	1.034190e+002	-1.467014e+001	1.032038e+002	-3.045060e+000	-1.796152e+002
9360019200	-4.463171e+000	1.594511e+002	-1.490439e+001	1.029703e+002	-1.468595e+001	1.030541e+002	-3.066894e+000	-1.796777e+002
9370018900	-4.436216e+000	1.593275e+002	-1.491827e+001	1.027960e+002	-1.469122e+001	1.026824e+002	-3.053848e+000	-1.796912e+002
9380018600	-4.441679e+000	1.592055e+002	-1.492627e+001	1.024628e+002	-1.475572e+001	1.026099e+002	-3.055148e+000	-1.798186e+002
9390018300	-4.421870e+000	1.592056e+002	-1.495612e+001	1.020953e+002	-1.474673e+001	1.022754e+002	-3.050573e+000	-1.798347e+002
9400018000	-4.411735e+000	1.589561e+002	-1.495185e+001	1.017898e+002	-1.472510e+001	1.020358e+002	-3.064749e+000	-1.797204e+002
9410017700	-4.417250e+000	1.589743e+002	-1.495804e+001	1.017063e+002	-1.472137e+001	1.015511e+002	-3.066356e+000	-1.797782e+002
9420017400	-4.413399e+000	1.588313e+002	-1.496584e+001	1.011951e+002	-1.473787e+001	1.010299e+002	-3.057651e+000	-1.797559e+002
9430017100	-4.388934e+000	1.587155e+002	-1.490446e+001	1.009041e+002	-1.473684e+001	1.003070e+002	-3.074410e+000	-1.796641e+002
9440016800	-4.407694e+000	1.583472e+002	-1.493903e+001	1.006233e+002	-1.473290e+001	1.000719e+002	-3.068388e+000	-1.794037e+002
9450016500	-4.408738e+000	1.583473e+002	-1.495280e+001	9.988266e+001	-1.474911e+001	9.960545e+001	-3.080079e+000	-1.794004e+002
9460016200	-4.400989e+000	1.581773e+002	-1.496097e+001	9.957822e+001	-1.474822e+001	9.936375e+001	-3.081050e+000	-1.792612e+002
9470015900	-4.396800e+000	1.581007e+002	-1.502834e+001	9.932343e+001	-1.479892e+001	9.922504e+001	-3.105293e+000	-1.794135e+002
9480015600	-4.392497e+000	1.576648e+002	-1.500182e+001	9.909129e+001	-1.479801e+001	9.925223e+001	-3.106697e+000	-1.794539e+002
9490015300	-4.359516e+000	1.574652e+002	-1.500406e+001	9.875391e+001	-1.478365e+001	9.863772e+001	-3.113288e+000	-1.796750e+002
9500015000	-4.377141e+000	1.574126e+002	-1.503715e+001	9.832975e+001	-1.480525e+001	9.850155e+001	-3.152481e+000	-1.798739e+002
9510014700	-4.355657e+000	1.571757e+002	-1.505908e+001	9.816480e+001	-1.483316e+001	9.817570e+001	-3.170686e+000	1.799355e+002
9520014400	-4.350688e+000	1.571056e+002	-1.503267e+001	9.798670e+001	-1.485566e+001	9.775616e+001	-3.159146e+000	1.796569e+002
9530014100	-4.357913e+000	1.568928e+002	-1.503625e+001	9.771688e+001	-1.482797e+001	9.776790e+001	-3.168985e+000	1.796091e+002
9540013800	-4.353196e+000	1.566440e+002	-1.502169e+001	9.717064e+001	-1.486106e+001	9.732451e+001	-3.167836e+000	1.795763e+002
9550013500	-4.330489e+000	1.566527e+002	-1.504381e+001	9.664682e+001	-1.481924e+001	9.686491e+001	-3.153259e+000	1.792447e+002
9560013200	-4.350985e+000	1.565118e+002	-1.507814e+001	9.642440e+001	-1.486728e+001	9.630585e+001	-3.171668e+000	1.792175e+002
9570012900	-4.330763e+000	1.564405e+002	-1.507961e+001	9.598575e+001	-1.486032e+001	9.604385e+001	-3.156257e+000	1.792967e+002
9580012600	-4.337045e+000	1.561228e+002	-1.506631e+001	9.571989e+001	-1.488912e+001	9.566671e+001	-3.176767e+000	1.793085e+002
9590012300	-4.362834e+000	1.559070e+002	-1.505256e+001	9.559553e+001	-1.489540e+001	9.504217e+001	-3.171824e+000	1.792960e+002
9600012000	-4.376376e+000	1.555491e+002	-1.506311e+001	9.517092e+001	-1.490082e+001	9.493532e+001	-3.177970e+000	1.793633e+002
9610011700	-4.371859e+000	1.555349e+002	-1.513032e+001	9.474413e+001	-1.490205e+001	9.452956e+001	-3.185448e+000	1.795686e+002
9620011400	-4.377971e+000	1.550746e+002	-1.511229e+001	9.446098e+001	-1.485554e+001	9.428512e+001	-3.196615e+000	1.796173e+002
9630011100	-4.380509e+000	1.550267e+002	-1.509213e+001	9.423987e+001	-1.488085e+001	9.384773e+001	-3.192071e+000	1.797273e+002
9640010800	-4.395121e+000	1.547484e+002	-1.512276e+001	9.341529e+001	-1.489232e+001	9.362242e+001	-3.220614e+000	1.795590e+002
9650010500	-4.386604e+000	1.544298e+002	-1.514715e+001	9.334464e+001	-1.492451e+001	9.325934e+001	-3.241953e+000	1.795693e+002
9660010200	-4.379868e+000	1.542372e+002	-1.516651e+001	9.278488e+001	-1.490447e+001	9.294105e+001	-3.281819e+000	1.793006e+002
9670009900	-4.383099e+000	1.539302e+002	-1.516684e+001	9.235356e+001	-1.495064e+001	9.266906e+001	-3.272603e+000	1.793038e+002
9680009600	-4.425411e+000	1.537087e+002	-1.518690e+001	9.202147e+001	-1.495698e+001	9.255752e+001	-3.290478e+000	1.789867e+002
9690009300	-4.400289e+000	1.534168e+002	-1.517594e+001	9.157813e+001	-1.499331e+001	9.196335e+001	-3.298665e+000	1.789262e+002
9700009000	-4.433065e+000	1.532563e+002	-1.518073e+001	9.130391e+001	-1.499805e+001	9.176524e+001	-3.310210e+000	1.787295e+002
9710008700	-4.432553e+000	1.529331e+002	-1.521186e+001	9.113359e+001	-1.503699e+001	9.127136e+001	-3.325572e+000	1.787325e+002
9720008400	-4.452858e+000	1.527862e+002	-1.522078e+001	9.060415e+001	-1.505003e+001	9.090278e+001	-3.320870e+000	1.785365e+002
9730008100	-4.440939e+000	1.525241e+002	-1.525632e+001	9.045253e+001	-1.501351e+001	9.049308e+001	-3.334973e+000	1.785072e+002
9740007800	-4.479559e+000	1.523935e+002	-1.523000e+001	8.965759e+001	-1.502804e+001	9.003094e+001	-3.339814e+000	1.784455e+002
9750007500	-4.477531e+000	1.520206e+002	-1.525079e+001	8.954668e+001	-1.500471e+001	8.948818e+001	-3.347623e+000	1.786265e+002
9760007200	-4.491545e+000	1.517128e+002	-1.524063e+001	8.943821e+001	-1.505340e+001	8.896322e+001	-3.333204e+000	1.785334e+002
9770006900	-4.503513e+000	1.514474e+002	-1.526964e+001	8.910408e+001	-1.503664e+001	8.883259e+001	-3.338368e+000	1.786679e+002
9780006600	-4.543580e+000	1.511196e+002	-1.529530e+001	8.846507e+001	-1.507310e+001	8.863646e+001	-3.315411e+000	1.786589e+002
9790006300	-4.577013e+000	1.509215e+002	-1.532793e+001	8.818024e+001	-1.506702e+001	8.830233e+001	-3.332960e+000	1.787858e+002
9800006000	-4.594697e+000	1.506592e+002	-1.531607e+001	8.790848e+001	-1.504238e+001	8.823508e+001	-3.325254e+000	1.786531e+002
9810005700	-4.622686e+000	1.503886e+002	-1.531987e+001	8.748264e+001	-1.511445e+001	8.791799e+001	-3.333306e+000	1.786238e+002
9820005400	-4.621301e+000	1.499749e+002	-1.532578e+001	8.702339e+001	-1.508254e+001	8.748711e+001	-3.369355e+000	1.784894e+002
9830005100	-4.660242e+000	1.495167e+002	-1.534279e+001	8.710429e+001	-1.507576e+001	8.695611e+001	-3.386097e+000	1.783244e+002
9840004800	-4.679680e+000	1.491170e+002	-1.531194e+001	8.642399e+001	-1.507362e+001	8.690720e+001	-3.400645e+000	1.780980e+002
9850004500	-4.698729e+000	1.490183e+002	-1.532595e+001	8.594439e+001	-1.507321e+001	8.680018e+001	-3.401836e+000	1.779946e+002
9860004200	-4.714056e+000	1.488152e+002	-1.529185e+001	8.567224e+001	-1.504074e+001	8.611443e+001	-3.426125e+000	1.777771e+002
9870003900	-4.754302e+000	1.483329e+002	-1.527692e+001	8.527347e+001	-1.508145e+001	8.572470e+001	-3.394016e+000	1.776314e+002
9880003600	-4.790451e+000	1.481537e+002	-1.528506e+001	8.511573e+001	-1.507947e+001	8.502761e+001	-3.433474e+000	1.775111e+002
9890003300	-4.860492e+000	1.478222e+002	-1.523669e+001	8.440077e+001	-1.505302e+001	8.432100e+001	-3.443471e+000	1.774486e+002
9900003000	-4.869842e+000	1.474791e+002	-1.528384e+001	8.396050e+001	-1.504555e+001	8.381285e+001	-3.416054e+000	1.774709e+002
9910002700	-4.922804e+000	1.472709e+002	-1.533528e+001	8.324573e+001	-1.511673e+001	8.340323e+001	-3.428152e+000	1.775404e+002
9920002400	-4.948702e+000	1.468216e+002	-1.531479e+001	8.300907e+001	-1.508785e+001	8.311193e+001	-3.414066e+000	1.773410e+002
9930002100	-5.033821e+000	1.464367e+002	-1.534374e+001	8.230737e+001	-1.510844e+001	8.250487e+001	-3.424774e+000	1.771995e+002
9940001800	-5.092133e+000	1.461530e+002	-1.535493e+001	8.216527e+001	-1.512930e+001	8.222238e+001	-3.403997e+000	1.772124e+002
9950001500	-5.140988e+000	1.458542e+002	-1.533703e+001	8.141406e+001	-1.507258e+001	8.177141e+001	-3.388741e+000	1.770153e+002
9960001200	-5.202332e+000	1.456456e+002	-1.538019e+001	8.079024e+001	-1.513993e+001	8.122578e+001	-3.424897e+000	1.767886e+002
9970000900	-5.263321e+000	1.451856e+002	-1.536489e+001	8.040401e+001	-1.516381e+001	8.084946e+001	-3.451702e+000	1.767091e+002
9980000600	-5.324274e+000	1.451041e+002	-1.538859e+001	7.982195e+001	-1.516379e+001	8.024686e+001	-3.438579e+000	1.765587e+002
9990000300	-5.403111e+000	1.445587e+002	-1.537747e+001	7.936984e+001	-1.514717e+001	7.961345e+001	-3.467397e+000	1.764985e+002
10000000000	-5.473208e+000	1.444315e+002	-1.540977e+001	7.875690e+001	-1.518609e+001	7.933045e+001	-3.499889e+000	1.762592e+002
