!Agilent Technologies,E5071C,MY46317100,A.11.08
!Date: Fri Dec 19 16:04:16 2014
!Data & Calibration Information:
!Freq	S11:SOLT2(ON)	S21:SOLT2(ON)	S12:SOLT2(ON)	S22:SOLT2(ON)
!PortZ  Port1:50+j0    Port2:50+j0
!Above PortZ is port z conversion or system Z0 setting when saving the data.
!When reading, reference impedance value at option line is always used.
# Hz S RI R 50
10000000	9.743040e-001	-2.387312e-002	2.550952e-003	-2.921758e-002	-1.639341e-005	-2.968484e-006	9.992509e-001	-2.588975e-002
20000000	9.721982e-001	-3.767675e-002	-1.824990e-002	-4.070756e-002	1.544687e-005	5.256954e-005	9.980224e-001	-5.096769e-002
30000000	9.715373e-001	-5.447323e-002	-1.592484e-002	-5.648975e-002	-1.063052e-004	-9.184638e-006	9.956641e-001	-7.651584e-002
40000000	9.707388e-001	-7.082422e-002	-1.618286e-002	-6.567018e-002	-1.629862e-004	1.077635e-004	9.922938e-001	-1.018676e-001
50000000	9.692472e-001	-8.781127e-002	-1.760397e-002	-8.004157e-002	-1.393967e-004	9.999981e-005	9.881787e-001	-1.269952e-001
60000000	9.662154e-001	-1.047348e-001	-2.191470e-002	-9.751404e-002	-1.738437e-004	9.718898e-005	9.832544e-001	-1.517920e-001
70000000	9.627908e-001	-1.212254e-001	-2.655975e-002	-1.155514e-001	-2.926130e-004	1.434965e-004	9.773262e-001	-1.764337e-001
80000000	9.596764e-001	-1.374063e-001	-3.271024e-002	-1.293608e-001	-3.287657e-004	2.049042e-004	9.705107e-001	-2.002662e-001
90000000	9.563197e-001	-1.534331e-001	-3.914700e-002	-1.414325e-001	-3.900726e-004	1.498682e-004	9.632596e-001	-2.244357e-001
100000000	9.522704e-001	-1.689991e-001	-4.814522e-002	-1.540093e-001	-4.614416e-004	2.585545e-004	9.550752e-001	-2.479858e-001
110000000	9.477720e-001	-1.849196e-001	-5.753777e-002	-1.705112e-001	-5.011321e-004	2.939199e-004	9.461397e-001	-2.713131e-001
120000000	9.419650e-001	-2.014140e-001	-6.996167e-002	-1.982466e-001	-6.236580e-004	2.785600e-004	9.365738e-001	-2.943323e-001
130000000	9.360963e-001	-2.173831e-001	-8.198671e-002	-2.259395e-001	-6.986282e-004	3.618090e-004	9.261882e-001	-3.171573e-001
140000000	9.308063e-001	-2.333175e-001	-9.165319e-002	-2.429761e-001	-8.345637e-004	3.379237e-004	9.154997e-001	-3.395477e-001
150000000	9.243170e-001	-2.494153e-001	-1.016666e-001	-2.718446e-001	-9.286411e-004	4.204703e-004	9.038193e-001	-3.613961e-001
160000000	9.170102e-001	-2.653019e-001	-1.198099e-001	-3.092058e-001	-1.036436e-003	4.693764e-004	8.916362e-001	-3.829376e-001
170000000	9.094169e-001	-2.806318e-001	-1.413639e-001	-3.420267e-001	-1.159320e-003	4.877068e-004	8.789471e-001	-4.041902e-001
180000000	8.903868e-001	-2.977399e-001	-2.321006e-001	-4.969477e-001	-1.265825e-003	5.253580e-004	8.655313e-001	-4.247047e-001
190000000	8.544546e-001	-3.175063e-001	-4.315387e-001	-8.351670e-001	-1.349324e-003	5.698673e-004	8.513864e-001	-4.448052e-001
200000000	8.466469e-001	-3.312306e-001	-4.535632e-001	-8.646643e-001	-1.549398e-003	6.154881e-004	8.367626e-001	-4.646034e-001
210000000	8.383625e-001	-3.444274e-001	-4.784811e-001	-8.937872e-001	-1.709159e-003	6.383185e-004	8.214034e-001	-4.839329e-001
220000000	8.295677e-001	-3.569201e-001	-5.115008e-001	-9.227128e-001	-1.874450e-003	6.493202e-004	8.053832e-001	-5.024579e-001
230000000	8.206908e-001	-3.691780e-001	-5.436984e-001	-9.537799e-001	-2.015273e-003	6.929944e-004	7.890055e-001	-5.207974e-001
240000000	8.113535e-001	-3.818096e-001	-5.721797e-001	-9.922280e-001	-2.183388e-003	7.515258e-004	7.720462e-001	-5.386211e-001
250000000	8.013451e-001	-3.944469e-001	-6.004198e-001	-1.038793e+000	-2.349334e-003	7.609164e-004	7.541080e-001	-5.558869e-001
260000000	7.915306e-001	-4.064001e-001	-6.306155e-001	-1.079330e+000	-2.568584e-003	7.092484e-004	7.357159e-001	-5.724487e-001
270000000	7.824740e-001	-4.180391e-001	-6.581417e-001	-1.112816e+000	-2.814356e-003	7.664771e-004	7.166637e-001	-5.889607e-001
280000000	7.739278e-001	-4.294035e-001	-6.820886e-001	-1.139306e+000	-3.056314e-003	7.738834e-004	6.970907e-001	-6.048337e-001
290000000	7.654967e-001	-4.404345e-001	-7.074634e-001	-1.164925e+000	-3.263731e-003	7.695144e-004	6.770391e-001	-6.201861e-001
300000000	7.562109e-001	-4.517143e-001	-7.335716e-001	-1.200034e+000	-3.529578e-003	7.971669e-004	6.563920e-001	-6.347402e-001
310000000	7.460706e-001	-4.627792e-001	-7.642641e-001	-1.249068e+000	-3.815891e-003	8.814755e-004	6.352158e-001	-6.488001e-001
320000000	7.355933e-001	-4.731579e-001	-8.043889e-001	-1.299303e+000	-4.082296e-003	8.387694e-004	6.134734e-001	-6.623483e-001
330000000	7.255633e-001	-4.836718e-001	-8.420222e-001	-1.346306e+000	-4.458843e-003	9.133307e-004	5.912062e-001	-6.752969e-001
340000000	7.156609e-001	-4.941255e-001	-8.779482e-001	-1.393783e+000	-4.775246e-003	8.371362e-004	5.684703e-001	-6.875244e-001
350000000	7.056790e-001	-5.042205e-001	-9.181473e-001	-1.442675e+000	-5.131013e-003	9.201310e-004	5.452283e-001	-6.988362e-001
360000000	6.958434e-001	-5.141586e-001	-9.623933e-001	-1.489426e+000	-5.473107e-003	9.749099e-004	5.215192e-001	-7.094797e-001
370000000	6.858756e-001	-5.238953e-001	-1.008386e+000	-1.536639e+000	-5.906774e-003	9.777514e-004	4.970468e-001	-7.194285e-001
380000000	6.757616e-001	-5.333916e-001	-1.061850e+000	-1.585111e+000	-6.298026e-003	9.881756e-004	4.721919e-001	-7.282631e-001
390000000	6.655175e-001	-5.425829e-001	-1.117881e+000	-1.632077e+000	-6.738363e-003	1.040357e-003	4.464164e-001	-7.363937e-001
400000000	6.555037e-001	-5.519034e-001	-1.171866e+000	-1.679127e+000	-7.201023e-003	1.077493e-003	4.204939e-001	-7.433277e-001
410000000	6.449931e-001	-5.611393e-001	-1.235182e+000	-1.728344e+000	-7.738403e-003	1.170989e-003	3.939600e-001	-7.493612e-001
420000000	6.340376e-001	-5.698091e-001	-1.310668e+000	-1.776709e+000	-8.252808e-003	1.253877e-003	3.668459e-001	-7.543251e-001
430000000	6.226557e-001	-5.782709e-001	-1.393470e+000	-1.827298e+000	-8.804816e-003	1.404172e-003	3.391561e-001	-7.580610e-001
440000000	6.109310e-001	-5.866662e-001	-1.479891e+000	-1.881505e+000	-9.503485e-003	1.466201e-003	3.111263e-001	-7.608468e-001
450000000	5.992559e-001	-5.948538e-001	-1.569949e+000	-1.931503e+000	-1.001456e-002	1.659690e-003	2.825700e-001	-7.624389e-001
460000000	5.875951e-001	-6.032157e-001	-1.656776e+000	-1.972474e+000	-1.070779e-002	1.891787e-003	2.539535e-001	-7.625026e-001
470000000	5.758538e-001	-6.114015e-001	-1.747811e+000	-2.008612e+000	-1.141729e-002	2.040395e-003	2.250240e-001	-7.614712e-001
480000000	5.643174e-001	-6.193569e-001	-1.843801e+000	-2.036466e+000	-1.208657e-002	2.295904e-003	1.960972e-001	-7.590901e-001
490000000	5.524904e-001	-6.271989e-001	-1.944339e+000	-2.059067e+000	-1.282000e-002	2.616768e-003	1.668980e-001	-7.553131e-001
500000000	5.399058e-001	-6.345776e-001	-2.054571e+000	-2.087225e+000	-1.351847e-002	2.831556e-003	1.379144e-001	-7.502714e-001
510000000	5.269630e-001	-6.415702e-001	-2.176502e+000	-2.114872e+000	-1.435638e-002	3.198655e-003	1.092610e-001	-7.437187e-001
520000000	5.138669e-001	-6.481497e-001	-2.304261e+000	-2.132782e+000	-1.512997e-002	3.634939e-003	8.057446e-002	-7.356388e-001
530000000	5.008597e-001	-6.548386e-001	-2.430938e+000	-2.142822e+000	-1.600853e-002	4.069050e-003	5.209644e-002	-7.260745e-001
540000000	4.875908e-001	-6.610245e-001	-2.560415e+000	-2.145186e+000	-1.677067e-002	4.516636e-003	2.393459e-002	-7.151757e-001
550000000	4.744023e-001	-6.669348e-001	-2.691810e+000	-2.140987e+000	-1.764489e-002	5.062064e-003	-3.452990e-003	-7.023919e-001
560000000	4.606266e-001	-6.725624e-001	-2.837343e+000	-2.133900e+000	-1.853831e-002	5.713805e-003	-3.080234e-002	-6.879346e-001
570000000	4.461751e-001	-6.773804e-001	-2.984177e+000	-2.112703e+000	-1.940047e-002	6.424842e-003	-5.655146e-002	-6.717349e-001
580000000	4.321753e-001	-6.815704e-001	-3.128226e+000	-2.079908e+000	-2.025902e-002	7.211687e-003	-8.191896e-002	-6.545251e-001
590000000	4.184663e-001	-6.859028e-001	-3.262368e+000	-2.037128e+000	-2.112145e-002	7.915603e-003	-1.064905e-001	-6.355010e-001
600000000	4.045114e-001	-6.899086e-001	-3.393016e+000	-1.984983e+000	-2.193641e-002	8.803972e-003	-1.297785e-001	-6.152134e-001
610000000	3.903848e-001	-6.932291e-001	-3.529345e+000	-1.924881e+000	-2.275930e-002	9.690143e-003	-1.520858e-001	-5.935225e-001
620000000	3.757617e-001	-6.954838e-001	-3.676512e+000	-1.853648e+000	-2.355134e-002	1.069128e-002	-1.732079e-001	-5.704209e-001
630000000	3.607954e-001	-6.972269e-001	-3.829168e+000	-1.774909e+000	-2.441511e-002	1.179463e-002	-1.926601e-001	-5.462803e-001
640000000	3.459278e-001	-6.984905e-001	-3.977911e+000	-1.684803e+000	-2.512002e-002	1.286901e-002	-2.108048e-001	-5.208664e-001
650000000	3.312825e-001	-6.993965e-001	-4.114429e+000	-1.585661e+000	-2.590175e-002	1.410953e-002	-2.273513e-001	-4.946146e-001
660000000	3.171410e-001	-7.002682e-001	-4.237146e+000	-1.479566e+000	-2.651933e-002	1.532672e-002	-2.420948e-001	-4.678054e-001
670000000	3.029094e-001	-7.004683e-001	-4.356286e+000	-1.364090e+000	-2.715865e-002	1.664178e-002	-2.550784e-001	-4.399277e-001
680000000	2.889682e-001	-7.002310e-001	-4.466800e+000	-1.238209e+000	-2.774257e-002	1.794611e-002	-2.664623e-001	-4.118022e-001
690000000	2.750659e-001	-6.994919e-001	-4.572712e+000	-1.106839e+000	-2.823171e-002	1.937462e-002	-2.759122e-001	-3.831338e-001
700000000	2.611139e-001	-6.979468e-001	-4.675448e+000	-9.677004e-001	-2.871365e-002	2.082120e-002	-2.834047e-001	-3.543404e-001
710000000	2.475191e-001	-6.957882e-001	-4.771137e+000	-8.233177e-001	-2.909987e-002	2.223996e-002	-2.893784e-001	-3.252727e-001
720000000	2.341476e-001	-6.931772e-001	-4.857320e+000	-6.703959e-001	-2.946173e-002	2.378803e-002	-2.931817e-001	-2.961451e-001
730000000	2.210060e-001	-6.900982e-001	-4.933204e+000	-5.145157e-001	-2.975303e-002	2.526669e-002	-2.949012e-001	-2.670249e-001
740000000	2.082096e-001	-6.864281e-001	-5.000962e+000	-3.506498e-001	-2.987582e-002	2.685175e-002	-2.952140e-001	-2.382626e-001
750000000	1.958302e-001	-6.823776e-001	-5.058601e+000	-1.842226e-001	-3.005238e-002	2.843209e-002	-2.936678e-001	-2.100728e-001
760000000	1.836990e-001	-6.781141e-001	-5.107253e+000	-1.813615e-002	-3.006351e-002	2.997265e-002	-2.903869e-001	-1.822748e-001
770000000	1.718327e-001	-6.735565e-001	-5.146159e+000	1.512096e-001	-3.008902e-002	3.155350e-002	-2.856282e-001	-1.552550e-001
780000000	1.605935e-001	-6.688965e-001	-5.170636e+000	3.211867e-001	-3.005357e-002	3.323184e-002	-2.794290e-001	-1.288892e-001
790000000	1.497504e-001	-6.641288e-001	-5.183599e+000	4.871298e-001	-2.986827e-002	3.480931e-002	-2.717433e-001	-1.034639e-001
800000000	1.393483e-001	-6.591701e-001	-5.187014e+000	6.540835e-001	-2.965062e-002	3.646629e-002	-2.626225e-001	-7.876932e-002
810000000	1.293915e-001	-6.538203e-001	-5.183335e+000	8.240958e-001	-2.936161e-002	3.800636e-002	-2.523265e-001	-5.489034e-002
820000000	1.195857e-001	-6.477633e-001	-5.174650e+000	9.964478e-001	-2.897279e-002	3.955561e-002	-2.404026e-001	-3.242145e-002
830000000	1.105865e-001	-6.412679e-001	-5.158533e+000	1.162524e+000	-2.859061e-002	4.110510e-002	-2.282686e-001	-1.139683e-002
840000000	1.018939e-001	-6.349512e-001	-5.135581e+000	1.325211e+000	-2.813106e-002	4.261988e-002	-2.150710e-001	9.015845e-003
850000000	9.380542e-002	-6.287260e-001	-5.101143e+000	1.483167e+000	-2.764072e-002	4.409799e-002	-2.010576e-001	2.843955e-002
860000000	8.594664e-002	-6.225504e-001	-5.058840e+000	1.636171e+000	-2.700883e-002	4.559324e-002	-1.860444e-001	4.645914e-002
870000000	7.872295e-002	-6.163068e-001	-5.008519e+000	1.784499e+000	-2.643943e-002	4.698803e-002	-1.706095e-001	6.332301e-002
880000000	7.173238e-002	-6.098806e-001	-4.952052e+000	1.929932e+000	-2.575480e-002	4.842041e-002	-1.546416e-001	7.918050e-002
890000000	6.505782e-002	-6.035333e-001	-4.890589e+000	2.070150e+000	-2.505543e-002	4.976940e-002	-1.381952e-001	9.363774e-002
900000000	5.884414e-002	-5.969752e-001	-4.822833e+000	2.205731e+000	-2.427148e-002	5.103089e-002	-1.217094e-001	1.070739e-001
910000000	5.296454e-002	-5.903617e-001	-4.750852e+000	2.335671e+000	-2.345800e-002	5.238678e-002	-1.046491e-001	1.193141e-001
920000000	4.742724e-002	-5.839743e-001	-4.673301e+000	2.459279e+000	-2.256807e-002	5.360807e-002	-8.754375e-002	1.303697e-001
930000000	4.206238e-002	-5.774499e-001	-4.592662e+000	2.579134e+000	-2.172841e-002	5.488001e-002	-7.022304e-002	1.403457e-001
940000000	3.720759e-002	-5.710843e-001	-4.509211e+000	2.695307e+000	-2.090259e-002	5.599803e-002	-5.286392e-002	1.493270e-001
950000000	3.256816e-002	-5.647061e-001	-4.423801e+000	2.806136e+000	-1.996448e-002	5.714510e-002	-3.549117e-002	1.570806e-001
960000000	2.819850e-002	-5.584572e-001	-4.334428e+000	2.910566e+000	-1.900168e-002	5.824887e-002	-1.815067e-002	1.638250e-001
970000000	2.396339e-002	-5.524274e-001	-4.241259e+000	3.009914e+000	-1.801397e-002	5.933252e-002	-9.599811e-004	1.696810e-001
980000000	2.011024e-002	-5.467453e-001	-4.145172e+000	3.100772e+000	-1.705895e-002	6.037145e-002	1.613518e-002	1.745665e-001
990000000	1.656936e-002	-5.411991e-001	-4.047865e+000	3.185142e+000	-1.602448e-002	6.134290e-002	3.307391e-002	1.786372e-001
1000000000	1.328829e-002	-5.358845e-001	-3.948296e+000	3.265177e+000	-1.503203e-002	6.223660e-002	4.983373e-002	1.818621e-001
1010000000	1.027160e-002	-5.306221e-001	-3.848434e+000	3.340681e+000	-1.399292e-002	6.314867e-002	6.645308e-002	1.845205e-001
1020000000	7.476327e-003	-5.252469e-001	-3.748520e+000	3.412368e+000	-1.306226e-002	6.399169e-002	8.281806e-002	1.862949e-001
1030000000	4.883294e-003	-5.199097e-001	-3.648548e+000	3.480477e+000	-1.198851e-002	6.478294e-002	9.894319e-002	1.875355e-001
1040000000	2.529453e-003	-5.147803e-001	-3.549295e+000	3.543011e+000	-1.097266e-002	6.563327e-002	1.147342e-001	1.881227e-001
1050000000	4.985916e-004	-5.096833e-001	-3.449565e+000	3.600422e+000	-9.875928e-003	6.640019e-002	1.302744e-001	1.882153e-001
1060000000	-1.263019e-003	-5.049526e-001	-3.349495e+000	3.651830e+000	-8.906539e-003	6.714309e-002	1.452738e-001	1.876466e-001
1070000000	-3.281049e-003	-5.003434e-001	-3.250036e+000	3.700091e+000	-7.810608e-003	6.785498e-002	1.598435e-001	1.866558e-001
1080000000	-5.021304e-003	-4.955784e-001	-3.150097e+000	3.744166e+000	-6.696977e-003	6.853717e-002	1.740898e-001	1.853225e-001
1090000000	-6.736975e-003	-4.910708e-001	-3.052376e+000	3.785295e+000	-5.691720e-003	6.915702e-002	1.878955e-001	1.832134e-001
1100000000	-8.270040e-003	-4.866762e-001	-2.955186e+000	3.823722e+000	-4.694410e-003	6.975638e-002	2.012691e-001	1.807022e-001
1110000000	-9.714725e-003	-4.824201e-001	-2.856370e+000	3.856476e+000	-3.634362e-003	7.032356e-002	2.140478e-001	1.778214e-001
1120000000	-1.119920e-002	-4.784409e-001	-2.759998e+000	3.885573e+000	-2.512753e-003	7.091188e-002	2.264957e-001	1.746471e-001
1130000000	-1.251751e-002	-4.744023e-001	-2.663600e+000	3.911945e+000	-1.521835e-003	7.138158e-002	2.388804e-001	1.709084e-001
1140000000	-1.367872e-002	-4.704840e-001	-2.568715e+000	3.936559e+000	-4.754986e-004	7.194928e-002	2.507720e-001	1.666923e-001
1150000000	-1.452561e-002	-4.668146e-001	-2.475641e+000	3.958359e+000	6.054805e-004	7.241472e-002	2.624204e-001	1.621004e-001
1160000000	-1.534165e-002	-4.632223e-001	-2.383427e+000	3.976826e+000	1.614464e-003	7.285817e-002	2.737876e-001	1.571474e-001
1170000000	-1.596554e-002	-4.599777e-001	-2.292264e+000	3.990435e+000	2.681484e-003	7.330356e-002	2.846233e-001	1.520939e-001
1180000000	-1.675773e-002	-4.567763e-001	-2.203120e+000	4.002119e+000	3.714149e-003	7.371474e-002	2.952518e-001	1.465271e-001
1190000000	-1.740341e-002	-4.537688e-001	-2.114981e+000	4.010907e+000	4.726821e-003	7.414885e-002	3.056630e-001	1.409142e-001
1200000000	-1.805985e-002	-4.507666e-001	-2.028456e+000	4.018775e+000	5.782620e-003	7.442046e-002	3.155951e-001	1.352755e-001
1210000000	-1.864238e-002	-4.479458e-001	-1.944541e+000	4.022657e+000	6.778742e-003	7.484025e-002	3.253768e-001	1.295916e-001
1220000000	-1.913393e-002	-4.450321e-001	-1.861146e+000	4.025654e+000	7.732515e-003	7.518831e-002	3.346427e-001	1.235927e-001
1230000000	-1.970653e-002	-4.421565e-001	-1.779350e+000	4.027454e+000	8.713376e-003	7.546065e-002	3.437390e-001	1.176283e-001
1240000000	-2.037092e-002	-4.394602e-001	-1.699826e+000	4.025876e+000	9.665701e-003	7.578671e-002	3.524256e-001	1.116592e-001
1250000000	-2.084342e-002	-4.366709e-001	-1.621983e+000	4.022879e+000	1.067276e-002	7.609877e-002	3.607366e-001	1.054660e-001
1260000000	-2.130790e-002	-4.339645e-001	-1.544046e+000	4.018825e+000	1.165266e-002	7.633178e-002	3.686822e-001	9.931215e-002
1270000000	-2.180280e-002	-4.314978e-001	-1.468073e+000	4.014737e+000	1.260390e-002	7.655229e-002	3.761947e-001	9.291488e-002
1280000000	-2.222023e-002	-4.290097e-001	-1.393444e+000	4.006987e+000	1.355361e-002	7.682150e-002	3.834110e-001	8.642691e-002
1290000000	-2.266574e-002	-4.266113e-001	-1.320139e+000	3.998952e+000	1.450199e-002	7.705033e-002	3.902165e-001	7.978041e-002
1300000000	-2.316035e-002	-4.244607e-001	-1.248889e+000	3.988653e+000	1.547952e-002	7.726851e-002	3.966833e-001	7.305264e-002
1310000000	-2.351237e-002	-4.223481e-001	-1.179036e+000	3.977370e+000	1.638551e-002	7.749153e-002	4.028931e-001	6.610108e-002
1320000000	-2.387844e-002	-4.204349e-001	-1.111154e+000	3.963661e+000	1.735179e-002	7.769480e-002	4.088687e-001	5.928228e-002
1330000000	-2.419413e-002	-4.186758e-001	-1.043306e+000	3.950122e+000	1.831517e-002	7.781114e-002	4.148984e-001	5.234235e-002
1340000000	-2.422412e-002	-4.168749e-001	-9.783666e-001	3.935076e+000	1.918439e-002	7.793624e-002	4.207037e-001	4.501189e-002
1350000000	-2.423504e-002	-4.150075e-001	-9.140402e-001	3.919776e+000	2.011128e-002	7.811139e-002	4.262039e-001	3.762166e-002
1360000000	-2.424360e-002	-4.135037e-001	-8.519072e-001	3.904501e+000	2.093209e-002	7.828037e-002	4.314599e-001	3.040514e-002
1370000000	-2.422013e-002	-4.117890e-001	-7.898004e-001	3.886912e+000	2.193543e-002	7.836395e-002	4.364272e-001	2.300923e-002
1380000000	-2.430649e-002	-4.103320e-001	-7.303819e-001	3.869253e+000	2.275659e-002	7.851498e-002	4.413797e-001	1.564258e-002
1390000000	-2.444897e-002	-4.087429e-001	-6.711350e-001	3.850385e+000	2.361411e-002	7.861128e-002	4.460598e-001	8.486011e-003
1400000000	-2.450719e-002	-4.071282e-001	-6.137146e-001	3.831424e+000	2.451447e-002	7.874524e-002	4.507698e-001	1.363208e-003
1410000000	-2.449536e-002	-4.055568e-001	-5.584254e-001	3.812726e+000	2.541249e-002	7.881338e-002	4.550408e-001	-5.695744e-003
1420000000	-2.453460e-002	-4.039703e-001	-5.031891e-001	3.792617e+000	2.625603e-002	7.892866e-002	4.593053e-001	-1.261098e-002
1430000000	-2.474049e-002	-4.024855e-001	-4.485318e-001	3.772389e+000	2.711746e-002	7.899280e-002	4.633305e-001	-1.954205e-002
1440000000	-2.491313e-002	-4.011130e-001	-3.959777e-001	3.751065e+000	2.796366e-002	7.909090e-002	4.673052e-001	-2.662538e-002
1450000000	-2.512081e-002	-3.997997e-001	-3.451300e-001	3.729071e+000	2.893768e-002	7.910946e-002	4.710489e-001	-3.344189e-002
1460000000	-2.537064e-002	-3.985728e-001	-2.942467e-001	3.706996e+000	2.964849e-002	7.922767e-002	4.744812e-001	-4.040894e-002
1470000000	-2.548293e-002	-3.974574e-001	-2.444356e-001	3.683194e+000	3.055581e-002	7.916982e-002	4.776470e-001	-4.743683e-002
1480000000	-2.573001e-002	-3.964132e-001	-1.960189e-001	3.660051e+000	3.137536e-002	7.934505e-002	4.805557e-001	-5.435678e-002
1490000000	-2.585727e-002	-3.953748e-001	-1.479247e-001	3.635380e+000	3.224037e-002	7.932958e-002	4.832487e-001	-6.147334e-002
1500000000	-2.624102e-002	-3.944214e-001	-1.021896e-001	3.611054e+000	3.306069e-002	7.930435e-002	4.856347e-001	-6.829838e-002
1510000000	-2.658225e-002	-3.934151e-001	-5.726651e-002	3.585830e+000	3.387907e-002	7.929883e-002	4.880154e-001	-7.531986e-002
1520000000	-2.690537e-002	-3.925189e-001	-1.251624e-002	3.560871e+000	3.468489e-002	7.931730e-002	4.901103e-001	-8.196208e-002
1530000000	-2.708571e-002	-3.916109e-001	3.005487e-002	3.534230e+000	3.553587e-002	7.929008e-002	4.921710e-001	-8.889593e-002
1540000000	-2.724171e-002	-3.907875e-001	7.239492e-002	3.508843e+000	3.630269e-002	7.923562e-002	4.938999e-001	-9.572657e-002
1550000000	-2.740926e-002	-3.899715e-001	1.125848e-001	3.482724e+000	3.706649e-002	7.926673e-002	4.956415e-001	-1.025704e-001
1560000000	-2.745980e-002	-3.891737e-001	1.526207e-001	3.456788e+000	3.783962e-002	7.920463e-002	4.973901e-001	-1.093796e-001
1570000000	-2.768561e-002	-3.885261e-001	1.919284e-001	3.431157e+000	3.871196e-002	7.915627e-002	4.989286e-001	-1.161981e-001
1580000000	-2.785613e-002	-3.878487e-001	2.297557e-001	3.404300e+000	3.941868e-002	7.917579e-002	5.002583e-001	-1.229081e-001
1590000000	-2.812643e-002	-3.873611e-001	2.672024e-001	3.378229e+000	4.019657e-002	7.918840e-002	5.017273e-001	-1.296611e-001
1600000000	-2.817308e-002	-3.867959e-001	3.024306e-001	3.351850e+000	4.098338e-002	7.909709e-002	5.030407e-001	-1.362722e-001
1610000000	-2.841646e-002	-3.860902e-001	3.387577e-001	3.324976e+000	4.182843e-002	7.896723e-002	5.042793e-001	-1.430373e-001
1620000000	-2.873824e-002	-3.855502e-001	3.751103e-001	3.299213e+000	4.255205e-002	7.891966e-002	5.055195e-001	-1.498077e-001
1630000000	-2.875550e-002	-3.850879e-001	4.086487e-001	3.271627e+000	4.327200e-002	7.887149e-002	5.063731e-001	-1.565446e-001
1640000000	-2.903856e-002	-3.845055e-001	4.420012e-001	3.243837e+000	4.406922e-002	7.874506e-002	5.074050e-001	-1.629265e-001
1650000000	-2.918331e-002	-3.838493e-001	4.735116e-001	3.216067e+000	4.477928e-002	7.863277e-002	5.081366e-001	-1.694016e-001
1660000000	-2.916720e-002	-3.834645e-001	5.033808e-001	3.189420e+000	4.552370e-002	7.859774e-002	5.088525e-001	-1.758246e-001
1670000000	-2.933364e-002	-3.828790e-001	5.350488e-001	3.162423e+000	4.628335e-002	7.857759e-002	5.095092e-001	-1.820915e-001
1680000000	-2.943526e-002	-3.823942e-001	5.647371e-001	3.135260e+000	4.694242e-002	7.840585e-002	5.101816e-001	-1.883550e-001
1690000000	-2.952716e-002	-3.820878e-001	5.931719e-001	3.108374e+000	4.765865e-002	7.835205e-002	5.105686e-001	-1.944623e-001
1700000000	-2.972291e-002	-3.816279e-001	6.210013e-001	3.081292e+000	4.837726e-002	7.831121e-002	5.108963e-001	-2.006122e-001
1710000000	-3.006995e-002	-3.811643e-001	6.488444e-001	3.054577e+000	4.905722e-002	7.812092e-002	5.111144e-001	-2.065324e-001
1720000000	-3.039375e-002	-3.806949e-001	6.757090e-001	3.027986e+000	4.983444e-002	7.803643e-002	5.110261e-001	-2.121993e-001
1730000000	-3.079513e-002	-3.803593e-001	7.031183e-001	3.001752e+000	5.054894e-002	7.794499e-002	5.110345e-001	-2.180047e-001
1740000000	-3.118239e-002	-3.798198e-001	7.294194e-001	2.974803e+000	5.122821e-002	7.781060e-002	5.109965e-001	-2.235695e-001
1750000000	-3.123293e-002	-3.795695e-001	7.546441e-001	2.946753e+000	5.195955e-002	7.770372e-002	5.107049e-001	-2.294641e-001
1760000000	-3.164736e-002	-3.793902e-001	7.789400e-001	2.920194e+000	5.262267e-002	7.752362e-002	5.104306e-001	-2.353283e-001
1770000000	-3.206924e-002	-3.792026e-001	8.037523e-001	2.892896e+000	5.326899e-002	7.741625e-002	5.099500e-001	-2.413908e-001
1780000000	-3.246871e-002	-3.792204e-001	8.267170e-001	2.865871e+000	5.401841e-002	7.726869e-002	5.092815e-001	-2.473933e-001
1790000000	-3.272237e-002	-3.792502e-001	8.490740e-001	2.838888e+000	5.469346e-002	7.714338e-002	5.084977e-001	-2.533139e-001
1800000000	-3.299530e-002	-3.792212e-001	8.711389e-001	2.811791e+000	5.544917e-002	7.703257e-002	5.078859e-001	-2.593472e-001
1810000000	-3.312617e-002	-3.793063e-001	8.919764e-001	2.785639e+000	5.603477e-002	7.680531e-002	5.073014e-001	-2.652003e-001
1820000000	-3.326359e-002	-3.791783e-001	9.125600e-001	2.758042e+000	5.680000e-002	7.666456e-002	5.065969e-001	-2.709272e-001
1830000000	-3.336458e-002	-3.792097e-001	9.326332e-001	2.731823e+000	5.739147e-002	7.648027e-002	5.058853e-001	-2.769041e-001
1840000000	-3.349715e-002	-3.791437e-001	9.517640e-001	2.705468e+000	5.807089e-002	7.634729e-002	5.054374e-001	-2.824491e-001
1850000000	-3.344468e-002	-3.789851e-001	9.707196e-001	2.679220e+000	5.874277e-002	7.619916e-002	5.047330e-001	-2.880245e-001
1860000000	-3.357570e-002	-3.787072e-001	9.892648e-001	2.652981e+000	5.938995e-002	7.605444e-002	5.043190e-001	-2.934205e-001
1870000000	-3.374428e-002	-3.783852e-001	1.008910e+000	2.627471e+000	5.998286e-002	7.583969e-002	5.038247e-001	-2.988881e-001
1880000000	-3.395196e-002	-3.782216e-001	1.026741e+000	2.602595e+000	6.067427e-002	7.565266e-002	5.032461e-001	-3.039933e-001
1890000000	-3.431582e-002	-3.779135e-001	1.045428e+000	2.576764e+000	6.126141e-002	7.549505e-002	5.024428e-001	-3.091385e-001
1900000000	-3.473581e-002	-3.774395e-001	1.062853e+000	2.551480e+000	6.191503e-002	7.529643e-002	5.014736e-001	-3.141832e-001
1910000000	-3.518540e-002	-3.772158e-001	1.078618e+000	2.526161e+000	6.258701e-002	7.521196e-002	5.002739e-001	-3.189969e-001
1920000000	-3.573216e-002	-3.768722e-001	1.094652e+000	2.500518e+000	6.318724e-002	7.492475e-002	4.989974e-001	-3.237577e-001
1930000000	-3.645006e-002	-3.766225e-001	1.111171e+000	2.476010e+000	6.381002e-002	7.475176e-002	4.975413e-001	-3.284361e-001
1940000000	-3.721537e-002	-3.767380e-001	1.126013e+000	2.450917e+000	6.448374e-002	7.459215e-002	4.960423e-001	-3.332569e-001
1950000000	-3.758368e-002	-3.767957e-001	1.140193e+000	2.424801e+000	6.505426e-002	7.436126e-002	4.944217e-001	-3.380403e-001
1960000000	-3.812900e-002	-3.769801e-001	1.153880e+000	2.399765e+000	6.567744e-002	7.416055e-002	4.927430e-001	-3.427946e-001
1970000000	-3.867750e-002	-3.772505e-001	1.166692e+000	2.374945e+000	6.628998e-002	7.398183e-002	4.910337e-001	-3.475787e-001
1980000000	-3.926403e-002	-3.777359e-001	1.180150e+000	2.350753e+000	6.683468e-002	7.389577e-002	4.893667e-001	-3.527745e-001
1990000000	-3.974627e-002	-3.782193e-001	1.193053e+000	2.326619e+000	6.752905e-002	7.355034e-002	4.877690e-001	-3.578069e-001
2000000000	-3.995271e-002	-3.784155e-001	1.205754e+000	2.303579e+000	6.807513e-002	7.339385e-002	4.861161e-001	-3.628362e-001
2010000000	-4.027077e-002	-3.788117e-001	1.218614e+000	2.279884e+000	6.867140e-002	7.319248e-002	4.846737e-001	-3.680751e-001
2020000000	-4.054492e-002	-3.791214e-001	1.231442e+000	2.257213e+000	6.928156e-002	7.301934e-002	4.830615e-001	-3.729215e-001
2030000000	-4.077238e-002	-3.792768e-001	1.244154e+000	2.233600e+000	6.994536e-002	7.282685e-002	4.817089e-001	-3.780516e-001
2040000000	-4.104474e-002	-3.794635e-001	1.255675e+000	2.209923e+000	7.048712e-002	7.258380e-002	4.798589e-001	-3.829555e-001
2050000000	-4.108412e-002	-3.794605e-001	1.267365e+000	2.186422e+000	7.114040e-002	7.230463e-002	4.785560e-001	-3.877936e-001
2060000000	-4.114202e-002	-3.795375e-001	1.277323e+000	2.163159e+000	7.173008e-002	7.212319e-002	4.771925e-001	-3.924051e-001
2070000000	-4.143538e-002	-3.795163e-001	1.287955e+000	2.139791e+000	7.232348e-002	7.192506e-002	4.757643e-001	-3.971631e-001
2080000000	-4.199370e-002	-3.797029e-001	1.298273e+000	2.117784e+000	7.289908e-002	7.175990e-002	4.742440e-001	-4.016758e-001
2090000000	-4.244044e-002	-3.796488e-001	1.308601e+000	2.094741e+000	7.360527e-002	7.143806e-002	4.723538e-001	-4.060638e-001
2100000000	-4.319592e-002	-3.798174e-001	1.317623e+000	2.072579e+000	7.416847e-002	7.125821e-002	4.708316e-001	-4.104873e-001
2110000000	-4.386522e-002	-3.798859e-001	1.327589e+000	2.050352e+000	7.482457e-002	7.094988e-002	4.686733e-001	-4.147548e-001
2120000000	-4.463970e-002	-3.801919e-001	1.336904e+000	2.028022e+000	7.538466e-002	7.068101e-002	4.668848e-001	-4.190216e-001
2130000000	-4.556358e-002	-3.804032e-001	1.346962e+000	2.006406e+000	7.600645e-002	7.047121e-002	4.647414e-001	-4.231589e-001
2140000000	-4.628376e-002	-3.807149e-001	1.355998e+000	1.984862e+000	7.654348e-002	7.012920e-002	4.627532e-001	-4.275202e-001
2150000000	-4.697014e-002	-3.808590e-001	1.364359e+000	1.961653e+000	7.706113e-002	6.988090e-002	4.603649e-001	-4.315348e-001
2160000000	-4.766219e-002	-3.809719e-001	1.373005e+000	1.939163e+000	7.762174e-002	6.957203e-002	4.580108e-001	-4.357530e-001
2170000000	-4.820971e-002	-3.813627e-001	1.380418e+000	1.916562e+000	7.810645e-002	6.924488e-002	4.557926e-001	-4.396690e-001
2180000000	-4.883901e-002	-3.815443e-001	1.388365e+000	1.894271e+000	7.860433e-002	6.895220e-002	4.535583e-001	-4.438031e-001
2190000000	-4.920281e-002	-3.820352e-001	1.394866e+000	1.872382e+000	7.921920e-002	6.881297e-002	4.514286e-001	-4.481016e-001
2200000000	-4.969909e-002	-3.822301e-001	1.401504e+000	1.850081e+000	7.974160e-002	6.851826e-002	4.491649e-001	-4.520670e-001
2210000000	-5.013333e-002	-3.827621e-001	1.407772e+000	1.828778e+000	8.026511e-002	6.822084e-002	4.470211e-001	-4.561600e-001
2220000000	-5.071948e-002	-3.830402e-001	1.414058e+000	1.808047e+000	8.083210e-002	6.798182e-002	4.447631e-001	-4.601276e-001
2230000000	-5.152432e-002	-3.833981e-001	1.420031e+000	1.788515e+000	8.134081e-002	6.780531e-002	4.427098e-001	-4.641689e-001
2240000000	-5.203993e-002	-3.835314e-001	1.426256e+000	1.767312e+000	8.200418e-002	6.746387e-002	4.401839e-001	-4.679571e-001
2250000000	-5.266205e-002	-3.838103e-001	1.431194e+000	1.747553e+000	8.249057e-002	6.721532e-002	4.379201e-001	-4.717052e-001
2260000000	-5.348537e-002	-3.840100e-001	1.437328e+000	1.727995e+000	8.296595e-002	6.693142e-002	4.357344e-001	-4.754239e-001
2270000000	-5.428694e-002	-3.841531e-001	1.443346e+000	1.707108e+000	8.344765e-002	6.667902e-002	4.333143e-001	-4.791102e-001
2280000000	-5.495102e-002	-3.845306e-001	1.448618e+000	1.686937e+000	8.405147e-002	6.635123e-002	4.310332e-001	-4.828814e-001
2290000000	-5.569561e-002	-3.847214e-001	1.454172e+000	1.666244e+000	8.451568e-002	6.609192e-002	4.285100e-001	-4.865858e-001
2300000000	-5.651817e-002	-3.848397e-001	1.458981e+000	1.646226e+000	8.497122e-002	6.577420e-002	4.262824e-001	-4.902849e-001
2310000000	-5.701127e-002	-3.853277e-001	1.463058e+000	1.626904e+000	8.557074e-002	6.546108e-002	4.237151e-001	-4.939569e-001
2320000000	-5.773986e-002	-3.857473e-001	1.467214e+000	1.607373e+000	8.607271e-002	6.526453e-002	4.213478e-001	-4.977392e-001
2330000000	-5.825301e-002	-3.861169e-001	1.471790e+000	1.588145e+000	8.659973e-002	6.486947e-002	4.188419e-001	-5.012838e-001
2340000000	-5.880789e-002	-3.862753e-001	1.475566e+000	1.568257e+000	8.711574e-002	6.457062e-002	4.162920e-001	-5.045651e-001
2350000000	-5.924621e-002	-3.867143e-001	1.478846e+000	1.550081e+000	8.772065e-002	6.432341e-002	4.139718e-001	-5.082425e-001
2360000000	-5.961940e-002	-3.869545e-001	1.482197e+000	1.530629e+000	8.819359e-002	6.402557e-002	4.116391e-001	-5.113611e-001
2370000000	-6.034152e-002	-3.870926e-001	1.485670e+000	1.512018e+000	8.866511e-002	6.365984e-002	4.092365e-001	-5.148447e-001
2380000000	-6.067761e-002	-3.872302e-001	1.488967e+000	1.493011e+000	8.920397e-002	6.336638e-002	4.065242e-001	-5.178700e-001
2390000000	-6.133070e-002	-3.873132e-001	1.491994e+000	1.474511e+000	8.966376e-002	6.297353e-002	4.040686e-001	-5.211793e-001
2400000000	-6.183925e-002	-3.876102e-001	1.494137e+000	1.456312e+000	9.017942e-002	6.271460e-002	4.014461e-001	-5.244662e-001
2410000000	-6.283424e-002	-3.876429e-001	1.497998e+000	1.438025e+000	9.071182e-002	6.234665e-002	3.988612e-001	-5.275289e-001
2420000000	-6.383705e-002	-3.878987e-001	1.500513e+000	1.419486e+000	9.119526e-002	6.197018e-002	3.958622e-001	-5.308010e-001
2430000000	-6.480695e-002	-3.881603e-001	1.503021e+000	1.402523e+000	9.160825e-002	6.169386e-002	3.931117e-001	-5.339594e-001
2440000000	-6.582295e-002	-3.881532e-001	1.505597e+000	1.384489e+000	9.203344e-002	6.140387e-002	3.903653e-001	-5.372656e-001
2450000000	-6.684235e-002	-3.884898e-001	1.507726e+000	1.367098e+000	9.258273e-002	6.112550e-002	3.875619e-001	-5.402025e-001
2460000000	-6.770632e-002	-3.885676e-001	1.510698e+000	1.349703e+000	9.301375e-002	6.074480e-002	3.847417e-001	-5.435647e-001
2470000000	-6.860190e-002	-3.892087e-001	1.511992e+000	1.332729e+000	9.351886e-002	6.043051e-002	3.819813e-001	-5.467692e-001
2480000000	-6.942876e-002	-3.893843e-001	1.514729e+000	1.315140e+000	9.401176e-002	6.012223e-002	3.792816e-001	-5.500601e-001
2490000000	-6.993320e-002	-3.899276e-001	1.515842e+000	1.297605e+000	9.454426e-002	5.983819e-002	3.766558e-001	-5.533688e-001
2500000000	-7.058796e-002	-3.904691e-001	1.516931e+000	1.280844e+000	9.490618e-002	5.952922e-002	3.740264e-001	-5.564117e-001
2510000000	-7.108843e-002	-3.908180e-001	1.518487e+000	1.264141e+000	9.543549e-002	5.919152e-002	3.715545e-001	-5.595228e-001
2520000000	-7.172505e-002	-3.910154e-001	1.519450e+000	1.247951e+000	9.593676e-002	5.890110e-002	3.688987e-001	-5.624291e-001
2530000000	-7.242446e-002	-3.912584e-001	1.520777e+000	1.231686e+000	9.643469e-002	5.844032e-002	3.661658e-001	-5.651553e-001
2540000000	-7.306424e-002	-3.914894e-001	1.520904e+000	1.215475e+000	9.687896e-002	5.814291e-002	3.635677e-001	-5.679114e-001
2550000000	-7.367584e-002	-3.912216e-001	1.522931e+000	1.198670e+000	9.731414e-002	5.783542e-002	3.608207e-001	-5.705338e-001
2560000000	-7.451516e-002	-3.911963e-001	1.523920e+000	1.183050e+000	9.774217e-002	5.743651e-002	3.581793e-001	-5.729369e-001
2570000000	-7.542130e-002	-3.912658e-001	1.524731e+000	1.167350e+000	9.817788e-002	5.715003e-002	3.553585e-001	-5.753944e-001
2580000000	-7.642625e-002	-3.911882e-001	1.525631e+000	1.150864e+000	9.873168e-002	5.677164e-002	3.524340e-001	-5.779271e-001
2590000000	-7.766953e-002	-3.911621e-001	1.526637e+000	1.135224e+000	9.926200e-002	5.643151e-002	3.493448e-001	-5.804614e-001
2600000000	-7.876083e-002	-3.912902e-001	1.526630e+000	1.118530e+000	9.965971e-002	5.618446e-002	3.462654e-001	-5.829926e-001
2610000000	-8.003410e-002	-3.916885e-001	1.526616e+000	1.102972e+000	1.001702e-001	5.579031e-002	3.430572e-001	-5.856450e-001
2620000000	-8.113038e-002	-3.919798e-001	1.527113e+000	1.086612e+000	1.005839e-001	5.533364e-002	3.398891e-001	-5.882716e-001
2630000000	-8.232937e-002	-3.923750e-001	1.526713e+000	1.071094e+000	1.010458e-001	5.501862e-002	3.367343e-001	-5.911641e-001
2640000000	-8.343257e-002	-3.929093e-001	1.526490e+000	1.056194e+000	1.014713e-001	5.460172e-002	3.335899e-001	-5.940998e-001
2650000000	-8.433140e-002	-3.935149e-001	1.525398e+000	1.041142e+000	1.019045e-001	5.424988e-002	3.302546e-001	-5.967365e-001
2660000000	-8.511937e-002	-3.940523e-001	1.525019e+000	1.026231e+000	1.023630e-001	5.385427e-002	3.274802e-001	-5.997040e-001
2670000000	-8.581316e-002	-3.943883e-001	1.525368e+000	1.011286e+000	1.027954e-001	5.348176e-002	3.244368e-001	-6.024797e-001
2680000000	-8.664180e-002	-3.949137e-001	1.524755e+000	9.975545e-001	1.031948e-001	5.305462e-002	3.217315e-001	-6.052477e-001
2690000000	-8.719804e-002	-3.951254e-001	1.524579e+000	9.828721e-001	1.036100e-001	5.275752e-002	3.192070e-001	-6.077781e-001
2700000000	-8.797472e-002	-3.953022e-001	1.524526e+000	9.687782e-001	1.040376e-001	5.229206e-002	3.166758e-001	-6.102938e-001
2710000000	-8.880717e-002	-3.955030e-001	1.524087e+000	9.550972e-001	1.044147e-001	5.195656e-002	3.143000e-001	-6.124712e-001
2720000000	-8.957562e-002	-3.954210e-001	1.523381e+000	9.411020e-001	1.049155e-001	5.163131e-002	3.114788e-001	-6.147011e-001
2730000000	-9.060965e-002	-3.953102e-001	1.523623e+000	9.267493e-001	1.052935e-001	5.128303e-002	3.087740e-001	-6.166621e-001
2740000000	-9.161920e-002	-3.950830e-001	1.522618e+000	9.119556e-001	1.056972e-001	5.081233e-002	3.058736e-001	-6.185785e-001
2750000000	-9.280164e-002	-3.947798e-001	1.522188e+000	8.977256e-001	1.062389e-001	5.055461e-002	3.028922e-001	-6.206258e-001
2760000000	-9.403324e-002	-3.946557e-001	1.521419e+000	8.835647e-001	1.065824e-001	5.020136e-002	2.995879e-001	-6.225057e-001
2770000000	-9.531642e-002	-3.946451e-001	1.520049e+000	8.693251e-001	1.070426e-001	4.975232e-002	2.962218e-001	-6.244745e-001
2780000000	-9.675638e-002	-3.947620e-001	1.518283e+000	8.546868e-001	1.074065e-001	4.934418e-002	2.925710e-001	-6.264941e-001
2790000000	-9.814324e-002	-3.949234e-001	1.516773e+000	8.406548e-001	1.078318e-001	4.892954e-002	2.887730e-001	-6.284333e-001
2800000000	-9.923556e-002	-3.952981e-001	1.514678e+000	8.274332e-001	1.083479e-001	4.852136e-002	2.851293e-001	-6.306293e-001
2810000000	-1.004784e-001	-3.957457e-001	1.512954e+000	8.140106e-001	1.086300e-001	4.819862e-002	2.817011e-001	-6.328273e-001
2820000000	-1.015011e-001	-3.963147e-001	1.510904e+000	8.009822e-001	1.090096e-001	4.772788e-002	2.781214e-001	-6.352117e-001
2830000000	-1.024625e-001	-3.970021e-001	1.509239e+000	7.882889e-001	1.094415e-001	4.726278e-002	2.747823e-001	-6.374108e-001
2840000000	-1.035062e-001	-3.975449e-001	1.507439e+000	7.753135e-001	1.097398e-001	4.700042e-002	2.719394e-001	-6.399822e-001
2850000000	-1.042433e-001	-3.980539e-001	1.505435e+000	7.630891e-001	1.101561e-001	4.651725e-002	2.690538e-001	-6.422793e-001
2860000000	-1.050284e-001	-3.984269e-001	1.504310e+000	7.516075e-001	1.106755e-001	4.618402e-002	2.663204e-001	-6.443921e-001
2870000000	-1.057666e-001	-3.986377e-001	1.502431e+000	7.394034e-001	1.110376e-001	4.585972e-002	2.639276e-001	-6.468701e-001
2880000000	-1.065155e-001	-3.984681e-001	1.501196e+000	7.267214e-001	1.114914e-001	4.549141e-002	2.614292e-001	-6.490656e-001
2890000000	-1.074252e-001	-3.983283e-001	1.499600e+000	7.142086e-001	1.120089e-001	4.517938e-002	2.587201e-001	-6.509048e-001
2900000000	-1.083482e-001	-3.980064e-001	1.497908e+000	7.015189e-001	1.123837e-001	4.466602e-002	2.560987e-001	-6.527506e-001
2910000000	-1.093902e-001	-3.976375e-001	1.496547e+000	6.884248e-001	1.127686e-001	4.417550e-002	2.533362e-001	-6.542912e-001
2920000000	-1.105268e-001	-3.973064e-001	1.494435e+000	6.753456e-001	1.132448e-001	4.371731e-002	2.501155e-001	-6.558220e-001
2930000000	-1.118295e-001	-3.970471e-001	1.491031e+000	6.626021e-001	1.135231e-001	4.317482e-002	2.468091e-001	-6.571807e-001
2940000000	-1.133231e-001	-3.968427e-001	1.488686e+000	6.497920e-001	1.139707e-001	4.269968e-002	2.431721e-001	-6.583629e-001
2950000000	-1.149323e-001	-3.967887e-001	1.485757e+000	6.379554e-001	1.142496e-001	4.219149e-002	2.393754e-001	-6.595892e-001
2960000000	-1.165353e-001	-3.968696e-001	1.482915e+000	6.263502e-001	1.145646e-001	4.181490e-002	2.355949e-001	-6.608991e-001
2970000000	-1.180087e-001	-3.972063e-001	1.479891e+000	6.148250e-001	1.148762e-001	4.135182e-002	2.316931e-001	-6.625011e-001
2980000000	-1.194637e-001	-3.977024e-001	1.476930e+000	6.043185e-001	1.152338e-001	4.091204e-002	2.279670e-001	-6.641635e-001
2990000000	-1.207715e-001	-3.982186e-001	1.474637e+000	5.927363e-001	1.156098e-001	4.066307e-002	2.241946e-001	-6.661843e-001
3000000000	-1.220972e-001	-3.987952e-001	1.471416e+000	5.817207e-001	1.158047e-001	4.030897e-002	2.206650e-001	-6.680807e-001
3010000000	-1.230255e-001	-3.993665e-001	1.468665e+000	5.705760e-001	1.161874e-001	3.987062e-002	2.173277e-001	-6.702774e-001
3020000000	-1.241888e-001	-3.997932e-001	1.466831e+000	5.604163e-001	1.165945e-001	3.947177e-002	2.141740e-001	-6.724131e-001
3030000000	-1.250491e-001	-3.998737e-001	1.464726e+000	5.490942e-001	1.170210e-001	3.909203e-002	2.112076e-001	-6.746824e-001
3040000000	-1.258544e-001	-4.000036e-001	1.461955e+000	5.380041e-001	1.174239e-001	3.870977e-002	2.084230e-001	-6.767352e-001
3050000000	-1.267528e-001	-3.999301e-001	1.459664e+000	5.273688e-001	1.178245e-001	3.835964e-002	2.055821e-001	-6.787919e-001
3060000000	-1.275085e-001	-3.996153e-001	1.456853e+000	5.158954e-001	1.181517e-001	3.788044e-002	2.028787e-001	-6.804868e-001
3070000000	-1.286252e-001	-3.990035e-001	1.453797e+000	5.052087e-001	1.185969e-001	3.742005e-002	1.999795e-001	-6.818491e-001
3080000000	-1.298160e-001	-3.984053e-001	1.451836e+000	4.943845e-001	1.189195e-001	3.697368e-002	1.972467e-001	-6.829966e-001
3090000000	-1.308996e-001	-3.976764e-001	1.448328e+000	4.832613e-001	1.192699e-001	3.659122e-002	1.943194e-001	-6.840573e-001
3100000000	-1.323189e-001	-3.972314e-001	1.445471e+000	4.732273e-001	1.196587e-001	3.603080e-002	1.912484e-001	-6.847325e-001
3110000000	-1.338771e-001	-3.966422e-001	1.442358e+000	4.625089e-001	1.200743e-001	3.560330e-002	1.880979e-001	-6.854380e-001
3120000000	-1.354372e-001	-3.965523e-001	1.439422e+000	4.521995e-001	1.204304e-001	3.509858e-002	1.848221e-001	-6.863534e-001
3130000000	-1.373954e-001	-3.965264e-001	1.436409e+000	4.420788e-001	1.206841e-001	3.470736e-002	1.812107e-001	-6.871908e-001
3140000000	-1.390145e-001	-3.967168e-001	1.433209e+000	4.320868e-001	1.210692e-001	3.425394e-002	1.776382e-001	-6.881877e-001
3150000000	-1.409769e-001	-3.972135e-001	1.429980e+000	4.222901e-001	1.214582e-001	3.375257e-002	1.735840e-001	-6.895521e-001
3160000000	-1.423732e-001	-3.974881e-001	1.427232e+000	4.120291e-001	1.218010e-001	3.324067e-002	1.697260e-001	-6.910090e-001
3170000000	-1.440974e-001	-3.980645e-001	1.424823e+000	4.021284e-001	1.221057e-001	3.280536e-002	1.660043e-001	-6.926112e-001
3180000000	-1.454325e-001	-3.986677e-001	1.421647e+000	3.918904e-001	1.225464e-001	3.233772e-002	1.621142e-001	-6.944224e-001
3190000000	-1.464983e-001	-3.990036e-001	1.418667e+000	3.811892e-001	1.228327e-001	3.176512e-002	1.581802e-001	-6.961592e-001
3200000000	-1.475063e-001	-3.994243e-001	1.414987e+000	3.710592e-001	1.231648e-001	3.130362e-002	1.546571e-001	-6.982015e-001
3210000000	-1.484122e-001	-3.995285e-001	1.411882e+000	3.605629e-001	1.234580e-001	3.077178e-002	1.514348e-001	-6.997743e-001
3220000000	-1.493090e-001	-3.995249e-001	1.408492e+000	3.515138e-001	1.238191e-001	3.031266e-002	1.481821e-001	-7.014381e-001
3230000000	-1.502025e-001	-3.993166e-001	1.405062e+000	3.413739e-001	1.240622e-001	2.975443e-002	1.451039e-001	-7.027830e-001
3240000000	-1.510310e-001	-3.988361e-001	1.401648e+000	3.313916e-001	1.243658e-001	2.933007e-002	1.422399e-001	-7.040621e-001
3250000000	-1.521031e-001	-3.982447e-001	1.398132e+000	3.226067e-001	1.246639e-001	2.891413e-002	1.393922e-001	-7.050922e-001
3260000000	-1.533442e-001	-3.977428e-001	1.395370e+000	3.134285e-001	1.249650e-001	2.847700e-002	1.366630e-001	-7.059741e-001
3270000000	-1.547983e-001	-3.970959e-001	1.391707e+000	3.038444e-001	1.252908e-001	2.793953e-002	1.335490e-001	-7.065830e-001
3280000000	-1.565506e-001	-3.966019e-001	1.388636e+000	2.949549e-001	1.256066e-001	2.752662e-002	1.302782e-001	-7.073725e-001
3290000000	-1.584345e-001	-3.960659e-001	1.385465e+000	2.853907e-001	1.259362e-001	2.701652e-002	1.269924e-001	-7.080106e-001
3300000000	-1.603622e-001	-3.957315e-001	1.382159e+000	2.770671e-001	1.262913e-001	2.666081e-002	1.235291e-001	-7.086649e-001
3310000000	-1.623230e-001	-3.954742e-001	1.379168e+000	2.668809e-001	1.266187e-001	2.604873e-002	1.199548e-001	-7.096470e-001
3320000000	-1.640972e-001	-3.954385e-001	1.375549e+000	2.578627e-001	1.269126e-001	2.550131e-002	1.159003e-001	-7.105002e-001
3330000000	-1.661206e-001	-3.953820e-001	1.372093e+000	2.483550e-001	1.272393e-001	2.498413e-002	1.118769e-001	-7.113514e-001
3340000000	-1.677390e-001	-3.957211e-001	1.367835e+000	2.386020e-001	1.274985e-001	2.446784e-002	1.078391e-001	-7.125347e-001
3350000000	-1.693001e-001	-3.958319e-001	1.364016e+000	2.296824e-001	1.277003e-001	2.395723e-002	1.038012e-001	-7.135999e-001
3360000000	-1.706741e-001	-3.960638e-001	1.360281e+000	2.207941e-001	1.280442e-001	2.341665e-002	1.000588e-001	-7.147380e-001
3370000000	-1.717777e-001	-3.964734e-001	1.355329e+000	2.120317e-001	1.283141e-001	2.293779e-002	9.630054e-002	-7.157753e-001
3380000000	-1.730608e-001	-3.964999e-001	1.352487e+000	2.040664e-001	1.286578e-001	2.241334e-002	9.263424e-002	-7.167002e-001
3390000000	-1.740298e-001	-3.964656e-001	1.348408e+000	1.952624e-001	1.289198e-001	2.194864e-002	8.920853e-002	-7.176529e-001
3400000000	-1.749553e-001	-3.961721e-001	1.344609e+000	1.865389e-001	1.293172e-001	2.151100e-002	8.604174e-002	-7.185684e-001
3410000000	-1.759918e-001	-3.958532e-001	1.340882e+000	1.783297e-001	1.296592e-001	2.103133e-002	8.291367e-002	-7.195233e-001
3420000000	-1.770519e-001	-3.954100e-001	1.337338e+000	1.699057e-001	1.298888e-001	2.032364e-002	7.965220e-002	-7.202144e-001
3430000000	-1.783501e-001	-3.949717e-001	1.333281e+000	1.615869e-001	1.302825e-001	1.980902e-002	7.649524e-002	-7.207781e-001
3440000000	-1.799134e-001	-3.943000e-001	1.329742e+000	1.527213e-001	1.304878e-001	1.925267e-002	7.304846e-002	-7.214545e-001
3450000000	-1.815527e-001	-3.936611e-001	1.325783e+000	1.442485e-001	1.307188e-001	1.868722e-002	6.940368e-002	-7.219714e-001
3460000000	-1.834626e-001	-3.930386e-001	1.321828e+000	1.360962e-001	1.310918e-001	1.810366e-002	6.574479e-002	-7.222647e-001
3470000000	-1.853823e-001	-3.924571e-001	1.317637e+000	1.277439e-001	1.312374e-001	1.755484e-002	6.187646e-002	-7.225562e-001
3480000000	-1.872965e-001	-3.921389e-001	1.313567e+000	1.193934e-001	1.315061e-001	1.710089e-002	5.809690e-002	-7.232259e-001
3490000000	-1.892749e-001	-3.918160e-001	1.309357e+000	1.112438e-001	1.315964e-001	1.647466e-002	5.413922e-002	-7.234689e-001
3500000000	-1.910224e-001	-3.916473e-001	1.305213e+000	1.034458e-001	1.318629e-001	1.601724e-002	5.017547e-002	-7.240705e-001
3510000000	-1.928466e-001	-3.916064e-001	1.300999e+000	9.567305e-002	1.321981e-001	1.547114e-002	4.637239e-002	-7.247548e-001
3520000000	-1.945262e-001	-3.914907e-001	1.297175e+000	8.794204e-002	1.323763e-001	1.484975e-002	4.246709e-002	-7.253653e-001
3530000000	-1.959370e-001	-3.913265e-001	1.293337e+000	7.962229e-002	1.325986e-001	1.430532e-002	3.873970e-002	-7.261168e-001
3540000000	-1.974254e-001	-3.912849e-001	1.289122e+000	7.240292e-002	1.327823e-001	1.382650e-002	3.521236e-002	-7.269203e-001
3550000000	-1.985623e-001	-3.911708e-001	1.284652e+000	6.459429e-002	1.330420e-001	1.333037e-002	3.201752e-002	-7.277909e-001
3560000000	-1.998968e-001	-3.908959e-001	1.280504e+000	5.664302e-002	1.333697e-001	1.268563e-002	2.849527e-002	-7.284135e-001
3570000000	-2.013526e-001	-3.904915e-001	1.276290e+000	4.925802e-002	1.336052e-001	1.220913e-002	2.516180e-002	-7.290661e-001
3580000000	-2.026614e-001	-3.899061e-001	1.272148e+000	4.110647e-002	1.338291e-001	1.163310e-002	2.192434e-002	-7.294773e-001
3590000000	-2.040460e-001	-3.892139e-001	1.268034e+000	3.352559e-002	1.341722e-001	1.107393e-002	1.843337e-002	-7.299916e-001
3600000000	-2.054822e-001	-3.883806e-001	1.264048e+000	2.612511e-002	1.343874e-001	1.044406e-002	1.519717e-002	-7.301506e-001
3610000000	-2.070868e-001	-3.877000e-001	1.259628e+000	1.881426e-002	1.345852e-001	9.864792e-003	1.140004e-002	-7.301554e-001
3620000000	-2.089050e-001	-3.870772e-001	1.254931e+000	1.106681e-002	1.347529e-001	9.240387e-003	7.709217e-003	-7.302933e-001
3630000000	-2.106820e-001	-3.864048e-001	1.250342e+000	3.755678e-003	1.349833e-001	8.636499e-003	3.889010e-003	-7.302693e-001
3640000000	-2.124104e-001	-3.857502e-001	1.245720e+000	-3.315807e-003	1.351550e-001	8.118676e-003	-1.168331e-004	-7.301634e-001
3650000000	-2.141479e-001	-3.851906e-001	1.241494e+000	-1.032729e-002	1.353377e-001	7.555632e-003	-4.067956e-003	-7.301448e-001
3660000000	-2.159337e-001	-3.848512e-001	1.236703e+000	-1.705882e-002	1.354345e-001	7.065935e-003	-7.925301e-003	-7.302676e-001
3670000000	-2.178137e-001	-3.846270e-001	1.232524e+000	-2.395108e-002	1.355729e-001	6.496190e-003	-1.196858e-002	-7.303145e-001
3680000000	-2.195224e-001	-3.845922e-001	1.227987e+000	-3.034606e-002	1.358752e-001	6.001580e-003	-1.602194e-002	-7.306824e-001
3690000000	-2.211933e-001	-3.842571e-001	1.223418e+000	-3.745912e-002	1.360410e-001	5.424643e-003	-1.982767e-002	-7.311693e-001
3700000000	-2.228818e-001	-3.841293e-001	1.219769e+000	-4.394270e-002	1.363184e-001	4.846189e-003	-2.353436e-002	-7.317734e-001
3710000000	-2.243226e-001	-3.836225e-001	1.215436e+000	-5.064851e-002	1.364937e-001	4.203560e-003	-2.699170e-002	-7.323302e-001
3720000000	-2.257876e-001	-3.831865e-001	1.211498e+000	-5.763289e-002	1.367009e-001	3.598988e-003	-3.033758e-002	-7.329369e-001
3730000000	-2.270815e-001	-3.827046e-001	1.206855e+000	-6.488525e-002	1.370428e-001	2.955506e-003	-3.383080e-002	-7.336035e-001
3740000000	-2.285842e-001	-3.817105e-001	1.202939e+000	-7.217351e-002	1.371902e-001	2.267613e-003	-3.718389e-002	-7.336626e-001
3750000000	-2.301291e-001	-3.809685e-001	1.197593e+000	-7.942510e-002	1.374249e-001	1.596911e-003	-4.068301e-002	-7.338468e-001
3760000000	-2.316276e-001	-3.801306e-001	1.193167e+000	-8.650566e-002	1.375166e-001	1.046423e-003	-4.414068e-002	-7.337651e-001
3770000000	-2.331404e-001	-3.792304e-001	1.187898e+000	-9.340584e-002	1.375282e-001	3.863742e-004	-4.783180e-002	-7.334749e-001
3780000000	-2.350630e-001	-3.784333e-001	1.182956e+000	-9.989270e-002	1.377156e-001	-2.437473e-004	-5.160953e-002	-7.330426e-001
3790000000	-2.368993e-001	-3.777500e-001	1.177676e+000	-1.062025e-001	1.378086e-001	-7.864504e-004	-5.557037e-002	-7.323090e-001
3800000000	-2.388607e-001	-3.770348e-001	1.173239e+000	-1.125380e-001	1.378106e-001	-1.412439e-003	-5.955603e-002	-7.317666e-001
3810000000	-2.409506e-001	-3.766029e-001	1.167695e+000	-1.182112e-001	1.379335e-001	-1.947648e-003	-6.357961e-002	-7.311229e-001
3820000000	-2.429106e-001	-3.762854e-001	1.163267e+000	-1.241538e-001	1.381231e-001	-2.432249e-003	-6.758641e-002	-7.306340e-001
3830000000	-2.449926e-001	-3.759668e-001	1.158688e+000	-1.299819e-001	1.382067e-001	-2.944753e-003	-7.162121e-002	-7.302481e-001
3840000000	-2.468061e-001	-3.757648e-001	1.153837e+000	-1.357592e-001	1.384720e-001	-3.477555e-003	-7.582815e-002	-7.301801e-001
3850000000	-2.485613e-001	-3.755979e-001	1.149564e+000	-1.416859e-001	1.385470e-001	-3.990881e-003	-7.984406e-002	-7.301851e-001
3860000000	-2.501792e-001	-3.752641e-001	1.145190e+000	-1.477635e-001	1.388508e-001	-4.572567e-003	-8.354853e-002	-7.305540e-001
3870000000	-2.515615e-001	-3.749500e-001	1.140623e+000	-1.540045e-001	1.391052e-001	-5.191667e-003	-8.719319e-002	-7.310676e-001
3880000000	-2.529509e-001	-3.744727e-001	1.135959e+000	-1.607252e-001	1.392166e-001	-5.816855e-003	-9.088077e-002	-7.314985e-001
3890000000	-2.542386e-001	-3.738052e-001	1.131462e+000	-1.664773e-001	1.394912e-001	-6.570080e-003	-9.433314e-002	-7.320516e-001
3900000000	-2.554119e-001	-3.729118e-001	1.126687e+000	-1.725175e-001	1.396124e-001	-7.236086e-003	-9.773886e-002	-7.323350e-001
3910000000	-2.568328e-001	-3.718550e-001	1.121810e+000	-1.786581e-001	1.396893e-001	-7.917079e-003	-1.011377e-001	-7.324237e-001
3920000000	-2.581227e-001	-3.707974e-001	1.116361e+000	-1.847218e-001	1.398183e-001	-8.539165e-003	-1.043047e-001	-7.320829e-001
3930000000	-2.597567e-001	-3.693808e-001	1.111810e+000	-1.905320e-001	1.398160e-001	-9.244516e-003	-1.078266e-001	-7.318000e-001
3940000000	-2.614942e-001	-3.682268e-001	1.107040e+000	-1.960385e-001	1.398660e-001	-9.870765e-003	-1.111244e-001	-7.311761e-001
3950000000	-2.634569e-001	-3.670952e-001	1.101609e+000	-2.013142e-001	1.399383e-001	-1.049111e-002	-1.145685e-001	-7.301234e-001
3960000000	-2.655585e-001	-3.662021e-001	1.097023e+000	-2.064910e-001	1.399974e-001	-1.109927e-002	-1.181924e-001	-7.290851e-001
3970000000	-2.678297e-001	-3.652669e-001	1.092055e+000	-2.121360e-001	1.400306e-001	-1.168673e-002	-1.220356e-001	-7.283092e-001
3980000000	-2.702282e-001	-3.646370e-001	1.087369e+000	-2.173924e-001	1.400591e-001	-1.230957e-002	-1.262732e-001	-7.272632e-001
3990000000	-2.726764e-001	-3.640733e-001	1.082410e+000	-2.226704e-001	1.402332e-001	-1.289043e-002	-1.305255e-001	-7.263976e-001
4000000000	-2.748484e-001	-3.637710e-001	1.077856e+000	-2.281057e-001	1.404034e-001	-1.347870e-002	-1.347935e-001	-7.258264e-001
4010000000	-2.769006e-001	-3.636813e-001	1.073202e+000	-2.335473e-001	1.405287e-001	-1.415565e-002	-1.393987e-001	-7.254784e-001
4020000000	-2.788777e-001	-3.634705e-001	1.068257e+000	-2.392879e-001	1.406765e-001	-1.479049e-002	-1.438293e-001	-7.252587e-001
4030000000	-2.805971e-001	-3.632857e-001	1.062919e+000	-2.448446e-001	1.406393e-001	-1.537786e-002	-1.482959e-001	-7.252427e-001
4040000000	-2.821597e-001	-3.631527e-001	1.058554e+000	-2.502639e-001	1.406970e-001	-1.611247e-002	-1.524148e-001	-7.253456e-001
4050000000	-2.833837e-001	-3.628972e-001	1.052646e+000	-2.558409e-001	1.406693e-001	-1.676969e-002	-1.565847e-001	-7.255310e-001
4060000000	-2.846187e-001	-3.624740e-001	1.047721e+000	-2.608272e-001	1.406356e-001	-1.741284e-002	-1.602751e-001	-7.256623e-001
4070000000	-2.857369e-001	-3.616850e-001	1.042334e+000	-2.661485e-001	1.407150e-001	-1.802051e-002	-1.640558e-001	-7.257379e-001
4080000000	-2.869129e-001	-3.607599e-001	1.037612e+000	-2.710929e-001	1.407167e-001	-1.853857e-002	-1.675531e-001	-7.257069e-001
4090000000	-2.882905e-001	-3.595075e-001	1.032139e+000	-2.758600e-001	1.407704e-001	-1.915468e-002	-1.710456e-001	-7.255466e-001
4100000000	-2.897307e-001	-3.582056e-001	1.027195e+000	-2.806684e-001	1.407952e-001	-1.968243e-002	-1.741197e-001	-7.249259e-001
4110000000	-2.914970e-001	-3.567280e-001	1.022801e+000	-2.853289e-001	1.408787e-001	-2.030134e-002	-1.773065e-001	-7.239694e-001
4120000000	-2.933959e-001	-3.551248e-001	1.017972e+000	-2.899347e-001	1.410753e-001	-2.083883e-002	-1.806439e-001	-7.230596e-001
4130000000	-2.955879e-001	-3.535778e-001	1.013447e+000	-2.952320e-001	1.412241e-001	-2.155169e-002	-1.838432e-001	-7.218422e-001
4140000000	-2.978075e-001	-3.523401e-001	1.008429e+000	-3.000560e-001	1.413381e-001	-2.226843e-002	-1.875222e-001	-7.204596e-001
4150000000	-3.002548e-001	-3.511618e-001	1.003584e+000	-3.049320e-001	1.415930e-001	-2.297672e-002	-1.912519e-001	-7.192468e-001
4160000000	-3.027332e-001	-3.501749e-001	9.988951e-001	-3.100838e-001	1.416196e-001	-2.389294e-002	-1.951714e-001	-7.182341e-001
4170000000	-3.053046e-001	-3.494463e-001	9.933459e-001	-3.152485e-001	1.415750e-001	-2.469181e-002	-1.995438e-001	-7.169906e-001
4180000000	-3.078502e-001	-3.487813e-001	9.884096e-001	-3.203673e-001	1.414277e-001	-2.544976e-002	-2.040043e-001	-7.159337e-001
4190000000	-3.102205e-001	-3.483918e-001	9.823704e-001	-3.250022e-001	1.414253e-001	-2.614908e-002	-2.085731e-001	-7.151903e-001
4200000000	-3.125332e-001	-3.481761e-001	9.770476e-001	-3.295436e-001	1.413307e-001	-2.673917e-002	-2.131498e-001	-7.145907e-001
4210000000	-3.145130e-001	-3.479826e-001	9.712932e-001	-3.335824e-001	1.412278e-001	-2.754126e-002	-2.177396e-001	-7.139809e-001
4220000000	-3.163976e-001	-3.476599e-001	9.664660e-001	-3.376966e-001	1.411213e-001	-2.822324e-002	-2.222183e-001	-7.133594e-001
4230000000	-3.181261e-001	-3.472821e-001	9.614975e-001	-3.419259e-001	1.410606e-001	-2.895853e-002	-2.262547e-001	-7.130383e-001
4240000000	-3.195594e-001	-3.467619e-001	9.562736e-001	-3.460369e-001	1.408375e-001	-2.956740e-002	-2.303221e-001	-7.125716e-001
4250000000	-3.211132e-001	-3.460059e-001	9.510964e-001	-3.499887e-001	1.408648e-001	-3.021535e-002	-2.340193e-001	-7.120280e-001
4260000000	-3.224521e-001	-3.451022e-001	9.460149e-001	-3.540139e-001	1.406958e-001	-3.082684e-002	-2.374769e-001	-7.115236e-001
4270000000	-3.238967e-001	-3.439087e-001	9.404910e-001	-3.585097e-001	1.406555e-001	-3.151851e-002	-2.411242e-001	-7.107191e-001
4280000000	-3.254813e-001	-3.424577e-001	9.352711e-001	-3.627035e-001	1.405927e-001	-3.216194e-002	-2.445483e-001	-7.097702e-001
4290000000	-3.271478e-001	-3.408347e-001	9.296327e-001	-3.666263e-001	1.404471e-001	-3.281307e-002	-2.478369e-001	-7.086256e-001
4300000000	-3.287824e-001	-3.393927e-001	9.244846e-001	-3.709232e-001	1.405109e-001	-3.345231e-002	-2.513781e-001	-7.073276e-001
4310000000	-3.308220e-001	-3.377575e-001	9.191738e-001	-3.750120e-001	1.405591e-001	-3.413650e-002	-2.548802e-001	-7.059321e-001
4320000000	-3.330265e-001	-3.362620e-001	9.135358e-001	-3.791602e-001	1.404027e-001	-3.482745e-002	-2.586664e-001	-7.045362e-001
4330000000	-3.352083e-001	-3.349737e-001	9.082689e-001	-3.829599e-001	1.403473e-001	-3.551044e-002	-2.625112e-001	-7.027822e-001
4340000000	-3.377752e-001	-3.337000e-001	9.030295e-001	-3.869973e-001	1.402685e-001	-3.611225e-002	-2.665424e-001	-7.014156e-001
4350000000	-3.402256e-001	-3.324918e-001	8.973295e-001	-3.910422e-001	1.401515e-001	-3.681575e-002	-2.707965e-001	-6.998595e-001
4360000000	-3.427053e-001	-3.315690e-001	8.922123e-001	-3.942918e-001	1.400204e-001	-3.746171e-002	-2.750586e-001	-6.982669e-001
4370000000	-3.449522e-001	-3.307198e-001	8.864768e-001	-3.976747e-001	1.399324e-001	-3.811405e-002	-2.795023e-001	-6.969190e-001
4380000000	-3.471759e-001	-3.299619e-001	8.809967e-001	-4.018768e-001	1.397684e-001	-3.877678e-002	-2.836621e-001	-6.956335e-001
4390000000	-3.489558e-001	-3.293180e-001	8.754750e-001	-4.051266e-001	1.396700e-001	-3.949686e-002	-2.878349e-001	-6.945244e-001
4400000000	-3.508580e-001	-3.286242e-001	8.700111e-001	-4.089436e-001	1.395484e-001	-4.022744e-002	-2.916936e-001	-6.934940e-001
4410000000	-3.524694e-001	-3.279092e-001	8.643400e-001	-4.122130e-001	1.395298e-001	-4.078442e-002	-2.956086e-001	-6.927060e-001
4420000000	-3.541044e-001	-3.271071e-001	8.591748e-001	-4.159209e-001	1.392784e-001	-4.155519e-002	-2.992287e-001	-6.916722e-001
4430000000	-3.556937e-001	-3.260824e-001	8.537137e-001	-4.193062e-001	1.392484e-001	-4.226249e-002	-3.031196e-001	-6.907503e-001
4440000000	-3.574080e-001	-3.250344e-001	8.487812e-001	-4.229400e-001	1.390369e-001	-4.291189e-002	-3.063956e-001	-6.896153e-001
4450000000	-3.590958e-001	-3.238909e-001	8.427632e-001	-4.261935e-001	1.388564e-001	-4.355789e-002	-3.098492e-001	-6.884494e-001
4460000000	-3.608638e-001	-3.226209e-001	8.376402e-001	-4.295271e-001	1.385688e-001	-4.426185e-002	-3.133283e-001	-6.871931e-001
4470000000	-3.627654e-001	-3.212237e-001	8.320238e-001	-4.328518e-001	1.383951e-001	-4.489645e-002	-3.169593e-001	-6.857166e-001
4480000000	-3.647711e-001	-3.197441e-001	8.265969e-001	-4.361123e-001	1.381206e-001	-4.559913e-002	-3.205991e-001	-6.841421e-001
4490000000	-3.668099e-001	-3.183393e-001	8.209843e-001	-4.392247e-001	1.378954e-001	-4.622795e-002	-3.242984e-001	-6.823349e-001
4500000000	-3.689001e-001	-3.169716e-001	8.153179e-001	-4.423272e-001	1.377304e-001	-4.681026e-002	-3.280988e-001	-6.807247e-001
4510000000	-3.711656e-001	-3.157225e-001	8.096101e-001	-4.452331e-001	1.375057e-001	-4.754548e-002	-3.319258e-001	-6.787050e-001
4520000000	-3.734784e-001	-3.144078e-001	8.042496e-001	-4.479749e-001	1.372843e-001	-4.813656e-002	-3.357852e-001	-6.768581e-001
4530000000	-3.756016e-001	-3.132478e-001	7.986419e-001	-4.512277e-001	1.371051e-001	-4.875960e-002	-3.399524e-001	-6.752227e-001
4540000000	-3.778273e-001	-3.121068e-001	7.934384e-001	-4.541280e-001	1.368969e-001	-4.934296e-002	-3.440234e-001	-6.736392e-001
4550000000	-3.798708e-001	-3.110599e-001	7.876580e-001	-4.569316e-001	1.367497e-001	-5.000262e-002	-3.480506e-001	-6.722551e-001
4560000000	-3.818042e-001	-3.100000e-001	7.827014e-001	-4.594819e-001	1.365237e-001	-5.053331e-002	-3.522334e-001	-6.705874e-001
4570000000	-3.836688e-001	-3.089602e-001	7.772405e-001	-4.625498e-001	1.362796e-001	-5.113816e-002	-3.560494e-001	-6.692864e-001
4580000000	-3.854742e-001	-3.080063e-001	7.719175e-001	-4.653590e-001	1.360293e-001	-5.184942e-002	-3.601513e-001	-6.676182e-001
4590000000	-3.872876e-001	-3.068620e-001	7.662478e-001	-4.681761e-001	1.358186e-001	-5.248566e-002	-3.639146e-001	-6.662130e-001
4600000000	-3.890152e-001	-3.056771e-001	7.610477e-001	-4.709508e-001	1.356029e-001	-5.310530e-002	-3.677443e-001	-6.649513e-001
4610000000	-3.908851e-001	-3.044853e-001	7.551797e-001	-4.736551e-001	1.353636e-001	-5.377263e-002	-3.711694e-001	-6.634525e-001
4620000000	-3.926522e-001	-3.031160e-001	7.494307e-001	-4.761430e-001	1.350635e-001	-5.428514e-002	-3.747702e-001	-6.619082e-001
4630000000	-3.945984e-001	-3.017074e-001	7.437935e-001	-4.783465e-001	1.347737e-001	-5.494059e-002	-3.782406e-001	-6.601166e-001
4640000000	-3.965080e-001	-3.001788e-001	7.379570e-001	-4.806196e-001	1.344860e-001	-5.553765e-002	-3.817684e-001	-6.581990e-001
4650000000	-3.983359e-001	-2.988181e-001	7.322031e-001	-4.825909e-001	1.343323e-001	-5.616641e-002	-3.852587e-001	-6.565153e-001
4660000000	-4.003295e-001	-2.971880e-001	7.271834e-001	-4.847523e-001	1.339851e-001	-5.674853e-002	-3.884752e-001	-6.542772e-001
4670000000	-4.023705e-001	-2.958377e-001	7.217528e-001	-4.871797e-001	1.336660e-001	-5.736331e-002	-3.919904e-001	-6.522450e-001
4680000000	-4.044712e-001	-2.944845e-001	7.163388e-001	-4.893967e-001	1.334883e-001	-5.805006e-002	-3.955224e-001	-6.503454e-001
4690000000	-4.064941e-001	-2.931433e-001	7.110305e-001	-4.917659e-001	1.331328e-001	-5.854616e-002	-3.989699e-001	-6.482331e-001
4700000000	-4.085671e-001	-2.919233e-001	7.056326e-001	-4.939419e-001	1.328877e-001	-5.919190e-002	-4.028347e-001	-6.464423e-001
4710000000	-4.108497e-001	-2.907800e-001	7.003128e-001	-4.960864e-001	1.326213e-001	-5.978445e-002	-4.065311e-001	-6.447819e-001
4720000000	-4.130447e-001	-2.894782e-001	6.952184e-001	-4.983323e-001	1.323633e-001	-6.045370e-002	-4.106625e-001	-6.429299e-001
4730000000	-4.150138e-001	-2.882287e-001	6.896486e-001	-5.002931e-001	1.320444e-001	-6.102904e-002	-4.144208e-001	-6.412209e-001
4740000000	-4.170432e-001	-2.868961e-001	6.845178e-001	-5.022989e-001	1.316427e-001	-6.173785e-002	-4.182828e-001	-6.394943e-001
4750000000	-4.190059e-001	-2.855906e-001	6.789454e-001	-5.044227e-001	1.313917e-001	-6.235181e-002	-4.221207e-001	-6.375136e-001
4760000000	-4.208933e-001	-2.843778e-001	6.734882e-001	-5.062379e-001	1.310396e-001	-6.292799e-002	-4.258935e-001	-6.357041e-001
4770000000	-4.226538e-001	-2.830054e-001	6.675382e-001	-5.077847e-001	1.306420e-001	-6.348161e-002	-4.293436e-001	-6.338619e-001
4780000000	-4.247051e-001	-2.817018e-001	6.621962e-001	-5.095653e-001	1.302734e-001	-6.411017e-002	-4.332275e-001	-6.317155e-001
4790000000	-4.265032e-001	-2.802892e-001	6.565809e-001	-5.111714e-001	1.299602e-001	-6.458500e-002	-4.365235e-001	-6.298450e-001
4800000000	-4.283944e-001	-2.788934e-001	6.510316e-001	-5.125958e-001	1.295278e-001	-6.512808e-002	-4.399544e-001	-6.278818e-001
4810000000	-4.302123e-001	-2.775893e-001	6.456508e-001	-5.140139e-001	1.292035e-001	-6.566817e-002	-4.433694e-001	-6.258115e-001
4820000000	-4.322478e-001	-2.762189e-001	6.407826e-001	-5.153508e-001	1.288701e-001	-6.614285e-002	-4.467880e-001	-6.236467e-001
4830000000	-4.341252e-001	-2.747059e-001	6.350113e-001	-5.171073e-001	1.284282e-001	-6.674148e-002	-4.500897e-001	-6.212916e-001
4840000000	-4.361781e-001	-2.733111e-001	6.298384e-001	-5.182229e-001	1.280644e-001	-6.725861e-002	-4.534366e-001	-6.193832e-001
4850000000	-4.381765e-001	-2.717726e-001	6.249978e-001	-5.197247e-001	1.278489e-001	-6.764258e-002	-4.568095e-001	-6.172682e-001
4860000000	-4.401886e-001	-2.703050e-001	6.196103e-001	-5.211186e-001	1.274297e-001	-6.819325e-002	-4.601213e-001	-6.151236e-001
4870000000	-4.424423e-001	-2.689041e-001	6.143760e-001	-5.221704e-001	1.270244e-001	-6.879989e-002	-4.637512e-001	-6.131690e-001
4880000000	-4.444074e-001	-2.673512e-001	6.092357e-001	-5.239439e-001	1.267633e-001	-6.938193e-002	-4.672634e-001	-6.112849e-001
4890000000	-4.465024e-001	-2.657894e-001	6.040191e-001	-5.250164e-001	1.262574e-001	-6.998515e-002	-4.708294e-001	-6.090506e-001
4900000000	-4.485140e-001	-2.643643e-001	5.986006e-001	-5.263358e-001	1.259679e-001	-7.059280e-002	-4.743444e-001	-6.071497e-001
4910000000	-4.504228e-001	-2.628027e-001	5.932017e-001	-5.274883e-001	1.254974e-001	-7.099581e-002	-4.778904e-001	-6.048561e-001
4920000000	-4.523038e-001	-2.612625e-001	5.876721e-001	-5.289438e-001	1.251213e-001	-7.155325e-002	-4.814304e-001	-6.027964e-001
4930000000	-4.541740e-001	-2.598506e-001	5.822913e-001	-5.299057e-001	1.247680e-001	-7.206669e-002	-4.848104e-001	-6.003230e-001
4940000000	-4.560508e-001	-2.583437e-001	5.769120e-001	-5.309003e-001	1.243237e-001	-7.248577e-002	-4.881483e-001	-5.981699e-001
4950000000	-4.578325e-001	-2.569327e-001	5.718207e-001	-5.316787e-001	1.238568e-001	-7.295720e-002	-4.910928e-001	-5.956112e-001
4960000000	-4.598204e-001	-2.556135e-001	5.668954e-001	-5.320925e-001	1.235015e-001	-7.349343e-002	-4.946619e-001	-5.934204e-001
4970000000	-4.616391e-001	-2.542222e-001	5.619379e-001	-5.329438e-001	1.230407e-001	-7.391477e-002	-4.977689e-001	-5.912569e-001
4980000000	-4.635244e-001	-2.529282e-001	5.567888e-001	-5.336754e-001	1.226275e-001	-7.437883e-002	-5.007556e-001	-5.890696e-001
4990000000	-4.654150e-001	-2.515200e-001	5.519064e-001	-5.341884e-001	1.222349e-001	-7.494358e-002	-5.041914e-001	-5.868139e-001
5000000000	-4.672733e-001	-2.501287e-001	5.470826e-001	-5.349222e-001	1.217868e-001	-7.536950e-002	-5.074257e-001	-5.847070e-001
5010000000	-4.691895e-001	-2.487992e-001	5.419217e-001	-5.354859e-001	1.214039e-001	-7.583232e-002	-5.107070e-001	-5.825646e-001
5020000000	-4.711077e-001	-2.474002e-001	5.368105e-001	-5.363743e-001	1.210420e-001	-7.633930e-002	-5.141657e-001	-5.805403e-001
5030000000	-4.728696e-001	-2.457771e-001	5.313720e-001	-5.371977e-001	1.205930e-001	-7.684547e-002	-5.174632e-001	-5.783483e-001
5040000000	-4.747674e-001	-2.443157e-001	5.262711e-001	-5.377546e-001	1.201548e-001	-7.742334e-002	-5.207896e-001	-5.761019e-001
5050000000	-4.766076e-001	-2.426139e-001	5.210548e-001	-5.383575e-001	1.196858e-001	-7.778110e-002	-5.239354e-001	-5.740675e-001
5060000000	-4.784074e-001	-2.411604e-001	5.160966e-001	-5.389339e-001	1.193945e-001	-7.828245e-002	-5.270248e-001	-5.719027e-001
5070000000	-4.801149e-001	-2.393171e-001	5.109263e-001	-5.394001e-001	1.188070e-001	-7.874506e-002	-5.299713e-001	-5.696784e-001
5080000000	-4.819142e-001	-2.373489e-001	5.062056e-001	-5.400614e-001	1.182341e-001	-7.916454e-002	-5.328317e-001	-5.673436e-001
5090000000	-4.838890e-001	-2.357350e-001	5.012471e-001	-5.401603e-001	1.178007e-001	-7.961462e-002	-5.356685e-001	-5.650623e-001
5100000000	-4.856600e-001	-2.339428e-001	4.964716e-001	-5.407210e-001	1.173483e-001	-7.999433e-002	-5.383217e-001	-5.628942e-001
5110000000	-4.875791e-001	-2.323496e-001	4.919082e-001	-5.407535e-001	1.169562e-001	-8.042654e-002	-5.412466e-001	-5.602591e-001
5120000000	-4.897025e-001	-2.307604e-001	4.872309e-001	-5.405766e-001	1.165751e-001	-8.077484e-002	-5.442412e-001	-5.580000e-001
5130000000	-4.916817e-001	-2.294478e-001	4.825026e-001	-5.406184e-001	1.160465e-001	-8.115065e-002	-5.469989e-001	-5.553131e-001
5140000000	-4.936308e-001	-2.280124e-001	4.776936e-001	-5.405369e-001	1.156054e-001	-8.161651e-002	-5.500625e-001	-5.526919e-001
5150000000	-4.959367e-001	-2.266288e-001	4.732532e-001	-5.409460e-001	1.151083e-001	-8.191821e-002	-5.532389e-001	-5.503822e-001
5160000000	-4.979765e-001	-2.252460e-001	4.683800e-001	-5.410408e-001	1.147732e-001	-8.237306e-002	-5.564328e-001	-5.480862e-001
5170000000	-4.999425e-001	-2.239208e-001	4.637582e-001	-5.411196e-001	1.143022e-001	-8.283452e-002	-5.599391e-001	-5.452719e-001
5180000000	-5.017251e-001	-2.226234e-001	4.587946e-001	-5.415137e-001	1.138691e-001	-8.326472e-002	-5.631453e-001	-5.428447e-001
5190000000	-5.034314e-001	-2.211680e-001	4.538352e-001	-5.417848e-001	1.133438e-001	-8.370370e-002	-5.667924e-001	-5.405379e-001
5200000000	-5.050773e-001	-2.198412e-001	4.488817e-001	-5.416856e-001	1.128835e-001	-8.404546e-002	-5.702344e-001	-5.382637e-001
5210000000	-5.066298e-001	-2.185067e-001	4.443732e-001	-5.416981e-001	1.124572e-001	-8.446005e-002	-5.733628e-001	-5.360658e-001
5220000000	-5.079404e-001	-2.168701e-001	4.395344e-001	-5.416742e-001	1.119089e-001	-8.485146e-002	-5.764273e-001	-5.338404e-001
5230000000	-5.094468e-001	-2.151854e-001	4.351368e-001	-5.413670e-001	1.114879e-001	-8.514040e-002	-5.795297e-001	-5.316790e-001
5240000000	-5.109257e-001	-2.135540e-001	4.305950e-001	-5.410696e-001	1.109166e-001	-8.549807e-002	-5.823112e-001	-5.298700e-001
5250000000	-5.123425e-001	-2.119216e-001	4.258854e-001	-5.407640e-001	1.104419e-001	-8.581980e-002	-5.851205e-001	-5.279414e-001
5260000000	-5.140649e-001	-2.101502e-001	4.218480e-001	-5.403340e-001	1.100324e-001	-8.612421e-002	-5.876825e-001	-5.261329e-001
5270000000	-5.159874e-001	-2.083373e-001	4.174155e-001	-5.397807e-001	1.095211e-001	-8.650942e-002	-5.900318e-001	-5.237976e-001
5280000000	-5.177704e-001	-2.065381e-001	4.132364e-001	-5.393662e-001	1.091012e-001	-8.689000e-002	-5.925817e-001	-5.212876e-001
5290000000	-5.199562e-001	-2.046145e-001	4.090393e-001	-5.393026e-001	1.085823e-001	-8.721112e-002	-5.948234e-001	-5.191197e-001
5300000000	-5.220801e-001	-2.028719e-001	4.048910e-001	-5.388165e-001	1.080990e-001	-8.759709e-002	-5.972400e-001	-5.166788e-001
5310000000	-5.242823e-001	-2.011681e-001	4.003833e-001	-5.385436e-001	1.075788e-001	-8.789072e-002	-5.998993e-001	-5.136683e-001
5320000000	-5.263852e-001	-1.995680e-001	3.956884e-001	-5.385134e-001	1.070652e-001	-8.830940e-002	-6.026654e-001	-5.109682e-001
5330000000	-5.286930e-001	-1.980107e-001	3.916144e-001	-5.384982e-001	1.065420e-001	-8.870175e-002	-6.053923e-001	-5.082503e-001
5340000000	-5.305766e-001	-1.964380e-001	3.868107e-001	-5.382862e-001	1.061082e-001	-8.891744e-002	-6.083336e-001	-5.051231e-001
5350000000	-5.325193e-001	-1.949532e-001	3.825561e-001	-5.378242e-001	1.055079e-001	-8.919968e-002	-6.113090e-001	-5.024628e-001
5360000000	-5.343910e-001	-1.938724e-001	3.780640e-001	-5.372490e-001	1.050519e-001	-8.951732e-002	-6.142061e-001	-4.994750e-001
5370000000	-5.360843e-001	-1.924721e-001	3.738700e-001	-5.364988e-001	1.045376e-001	-8.974005e-002	-6.173538e-001	-4.969050e-001
5380000000	-5.376217e-001	-1.912163e-001	3.696265e-001	-5.357483e-001	1.040876e-001	-9.001994e-002	-6.204113e-001	-4.942791e-001
5390000000	-5.391712e-001	-1.899444e-001	3.657033e-001	-5.348547e-001	1.036361e-001	-9.027713e-002	-6.232398e-001	-4.918647e-001
5400000000	-5.404577e-001	-1.885474e-001	3.615607e-001	-5.341689e-001	1.031295e-001	-9.061209e-002	-6.263181e-001	-4.895108e-001
5410000000	-5.418988e-001	-1.873316e-001	3.575160e-001	-5.333779e-001	1.026400e-001	-9.087235e-002	-6.291599e-001	-4.871352e-001
5420000000	-5.432856e-001	-1.857419e-001	3.532965e-001	-5.326583e-001	1.021505e-001	-9.112547e-002	-6.317040e-001	-4.849718e-001
5430000000	-5.447955e-001	-1.842053e-001	3.492827e-001	-5.321391e-001	1.016892e-001	-9.141703e-002	-6.341126e-001	-4.830753e-001
5440000000	-5.463242e-001	-1.824319e-001	3.448748e-001	-5.315344e-001	1.011807e-001	-9.175051e-002	-6.366567e-001	-4.809775e-001
5450000000	-5.479865e-001	-1.806185e-001	3.410479e-001	-5.306133e-001	1.006390e-001	-9.196357e-002	-6.387207e-001	-4.784826e-001
5460000000	-5.496733e-001	-1.787754e-001	3.370436e-001	-5.299518e-001	1.001670e-001	-9.227786e-002	-6.409242e-001	-4.762991e-001
5470000000	-5.512931e-001	-1.768311e-001	3.331479e-001	-5.292678e-001	9.972783e-002	-9.241447e-002	-6.428391e-001	-4.738066e-001
5480000000	-5.532261e-001	-1.746912e-001	3.292117e-001	-5.284790e-001	9.927942e-002	-9.266459e-002	-6.448855e-001	-4.714898e-001
5490000000	-5.552252e-001	-1.727966e-001	3.257464e-001	-5.279194e-001	9.882724e-002	-9.291418e-002	-6.471846e-001	-4.687823e-001
5500000000	-5.572292e-001	-1.710749e-001	3.218798e-001	-5.269100e-001	9.827974e-002	-9.312440e-002	-6.490691e-001	-4.660229e-001
5510000000	-5.590271e-001	-1.693712e-001	3.183377e-001	-5.262486e-001	9.786086e-002	-9.339306e-002	-6.513135e-001	-4.633967e-001
5520000000	-5.609435e-001	-1.676988e-001	3.144861e-001	-5.252298e-001	9.733448e-002	-9.368579e-002	-6.536648e-001	-4.605684e-001
5530000000	-5.630899e-001	-1.659592e-001	3.106233e-001	-5.246477e-001	9.687175e-002	-9.398896e-002	-6.560771e-001	-4.575799e-001
5540000000	-5.648543e-001	-1.646296e-001	3.067619e-001	-5.235487e-001	9.626037e-002	-9.427823e-002	-6.587437e-001	-4.548305e-001
5550000000	-5.666198e-001	-1.632917e-001	3.027794e-001	-5.227139e-001	9.575199e-002	-9.436557e-002	-6.612809e-001	-4.520636e-001
5560000000	-5.681396e-001	-1.618296e-001	2.990093e-001	-5.217032e-001	9.523474e-002	-9.464343e-002	-6.638416e-001	-4.493636e-001
5570000000	-5.696464e-001	-1.605829e-001	2.951948e-001	-5.205572e-001	9.475557e-002	-9.489453e-002	-6.665006e-001	-4.466671e-001
5580000000	-5.710955e-001	-1.585634e-001	2.911874e-001	-5.195450e-001	9.420500e-002	-9.503966e-002	-6.691912e-001	-4.439891e-001
5590000000	-5.722733e-001	-1.570517e-001	2.872801e-001	-5.184333e-001	9.368421e-002	-9.528080e-002	-6.717275e-001	-4.414727e-001
5600000000	-5.738730e-001	-1.557558e-001	2.839210e-001	-5.172689e-001	9.315500e-002	-9.541540e-002	-6.741710e-001	-4.390805e-001
5610000000	-5.750090e-001	-1.537356e-001	2.799965e-001	-5.160013e-001	9.266464e-002	-9.558359e-002	-6.762944e-001	-4.367224e-001
5620000000	-5.762263e-001	-1.519341e-001	2.764187e-001	-5.146916e-001	9.207274e-002	-9.561875e-002	-6.783538e-001	-4.343284e-001
5630000000	-5.776326e-001	-1.502711e-001	2.731088e-001	-5.134393e-001	9.160214e-002	-9.579555e-002	-6.805307e-001	-4.320919e-001
5640000000	-5.791422e-001	-1.485544e-001	2.698609e-001	-5.121648e-001	9.117659e-002	-9.593593e-002	-6.824747e-001	-4.297426e-001
5650000000	-5.807855e-001	-1.470992e-001	2.665273e-001	-5.109063e-001	9.075200e-002	-9.601639e-002	-6.843902e-001	-4.277271e-001
5660000000	-5.825475e-001	-1.453332e-001	2.632582e-001	-5.097963e-001	9.025547e-002	-9.617192e-002	-6.863241e-001	-4.254942e-001
5670000000	-5.839444e-001	-1.438699e-001	2.599006e-001	-5.083898e-001	8.982963e-002	-9.636985e-002	-6.881322e-001	-4.228724e-001
5680000000	-5.855580e-001	-1.421932e-001	2.566556e-001	-5.073315e-001	8.933719e-002	-9.655287e-002	-6.898837e-001	-4.205245e-001
5690000000	-5.872091e-001	-1.405399e-001	2.533336e-001	-5.060022e-001	8.890680e-002	-9.672716e-002	-6.916945e-001	-4.181324e-001
5700000000	-5.886377e-001	-1.389575e-001	2.500034e-001	-5.049135e-001	8.840206e-002	-9.690357e-002	-6.935968e-001	-4.157049e-001
5710000000	-5.899543e-001	-1.373036e-001	2.468771e-001	-5.037075e-001	8.793344e-002	-9.704857e-002	-6.954829e-001	-4.131694e-001
5720000000	-5.913113e-001	-1.357278e-001	2.435191e-001	-5.024914e-001	8.742094e-002	-9.725605e-002	-6.974236e-001	-4.104649e-001
5730000000	-5.928702e-001	-1.341804e-001	2.402853e-001	-5.013231e-001	8.689635e-002	-9.733897e-002	-6.996265e-001	-4.079990e-001
5740000000	-5.940745e-001	-1.326877e-001	2.370560e-001	-5.000190e-001	8.636996e-002	-9.738316e-002	-7.016953e-001	-4.053454e-001
5750000000	-5.953480e-001	-1.309229e-001	2.340332e-001	-4.987500e-001	8.585796e-002	-9.753280e-002	-7.036011e-001	-4.028165e-001
5760000000	-5.965746e-001	-1.292295e-001	2.308081e-001	-4.972069e-001	8.544600e-002	-9.755730e-002	-7.060559e-001	-4.003219e-001
5770000000	-5.981001e-001	-1.275283e-001	2.279387e-001	-4.958801e-001	8.494153e-002	-9.760238e-002	-7.080555e-001	-3.978927e-001
5780000000	-5.997268e-001	-1.257682e-001	2.249924e-001	-4.943625e-001	8.449909e-002	-9.771919e-002	-7.102329e-001	-3.952258e-001
5790000000	-6.010507e-001	-1.241619e-001	2.219069e-001	-4.926904e-001	8.403978e-002	-9.779804e-002	-7.119874e-001	-3.928233e-001
5800000000	-6.026331e-001	-1.227989e-001	2.190759e-001	-4.911157e-001	8.360541e-002	-9.793940e-002	-7.139030e-001	-3.905303e-001
5810000000	-6.042716e-001	-1.214038e-001	2.159773e-001	-4.896451e-001	8.321134e-002	-9.799258e-002	-7.159109e-001	-3.881461e-001
5820000000	-6.057952e-001	-1.198890e-001	2.130843e-001	-4.882837e-001	8.268650e-002	-9.810004e-002	-7.176780e-001	-3.860470e-001
5830000000	-6.072360e-001	-1.184858e-001	2.099949e-001	-4.870970e-001	8.214033e-002	-9.818685e-002	-7.196959e-001	-3.838699e-001
5840000000	-6.088588e-001	-1.171819e-001	2.070185e-001	-4.857549e-001	8.172214e-002	-9.824859e-002	-7.214788e-001	-3.819410e-001
5850000000	-6.100886e-001	-1.159264e-001	2.042136e-001	-4.845460e-001	8.117375e-002	-9.831070e-002	-7.231376e-001	-3.797701e-001
5860000000	-6.112729e-001	-1.144155e-001	2.014166e-001	-4.831006e-001	8.079920e-002	-9.842502e-002	-7.247075e-001	-3.776356e-001
5870000000	-6.125898e-001	-1.130389e-001	1.987862e-001	-4.817194e-001	8.038687e-002	-9.852290e-002	-7.265591e-001	-3.754236e-001
5880000000	-6.136047e-001	-1.116791e-001	1.961626e-001	-4.801786e-001	8.004313e-002	-9.857050e-002	-7.279524e-001	-3.731780e-001
5890000000	-6.147302e-001	-1.102327e-001	1.935397e-001	-4.785549e-001	7.960076e-002	-9.856705e-002	-7.295322e-001	-3.709473e-001
5900000000	-6.156775e-001	-1.086964e-001	1.910182e-001	-4.770304e-001	7.912699e-002	-9.867767e-002	-7.309982e-001	-3.685701e-001
5910000000	-6.167799e-001	-1.072091e-001	1.884463e-001	-4.753750e-001	7.869949e-002	-9.862602e-002	-7.324114e-001	-3.662811e-001
5920000000	-6.178913e-001	-1.054471e-001	1.860960e-001	-4.737575e-001	7.823123e-002	-9.867717e-002	-7.337325e-001	-3.640488e-001
5930000000	-6.191039e-001	-1.039072e-001	1.832949e-001	-4.721977e-001	7.781798e-002	-9.870757e-002	-7.351605e-001	-3.617464e-001
5940000000	-6.203592e-001	-1.020670e-001	1.807900e-001	-4.705022e-001	7.741629e-002	-9.879889e-002	-7.367086e-001	-3.593924e-001
5950000000	-6.216554e-001	-1.006569e-001	1.783148e-001	-4.689437e-001	7.711703e-002	-9.876422e-002	-7.380229e-001	-3.569984e-001
5960000000	-6.230953e-001	-9.877400e-002	1.759660e-001	-4.675113e-001	7.668310e-002	-9.885552e-002	-7.395655e-001	-3.545872e-001
5970000000	-6.245497e-001	-9.732274e-002	1.734126e-001	-4.660276e-001	7.623040e-002	-9.894496e-002	-7.412981e-001	-3.524890e-001
5980000000	-6.261740e-001	-9.590179e-002	1.709504e-001	-4.647052e-001	7.580494e-002	-9.896408e-002	-7.427761e-001	-3.501455e-001
5990000000	-6.277622e-001	-9.448149e-002	1.684590e-001	-4.632577e-001	7.539254e-002	-9.901351e-002	-7.445691e-001	-3.477863e-001
6000000000	-6.294133e-001	-9.314468e-002	1.661098e-001	-4.618283e-001	7.499217e-002	-9.895934e-002	-7.464016e-001	-3.456326e-001
6010000000	-6.307975e-001	-9.202132e-002	1.637598e-001	-4.603827e-001	7.450948e-002	-9.896830e-002	-7.480772e-001	-3.436531e-001
6020000000	-6.321494e-001	-9.095346e-002	1.614433e-001	-4.588948e-001	7.406788e-002	-9.905426e-002	-7.498187e-001	-3.417887e-001
6030000000	-6.335160e-001	-8.981944e-002	1.589843e-001	-4.572837e-001	7.359199e-002	-9.912974e-002	-7.515904e-001	-3.399805e-001
6040000000	-6.345279e-001	-8.877706e-002	1.566583e-001	-4.557674e-001	7.318355e-002	-9.911270e-002	-7.532834e-001	-3.380541e-001
6050000000	-6.354918e-001	-8.779171e-002	1.545113e-001	-4.541970e-001	7.281288e-002	-9.910756e-002	-7.547873e-001	-3.363338e-001
6060000000	-6.362843e-001	-8.673604e-002	1.521996e-001	-4.525775e-001	7.239829e-002	-9.906048e-002	-7.561558e-001	-3.345183e-001
6070000000	-6.371166e-001	-8.552387e-002	1.500244e-001	-4.507311e-001	7.200469e-002	-9.906223e-002	-7.574162e-001	-3.327302e-001
6080000000	-6.379583e-001	-8.415331e-002	1.477742e-001	-4.491042e-001	7.165336e-002	-9.901428e-002	-7.586299e-001	-3.311001e-001
6090000000	-6.385814e-001	-8.273584e-002	1.456417e-001	-4.476323e-001	7.132998e-002	-9.896013e-002	-7.597395e-001	-3.291209e-001
6100000000	-6.395583e-001	-8.111940e-002	1.436643e-001	-4.460273e-001	7.095395e-002	-9.891196e-002	-7.605919e-001	-3.271930e-001
6110000000	-6.405490e-001	-7.945229e-002	1.418276e-001	-4.444524e-001	7.057033e-002	-9.892628e-002	-7.615366e-001	-3.253329e-001
6120000000	-6.418518e-001	-7.769810e-002	1.398833e-001	-4.428895e-001	7.028966e-002	-9.891259e-002	-7.627418e-001	-3.233574e-001
6130000000	-6.431576e-001	-7.590022e-002	1.379387e-001	-4.413746e-001	6.980035e-002	-9.892814e-002	-7.638712e-001	-3.210659e-001
6140000000	-6.446102e-001	-7.420845e-002	1.361347e-001	-4.400575e-001	6.949367e-002	-9.893235e-002	-7.648970e-001	-3.188932e-001
6150000000	-6.460025e-001	-7.267894e-002	1.342163e-001	-4.384467e-001	6.918716e-002	-9.890677e-002	-7.662646e-001	-3.166264e-001
6160000000	-6.476124e-001	-7.123404e-002	1.322680e-001	-4.370277e-001	6.882700e-002	-9.881236e-002	-7.678296e-001	-3.141726e-001
6170000000	-6.491029e-001	-6.992488e-002	1.302136e-001	-4.356077e-001	6.846065e-002	-9.877980e-002	-7.691791e-001	-3.119230e-001
6180000000	-6.507296e-001	-6.884670e-002	1.281708e-001	-4.338797e-001	6.802468e-002	-9.879143e-002	-7.709184e-001	-3.098875e-001
6190000000	-6.520249e-001	-6.787019e-002	1.260876e-001	-4.323285e-001	6.773645e-002	-9.869605e-002	-7.725296e-001	-3.076500e-001
6200000000	-6.532866e-001	-6.701127e-002	1.242036e-001	-4.307157e-001	6.746013e-002	-9.863390e-002	-7.740726e-001	-3.056354e-001
6210000000	-6.542784e-001	-6.630898e-002	1.223564e-001	-4.291809e-001	6.717161e-002	-9.862622e-002	-7.755611e-001	-3.039897e-001
6220000000	-6.552103e-001	-6.548708e-002	1.204832e-001	-4.275319e-001	6.696486e-002	-9.857824e-002	-7.770956e-001	-3.021556e-001
6230000000	-6.559986e-001	-6.453765e-002	1.188146e-001	-4.259302e-001	6.673801e-002	-9.857112e-002	-7.785969e-001	-3.005923e-001
6240000000	-6.565054e-001	-6.344791e-002	1.170516e-001	-4.245833e-001	6.646397e-002	-9.862425e-002	-7.796865e-001	-2.991042e-001
6250000000	-6.571398e-001	-6.242778e-002	1.154212e-001	-4.230319e-001	6.629061e-002	-9.867804e-002	-7.808048e-001	-2.976567e-001
6260000000	-6.577358e-001	-6.116980e-002	1.138034e-001	-4.217455e-001	6.596260e-002	-9.875810e-002	-7.819005e-001	-2.966019e-001
6270000000	-6.584074e-001	-5.974106e-002	1.121305e-001	-4.203723e-001	6.559337e-002	-9.889452e-002	-7.827485e-001	-2.949883e-001
6280000000	-6.592826e-001	-5.822236e-002	1.102410e-001	-4.190787e-001	6.515202e-002	-9.896649e-002	-7.835418e-001	-2.935141e-001
6290000000	-6.601922e-001	-5.643824e-002	1.084924e-001	-4.176026e-001	6.473254e-002	-9.900872e-002	-7.845013e-001	-2.919203e-001
6300000000	-6.612577e-001	-5.488441e-002	1.067627e-001	-4.161069e-001	6.434388e-002	-9.891245e-002	-7.851911e-001	-2.900475e-001
6310000000	-6.623809e-001	-5.305965e-002	1.051273e-001	-4.143908e-001	6.401730e-002	-9.879536e-002	-7.857975e-001	-2.880707e-001
6320000000	-6.637673e-001	-5.143059e-002	1.034672e-001	-4.127503e-001	6.365828e-002	-9.869197e-002	-7.863429e-001	-2.860324e-001
6330000000	-6.651311e-001	-5.003367e-002	1.017507e-001	-4.111762e-001	6.338744e-002	-9.864588e-002	-7.871870e-001	-2.838196e-001
6340000000	-6.666911e-001	-4.873142e-002	1.001857e-001	-4.095678e-001	6.317582e-002	-9.852010e-002	-7.879487e-001	-2.817452e-001
6350000000	-6.681035e-001	-4.773274e-002	9.880997e-002	-4.080368e-001	6.294249e-002	-9.848042e-002	-7.889761e-001	-2.796879e-001
6360000000	-6.694256e-001	-4.679328e-002	9.739811e-002	-4.067064e-001	6.272774e-002	-9.848825e-002	-7.899852e-001	-2.776727e-001
6370000000	-6.706965e-001	-4.610775e-002	9.594487e-002	-4.055711e-001	6.249338e-002	-9.863361e-002	-7.912961e-001	-2.757523e-001
6380000000	-6.719364e-001	-4.541341e-002	9.454216e-002	-4.043287e-001	6.226205e-002	-9.873556e-002	-7.927954e-001	-2.740056e-001
6390000000	-6.729311e-001	-4.475845e-002	9.294391e-002	-4.031261e-001	6.195925e-002	-9.874553e-002	-7.943651e-001	-2.723032e-001
6400000000	-6.737210e-001	-4.399173e-002	9.146345e-002	-4.017709e-001	6.168427e-002	-9.875157e-002	-7.960178e-001	-2.706387e-001
6410000000	-6.743645e-001	-4.331602e-002	9.010086e-002	-4.002557e-001	6.140189e-002	-9.870209e-002	-7.973953e-001	-2.689134e-001
6420000000	-6.748754e-001	-4.236106e-002	8.858217e-002	-3.986803e-001	6.107929e-002	-9.871946e-002	-7.986670e-001	-2.674377e-001
6430000000	-6.752333e-001	-4.131266e-002	8.709103e-002	-3.972037e-001	6.084611e-002	-9.858600e-002	-7.998219e-001	-2.659544e-001
6440000000	-6.753291e-001	-4.013412e-002	8.579273e-002	-3.955974e-001	6.058354e-002	-9.856432e-002	-8.006069e-001	-2.646150e-001
6450000000	-6.756828e-001	-3.885807e-002	8.447738e-002	-3.939085e-001	6.036071e-002	-9.855429e-002	-8.012524e-001	-2.635144e-001
6460000000	-6.760890e-001	-3.748611e-002	8.314818e-002	-3.925270e-001	6.006216e-002	-9.861163e-002	-8.017035e-001	-2.623954e-001
6470000000	-6.765341e-001	-3.604850e-002	8.176337e-002	-3.911459e-001	5.985187e-002	-9.851623e-002	-8.020765e-001	-2.611855e-001
6480000000	-6.772054e-001	-3.462377e-002	8.058053e-002	-3.898630e-001	5.977776e-002	-9.862744e-002	-8.023259e-001	-2.599539e-001
6490000000	-6.782079e-001	-3.309890e-002	7.931559e-002	-3.886789e-001	5.939643e-002	-9.866938e-002	-8.026762e-001	-2.585745e-001
6500000000	-6.793197e-001	-3.175821e-002	7.816770e-002	-3.873225e-001	5.925329e-002	-9.874454e-002	-8.030265e-001	-2.572206e-001
6510000000	-6.806647e-001	-3.051714e-002	7.711315e-002	-3.861947e-001	5.910576e-002	-9.886757e-002	-8.035113e-001	-2.558406e-001
6520000000	-6.819958e-001	-2.936907e-002	7.591044e-002	-3.850642e-001	5.886614e-002	-9.903003e-002	-8.041424e-001	-2.544319e-001
6530000000	-6.834766e-001	-2.828030e-002	7.476754e-002	-3.839353e-001	5.859640e-002	-9.924251e-002	-8.050657e-001	-2.528566e-001
6540000000	-6.849216e-001	-2.755485e-002	7.335983e-002	-3.828881e-001	5.821090e-002	-9.938228e-002	-8.061874e-001	-2.511471e-001
6550000000	-6.862694e-001	-2.689567e-002	7.202557e-002	-3.815696e-001	5.781481e-002	-9.947877e-002	-8.074399e-001	-2.494044e-001
6560000000	-6.874358e-001	-2.631248e-002	7.064878e-002	-3.802897e-001	5.740191e-002	-9.947714e-002	-8.086715e-001	-2.476681e-001
6570000000	-6.885096e-001	-2.568629e-002	6.901960e-002	-3.788364e-001	5.697335e-002	-9.943406e-002	-8.099577e-001	-2.458696e-001
6580000000	-6.892186e-001	-2.513557e-002	6.750933e-002	-3.773633e-001	5.652053e-002	-9.936455e-002	-8.111827e-001	-2.439561e-001
6590000000	-6.898127e-001	-2.446372e-002	6.588968e-002	-3.757202e-001	5.609077e-002	-9.924802e-002	-8.121908e-001	-2.423135e-001
6600000000	-6.901941e-001	-2.367091e-002	6.479433e-002	-3.741500e-001	5.587482e-002	-9.905474e-002	-8.129864e-001	-2.406851e-001
6610000000	-6.903976e-001	-2.293524e-002	6.360039e-002	-3.727146e-001	5.572362e-002	-9.895011e-002	-8.136566e-001	-2.393998e-001
6620000000	-6.906285e-001	-2.214675e-002	6.266209e-002	-3.714513e-001	5.550583e-002	-9.903444e-002	-8.143315e-001	-2.383984e-001
6630000000	-6.908138e-001	-2.130751e-002	6.178319e-002	-3.702857e-001	5.534738e-002	-9.914884e-002	-8.147414e-001	-2.375173e-001
6640000000	-6.913830e-001	-2.032851e-002	6.079524e-002	-3.693118e-001	5.504658e-002	-9.931430e-002	-8.154337e-001	-2.368203e-001
6650000000	-6.919187e-001	-1.910946e-002	5.974673e-002	-3.681818e-001	5.471223e-002	-9.945342e-002	-8.161741e-001	-2.361312e-001
6660000000	-6.927294e-001	-1.798599e-002	5.869547e-002	-3.670033e-001	5.428269e-002	-9.945484e-002	-8.166880e-001	-2.353287e-001
6670000000	-6.936697e-001	-1.647753e-002	5.752458e-002	-3.659120e-001	5.389240e-002	-9.946322e-002	-8.173971e-001	-2.343367e-001
6680000000	-6.948058e-001	-1.509355e-002	5.640618e-002	-3.645812e-001	5.355854e-002	-9.933520e-002	-8.181986e-001	-2.331685e-001
6690000000	-6.958167e-001	-1.354498e-002	5.538114e-002	-3.632755e-001	5.326622e-002	-9.933193e-002	-8.188282e-001	-2.321155e-001
6700000000	-6.968306e-001	-1.227398e-002	5.412695e-002	-3.620919e-001	5.294283e-002	-9.922622e-002	-8.195675e-001	-2.305283e-001
6710000000	-6.978509e-001	-1.121603e-002	5.297806e-002	-3.608680e-001	5.269638e-002	-9.915470e-002	-8.201501e-001	-2.291164e-001
6720000000	-6.987310e-001	-1.022564e-002	5.180964e-002	-3.595150e-001	5.240946e-002	-9.911893e-002	-8.208277e-001	-2.275543e-001
6730000000	-6.995579e-001	-9.535109e-003	5.041945e-002	-3.581226e-001	5.218082e-002	-9.911881e-002	-8.213924e-001	-2.259734e-001
6740000000	-7.004836e-001	-9.035855e-003	4.931487e-002	-3.568950e-001	5.182829e-002	-9.910975e-002	-8.221937e-001	-2.243514e-001
6750000000	-7.012847e-001	-8.491191e-003	4.812583e-002	-3.557079e-001	5.155918e-002	-9.913785e-002	-8.228169e-001	-2.228362e-001
6760000000	-7.020444e-001	-8.125752e-003	4.720741e-002	-3.543812e-001	5.125650e-002	-9.910454e-002	-8.236305e-001	-2.214235e-001
6770000000	-7.026820e-001	-7.723668e-003	4.628059e-002	-3.532114e-001	5.088826e-002	-9.912515e-002	-8.244674e-001	-2.201400e-001
6780000000	-7.033042e-001	-7.146567e-003	4.544313e-002	-3.519425e-001	5.056487e-002	-9.910220e-002	-8.252140e-001	-2.188115e-001
6790000000	-7.039468e-001	-6.570117e-003	4.458733e-002	-3.506522e-001	5.029434e-002	-9.901888e-002	-8.259918e-001	-2.177003e-001
6800000000	-7.046445e-001	-5.956584e-003	4.371166e-002	-3.494666e-001	4.988024e-002	-9.892512e-002	-8.268621e-001	-2.166289e-001
6810000000	-7.052733e-001	-5.186964e-003	4.281863e-002	-3.481249e-001	4.959352e-002	-9.888288e-002	-8.276359e-001	-2.157392e-001
6820000000	-7.058932e-001	-4.318797e-003	4.174670e-002	-3.467309e-001	4.932202e-002	-9.877696e-002	-8.283788e-001	-2.147360e-001
6830000000	-7.065591e-001	-3.253696e-003	4.069080e-002	-3.454482e-001	4.901188e-002	-9.870381e-002	-8.291374e-001	-2.138665e-001
6840000000	-7.073698e-001	-2.107835e-003	3.969542e-002	-3.442910e-001	4.876709e-002	-9.858280e-002	-8.299072e-001	-2.128521e-001
6850000000	-7.081117e-001	-1.025455e-003	3.865042e-002	-3.431018e-001	4.842650e-002	-9.847667e-002	-8.304880e-001	-2.117884e-001
6860000000	-7.089090e-001	6.423259e-005	3.770347e-002	-3.419201e-001	4.815528e-002	-9.842613e-002	-8.310728e-001	-2.106077e-001
6870000000	-7.096156e-001	1.088040e-003	3.666371e-002	-3.407039e-001	4.797611e-002	-9.834409e-002	-8.315832e-001	-2.094620e-001
6880000000	-7.103167e-001	2.210648e-003	3.576651e-002	-3.396077e-001	4.773398e-002	-9.822691e-002	-8.320531e-001	-2.083091e-001
6890000000	-7.109684e-001	3.241756e-003	3.477884e-002	-3.384893e-001	4.752203e-002	-9.824019e-002	-8.324291e-001	-2.069074e-001
6900000000	-7.116645e-001	4.021817e-003	3.418048e-002	-3.373109e-001	4.728320e-002	-9.819104e-002	-8.328120e-001	-2.057374e-001
6910000000	-7.122845e-001	4.800191e-003	3.343948e-002	-3.360551e-001	4.709763e-002	-9.812454e-002	-8.331663e-001	-2.045735e-001
6920000000	-7.129145e-001	5.523563e-003	3.268521e-002	-3.348636e-001	4.686272e-002	-9.811961e-002	-8.336075e-001	-2.033518e-001
6930000000	-7.135026e-001	6.130193e-003	3.193133e-002	-3.335727e-001	4.663435e-002	-9.801310e-002	-8.339969e-001	-2.022705e-001
6940000000	-7.141242e-001	6.953172e-003	3.106163e-002	-3.323717e-001	4.631773e-002	-9.794149e-002	-8.346986e-001	-2.011271e-001
6950000000	-7.146892e-001	7.657504e-003	3.027385e-002	-3.310223e-001	4.601595e-002	-9.786458e-002	-8.353695e-001	-2.001699e-001
6960000000	-7.153876e-001	8.167458e-003	2.949729e-002	-3.299306e-001	4.572012e-002	-9.780299e-002	-8.359610e-001	-1.988627e-001
6970000000	-7.158975e-001	8.907991e-003	2.864662e-002	-3.285955e-001	4.553377e-002	-9.772072e-002	-8.366233e-001	-1.977951e-001
6980000000	-7.162812e-001	9.570754e-003	2.785124e-002	-3.274719e-001	4.533038e-002	-9.763657e-002	-8.375046e-001	-1.967112e-001
6990000000	-7.169371e-001	1.043238e-002	2.702075e-002	-3.263788e-001	4.510381e-002	-9.757627e-002	-8.382336e-001	-1.954795e-001
7000000000	-7.174835e-001	1.109985e-002	2.635765e-002	-3.252251e-001	4.494763e-002	-9.744044e-002	-8.388278e-001	-1.946045e-001
7010000000	-7.180288e-001	1.185210e-002	2.569277e-002	-3.243379e-001	4.477864e-002	-9.747278e-002	-8.393750e-001	-1.936911e-001
7020000000	-7.188360e-001	1.262471e-002	2.510871e-002	-3.233974e-001	4.452927e-002	-9.743513e-002	-8.399011e-001	-1.927241e-001
7030000000	-7.195067e-001	1.335517e-002	2.426499e-002	-3.223116e-001	4.424430e-002	-9.745200e-002	-8.404724e-001	-1.917848e-001
7040000000	-7.202377e-001	1.411711e-002	2.351383e-002	-3.211616e-001	4.400445e-002	-9.741243e-002	-8.408465e-001	-1.909327e-001
7050000000	-7.209182e-001	1.475764e-002	2.277387e-002	-3.201463e-001	4.371404e-002	-9.723139e-002	-8.411916e-001	-1.900741e-001
7060000000	-7.214576e-001	1.539612e-002	2.205488e-002	-3.189563e-001	4.350599e-002	-9.722941e-002	-8.414730e-001	-1.892798e-001
7070000000	-7.219353e-001	1.595707e-002	2.130341e-002	-3.175719e-001	4.323995e-002	-9.711425e-002	-8.418168e-001	-1.884124e-001
7080000000	-7.225325e-001	1.662839e-002	2.047227e-002	-3.164138e-001	4.304199e-002	-9.705867e-002	-8.421788e-001	-1.873884e-001
7090000000	-7.230137e-001	1.726348e-002	1.983826e-002	-3.152047e-001	4.287527e-002	-9.688599e-002	-8.424626e-001	-1.863772e-001
7100000000	-7.235810e-001	1.788842e-002	1.906980e-002	-3.141389e-001	4.265659e-002	-9.676009e-002	-8.429077e-001	-1.854617e-001
7110000000	-7.239328e-001	1.847957e-002	1.851524e-002	-3.132174e-001	4.242552e-002	-9.679307e-002	-8.432335e-001	-1.843942e-001
7120000000	-7.245789e-001	1.919439e-002	1.782041e-002	-3.123141e-001	4.222412e-002	-9.669154e-002	-8.436383e-001	-1.832142e-001
7130000000	-7.249727e-001	2.003464e-002	1.717269e-002	-3.115168e-001	4.203111e-002	-9.667977e-002	-8.440773e-001	-1.822002e-001
7140000000	-7.254648e-001	2.080069e-002	1.657045e-002	-3.105713e-001	4.178672e-002	-9.664735e-002	-8.447195e-001	-1.811575e-001
7150000000	-7.259617e-001	2.167626e-002	1.585612e-002	-3.097056e-001	4.158498e-002	-9.658388e-002	-8.451331e-001	-1.799447e-001
7160000000	-7.263969e-001	2.249098e-002	1.528931e-002	-3.087370e-001	4.132778e-002	-9.653871e-002	-8.455511e-001	-1.787724e-001
7170000000	-7.268473e-001	2.344669e-002	1.463530e-002	-3.075500e-001	4.114301e-002	-9.642104e-002	-8.462101e-001	-1.776767e-001
7180000000	-7.272357e-001	2.433160e-002	1.396497e-002	-3.064889e-001	4.098634e-002	-9.633052e-002	-8.465979e-001	-1.765440e-001
7190000000	-7.276599e-001	2.522550e-002	1.330677e-002	-3.053909e-001	4.077049e-002	-9.614494e-002	-8.471596e-001	-1.755874e-001
7200000000	-7.281054e-001	2.590761e-002	1.278448e-002	-3.042817e-001	4.059949e-002	-9.613647e-002	-8.476406e-001	-1.747107e-001
7210000000	-7.285646e-001	2.656634e-002	1.220478e-002	-3.031435e-001	4.041130e-002	-9.605994e-002	-8.479052e-001	-1.739438e-001
7220000000	-7.289795e-001	2.712960e-002	1.151815e-002	-3.018481e-001	4.028963e-002	-9.595930e-002	-8.482583e-001	-1.732007e-001
7230000000	-7.293113e-001	2.757523e-002	1.092017e-002	-3.007935e-001	4.005087e-002	-9.593834e-002	-8.484589e-001	-1.725066e-001
7240000000	-7.298039e-001	2.789053e-002	1.022734e-002	-2.997750e-001	3.992602e-002	-9.580428e-002	-8.488505e-001	-1.719156e-001
7250000000	-7.303375e-001	2.844050e-002	9.721564e-003	-2.987899e-001	3.978216e-002	-9.572226e-002	-8.491565e-001	-1.710970e-001
7260000000	-7.307857e-001	2.884142e-002	9.296390e-003	-2.978653e-001	3.955930e-002	-9.573546e-002	-8.494774e-001	-1.706988e-001
7270000000	-7.314302e-001	2.923252e-002	8.750489e-003	-2.969701e-001	3.939516e-002	-9.558987e-002	-8.496990e-001	-1.699198e-001
7280000000	-7.319432e-001	2.969957e-002	8.391513e-003	-2.960413e-001	3.912183e-002	-9.553594e-002	-8.499749e-001	-1.691996e-001
7290000000	-7.324561e-001	3.026476e-002	8.042858e-003	-2.952145e-001	3.898224e-002	-9.545385e-002	-8.502108e-001	-1.684341e-001
7300000000	-7.329749e-001	3.082193e-002	7.522600e-003	-2.943277e-001	3.885673e-002	-9.536461e-002	-8.504616e-001	-1.675899e-001
7310000000	-7.335988e-001	3.148321e-002	7.096094e-003	-2.934305e-001	3.870143e-002	-9.539894e-002	-8.506704e-001	-1.668949e-001
7320000000	-7.337982e-001	3.217127e-002	6.427973e-003	-2.924722e-001	3.854632e-002	-9.537694e-002	-8.510721e-001	-1.659022e-001
7330000000	-7.342088e-001	3.295150e-002	5.809786e-003	-2.915214e-001	3.834277e-002	-9.534230e-002	-8.511275e-001	-1.648778e-001
7340000000	-7.345067e-001	3.359406e-002	5.246982e-003	-2.906732e-001	3.814167e-002	-9.532653e-002	-8.516487e-001	-1.638905e-001
7350000000	-7.347670e-001	3.424933e-002	4.603757e-003	-2.897825e-001	3.801813e-002	-9.519247e-002	-8.521789e-001	-1.630173e-001
7360000000	-7.349726e-001	3.494642e-002	4.008337e-003	-2.889217e-001	3.780575e-002	-9.512155e-002	-8.525679e-001	-1.622045e-001
7370000000	-7.351754e-001	3.557750e-002	3.405521e-003	-2.879846e-001	3.757473e-002	-9.509957e-002	-8.532028e-001	-1.612009e-001
7380000000	-7.354149e-001	3.612310e-002	2.964804e-003	-2.870847e-001	3.745353e-002	-9.498080e-002	-8.537703e-001	-1.603602e-001
7390000000	-7.356599e-001	3.674162e-002	2.301262e-003	-2.861787e-001	3.727990e-002	-9.490226e-002	-8.543288e-001	-1.596507e-001
7400000000	-7.360218e-001	3.726717e-002	1.948226e-003	-2.853972e-001	3.709117e-002	-9.478704e-002	-8.549932e-001	-1.587540e-001
7410000000	-7.362510e-001	3.773709e-002	1.563309e-003	-2.844349e-001	3.704970e-002	-9.482076e-002	-8.554189e-001	-1.580914e-001
7420000000	-7.367490e-001	3.827037e-002	1.247148e-003	-2.835170e-001	3.686438e-002	-9.473219e-002	-8.558602e-001	-1.573618e-001
7430000000	-7.372548e-001	3.887879e-002	8.314878e-004	-2.826366e-001	3.681000e-002	-9.462881e-002	-8.561712e-001	-1.564803e-001
7440000000	-7.378733e-001	3.942557e-002	4.525341e-004	-2.816504e-001	3.667051e-002	-9.459962e-002	-8.562881e-001	-1.558100e-001
7450000000	-7.385048e-001	4.006109e-002	2.289163e-005	-2.808332e-001	3.642768e-002	-9.463629e-002	-8.563630e-001	-1.550790e-001
7460000000	-7.391231e-001	4.071655e-002	-4.584603e-004	-2.798970e-001	3.628382e-002	-9.456384e-002	-8.563543e-001	-1.542334e-001
7470000000	-7.397537e-001	4.154761e-002	-9.963618e-004	-2.790606e-001	3.606972e-002	-9.439555e-002	-8.561854e-001	-1.537169e-001
7480000000	-7.403731e-001	4.214588e-002	-1.568152e-003	-2.782400e-001	3.591314e-002	-9.449657e-002	-8.563681e-001	-1.529477e-001
7490000000	-7.409652e-001	4.269094e-002	-2.097382e-003	-2.773578e-001	3.576046e-002	-9.441584e-002	-8.562384e-001	-1.522798e-001
7500000000	-7.414761e-001	4.306523e-002	-2.563324e-003	-2.765381e-001	3.563770e-002	-9.435220e-002	-8.564026e-001	-1.514174e-001
7510000000	-7.419741e-001	4.346651e-002	-2.975195e-003	-2.759177e-001	3.552782e-002	-9.426815e-002	-8.565000e-001	-1.508387e-001
7520000000	-7.424068e-001	4.366602e-002	-3.345065e-003	-2.750320e-001	3.542409e-002	-9.426070e-002	-8.568997e-001	-1.499795e-001
7530000000	-7.428623e-001	4.398540e-002	-3.686682e-003	-2.743204e-001	3.528273e-002	-9.415841e-002	-8.572102e-001	-1.491734e-001
7540000000	-7.431328e-001	4.412961e-002	-4.100980e-003	-2.735521e-001	3.527195e-002	-9.412342e-002	-8.578159e-001	-1.482079e-001
7550000000	-7.432945e-001	4.438062e-002	-4.355088e-003	-2.729085e-001	3.512611e-002	-9.419269e-002	-8.583852e-001	-1.472307e-001
7560000000	-7.434024e-001	4.458701e-002	-4.738827e-003	-2.721144e-001	3.496251e-002	-9.413419e-002	-8.586595e-001	-1.462825e-001
7570000000	-7.436259e-001	4.503083e-002	-5.242117e-003	-2.712265e-001	3.482498e-002	-9.408718e-002	-8.590477e-001	-1.453069e-001
7580000000	-7.436950e-001	4.564422e-002	-5.666811e-003	-2.702497e-001	3.462491e-002	-9.400248e-002	-8.594939e-001	-1.442511e-001
7590000000	-7.438120e-001	4.634456e-002	-6.274578e-003	-2.694612e-001	3.443207e-002	-9.404519e-002	-8.598369e-001	-1.434350e-001
7600000000	-7.437779e-001	4.709763e-002	-6.691125e-003	-2.686063e-001	3.422234e-002	-9.409019e-002	-8.601018e-001	-1.427155e-001
7610000000	-7.437549e-001	4.802354e-002	-7.237626e-003	-2.677894e-001	3.410038e-002	-9.401462e-002	-8.599845e-001	-1.421012e-001
7620000000	-7.439209e-001	4.890833e-002	-7.634610e-003	-2.670327e-001	3.405439e-002	-9.397362e-002	-8.601414e-001	-1.414672e-001
7630000000	-7.440038e-001	5.005235e-002	-8.103528e-003	-2.662107e-001	3.382104e-002	-9.390532e-002	-8.601986e-001	-1.409204e-001
7640000000	-7.444104e-001	5.103138e-002	-8.480636e-003	-2.655855e-001	3.365837e-002	-9.386565e-002	-8.600345e-001	-1.405698e-001
7650000000	-7.448087e-001	5.180529e-002	-8.855184e-003	-2.648091e-001	3.344892e-002	-9.382467e-002	-8.597456e-001	-1.400666e-001
7660000000	-7.454146e-001	5.273062e-002	-9.220623e-003	-2.640286e-001	3.336276e-002	-9.385992e-002	-8.598026e-001	-1.395899e-001
7670000000	-7.460453e-001	5.357654e-002	-9.487689e-003	-2.633490e-001	3.321847e-002	-9.374541e-002	-8.597096e-001	-1.390820e-001
7680000000	-7.467761e-001	5.428206e-002	-9.906549e-003	-2.626152e-001	3.317590e-002	-9.368840e-002	-8.598326e-001	-1.384864e-001
7690000000	-7.476289e-001	5.500007e-002	-1.036737e-002	-2.618311e-001	3.303464e-002	-9.368850e-002	-8.599041e-001	-1.378847e-001
7700000000	-7.482748e-001	5.552504e-002	-1.070032e-002	-2.611969e-001	3.294679e-002	-9.357864e-002	-8.599954e-001	-1.370689e-001
7710000000	-7.486605e-001	5.588786e-002	-1.113130e-002	-2.605003e-001	3.277998e-002	-9.361173e-002	-8.601970e-001	-1.362469e-001
7720000000	-7.493438e-001	5.628985e-002	-1.159138e-002	-2.597195e-001	3.266067e-002	-9.370211e-002	-8.603661e-001	-1.355462e-001
7730000000	-7.493847e-001	5.662484e-002	-1.198110e-002	-2.591486e-001	3.250184e-002	-9.374580e-002	-8.605227e-001	-1.345884e-001
7740000000	-7.494728e-001	5.677933e-002	-1.240237e-002	-2.583097e-001	3.237971e-002	-9.370660e-002	-8.608565e-001	-1.335547e-001
7750000000	-7.492881e-001	5.692446e-002	-1.283419e-002	-2.576027e-001	3.217557e-002	-9.373121e-002	-8.610308e-001	-1.326853e-001
7760000000	-7.489589e-001	5.730615e-002	-1.320981e-002	-2.569231e-001	3.198542e-002	-9.368041e-002	-8.612889e-001	-1.318650e-001
7770000000	-7.486393e-001	5.766494e-002	-1.362209e-002	-2.561451e-001	3.183936e-002	-9.371387e-002	-8.611590e-001	-1.311405e-001
7780000000	-7.483753e-001	5.818327e-002	-1.394929e-002	-2.554053e-001	3.164785e-002	-9.358752e-002	-8.613371e-001	-1.305616e-001
7790000000	-7.480311e-001	5.878361e-002	-1.435743e-002	-2.545781e-001	3.150065e-002	-9.343144e-002	-8.612797e-001	-1.299802e-001
7800000000	-7.475651e-001	5.967339e-002	-1.472368e-002	-2.539029e-001	3.139257e-002	-9.344879e-002	-8.612952e-001	-1.292357e-001
7810000000	-7.475798e-001	6.042963e-002	-1.500633e-002	-2.531733e-001	3.129747e-002	-9.338745e-002	-8.612392e-001	-1.288296e-001
7820000000	-7.476060e-001	6.157648e-002	-1.533932e-002	-2.523887e-001	3.114580e-002	-9.331203e-002	-8.612073e-001	-1.283586e-001
7830000000	-7.476409e-001	6.261247e-002	-1.554986e-002	-2.515602e-001	3.102183e-002	-9.327127e-002	-8.610919e-001	-1.274799e-001
7840000000	-7.476972e-001	6.375527e-002	-1.595426e-002	-2.508445e-001	3.095631e-002	-9.326384e-002	-8.610273e-001	-1.267946e-001
7850000000	-7.480869e-001	6.486581e-002	-1.631310e-002	-2.501774e-001	3.082067e-002	-9.327369e-002	-8.609888e-001	-1.262417e-001
7860000000	-7.484584e-001	6.567833e-002	-1.667384e-002	-2.494638e-001	3.068277e-002	-9.327294e-002	-8.611514e-001	-1.257671e-001
7870000000	-7.487994e-001	6.650716e-002	-1.706909e-002	-2.490481e-001	3.056052e-002	-9.333273e-002	-8.613135e-001	-1.250950e-001
7880000000	-7.494313e-001	6.727575e-002	-1.747009e-002	-2.484291e-001	3.047820e-002	-9.325639e-002	-8.613134e-001	-1.244033e-001
7890000000	-7.496929e-001	6.769899e-002	-1.781815e-002	-2.477904e-001	3.034077e-002	-9.330953e-002	-8.613056e-001	-1.236739e-001
7900000000	-7.499343e-001	6.798710e-002	-1.818265e-002	-2.470970e-001	3.017755e-002	-9.321627e-002	-8.614404e-001	-1.228116e-001
7910000000	-7.501014e-001	6.821414e-002	-1.855839e-002	-2.463842e-001	2.997769e-002	-9.315426e-002	-8.613663e-001	-1.223113e-001
7920000000	-7.500759e-001	6.830630e-002	-1.885677e-002	-2.456088e-001	2.992533e-002	-9.311800e-002	-8.614948e-001	-1.214691e-001
7930000000	-7.498480e-001	6.864482e-002	-1.909300e-002	-2.449573e-001	2.973307e-002	-9.305151e-002	-8.613504e-001	-1.207934e-001
7940000000	-7.498457e-001	6.878763e-002	-1.931498e-002	-2.442831e-001	2.958990e-002	-9.300342e-002	-8.613003e-001	-1.201888e-001
7950000000	-7.493968e-001	6.905307e-002	-1.939981e-002	-2.435604e-001	2.950750e-002	-9.307352e-002	-8.611937e-001	-1.194500e-001
7960000000	-7.491509e-001	6.957643e-002	-1.974277e-002	-2.427734e-001	2.943430e-002	-9.306402e-002	-8.609799e-001	-1.189864e-001
7970000000	-7.488562e-001	6.996394e-002	-1.996979e-002	-2.420836e-001	2.934779e-002	-9.307211e-002	-8.609958e-001	-1.182889e-001
7980000000	-7.484299e-001	7.058225e-002	-2.026209e-002	-2.414179e-001	2.922900e-002	-9.299398e-002	-8.608806e-001	-1.174757e-001
7990000000	-7.481614e-001	7.137777e-002	-2.046771e-002	-2.407123e-001	2.919203e-002	-9.297605e-002	-8.607300e-001	-1.168453e-001
8000000000	-7.479335e-001	7.224217e-002	-2.069975e-002	-2.399696e-001	2.908318e-002	-9.301569e-002	-8.606020e-001	-1.159608e-001
8010000000	-7.478307e-001	7.296656e-002	-2.104633e-002	-2.393806e-001	2.893358e-002	-9.295532e-002	-8.606274e-001	-1.152556e-001
8020000000	-7.476142e-001	7.385032e-002	-2.145259e-002	-2.387568e-001	2.885640e-002	-9.306115e-002	-8.605095e-001	-1.144896e-001
8030000000	-7.476866e-001	7.444033e-002	-2.183026e-002	-2.381565e-001	2.871860e-002	-9.294728e-002	-8.606782e-001	-1.136958e-001
8040000000	-7.476544e-001	7.514525e-002	-2.223741e-002	-2.376285e-001	2.864854e-002	-9.296316e-002	-8.606809e-001	-1.132890e-001
8050000000	-7.479305e-001	7.564442e-002	-2.261947e-002	-2.369813e-001	2.851277e-002	-9.293497e-002	-8.610279e-001	-1.125430e-001
8060000000	-7.480360e-001	7.590780e-002	-2.268437e-002	-2.363025e-001	2.843766e-002	-9.289653e-002	-8.607581e-001	-1.120004e-001
8070000000	-7.479998e-001	7.631252e-002	-2.291858e-002	-2.355879e-001	2.832143e-002	-9.286613e-002	-8.607832e-001	-1.115194e-001
8080000000	-7.480371e-001	7.669561e-002	-2.300110e-002	-2.349725e-001	2.829792e-002	-9.287566e-002	-8.606737e-001	-1.111976e-001
8090000000	-7.480638e-001	7.696997e-002	-2.312222e-002	-2.343011e-001	2.831294e-002	-9.283374e-002	-8.604848e-001	-1.106911e-001
8100000000	-7.477504e-001	7.715483e-002	-2.326304e-002	-2.338292e-001	2.825062e-002	-9.283858e-002	-8.604100e-001	-1.103988e-001
8110000000	-7.471441e-001	7.774680e-002	-2.350011e-002	-2.332347e-001	2.818434e-002	-9.279546e-002	-8.604033e-001	-1.103815e-001
8120000000	-7.466819e-001	7.804103e-002	-2.359260e-002	-2.327724e-001	2.830358e-002	-9.278911e-002	-8.602050e-001	-1.100845e-001
8130000000	-7.464683e-001	7.879039e-002	-2.390366e-002	-2.321621e-001	2.823935e-002	-9.280808e-002	-8.599673e-001	-1.098295e-001
8140000000	-7.458441e-001	7.916787e-002	-2.411736e-002	-2.316053e-001	2.825420e-002	-9.292065e-002	-8.597301e-001	-1.094723e-001
8150000000	-7.452733e-001	7.991740e-002	-2.422043e-002	-2.312321e-001	2.825219e-002	-9.302635e-002	-8.593476e-001	-1.090254e-001
8160000000	-7.448693e-001	8.044095e-002	-2.438460e-002	-2.308176e-001	2.818811e-002	-9.310866e-002	-8.588607e-001	-1.084978e-001
8170000000	-7.444088e-001	8.090712e-002	-2.459718e-002	-2.304020e-001	2.815640e-002	-9.333756e-002	-8.586213e-001	-1.078122e-001
8180000000	-7.441073e-001	8.147438e-002	-2.480146e-002	-2.300015e-001	2.812264e-002	-9.346769e-002	-8.581638e-001	-1.071765e-001
8190000000	-7.439310e-001	8.171082e-002	-2.504515e-002	-2.295477e-001	2.797960e-002	-9.372648e-002	-8.581228e-001	-1.064291e-001
8200000000	-7.438637e-001	8.195840e-002	-2.536920e-002	-2.293143e-001	2.783896e-002	-9.390215e-002	-8.580704e-001	-1.060116e-001
8210000000	-7.440051e-001	8.219108e-002	-2.575750e-002	-2.288484e-001	2.765526e-002	-9.406617e-002	-8.582045e-001	-1.054888e-001
8220000000	-7.441423e-001	8.242637e-002	-2.606372e-002	-2.284362e-001	2.741468e-002	-9.427762e-002	-8.584001e-001	-1.048522e-001
8230000000	-7.441670e-001	8.259777e-002	-2.655209e-002	-2.278460e-001	2.713655e-002	-9.442972e-002	-8.584369e-001	-1.044148e-001
8240000000	-7.444303e-001	8.295344e-002	-2.706206e-002	-2.275623e-001	2.692847e-002	-9.453057e-002	-8.588797e-001	-1.040063e-001
8250000000	-7.444929e-001	8.293216e-002	-2.735517e-002	-2.270679e-001	2.666393e-002	-9.453675e-002	-8.591391e-001	-1.037637e-001
8260000000	-7.444429e-001	8.309687e-002	-2.772111e-002	-2.265181e-001	2.643964e-002	-9.458992e-002	-8.595196e-001	-1.034455e-001
8270000000	-7.440252e-001	8.360198e-002	-2.803062e-002	-2.259662e-001	2.632260e-002	-9.462859e-002	-8.598144e-001	-1.030124e-001
8280000000	-7.436558e-001	8.394140e-002	-2.835433e-002	-2.255894e-001	2.615158e-002	-9.464428e-002	-8.600357e-001	-1.028826e-001
8290000000	-7.429924e-001	8.441077e-002	-2.874197e-002	-2.251783e-001	2.595306e-002	-9.472494e-002	-8.602270e-001	-1.026716e-001
8300000000	-7.424109e-001	8.489335e-002	-2.915084e-002	-2.247208e-001	2.571767e-002	-9.479197e-002	-8.602824e-001	-1.023850e-001
8310000000	-7.417625e-001	8.574396e-002	-2.952430e-002	-2.242994e-001	2.551690e-002	-9.480905e-002	-8.602189e-001	-1.020212e-001
8320000000	-7.412487e-001	8.644906e-002	-3.002450e-002	-2.237300e-001	2.529922e-002	-9.486005e-002	-8.599740e-001	-1.014567e-001
8330000000	-7.407523e-001	8.716410e-002	-3.051474e-002	-2.231127e-001	2.496574e-002	-9.485978e-002	-8.599578e-001	-1.005673e-001
8340000000	-7.405020e-001	8.801966e-002	-3.093740e-002	-2.224592e-001	2.471740e-002	-9.477941e-002	-8.595704e-001	-9.973368e-002
8350000000	-7.401357e-001	8.898755e-002	-3.124333e-002	-2.219188e-001	2.455172e-002	-9.484846e-002	-8.592298e-001	-9.895101e-002
8360000000	-7.401513e-001	8.940736e-002	-3.147117e-002	-2.213280e-001	2.441535e-002	-9.485361e-002	-8.590109e-001	-9.805648e-002
8370000000	-7.400883e-001	9.005817e-002	-3.181109e-002	-2.209082e-001	2.427934e-002	-9.491147e-002	-8.590985e-001	-9.715671e-002
8380000000	-7.402222e-001	9.049282e-002	-3.227195e-002	-2.203144e-001	2.407712e-002	-9.491473e-002	-8.590945e-001	-9.622340e-002
8390000000	-7.402970e-001	9.095215e-002	-3.247074e-002	-2.200490e-001	2.386730e-002	-9.502140e-002	-8.592620e-001	-9.539823e-002
8400000000	-7.405387e-001	9.139659e-002	-3.273759e-002	-2.195373e-001	2.367047e-002	-9.507151e-002	-8.597573e-001	-9.460478e-002
8410000000	-7.405198e-001	9.145681e-002	-3.319400e-002	-2.189834e-001	2.326055e-002	-9.506501e-002	-8.602344e-001	-9.390711e-002
8420000000	-7.404834e-001	9.168336e-002	-3.365086e-002	-2.185775e-001	2.298702e-002	-9.498843e-002	-8.607423e-001	-9.328271e-002
8430000000	-7.403349e-001	9.174076e-002	-3.403853e-002	-2.178850e-001	2.278834e-002	-9.499766e-002	-8.616505e-001	-9.280965e-002
8440000000	-7.399224e-001	9.201230e-002	-3.442286e-002	-2.174040e-001	2.250484e-002	-9.487252e-002	-8.618363e-001	-9.226147e-002
8450000000	-7.393650e-001	9.233664e-002	-3.489184e-002	-2.167237e-001	2.231042e-002	-9.476159e-002	-8.619358e-001	-9.202913e-002
8460000000	-7.386920e-001	9.229062e-002	-3.518651e-002	-2.162536e-001	2.210533e-002	-9.475659e-002	-8.621312e-001	-9.153647e-002
8470000000	-7.381025e-001	9.257230e-002	-3.551031e-002	-2.155581e-001	2.195212e-002	-9.471120e-002	-8.618118e-001	-9.151763e-002
8480000000	-7.372969e-001	9.312182e-002	-3.571705e-002	-2.149047e-001	2.186656e-002	-9.467580e-002	-8.615596e-001	-9.123194e-002
8490000000	-7.367577e-001	9.375812e-002	-3.587696e-002	-2.143395e-001	2.169979e-002	-9.463783e-002	-8.611205e-001	-9.073481e-002
8500000000	-7.360954e-001	9.428251e-002	-3.622711e-002	-2.136790e-001	2.162747e-002	-9.453170e-002	-8.604416e-001	-9.039613e-002
8510000000	-7.356613e-001	9.539947e-002	-3.622998e-002	-2.131476e-001	2.149548e-002	-9.442757e-002	-8.597201e-001	-9.023982e-002
8520000000	-7.352797e-001	9.594349e-002	-3.652608e-002	-2.127611e-001	2.129356e-002	-9.447757e-002	-8.591864e-001	-8.859201e-002
8530000000	-7.352841e-001	9.695605e-002	-3.711319e-002	-2.120780e-001	2.109257e-002	-9.442135e-002	-8.586952e-001	-8.789478e-002
8540000000	-7.351258e-001	9.850261e-002	-3.725448e-002	-2.118592e-001	2.087418e-002	-9.432470e-002	-8.584038e-001	-8.627144e-002
8550000000	-7.348956e-001	9.921373e-002	-3.764560e-002	-2.110772e-001	2.095035e-002	-9.424138e-002	-8.584548e-001	-8.518966e-002
8560000000	-7.349001e-001	1.002725e-001	-3.802239e-002	-2.104048e-001	2.070386e-002	-9.427099e-002	-8.584949e-001	-8.365587e-002
8570000000	-7.347803e-001	1.005286e-001	-3.804223e-002	-2.098762e-001	2.072288e-002	-9.425433e-002	-8.588334e-001	-8.243205e-002
8580000000	-7.341049e-001	1.008935e-001	-3.808934e-002	-2.096484e-001	2.016948e-002	-9.397626e-002	-8.590694e-001	-8.091307e-002
8590000000	-7.334607e-001	1.012044e-001	-3.849700e-002	-2.089659e-001	2.027461e-002	-9.416666e-002	-8.597721e-001	-7.975670e-002
8600000000	-7.330304e-001	1.014870e-001	-3.851839e-002	-2.082349e-001	1.997727e-002	-9.400952e-002	-8.600678e-001	-7.877537e-002
8610000000	-7.323998e-001	1.013620e-001	-3.899181e-002	-2.078288e-001	1.985894e-002	-9.417855e-002	-8.603106e-001	-7.816919e-002
8620000000	-7.311496e-001	1.014580e-001	-3.931315e-002	-2.072091e-001	1.977328e-002	-9.404328e-002	-8.600006e-001	-7.812987e-002
8630000000	-7.304445e-001	1.008087e-001	-3.915151e-002	-2.065736e-001	1.976300e-002	-9.415108e-002	-8.602090e-001	-7.741104e-002
8640000000	-7.294948e-001	1.007525e-001	-3.953347e-002	-2.062676e-001	1.970722e-002	-9.391545e-002	-8.599754e-001	-7.735905e-002
8650000000	-7.290069e-001	1.015094e-001	-3.991311e-002	-2.057338e-001	1.957472e-002	-9.384749e-002	-8.589981e-001	-7.767070e-002
8660000000	-7.279823e-001	1.015109e-001	-4.011223e-002	-2.050088e-001	1.948407e-002	-9.399560e-002	-8.592117e-001	-7.756535e-002
8670000000	-7.274078e-001	1.027579e-001	-4.030613e-002	-2.045007e-001	1.930564e-002	-9.378317e-002	-8.577335e-001	-7.785228e-002
8680000000	-7.267052e-001	1.038292e-001	-4.058130e-002	-2.041977e-001	1.914040e-002	-9.383669e-002	-8.569296e-001	-7.754283e-002
8690000000	-7.262956e-001	1.046262e-001	-4.053244e-002	-2.038899e-001	1.925744e-002	-9.403660e-002	-8.562368e-001	-7.713225e-002
8700000000	-7.258254e-001	1.058465e-001	-4.091104e-002	-2.032858e-001	1.877431e-002	-9.412315e-002	-8.554009e-001	-7.640389e-002
8710000000	-7.251199e-001	1.069103e-001	-4.102400e-002	-2.029079e-001	1.878111e-002	-9.404007e-002	-8.548115e-001	-7.561458e-002
8720000000	-7.248826e-001	1.078917e-001	-4.124912e-002	-2.023985e-001	1.861384e-002	-9.415795e-002	-8.542953e-001	-7.434829e-002
8730000000	-7.244219e-001	1.084353e-001	-4.144154e-002	-2.017136e-001	1.848616e-002	-9.414372e-002	-8.541862e-001	-7.264236e-002
8740000000	-7.237073e-001	1.087935e-001	-4.192461e-002	-2.011893e-001	1.826621e-002	-9.420728e-002	-8.540894e-001	-7.158458e-002
8750000000	-7.238208e-001	1.089575e-001	-4.216240e-002	-2.007300e-001	1.796785e-002	-9.415036e-002	-8.541407e-001	-6.992569e-002
8760000000	-7.228084e-001	1.089375e-001	-4.249539e-002	-2.003061e-001	1.799210e-002	-9.404680e-002	-8.534310e-001	-6.872617e-002
8770000000	-7.225677e-001	1.085485e-001	-4.261850e-002	-1.997716e-001	1.780753e-002	-9.411209e-002	-8.552631e-001	-6.794972e-002
8780000000	-7.210762e-001	1.084577e-001	-4.277217e-002	-1.993143e-001	1.747595e-002	-9.402468e-002	-8.550727e-001	-6.669647e-002
8790000000	-7.203171e-001	1.084592e-001	-4.273132e-002	-1.986961e-001	1.748150e-002	-9.372385e-002	-8.551641e-001	-6.629117e-002
8800000000	-7.193122e-001	1.079480e-001	-4.306745e-002	-1.980279e-001	1.741752e-002	-9.400318e-002	-8.551826e-001	-6.617534e-002
8810000000	-7.185210e-001	1.080296e-001	-4.333887e-002	-1.975195e-001	1.714118e-002	-9.369150e-002	-8.547798e-001	-6.599254e-002
8820000000	-7.174978e-001	1.087539e-001	-4.325545e-002	-1.970184e-001	1.705794e-002	-9.377970e-002	-8.547416e-001	-6.731597e-002
8830000000	-7.162748e-001	1.089808e-001	-4.390094e-002	-1.968355e-001	1.688906e-002	-9.368052e-002	-8.541158e-001	-6.701799e-002
8840000000	-7.152082e-001	1.097867e-001	-4.399829e-002	-1.960097e-001	1.690404e-002	-9.368268e-002	-8.537003e-001	-6.760723e-002
8850000000	-7.141239e-001	1.107164e-001	-4.401063e-002	-1.957405e-001	1.663789e-002	-9.363014e-002	-8.526107e-001	-6.767448e-002
8860000000	-7.128953e-001	1.112674e-001	-4.414952e-002	-1.951255e-001	1.681018e-002	-9.377934e-002	-8.516293e-001	-6.699333e-002
8870000000	-7.115351e-001	1.125842e-001	-4.431749e-002	-1.948786e-001	1.639805e-002	-9.371650e-002	-8.508115e-001	-6.690066e-002
8880000000	-7.111780e-001	1.133834e-001	-4.457525e-002	-1.941475e-001	1.644755e-002	-9.360153e-002	-8.503131e-001	-6.629829e-002
8890000000	-7.100969e-001	1.144340e-001	-4.483236e-002	-1.938600e-001	1.615230e-002	-9.370502e-002	-8.488575e-001	-6.483228e-002
8900000000	-7.097229e-001	1.148880e-001	-4.502043e-002	-1.931409e-001	1.607893e-002	-9.359676e-002	-8.479555e-001	-6.348239e-002
8910000000	-7.090510e-001	1.149878e-001	-4.517183e-002	-1.930316e-001	1.611605e-002	-9.380957e-002	-8.476862e-001	-6.206990e-002
8920000000	-7.086715e-001	1.151265e-001	-4.511843e-002	-1.923564e-001	1.562252e-002	-9.359911e-002	-8.479448e-001	-6.047034e-002
8930000000	-7.081320e-001	1.149365e-001	-4.534899e-002	-1.918759e-001	1.567857e-002	-9.363104e-002	-8.481996e-001	-5.897447e-002
8940000000	-7.076167e-001	1.148624e-001	-4.579103e-002	-1.914770e-001	1.567086e-002	-9.349891e-002	-8.482760e-001	-5.783410e-002
8950000000	-7.066788e-001	1.140639e-001	-4.557844e-002	-1.909374e-001	1.516883e-002	-9.349145e-002	-8.478984e-001	-5.672680e-002
8960000000	-7.063802e-001	1.138816e-001	-4.583100e-002	-1.904039e-001	1.540125e-002	-9.344877e-002	-8.485617e-001	-5.633289e-002
8970000000	-7.049686e-001	1.133668e-001	-4.608685e-002	-1.900211e-001	1.534681e-002	-9.359195e-002	-8.490429e-001	-5.608374e-002
8980000000	-7.033601e-001	1.135102e-001	-4.628822e-002	-1.895237e-001	1.511353e-002	-9.357626e-002	-8.493513e-001	-5.559776e-002
8990000000	-7.024790e-001	1.131187e-001	-4.642122e-002	-1.890999e-001	1.490209e-002	-9.322753e-002	-8.489129e-001	-5.557033e-002
9000000000	-7.008675e-001	1.135526e-001	-4.656803e-002	-1.886915e-001	1.497959e-002	-9.336674e-002	-8.486060e-001	-5.631206e-002
9010000000	-6.990563e-001	1.141665e-001	-4.670857e-002	-1.880570e-001	1.486197e-002	-9.325758e-002	-8.484158e-001	-5.665226e-002
9020000000	-6.977908e-001	1.144295e-001	-4.693976e-002	-1.875758e-001	1.479522e-002	-9.342720e-002	-8.475945e-001	-5.678851e-002
9030000000	-6.962557e-001	1.154352e-001	-4.704583e-002	-1.874000e-001	1.454223e-002	-9.345021e-002	-8.468446e-001	-5.706572e-002
9040000000	-6.945757e-001	1.159741e-001	-4.712339e-002	-1.869653e-001	1.423897e-002	-9.307560e-002	-8.460754e-001	-5.693921e-002
9050000000	-6.943918e-001	1.170750e-001	-4.723697e-002	-1.864984e-001	1.444041e-002	-9.335711e-002	-8.443069e-001	-5.614972e-002
9060000000	-6.933351e-001	1.175126e-001	-4.731159e-002	-1.857589e-001	1.397565e-002	-9.346574e-002	-8.444189e-001	-5.522755e-002
9070000000	-6.924872e-001	1.174192e-001	-4.741210e-002	-1.853264e-001	1.411196e-002	-9.339144e-002	-8.429619e-001	-5.412151e-002
9080000000	-6.920029e-001	1.177503e-001	-4.752978e-002	-1.849644e-001	1.387756e-002	-9.312940e-002	-8.419168e-001	-5.295283e-002
9090000000	-6.915011e-001	1.180700e-001	-4.787706e-002	-1.843960e-001	1.365394e-002	-9.311214e-002	-8.410029e-001	-5.080443e-002
9100000000	-6.913053e-001	1.173892e-001	-4.767450e-002	-1.836955e-001	1.388850e-002	-9.306755e-002	-8.410328e-001	-4.980964e-002
9110000000	-6.902018e-001	1.170511e-001	-4.798216e-002	-1.831871e-001	1.366570e-002	-9.319107e-002	-8.412265e-001	-4.838745e-002
9120000000	-6.895879e-001	1.161229e-001	-4.779683e-002	-1.829195e-001	1.341249e-002	-9.302893e-002	-8.412420e-001	-4.672704e-002
9130000000	-6.885071e-001	1.158852e-001	-4.801330e-002	-1.825977e-001	1.356688e-002	-9.302904e-002	-8.418741e-001	-4.674711e-002
9140000000	-6.879453e-001	1.144559e-001	-4.799600e-002	-1.820036e-001	1.351963e-002	-9.308528e-002	-8.420681e-001	-4.628999e-002
9150000000	-6.863222e-001	1.140658e-001	-4.838085e-002	-1.818490e-001	1.339426e-002	-9.300015e-002	-8.420939e-001	-4.602399e-002
9160000000	-6.851379e-001	1.136921e-001	-4.851920e-002	-1.813767e-001	1.317088e-002	-9.298649e-002	-8.423497e-001	-4.591429e-002
9170000000	-6.834093e-001	1.132319e-001	-4.844487e-002	-1.810203e-001	1.293850e-002	-9.297944e-002	-8.420313e-001	-4.663891e-002
9180000000	-6.812635e-001	1.139931e-001	-4.872472e-002	-1.805935e-001	1.302642e-002	-9.278241e-002	-8.426589e-001	-4.774823e-002
9190000000	-6.795943e-001	1.138315e-001	-4.855255e-002	-1.803282e-001	1.282581e-002	-9.291396e-002	-8.414167e-001	-4.722978e-002
9200000000	-6.781157e-001	1.144164e-001	-4.904466e-002	-1.799453e-001	1.269755e-002	-9.285314e-002	-8.409256e-001	-4.791772e-002
9210000000	-6.765311e-001	1.150506e-001	-4.930986e-002	-1.796408e-001	1.245699e-002	-9.293629e-002	-8.397644e-001	-4.749684e-002
9220000000	-6.749544e-001	1.158826e-001	-4.945615e-002	-1.789684e-001	1.260764e-002	-9.284048e-002	-8.390638e-001	-4.633307e-002
9230000000	-6.739424e-001	1.160354e-001	-4.929030e-002	-1.782800e-001	1.231777e-002	-9.257401e-002	-8.371619e-001	-4.595730e-002
9240000000	-6.733151e-001	1.170539e-001	-4.944847e-002	-1.779389e-001	1.232611e-002	-9.275137e-002	-8.357289e-001	-4.475935e-002
9250000000	-6.726653e-001	1.170591e-001	-4.944111e-002	-1.774469e-001	1.224587e-002	-9.272725e-002	-8.355190e-001	-4.314422e-002
9260000000	-6.718851e-001	1.167495e-001	-4.925999e-002	-1.768995e-001	1.227875e-002	-9.283944e-002	-8.346623e-001	-4.194000e-002
9270000000	-6.714508e-001	1.169848e-001	-4.920619e-002	-1.766849e-001	1.210569e-002	-9.263159e-002	-8.343487e-001	-4.058219e-002
9280000000	-6.706573e-001	1.162322e-001	-4.927249e-002	-1.759927e-001	1.187564e-002	-9.283231e-002	-8.337775e-001	-3.924922e-002
9290000000	-6.701920e-001	1.157786e-001	-4.923339e-002	-1.756866e-001	1.169763e-002	-9.255047e-002	-8.339447e-001	-3.793862e-002
9300000000	-6.698455e-001	1.152534e-001	-4.957719e-002	-1.754853e-001	1.194952e-002	-9.250000e-002	-8.337261e-001	-3.675221e-002
9310000000	-6.686048e-001	1.145265e-001	-4.938825e-002	-1.750750e-001	1.182005e-002	-9.244981e-002	-8.333331e-001	-3.634953e-002
9320000000	-6.676583e-001	1.136283e-001	-4.960174e-002	-1.745862e-001	1.189478e-002	-9.237011e-002	-8.348825e-001	-3.635117e-002
9330000000	-6.658861e-001	1.131834e-001	-4.957606e-002	-1.744505e-001	1.191934e-002	-9.231757e-002	-8.345326e-001	-3.617292e-002
9340000000	-6.646365e-001	1.131557e-001	-4.964801e-002	-1.740909e-001	1.155962e-002	-9.225195e-002	-8.351739e-001	-3.633662e-002
9350000000	-6.627010e-001	1.126394e-001	-4.979884e-002	-1.736251e-001	1.165151e-002	-9.245755e-002	-8.355263e-001	-3.702720e-002
9360000000	-6.607629e-001	1.128836e-001	-4.979409e-002	-1.733490e-001	1.163405e-002	-9.220241e-002	-8.348547e-001	-3.717080e-002
9370000000	-6.590529e-001	1.120878e-001	-5.009078e-002	-1.728055e-001	1.134624e-002	-9.211675e-002	-8.343645e-001	-3.750917e-002
9380000000	-6.583965e-001	1.119710e-001	-5.004696e-002	-1.722956e-001	1.137795e-002	-9.232889e-002	-8.332133e-001	-3.750263e-002
9390000000	-6.569749e-001	1.125256e-001	-4.979673e-002	-1.720732e-001	1.128104e-002	-9.218504e-002	-8.330129e-001	-3.694896e-002
9400000000	-6.556110e-001	1.115128e-001	-5.004885e-002	-1.714369e-001	1.126807e-002	-9.214442e-002	-8.317563e-001	-3.720065e-002
9410000000	-6.544370e-001	1.117409e-001	-5.046594e-002	-1.712865e-001	1.129645e-002	-9.226338e-002	-8.300427e-001	-3.572557e-002
9420000000	-6.537164e-001	1.114632e-001	-4.999006e-002	-1.705888e-001	1.123367e-002	-9.230294e-002	-8.287615e-001	-3.559235e-002
9430000000	-6.529756e-001	1.111438e-001	-4.965008e-002	-1.705834e-001	1.122135e-002	-9.227383e-002	-8.272068e-001	-3.370224e-002
9440000000	-6.516163e-001	1.112689e-001	-5.005853e-002	-1.701934e-001	1.090194e-002	-9.237033e-002	-8.262227e-001	-3.244354e-002
9450000000	-6.518891e-001	1.103729e-001	-4.943062e-002	-1.700402e-001	1.123261e-002	-9.204598e-002	-8.260155e-001	-3.131727e-002
9460000000	-6.508175e-001	1.099635e-001	-4.982960e-002	-1.696769e-001	1.092254e-002	-9.196995e-002	-8.260621e-001	-2.988073e-002
9470000000	-6.500761e-001	1.098366e-001	-4.969976e-002	-1.695855e-001	1.095193e-002	-9.228186e-002	-8.267958e-001	-2.900519e-002
9480000000	-6.490604e-001	1.091256e-001	-4.999210e-002	-1.691907e-001	1.080470e-002	-9.223940e-002	-8.259724e-001	-2.747327e-002
9490000000	-6.476510e-001	1.088256e-001	-5.030188e-002	-1.689305e-001	1.078604e-002	-9.216810e-002	-8.265339e-001	-2.784940e-002
9500000000	-6.461403e-001	1.079431e-001	-5.051036e-002	-1.684498e-001	1.077474e-002	-9.215670e-002	-8.274676e-001	-2.756259e-002
9510000000	-6.449529e-001	1.079205e-001	-5.042842e-002	-1.681919e-001	1.070242e-002	-9.214434e-002	-8.271556e-001	-2.729540e-002
9520000000	-6.434191e-001	1.070542e-001	-5.023229e-002	-1.677876e-001	1.083612e-002	-9.208730e-002	-8.272932e-001	-2.753985e-002
9530000000	-6.419156e-001	1.070357e-001	-5.024195e-002	-1.672129e-001	1.065762e-002	-9.215066e-002	-8.270817e-001	-2.760081e-002
9540000000	-6.410591e-001	1.067475e-001	-5.016168e-002	-1.669175e-001	1.088989e-002	-9.201351e-002	-8.267626e-001	-2.829988e-002
9550000000	-6.393330e-001	1.064516e-001	-5.036214e-002	-1.665424e-001	1.095332e-002	-9.228964e-002	-8.257001e-001	-2.764780e-002
9560000000	-6.383648e-001	1.058016e-001	-4.999612e-002	-1.661873e-001	1.107156e-002	-9.210069e-002	-8.241980e-001	-2.800193e-002
9570000000	-6.374627e-001	1.061057e-001	-4.987677e-002	-1.660023e-001	1.070671e-002	-9.211346e-002	-8.238775e-001	-2.810422e-002
9580000000	-6.369720e-001	1.058398e-001	-4.969388e-002	-1.659652e-001	1.079164e-002	-9.233739e-002	-8.222284e-001	-2.630446e-002
9590000000	-6.362347e-001	1.058089e-001	-4.970882e-002	-1.659324e-001	1.066459e-002	-9.221529e-002	-8.213590e-001	-2.542611e-002
9600000000	-6.362234e-001	1.050138e-001	-4.963353e-002	-1.659056e-001	1.062270e-002	-9.208988e-002	-8.201135e-001	-2.515980e-002
9610000000	-6.354249e-001	1.042339e-001	-4.996804e-002	-1.653843e-001	1.079678e-002	-9.236097e-002	-8.196729e-001	-2.273042e-002
9620000000	-6.343954e-001	1.036821e-001	-4.985024e-002	-1.652950e-001	1.051777e-002	-9.235600e-002	-8.183522e-001	-2.246315e-002
9630000000	-6.327586e-001	1.026905e-001	-4.987299e-002	-1.648285e-001	1.047093e-002	-9.226379e-002	-8.186496e-001	-2.020363e-002
9640000000	-6.315186e-001	1.018307e-001	-5.009288e-002	-1.642711e-001	1.060555e-002	-9.214697e-002	-8.186343e-001	-1.961694e-002
9650000000	-6.304970e-001	1.010073e-001	-5.011012e-002	-1.641882e-001	1.053554e-002	-9.246505e-002	-8.188406e-001	-1.891570e-002
9660000000	-6.285241e-001	1.007044e-001	-4.984276e-002	-1.640563e-001	1.067912e-002	-9.232843e-002	-8.189550e-001	-1.804680e-002
9670000000	-6.271933e-001	9.994242e-002	-4.972443e-002	-1.636220e-001	1.083525e-002	-9.231857e-002	-8.189507e-001	-1.783452e-002
9680000000	-6.256322e-001	1.002645e-001	-4.982535e-002	-1.637184e-001	1.051551e-002	-9.212651e-002	-8.190744e-001	-1.800689e-002
9690000000	-6.244221e-001	9.942013e-002	-4.946583e-002	-1.634415e-001	1.035993e-002	-9.224534e-002	-8.188695e-001	-1.847639e-002
9700000000	-6.233882e-001	9.957354e-002	-4.942338e-002	-1.631671e-001	1.074874e-002	-9.266591e-002	-8.181959e-001	-1.895022e-002
9710000000	-6.230322e-001	1.001059e-001	-4.922582e-002	-1.629548e-001	1.066060e-002	-9.253874e-002	-8.179892e-001	-1.759817e-002
9720000000	-6.223731e-001	9.959590e-002	-4.945655e-002	-1.623222e-001	1.058512e-002	-9.267552e-002	-8.170376e-001	-1.867402e-002
9730000000	-6.217856e-001	9.989891e-002	-4.946932e-002	-1.626133e-001	1.059003e-002	-9.281978e-002	-8.158260e-001	-1.877746e-002
9740000000	-6.216170e-001	9.993609e-002	-4.953684e-002	-1.622878e-001	1.065585e-002	-9.292120e-002	-8.150055e-001	-1.806869e-002
9750000000	-6.203057e-001	9.954910e-002	-4.927299e-002	-1.622472e-001	1.035800e-002	-9.312873e-002	-8.127952e-001	-1.820630e-002
9760000000	-6.205731e-001	9.931079e-002	-4.934686e-002	-1.622471e-001	1.021295e-002	-9.305777e-002	-8.124700e-001	-1.639762e-002
9770000000	-6.206307e-001	9.927587e-002	-4.934615e-002	-1.622073e-001	1.050599e-002	-9.314857e-002	-8.115441e-001	-1.579752e-002
9780000000	-6.200571e-001	9.798043e-002	-4.949139e-002	-1.616158e-001	1.051752e-002	-9.306790e-002	-8.105102e-001	-1.456106e-002
9790000000	-6.189465e-001	9.736179e-002	-4.938179e-002	-1.617811e-001	1.019626e-002	-9.330028e-002	-8.103165e-001	-1.249546e-002
9800000000	-6.180544e-001	9.620077e-002	-4.912197e-002	-1.614181e-001	1.051889e-002	-9.297451e-002	-8.089466e-001	-1.212108e-002
9810000000	-6.171222e-001	9.511881e-002	-4.929345e-002	-1.617258e-001	1.052834e-002	-9.303364e-002	-8.097699e-001	-1.107264e-002
9820000000	-6.156376e-001	9.319602e-002	-4.964076e-002	-1.612969e-001	1.045169e-002	-9.338237e-002	-8.098053e-001	-1.012809e-002
9830000000	-6.137959e-001	9.256914e-002	-4.931795e-002	-1.612515e-001	1.046008e-002	-9.337491e-002	-8.097028e-001	-9.960024e-003
9840000000	-6.131620e-001	9.195599e-002	-4.899688e-002	-1.610834e-001	1.064951e-002	-9.335860e-002	-8.096906e-001	-9.902060e-003
9850000000	-6.116511e-001	9.123439e-002	-4.908954e-002	-1.613073e-001	1.069804e-002	-9.344234e-002	-8.103528e-001	-9.511879e-003
9860000000	-6.103012e-001	9.109050e-002	-4.906851e-002	-1.607080e-001	1.045323e-002	-9.357358e-002	-8.097552e-001	-9.742832e-003
9870000000	-6.089349e-001	9.151945e-002	-4.876074e-002	-1.604262e-001	1.056049e-002	-9.362470e-002	-8.093249e-001	-1.020136e-002
9880000000	-6.084196e-001	9.172472e-002	-4.878725e-002	-1.602890e-001	1.060661e-002	-9.398492e-002	-8.086522e-001	-1.035496e-002
9890000000	-6.083445e-001	9.277305e-002	-4.895228e-002	-1.601347e-001	1.049322e-002	-9.377929e-002	-8.080399e-001	-9.847296e-003
9900000000	-6.078802e-001	9.316497e-002	-4.921019e-002	-1.603928e-001	1.045397e-002	-9.421428e-002	-8.072178e-001	-1.023675e-002
9910000000	-6.087220e-001	9.363976e-002	-4.889079e-002	-1.601113e-001	1.024751e-002	-9.412224e-002	-8.047309e-001	-9.907251e-003
9920000000	-6.085726e-001	9.360976e-002	-4.901548e-002	-1.602624e-001	1.021611e-002	-9.436784e-002	-8.032451e-001	-9.201080e-003
9930000000	-6.087576e-001	9.333183e-002	-4.886347e-002	-1.605841e-001	1.043096e-002	-9.413087e-002	-8.024649e-001	-9.191365e-003
9940000000	-6.083027e-001	9.328079e-002	-4.889722e-002	-1.602890e-001	1.056809e-002	-9.412169e-002	-8.011963e-001	-7.739190e-003
9950000000	-6.081480e-001	9.242505e-002	-4.898913e-002	-1.601158e-001	1.028764e-002	-9.437214e-002	-8.000494e-001	-6.478131e-003
9960000000	-6.084280e-001	9.139033e-002	-4.878169e-002	-1.599531e-001	1.036600e-002	-9.437750e-002	-7.998337e-001	-5.500205e-003
9970000000	-6.083804e-001	8.912013e-002	-4.901931e-002	-1.600387e-001	1.025002e-002	-9.457797e-002	-7.993634e-001	-3.954067e-003
9980000000	-6.072052e-001	8.881294e-002	-4.895938e-002	-1.599506e-001	1.042914e-002	-9.476213e-002	-7.994800e-001	-2.632825e-003
9990000000	-6.058282e-001	8.807627e-002	-4.901083e-002	-1.598622e-001	1.024845e-002	-9.480195e-002	-7.995604e-001	-1.916105e-003
10000000000	-6.047600e-001	8.682674e-002	-4.877548e-002	-1.599660e-001	1.013131e-002	-9.498368e-002	-8.001065e-001	-1.644683e-003
10010000000	-6.033039e-001	8.603941e-002	-4.864902e-002	-1.597059e-001	1.026547e-002	-9.520525e-002	-8.010297e-001	-1.405091e-003



!Noise Parameters
!Freq  NFmin(dB)  Mag(GammaOpt)  Ang(GammaOpt)(deg)  rn(normalized by ref. impedance)
6.5e8        0.95748      0.33137      39.846       0.25173     
6.6e8        0.97396      0.35999      43.175       0.24402     
7e8          0.98581      0.3523       55.02        0.19592     
7.5e8        0.99504      0.37474      57.035       0.19958     
8e8          1.0067       0.3725       60.788       0.19673     
8.5e8        1.0343       0.36024      64.912       0.19383     
9e8          1.0619       0.36626      67.622       0.19066     
9.5e8        1.0802       0.36952      70.769       0.18772     
1e9          1.1087       0.35583      71.142       0.19456     
1.2e9        1.1328       0.36402      83.598       0.18063     
1.3e9        1.1418       0.36499      91.036       0.17401     
1.4e9        1.1615       0.3802       95.013       0.16575     
1.5e9        1.1911       0.37225      99.645       0.1632      
1.6e9        1.2109       0.35926      104.73       0.15469     
