!Agilent Technologies,E5071C,MY46317100,A.11.08
!Date: Fri Dec 19 16:31:00 2014
!Data & Calibration Information:
!Freq	S11:SOLT2(ON)	S21:SOLT2(ON)	S12:SOLT2(ON)	S22:SOLT2(ON)
!PortZ  Port1:50+j0    Port2:50+j0
!Above PortZ is port z conversion or system Z0 setting when saving the data.
!When reading, reference impedance value at option line is always used.
# Hz S RI R 50
10000000	9.490773e-001	-2.917611e-002	8.327700e-003	-4.789414e-002	1.140361e-006	2.466357e-005	9.993893e-001	-2.269814e-002
20000000	9.694998e-001	-2.523162e-002	-2.014727e-002	-2.372239e-002	5.453867e-005	1.875742e-005	9.986333e-001	-4.446293e-002
30000000	9.410358e-001	-4.268276e-002	-3.914678e-002	-8.358371e-002	-1.545407e-005	6.272647e-005	9.970058e-001	-6.673835e-002
40000000	9.402490e-001	-5.294170e-002	-3.692055e-002	-1.069239e-001	1.040997e-005	-2.401085e-005	9.949825e-001	-8.900461e-002
50000000	9.391192e-001	-6.473995e-002	-3.467480e-002	-1.327134e-001	-7.910398e-005	4.646881e-005	9.922727e-001	-1.111630e-001
60000000	9.366289e-001	-7.623704e-002	-3.511760e-002	-1.615682e-001	-1.133252e-005	5.628246e-006	9.890863e-001	-1.329806e-001
70000000	9.351983e-001	-8.754040e-002	-3.477175e-002	-1.881115e-001	-9.760046e-005	-6.023137e-005	9.851264e-001	-1.548815e-001
80000000	9.334233e-001	-9.817692e-002	-3.772971e-002	-2.137823e-001	2.097232e-005	1.176583e-005	9.805818e-001	-1.762381e-001
90000000	9.316663e-001	-1.087931e-001	-4.108331e-002	-2.390911e-001	-7.629328e-005	3.629877e-005	9.756605e-001	-1.978123e-001
100000000	9.296281e-001	-1.188191e-001	-4.754489e-002	-2.638032e-001	-1.096983e-004	4.876869e-005	9.700588e-001	-2.190330e-001
110000000	9.278544e-001	-1.296802e-001	-5.258440e-002	-2.902071e-001	-7.370672e-005	5.119566e-005	9.638842e-001	-2.402031e-001
120000000	9.255763e-001	-1.411761e-001	-5.510189e-002	-3.196971e-001	-1.296568e-004	2.980556e-005	9.572201e-001	-2.612409e-001
130000000	9.231564e-001	-1.526455e-001	-5.686312e-002	-3.503914e-001	-1.334106e-004	5.216555e-005	9.500060e-001	-2.821278e-001
140000000	9.209845e-001	-1.639672e-001	-6.079691e-002	-3.775323e-001	-2.361244e-004	1.218334e-005	9.424859e-001	-3.027187e-001
150000000	9.187159e-001	-1.759485e-001	-5.853194e-002	-4.079290e-001	-2.055247e-004	1.182475e-004	9.342714e-001	-3.231248e-001
160000000	9.157402e-001	-1.874521e-001	-6.156040e-002	-4.427880e-001	-2.772549e-004	3.535616e-005	9.252967e-001	-3.431596e-001
170000000	9.127854e-001	-1.982385e-001	-6.992506e-002	-4.743951e-001	-2.880030e-004	1.591040e-004	9.163975e-001	-3.629124e-001
180000000	9.098286e-001	-2.087778e-001	-7.732993e-002	-5.047171e-001	-3.636859e-004	8.207448e-005	9.066919e-001	-3.823868e-001
190000000	9.068097e-001	-2.195416e-001	-8.383991e-002	-5.362477e-001	-3.557256e-004	8.090765e-005	8.965222e-001	-4.014460e-001
200000000	9.038701e-001	-2.304775e-001	-9.055521e-002	-5.696247e-001	-4.358909e-004	7.790633e-005	8.858675e-001	-4.203632e-001
210000000	9.003930e-001	-2.410929e-001	-9.933979e-002	-6.039378e-001	-4.981130e-004	8.750498e-005	8.746828e-001	-4.389091e-001
220000000	8.966047e-001	-2.512258e-001	-1.149993e-001	-6.379750e-001	-5.750645e-004	5.616776e-006	8.629685e-001	-4.567908e-001
230000000	8.930771e-001	-2.613789e-001	-1.315924e-001	-6.710045e-001	-5.963111e-004	6.562328e-005	8.509790e-001	-4.745732e-001
240000000	8.896977e-001	-2.719985e-001	-1.447979e-001	-7.070094e-001	-7.087753e-004	3.056020e-005	8.383895e-001	-4.917463e-001
250000000	8.858358e-001	-2.833139e-001	-1.551339e-001	-7.500093e-001	-7.940339e-004	5.193549e-005	8.252404e-001	-5.084980e-001
260000000	8.813601e-001	-2.942082e-001	-1.713095e-001	-7.945581e-001	-8.302407e-004	4.193033e-005	8.115396e-001	-5.247823e-001
270000000	8.769883e-001	-3.048073e-001	-1.911759e-001	-8.354288e-001	-9.810044e-004	1.018029e-004	7.976329e-001	-5.408272e-001
280000000	8.728778e-001	-3.150207e-001	-2.133893e-001	-8.711313e-001	-1.077026e-003	1.054976e-004	7.831333e-001	-5.567167e-001
290000000	8.686091e-001	-3.248068e-001	-2.393933e-001	-9.047359e-001	-1.097614e-003	9.394331e-005	7.682937e-001	-5.716822e-001
300000000	8.641995e-001	-3.347141e-001	-2.651816e-001	-9.383613e-001	-1.253811e-003	1.275909e-004	7.531683e-001	-5.861261e-001
310000000	8.596904e-001	-3.455497e-001	-2.877652e-001	-9.813281e-001	-1.333392e-003	1.144114e-004	7.374316e-001	-6.001197e-001
320000000	8.541016e-001	-3.564309e-001	-3.203574e-001	-1.031185e+000	-1.463665e-003	1.785447e-004	7.215837e-001	-6.136069e-001
330000000	8.487642e-001	-3.668610e-001	-3.571488e-001	-1.075615e+000	-1.585812e-003	1.661070e-004	7.053464e-001	-6.265140e-001
340000000	8.436672e-001	-3.774007e-001	-3.928572e-001	-1.118220e+000	-1.726857e-003	1.697095e-004	6.888875e-001	-6.388318e-001
350000000	8.380523e-001	-3.875686e-001	-4.324289e-001	-1.162817e+000	-1.786218e-003	2.525545e-004	6.723069e-001	-6.503316e-001
360000000	8.325794e-001	-3.977932e-001	-4.788394e-001	-1.204662e+000	-1.989319e-003	2.614481e-004	6.553595e-001	-6.612066e-001
370000000	8.267870e-001	-4.078992e-001	-5.278942e-001	-1.244608e+000	-2.116087e-003	3.457874e-004	6.381753e-001	-6.714997e-001
380000000	8.206260e-001	-4.179370e-001	-5.843364e-001	-1.285742e+000	-2.282357e-003	4.111758e-004	6.208142e-001	-6.808335e-001
390000000	8.142536e-001	-4.275457e-001	-6.476002e-001	-1.322908e+000	-2.433577e-003	5.486480e-004	6.030265e-001	-6.896217e-001
400000000	8.080983e-001	-4.370906e-001	-7.104307e-001	-1.354007e+000	-2.663260e-003	5.609556e-004	5.853299e-001	-6.971762e-001
410000000	8.016357e-001	-4.467365e-001	-7.789960e-001	-1.384964e+000	-2.807644e-003	6.839267e-004	5.676434e-001	-7.040941e-001
420000000	7.942295e-001	-4.562361e-001	-8.615100e-001	-1.410616e+000	-2.998285e-003	8.220207e-004	5.499993e-001	-7.100163e-001
430000000	7.864225e-001	-4.657588e-001	-9.507388e-001	-1.434528e+000	-3.196545e-003	9.404627e-004	5.321419e-001	-7.149491e-001
440000000	7.782679e-001	-4.754656e-001	-1.042597e+000	-1.459193e+000	-3.413042e-003	1.153861e-003	5.146808e-001	-7.190210e-001
450000000	7.696189e-001	-4.850297e-001	-1.142193e+000	-1.476407e+000	-3.604060e-003	1.321207e-003	4.975093e-001	-7.219869e-001
460000000	7.607616e-001	-4.938953e-001	-1.242600e+000	-1.475323e+000	-3.776133e-003	1.561038e-003	4.809559e-001	-7.238735e-001
470000000	7.514974e-001	-5.023984e-001	-1.347205e+000	-1.461600e+000	-3.947667e-003	1.801972e-003	4.654250e-001	-7.248216e-001
480000000	7.421103e-001	-5.098126e-001	-1.457800e+000	-1.426531e+000	-4.036031e-003	2.133944e-003	4.506027e-001	-7.249735e-001
490000000	7.324454e-001	-5.166203e-001	-1.566376e+000	-1.369576e+000	-4.161234e-003	2.459425e-003	4.369955e-001	-7.243145e-001
500000000	7.225836e-001	-5.230399e-001	-1.669698e+000	-1.302190e+000	-4.244456e-003	2.820890e-003	4.250736e-001	-7.233467e-001
510000000	7.123326e-001	-5.294833e-001	-1.770407e+000	-1.225804e+000	-4.250500e-003	3.205218e-003	4.147911e-001	-7.221281e-001
520000000	7.013359e-001	-5.344486e-001	-1.864791e+000	-1.125634e+000	-4.220842e-003	3.662722e-003	4.063731e-001	-7.213911e-001
530000000	6.911122e-001	-5.384895e-001	-1.935199e+000	-1.003819e+000	-4.064362e-003	3.970159e-003	3.994034e-001	-7.214435e-001
540000000	6.816595e-001	-5.410840e-001	-1.976584e+000	-8.668955e-001	-3.929636e-003	4.306593e-003	3.941107e-001	-7.233164e-001
550000000	6.736192e-001	-5.425449e-001	-1.975380e+000	-7.251464e-001	-3.633256e-003	4.572213e-003	3.896263e-001	-7.278597e-001
560000000	6.675770e-001	-5.466710e-001	-1.959525e+000	-6.625712e-001	-3.416316e-003	4.580418e-003	3.795547e-001	-7.342045e-001
570000000	6.573874e-001	-5.497425e-001	-1.999393e+000	-5.246858e-001	-3.296143e-003	5.028701e-003	3.754611e-001	-7.352765e-001
580000000	6.499797e-001	-5.495915e-001	-1.951127e+000	-3.821457e-001	-2.873155e-003	5.094496e-003	3.716491e-001	-7.430014e-001
590000000	6.450980e-001	-5.504597e-001	-1.869295e+000	-2.802250e-001	-2.535537e-003	5.087592e-003	3.648092e-001	-7.527299e-001
600000000	6.409440e-001	-5.515878e-001	-1.782052e+000	-1.896385e-001	-2.263703e-003	5.169099e-003	3.574763e-001	-7.622579e-001
610000000	6.376785e-001	-5.530145e-001	-1.677476e+000	-1.272686e-001	-2.020938e-003	5.115649e-003	3.482121e-001	-7.733172e-001
620000000	6.340948e-001	-5.556163e-001	-1.581658e+000	-9.200769e-002	-1.780323e-003	4.902796e-003	3.369581e-001	-7.844718e-001
630000000	6.297758e-001	-5.593408e-001	-1.497871e+000	-8.135220e-002	-1.623592e-003	4.740077e-003	3.240359e-001	-7.954026e-001
640000000	6.254613e-001	-5.637730e-001	-1.424435e+000	-8.949033e-002	-1.492946e-003	4.593291e-003	3.095330e-001	-8.057702e-001
650000000	6.212417e-001	-5.682390e-001	-1.360628e+000	-1.065772e-001	-1.488279e-003	4.379006e-003	2.941005e-001	-8.148994e-001
660000000	6.180075e-001	-5.729910e-001	-1.292255e+000	-1.291471e-001	-1.472351e-003	4.206988e-003	2.781451e-001	-8.239060e-001
670000000	6.145806e-001	-5.780843e-001	-1.233367e+000	-1.641961e-001	-1.508641e-003	4.054189e-003	2.609507e-001	-8.317117e-001
680000000	6.110132e-001	-5.834249e-001	-1.184485e+000	-2.032783e-001	-1.552662e-003	3.854807e-003	2.433829e-001	-8.387599e-001
690000000	6.072346e-001	-5.888940e-001	-1.146022e+000	-2.465178e-001	-1.612270e-003	3.701653e-003	2.253573e-001	-8.446758e-001
700000000	6.030235e-001	-5.947841e-001	-1.117933e+000	-2.933731e-001	-1.703080e-003	3.594338e-003	2.073000e-001	-8.495656e-001
710000000	5.982405e-001	-6.005813e-001	-1.099018e+000	-3.416978e-001	-1.878769e-003	3.460496e-003	1.890202e-001	-8.537544e-001
720000000	5.934282e-001	-6.064214e-001	-1.087232e+000	-3.891763e-001	-2.012522e-003	3.274829e-003	1.707163e-001	-8.568242e-001
730000000	5.882185e-001	-6.124871e-001	-1.080232e+000	-4.364538e-001	-2.209207e-003	3.238312e-003	1.523035e-001	-8.589083e-001
740000000	5.827212e-001	-6.182361e-001	-1.080651e+000	-4.822749e-001	-2.358892e-003	3.174499e-003	1.341501e-001	-8.604758e-001
750000000	5.772937e-001	-6.239141e-001	-1.087001e+000	-5.269336e-001	-2.532373e-003	3.052692e-003	1.160499e-001	-8.611771e-001
760000000	5.713596e-001	-6.298013e-001	-1.097882e+000	-5.709718e-001	-2.704201e-003	3.019792e-003	9.801007e-002	-8.614614e-001
770000000	5.651094e-001	-6.357505e-001	-1.113136e+000	-6.135180e-001	-2.888188e-003	3.009651e-003	8.034109e-002	-8.611303e-001
780000000	5.592705e-001	-6.416654e-001	-1.128975e+000	-6.507362e-001	-3.160655e-003	2.906565e-003	6.275667e-002	-8.605396e-001
790000000	5.535237e-001	-6.472735e-001	-1.145861e+000	-6.865794e-001	-3.331366e-003	2.913044e-003	4.520822e-002	-8.592807e-001
800000000	5.481041e-001	-6.529071e-001	-1.164700e+000	-7.184892e-001	-3.576639e-003	2.909753e-003	2.752848e-002	-8.572376e-001
810000000	5.423679e-001	-6.586243e-001	-1.190577e+000	-7.455753e-001	-3.816914e-003	2.984355e-003	1.046219e-002	-8.541969e-001
820000000	5.350094e-001	-6.639660e-001	-1.222727e+000	-7.606015e-001	-4.078742e-003	3.098507e-003	-4.830581e-003	-8.506254e-001
830000000	5.282162e-001	-6.685122e-001	-1.236280e+000	-7.922573e-001	-4.168047e-003	3.073309e-003	-2.086252e-002	-8.492200e-001
840000000	5.212253e-001	-6.737417e-001	-1.269184e+000	-8.338475e-001	-4.410615e-003	3.088815e-003	-3.785914e-002	-8.459767e-001
850000000	5.147518e-001	-6.791421e-001	-1.306019e+000	-8.658446e-001	-4.684971e-003	3.104298e-003	-5.425179e-002	-8.419822e-001
860000000	5.080958e-001	-6.843612e-001	-1.340038e+000	-8.922642e-001	-4.941276e-003	3.158448e-003	-7.020294e-002	-8.373209e-001
870000000	5.015843e-001	-6.894046e-001	-1.375604e+000	-9.153721e-001	-5.161828e-003	3.275475e-003	-8.597071e-002	-8.325710e-001
880000000	4.948696e-001	-6.940585e-001	-1.412509e+000	-9.348118e-001	-5.449585e-003	3.322153e-003	-1.015107e-001	-8.271018e-001
890000000	4.881610e-001	-6.989360e-001	-1.450531e+000	-9.533365e-001	-5.625651e-003	3.386341e-003	-1.166205e-001	-8.215196e-001
900000000	4.810167e-001	-7.035678e-001	-1.489540e+000	-9.707713e-001	-5.926460e-003	3.486025e-003	-1.314794e-001	-8.156971e-001
910000000	4.739833e-001	-7.078968e-001	-1.531144e+000	-9.854605e-001	-6.206822e-003	3.676441e-003	-1.463545e-001	-8.093919e-001
920000000	4.672932e-001	-7.121728e-001	-1.570247e+000	-9.968162e-001	-6.424232e-003	3.762679e-003	-1.607751e-001	-8.027668e-001
930000000	4.602331e-001	-7.165698e-001	-1.608782e+000	-1.007629e+000	-6.686331e-003	3.930485e-003	-1.749075e-001	-7.959490e-001
940000000	4.527968e-001	-7.207919e-001	-1.653489e+000	-1.018003e+000	-6.990811e-003	4.035167e-003	-1.889606e-001	-7.887681e-001
950000000	4.449431e-001	-7.249107e-001	-1.702807e+000	-1.029300e+000	-7.203312e-003	4.129228e-003	-2.024384e-001	-7.815322e-001
960000000	4.368069e-001	-7.289198e-001	-1.754173e+000	-1.040706e+000	-7.513547e-003	4.335401e-003	-2.158752e-001	-7.738635e-001
970000000	4.286386e-001	-7.329968e-001	-1.804415e+000	-1.047293e+000	-7.781392e-003	4.446090e-003	-2.289694e-001	-7.661200e-001
980000000	4.211200e-001	-7.368559e-001	-1.851132e+000	-1.048912e+000	-8.059634e-003	4.688474e-003	-2.416220e-001	-7.579280e-001
990000000	4.138449e-001	-7.407305e-001	-1.892868e+000	-1.047006e+000	-8.233580e-003	4.923430e-003	-2.541203e-001	-7.495788e-001
1000000000	4.068362e-001	-7.443743e-001	-1.932562e+000	-1.042886e+000	-8.552339e-003	5.127995e-003	-2.660295e-001	-7.409967e-001
1010000000	3.997450e-001	-7.479806e-001	-1.972847e+000	-1.035809e+000	-8.805799e-003	5.319570e-003	-2.777622e-001	-7.323591e-001
1020000000	3.921441e-001	-7.515110e-001	-2.019359e+000	-1.031480e+000	-9.099956e-003	5.491433e-003	-2.891604e-001	-7.233681e-001
1030000000	3.839450e-001	-7.549827e-001	-2.070107e+000	-1.029376e+000	-9.364753e-003	5.737059e-003	-2.999828e-001	-7.142811e-001
1040000000	3.757898e-001	-7.580787e-001	-2.122985e+000	-1.026812e+000	-9.584973e-003	6.058846e-003	-3.110996e-001	-7.047511e-001
1050000000	3.680988e-001	-7.608786e-001	-2.174102e+000	-1.019840e+000	-9.860466e-003	6.249012e-003	-3.216936e-001	-6.952680e-001
1060000000	3.604546e-001	-7.636379e-001	-2.223344e+000	-1.010103e+000	-1.010295e-002	6.518748e-003	-3.319748e-001	-6.852183e-001
1070000000	3.526936e-001	-7.663025e-001	-2.270239e+000	-9.974258e-001	-1.031890e-002	6.742469e-003	-3.421627e-001	-6.751707e-001
1080000000	3.452022e-001	-7.689188e-001	-2.318925e+000	-9.873186e-001	-1.061234e-002	7.034428e-003	-3.522604e-001	-6.649675e-001
1090000000	3.373019e-001	-7.715777e-001	-2.369389e+000	-9.750637e-001	-1.084600e-002	7.358320e-003	-3.618584e-001	-6.542594e-001
1100000000	3.293706e-001	-7.739757e-001	-2.422199e+000	-9.583571e-001	-1.112348e-002	7.618166e-003	-3.712506e-001	-6.434674e-001
1110000000	3.217132e-001	-7.763117e-001	-2.467164e+000	-9.382287e-001	-1.134696e-002	7.854704e-003	-3.801988e-001	-6.330097e-001
1120000000	3.140278e-001	-7.788579e-001	-2.507863e+000	-9.196334e-001	-1.161589e-002	8.251749e-003	-3.893949e-001	-6.222551e-001
1130000000	3.064480e-001	-7.810089e-001	-2.549718e+000	-8.992979e-001	-1.180475e-002	8.558843e-003	-3.979711e-001	-6.111526e-001
1140000000	2.984485e-001	-7.830969e-001	-2.597598e+000	-8.769267e-001	-1.205456e-002	8.912144e-003	-4.060864e-001	-5.999217e-001
1150000000	2.902295e-001	-7.851390e-001	-2.650985e+000	-8.545269e-001	-1.229996e-002	9.235257e-003	-4.139373e-001	-5.888456e-001
1160000000	2.819051e-001	-7.868793e-001	-2.705512e+000	-8.312167e-001	-1.249534e-002	9.637159e-003	-4.213621e-001	-5.777069e-001
1170000000	2.738392e-001	-7.884810e-001	-2.756159e+000	-8.025556e-001	-1.279127e-002	9.965299e-003	-4.285653e-001	-5.661628e-001
1180000000	2.661270e-001	-7.900510e-001	-2.801189e+000	-7.734090e-001	-1.293020e-002	1.035553e-002	-4.352022e-001	-5.546608e-001
1190000000	2.586627e-001	-7.917353e-001	-2.841677e+000	-7.429175e-001	-1.318222e-002	1.073964e-002	-4.415794e-001	-5.430270e-001
1200000000	2.510941e-001	-7.933234e-001	-2.881790e+000	-7.119296e-001	-1.345953e-002	1.113931e-002	-4.476627e-001	-5.312423e-001
1210000000	2.434740e-001	-7.945598e-001	-2.923452e+000	-6.786918e-001	-1.361553e-002	1.154706e-002	-4.533901e-001	-5.193866e-001
1220000000	2.356216e-001	-7.956641e-001	-2.969370e+000	-6.450215e-001	-1.381674e-002	1.192819e-002	-4.587748e-001	-5.074618e-001
1230000000	2.275821e-001	-7.967375e-001	-3.014789e+000	-6.092068e-001	-1.401259e-002	1.240231e-002	-4.639841e-001	-4.953515e-001
1240000000	2.198383e-001	-7.975049e-001	-3.056429e+000	-5.725748e-001	-1.419996e-002	1.284596e-002	-4.689075e-001	-4.830210e-001
1250000000	2.120460e-001	-7.984683e-001	-3.096328e+000	-5.377927e-001	-1.437172e-002	1.331189e-002	-4.735851e-001	-4.706614e-001
1260000000	2.038802e-001	-7.989946e-001	-3.139940e+000	-4.990825e-001	-1.451552e-002	1.366192e-002	-4.779393e-001	-4.582631e-001
1270000000	1.957508e-001	-7.994897e-001	-3.184103e+000	-4.566924e-001	-1.470047e-002	1.409438e-002	-4.821108e-001	-4.457720e-001
1280000000	1.875434e-001	-7.996953e-001	-3.227641e+000	-4.142596e-001	-1.479664e-002	1.462555e-002	-4.859024e-001	-4.332726e-001
1290000000	1.794699e-001	-7.999357e-001	-3.269334e+000	-3.715874e-001	-1.497231e-002	1.506118e-002	-4.896196e-001	-4.207813e-001
1300000000	1.716178e-001	-8.003366e-001	-3.308096e+000	-3.274644e-001	-1.511220e-002	1.556527e-002	-4.928808e-001	-4.086328e-001
1310000000	1.639833e-001	-8.006263e-001	-3.340871e+000	-2.845312e-001	-1.535564e-002	1.611446e-002	-4.958282e-001	-3.962684e-001
1320000000	1.564966e-001	-8.009480e-001	-3.370459e+000	-2.412710e-001	-1.538998e-002	1.661351e-002	-4.986580e-001	-3.841441e-001
1330000000	1.489551e-001	-8.011173e-001	-3.401404e+000	-1.933209e-001	-1.557799e-002	1.710327e-002	-5.013229e-001	-3.716030e-001
1340000000	1.415120e-001	-8.008574e-001	-3.437942e+000	-1.438226e-001	-1.565543e-002	1.756898e-002	-5.033116e-001	-3.591340e-001
1350000000	1.335589e-001	-8.005413e-001	-3.478618e+000	-9.313059e-002	-1.571141e-002	1.809444e-002	-5.046752e-001	-3.469357e-001
1360000000	1.258255e-001	-8.002445e-001	-3.517408e+000	-3.920782e-002	-1.584217e-002	1.867440e-002	-5.058079e-001	-3.345169e-001
1370000000	1.183351e-001	-7.994625e-001	-3.551176e+000	1.590122e-002	-1.588605e-002	1.919878e-002	-5.065471e-001	-3.223920e-001
1380000000	1.111545e-001	-7.990267e-001	-3.579172e+000	7.005167e-002	-1.601804e-002	1.971585e-002	-5.069764e-001	-3.101667e-001
1390000000	1.038393e-001	-7.984558e-001	-3.603002e+000	1.228106e-001	-1.602036e-002	2.026057e-002	-5.071360e-001	-2.980510e-001
1400000000	9.653593e-002	-7.976996e-001	-3.629422e+000	1.770935e-001	-1.607019e-002	2.082584e-002	-5.069205e-001	-2.858674e-001
1410000000	8.905053e-002	-7.967377e-001	-3.657072e+000	2.313892e-001	-1.612856e-002	2.139897e-002	-5.063671e-001	-2.736749e-001
1420000000	8.153075e-002	-7.954449e-001	-3.686485e+000	2.901164e-001	-1.618039e-002	2.194705e-002	-5.058622e-001	-2.614555e-001
1430000000	7.402745e-002	-7.939605e-001	-3.713672e+000	3.506937e-001	-1.616865e-002	2.262879e-002	-5.049135e-001	-2.491440e-001
1440000000	6.689092e-002	-7.928177e-001	-3.736886e+000	4.095632e-001	-1.618827e-002	2.313913e-002	-5.038582e-001	-2.368231e-001
1450000000	5.922694e-002	-7.915005e-001	-3.759896e+000	4.675846e-001	-1.619326e-002	2.377997e-002	-5.023020e-001	-2.243348e-001
1460000000	5.162731e-002	-7.897307e-001	-3.783294e+000	5.309453e-001	-1.613652e-002	2.434507e-002	-5.005347e-001	-2.120027e-001
1470000000	4.428516e-002	-7.877732e-001	-3.805905e+000	5.976654e-001	-1.613943e-002	2.488661e-002	-4.984174e-001	-1.998326e-001
1480000000	3.686745e-002	-7.859880e-001	-3.826188e+000	6.655755e-001	-1.608612e-002	2.557962e-002	-4.960286e-001	-1.878485e-001
1490000000	2.971256e-002	-7.840346e-001	-3.841422e+000	7.293414e-001	-1.610158e-002	2.618589e-002	-4.933423e-001	-1.757845e-001
1500000000	2.256422e-002	-7.823165e-001	-3.852250e+000	7.912299e-001	-1.595239e-002	2.685439e-002	-4.904155e-001	-1.640609e-001
1510000000	1.567559e-002	-7.804021e-001	-3.865139e+000	8.480966e-001	-1.588334e-002	2.747259e-002	-4.869873e-001	-1.523988e-001
1520000000	8.834733e-003	-7.785243e-001	-3.872427e+000	9.080843e-001	-1.580094e-002	2.805212e-002	-4.833840e-001	-1.408703e-001
1530000000	2.277792e-003	-7.765331e-001	-3.874873e+000	9.752866e-001	-1.571492e-002	2.870789e-002	-4.795342e-001	-1.295467e-001
1540000000	-4.546975e-003	-7.743442e-001	-3.883983e+000	1.043526e+000	-1.554847e-002	2.933423e-002	-4.755561e-001	-1.184759e-001
1550000000	-1.073664e-002	-7.713695e-001	-3.917952e+000	1.112691e+000	-1.543656e-002	2.996906e-002	-4.710830e-001	-1.075902e-001
1560000000	-1.732743e-002	-7.686541e-001	-3.930202e+000	1.182921e+000	-1.524929e-002	3.057420e-002	-4.664958e-001	-9.662263e-002
1570000000	-2.383107e-002	-7.662897e-001	-3.934770e+000	1.252308e+000	-1.511895e-002	3.120193e-002	-4.615633e-001	-8.596397e-002
1580000000	-3.042800e-002	-7.634482e-001	-3.937488e+000	1.321345e+000	-1.493339e-002	3.192353e-002	-4.562796e-001	-7.529550e-002
1590000000	-3.699429e-002	-7.609102e-001	-3.937896e+000	1.391727e+000	-1.474413e-002	3.251599e-002	-4.507368e-001	-6.503679e-002
1600000000	-4.323293e-002	-7.579697e-001	-3.940050e+000	1.461919e+000	-1.451516e-002	3.315743e-002	-4.450598e-001	-5.475899e-002
1610000000	-4.968687e-002	-7.547203e-001	-3.940144e+000	1.532923e+000	-1.424493e-002	3.379074e-002	-4.388228e-001	-4.467261e-002
1620000000	-5.607887e-002	-7.515360e-001	-3.937099e+000	1.607893e+000	-1.401638e-002	3.448800e-002	-4.322580e-001	-3.477462e-002
1630000000	-6.183677e-002	-7.484386e-001	-3.930863e+000	1.679302e+000	-1.375107e-002	3.516662e-002	-4.253146e-001	-2.529265e-002
1640000000	-6.781799e-002	-7.452579e-001	-3.920260e+000	1.748779e+000	-1.346120e-002	3.568036e-002	-4.184898e-001	-1.595661e-002
1650000000	-7.330733e-002	-7.422492e-001	-3.908464e+000	1.815772e+000	-1.319064e-002	3.636501e-002	-4.112210e-001	-6.773097e-003
1660000000	-7.880372e-002	-7.388901e-001	-3.897458e+000	1.884727e+000	-1.288400e-002	3.699529e-002	-4.036836e-001	2.415272e-003
1670000000	-8.476354e-002	-7.354077e-001	-3.887209e+000	1.956096e+000	-1.255073e-002	3.767468e-002	-3.958607e-001	1.126802e-002
1680000000	-9.034842e-002	-7.315766e-001	-3.873664e+000	2.029531e+000	-1.227015e-002	3.829779e-002	-3.877621e-001	1.991937e-002
1690000000	-9.570509e-002	-7.277953e-001	-3.857904e+000	2.101427e+000	-1.186683e-002	3.892274e-002	-3.794054e-001	2.850226e-002
1700000000	-1.006821e-001	-7.242362e-001	-3.838312e+000	2.170637e+000	-1.152883e-002	3.959717e-002	-3.710177e-001	3.670270e-002
1710000000	-1.059955e-001	-7.207670e-001	-3.816145e+000	2.238342e+000	-1.122824e-002	4.023658e-002	-3.623877e-001	4.465598e-002
1720000000	-1.112509e-001	-7.169366e-001	-3.792773e+000	2.305414e+000	-1.080042e-002	4.084413e-002	-3.535775e-001	5.242621e-002
1730000000	-1.164673e-001	-7.130841e-001	-3.769739e+000	2.375277e+000	-1.031485e-002	4.146422e-002	-3.448997e-001	5.986406e-002
1740000000	-1.215216e-001	-7.089975e-001	-3.744957e+000	2.443430e+000	-9.902798e-003	4.202524e-002	-3.359333e-001	6.726704e-002
1750000000	-1.262981e-001	-7.046845e-001	-3.720608e+000	2.512625e+000	-9.476783e-003	4.265293e-002	-3.268170e-001	7.446407e-002
1760000000	-1.311209e-001	-7.008359e-001	-3.693147e+000	2.581134e+000	-9.040394e-003	4.316245e-002	-3.173720e-001	8.106916e-002
1770000000	-1.359905e-001	-6.968528e-001	-3.662991e+000	2.648998e+000	-8.556611e-003	4.389840e-002	-3.077820e-001	8.735319e-002
1780000000	-1.405987e-001	-6.929050e-001	-3.632041e+000	2.716212e+000	-7.994697e-003	4.440095e-002	-2.982837e-001	9.332091e-002
1790000000	-1.449578e-001	-6.888252e-001	-3.599491e+000	2.783416e+000	-7.589736e-003	4.497094e-002	-2.884483e-001	9.900516e-002
1800000000	-1.490136e-001	-6.847119e-001	-3.564585e+000	2.849551e+000	-6.925889e-003	4.558739e-002	-2.785535e-001	1.038349e-001
1810000000	-1.531704e-001	-6.805831e-001	-3.528734e+000	2.914304e+000	-6.502005e-003	4.612704e-002	-2.681497e-001	1.087763e-001
1820000000	-1.571695e-001	-6.762435e-001	-3.490063e+000	2.977957e+000	-5.936107e-003	4.667556e-002	-2.577847e-001	1.134416e-001
1830000000	-1.607932e-001	-6.720943e-001	-3.450350e+000	3.040351e+000	-5.365641e-003	4.716858e-002	-2.474505e-001	1.176747e-001
1840000000	-1.643452e-001	-6.679283e-001	-3.408148e+000	3.099884e+000	-4.823758e-003	4.772039e-002	-2.366367e-001	1.216642e-001
1850000000	-1.677051e-001	-6.636672e-001	-3.364806e+000	3.158014e+000	-4.140202e-003	4.819376e-002	-2.259075e-001	1.254948e-001
1860000000	-1.710540e-001	-6.591309e-001	-3.320579e+000	3.213705e+000	-3.613635e-003	4.872766e-002	-2.147297e-001	1.291448e-001
1870000000	-1.747017e-001	-6.545538e-001	-3.274358e+000	3.274530e+000	-3.008829e-003	4.918845e-002	-2.036251e-001	1.323424e-001
1880000000	-1.779056e-001	-6.498787e-001	-3.228839e+000	3.334031e+000	-2.363134e-003	4.967366e-002	-1.923814e-001	1.354570e-001
1890000000	-1.812317e-001	-6.452160e-001	-3.180901e+000	3.391681e+000	-1.736328e-003	5.009660e-002	-1.811811e-001	1.383079e-001
1900000000	-1.844597e-001	-6.404032e-001	-3.131778e+000	3.446509e+000	-1.122655e-003	5.065010e-002	-1.700900e-001	1.408544e-001
1910000000	-1.876256e-001	-6.359875e-001	-3.080549e+000	3.498685e+000	-4.933817e-004	5.112471e-002	-1.589994e-001	1.429969e-001
1920000000	-1.906462e-001	-6.311602e-001	-3.029734e+000	3.552092e+000	2.003602e-004	5.147479e-002	-1.480631e-001	1.450403e-001
1930000000	-1.938980e-001	-6.264512e-001	-2.976742e+000	3.605839e+000	9.480479e-004	5.188009e-002	-1.372350e-001	1.467184e-001
1940000000	-1.969401e-001	-6.218115e-001	-2.921948e+000	3.657121e+000	1.546021e-003	5.235117e-002	-1.265022e-001	1.480839e-001
1950000000	-1.994501e-001	-6.172133e-001	-2.866870e+000	3.707626e+000	2.206085e-003	5.272980e-002	-1.156713e-001	1.491198e-001
1960000000	-2.019479e-001	-6.130296e-001	-2.810365e+000	3.753933e+000	2.948595e-003	5.307635e-002	-1.050018e-001	1.495815e-001
1970000000	-2.042665e-001	-6.087929e-001	-2.752601e+000	3.797774e+000	3.646540e-003	5.342755e-002	-9.413034e-002	1.498874e-001
1980000000	-2.066317e-001	-6.048640e-001	-2.694156e+000	3.842288e+000	4.349685e-003	5.382314e-002	-8.361651e-002	1.495496e-001
1990000000	-2.086750e-001	-6.007077e-001	-2.635062e+000	3.885787e+000	5.131184e-003	5.410205e-002	-7.275226e-002	1.490499e-001
2000000000	-2.106396e-001	-5.967452e-001	-2.576193e+000	3.929313e+000	5.830664e-003	5.450933e-002	-6.200835e-002	1.479834e-001
2010000000	-2.122832e-001	-5.926399e-001	-2.515855e+000	3.970350e+000	6.563115e-003	5.483265e-002	-5.145388e-002	1.467829e-001
2020000000	-2.139537e-001	-5.886526e-001	-2.454929e+000	4.011183e+000	7.374710e-003	5.504789e-002	-4.069527e-002	1.452335e-001
2030000000	-2.155348e-001	-5.844286e-001	-2.391235e+000	4.049237e+000	8.119232e-003	5.536779e-002	-2.978734e-002	1.433437e-001
2040000000	-2.170588e-001	-5.802629e-001	-2.327643e+000	4.085467e+000	8.900455e-003	5.555268e-002	-1.922885e-002	1.414194e-001
2050000000	-2.182658e-001	-5.757453e-001	-2.263114e+000	4.119176e+000	9.638157e-003	5.584243e-002	-8.416501e-003	1.390842e-001
2060000000	-2.191529e-001	-5.714969e-001	-2.198036e+000	4.149752e+000	1.036734e-002	5.609319e-002	2.263110e-003	1.366095e-001
2070000000	-2.203164e-001	-5.672519e-001	-2.135125e+000	4.180832e+000	1.115342e-002	5.636707e-002	1.283890e-002	1.338740e-001
2080000000	-2.215880e-001	-5.630174e-001	-2.068181e+000	4.212103e+000	1.194657e-002	5.654996e-002	2.340944e-002	1.309182e-001
2090000000	-2.229843e-001	-5.586268e-001	-2.002595e+000	4.244689e+000	1.270599e-002	5.677210e-002	3.357369e-002	1.277308e-001
2100000000	-2.241658e-001	-5.543091e-001	-1.933301e+000	4.273420e+000	1.357706e-002	5.695887e-002	4.385823e-002	1.243235e-001
2110000000	-2.254360e-001	-5.501644e-001	-1.863786e+000	4.299216e+000	1.439974e-002	5.701236e-002	5.357556e-002	1.203957e-001
2120000000	-2.266156e-001	-5.462152e-001	-1.795589e+000	4.323094e+000	1.518067e-002	5.717489e-002	6.339782e-002	1.165158e-001
2130000000	-2.277925e-001	-5.422896e-001	-1.725822e+000	4.346982e+000	1.602781e-002	5.729279e-002	7.288020e-002	1.121137e-001
2140000000	-2.290873e-001	-5.385715e-001	-1.658485e+000	4.370131e+000	1.684558e-002	5.735255e-002	8.192741e-002	1.075314e-001
2150000000	-2.297166e-001	-5.346610e-001	-1.587995e+000	4.384646e+000	1.768334e-002	5.736053e-002	9.083090e-002	1.029889e-001
2160000000	-2.302880e-001	-5.309311e-001	-1.521158e+000	4.394908e+000	1.847589e-002	5.740711e-002	9.997044e-002	9.805750e-002
2170000000	-2.309854e-001	-5.278337e-001	-1.457411e+000	4.411842e+000	1.915633e-002	5.743186e-002	1.087381e-001	9.301740e-002
2180000000	-2.312680e-001	-5.241733e-001	-1.386599e+000	4.418247e+000	1.995816e-002	5.741555e-002	1.174079e-001	8.770571e-002
2190000000	-2.304036e-001	-5.213444e-001	-1.329017e+000	4.410602e+000	2.074077e-002	5.750895e-002	1.259138e-001	8.197689e-002
2200000000	-2.285562e-001	-5.180198e-001	-1.266444e+000	4.390459e+000	2.159404e-002	5.752279e-002	1.342217e-001	7.620679e-002
2210000000	-2.312571e-001	-5.130828e-001	-1.169184e+000	4.455644e+000	2.233906e-002	5.746060e-002	1.425562e-001	7.026126e-002
2220000000	-2.314907e-001	-5.097527e-001	-1.101067e+000	4.466708e+000	2.313856e-002	5.751132e-002	1.507210e-001	6.426536e-002
2230000000	-2.316032e-001	-5.068793e-001	-1.038071e+000	4.476283e+000	2.387771e-002	5.737310e-002	1.586435e-001	5.786571e-002
2240000000	-2.317823e-001	-5.037347e-001	-9.711822e-001	4.481846e+000	2.479569e-002	5.734871e-002	1.658120e-001	5.144249e-002
2250000000	-2.316625e-001	-5.008842e-001	-9.068852e-001	4.486598e+000	2.547917e-002	5.730332e-002	1.732006e-001	4.480726e-002
2260000000	-2.319158e-001	-4.978684e-001	-8.416619e-001	4.490899e+000	2.623662e-002	5.718044e-002	1.802535e-001	3.829136e-002
2270000000	-2.319097e-001	-4.947014e-001	-7.728184e-001	4.490284e+000	2.706485e-002	5.708945e-002	1.870194e-001	3.147173e-002
2280000000	-2.316384e-001	-4.915848e-001	-7.025363e-001	4.488753e+000	2.775318e-002	5.695027e-002	1.938509e-001	2.443218e-002
2290000000	-2.314647e-001	-4.887192e-001	-6.366177e-001	4.484150e+000	2.851650e-002	5.681174e-002	2.000395e-001	1.729344e-002
2300000000	-2.310975e-001	-4.860331e-001	-5.711372e-001	4.473372e+000	2.924947e-002	5.660556e-002	2.066040e-001	9.933836e-003
2310000000	-2.307154e-001	-4.833381e-001	-5.049250e-001	4.469085e+000	3.006547e-002	5.649517e-002	2.125049e-001	2.592327e-003
2320000000	-2.300793e-001	-4.809054e-001	-4.401763e-001	4.455381e+000	3.074559e-002	5.636186e-002	2.184198e-001	-5.135415e-003
2330000000	-2.300410e-001	-4.789767e-001	-3.890641e-001	4.449616e+000	3.151349e-002	5.616874e-002	2.241678e-001	-1.274754e-002
2340000000	-2.300562e-001	-4.761938e-001	-3.303821e-001	4.451551e+000	3.217701e-002	5.591631e-002	2.295238e-001	-2.042451e-002
2350000000	-2.294019e-001	-4.738797e-001	-2.708988e-001	4.438675e+000	3.290458e-002	5.577018e-002	2.348446e-001	-2.828557e-002
2360000000	-2.285573e-001	-4.715847e-001	-2.121533e-001	4.420679e+000	3.364315e-002	5.558279e-002	2.400037e-001	-3.602142e-002
2370000000	-2.281494e-001	-4.695510e-001	-1.572233e-001	4.402988e+000	3.431776e-002	5.528426e-002	2.450425e-001	-4.378449e-002
2380000000	-2.267235e-001	-4.676817e-001	-1.029337e-001	4.375379e+000	3.505379e-002	5.506372e-002	2.494850e-001	-5.166066e-002
2390000000	-2.252668e-001	-4.639942e-001	-1.457975e-002	4.354100e+000	3.575827e-002	5.485240e-002	2.539815e-001	-5.965106e-002
2400000000	-2.244868e-001	-4.614814e-001	4.814610e-002	4.339255e+000	3.637904e-002	5.450204e-002	2.582057e-001	-6.769612e-002
2410000000	-2.252845e-001	-4.584696e-001	1.076097e-001	4.348144e+000	3.705477e-002	5.418196e-002	2.620767e-001	-7.573364e-002
2420000000	-2.252559e-001	-4.562610e-001	1.622697e-001	4.338623e+000	3.776305e-002	5.389558e-002	2.654761e-001	-8.394480e-002
2430000000	-2.248241e-001	-4.543737e-001	2.214169e-001	4.320203e+000	3.840398e-002	5.360829e-002	2.686395e-001	-9.194647e-002
2440000000	-2.248638e-001	-4.524754e-001	2.716290e-001	4.305870e+000	3.903457e-002	5.334171e-002	2.718255e-001	-1.001944e-001
2450000000	-2.247383e-001	-4.508324e-001	3.241678e-001	4.288723e+000	3.961597e-002	5.296884e-002	2.747204e-001	-1.082855e-001
2460000000	-2.245813e-001	-4.488382e-001	3.784585e-001	4.269719e+000	4.026703e-002	5.272840e-002	2.774786e-001	-1.165500e-001
2470000000	-2.233800e-001	-4.474848e-001	4.363236e-001	4.237940e+000	4.091739e-002	5.234492e-002	2.800443e-001	-1.247437e-001
2480000000	-2.230127e-001	-4.455531e-001	4.915291e-001	4.216644e+000	4.150786e-002	5.211702e-002	2.825170e-001	-1.331828e-001
2490000000	-2.219258e-001	-4.452405e-001	5.284021e-001	4.178411e+000	4.204816e-002	5.169666e-002	2.850036e-001	-1.416950e-001
2500000000	-2.219657e-001	-4.428852e-001	5.845429e-001	4.174707e+000	4.273492e-002	5.136753e-002	2.872318e-001	-1.497419e-001
2510000000	-2.214386e-001	-4.414682e-001	6.289081e-001	4.154891e+000	4.328318e-002	5.100539e-002	2.893068e-001	-1.583068e-001
2520000000	-2.209930e-001	-4.401999e-001	6.734243e-001	4.130899e+000	4.380410e-002	5.067350e-002	2.910489e-001	-1.665570e-001
2530000000	-2.202837e-001	-4.386074e-001	7.228710e-001	4.106073e+000	4.444062e-002	5.025049e-002	2.927929e-001	-1.746320e-001
2540000000	-2.194213e-001	-4.371145e-001	7.697317e-001	4.078648e+000	4.498904e-002	4.990765e-002	2.942035e-001	-1.828295e-001
2550000000	-2.188450e-001	-4.352888e-001	8.155909e-001	4.050097e+000	4.555288e-002	4.952027e-002	2.954894e-001	-1.907146e-001
2560000000	-2.183245e-001	-4.340520e-001	8.566312e-001	4.020540e+000	4.603235e-002	4.914584e-002	2.964841e-001	-1.984661e-001
2570000000	-2.180562e-001	-4.330794e-001	8.954303e-001	3.991737e+000	4.654631e-002	4.873406e-002	2.972807e-001	-2.063199e-001
2580000000	-2.178961e-001	-4.317660e-001	9.383700e-001	3.963880e+000	4.711909e-002	4.835171e-002	2.978692e-001	-2.139691e-001
2590000000	-2.178531e-001	-4.300903e-001	9.839335e-001	3.940112e+000	4.765993e-002	4.794281e-002	2.981717e-001	-2.216381e-001
2600000000	-2.174841e-001	-4.284540e-001	1.034110e+000	3.914691e+000	4.816414e-002	4.752647e-002	2.984018e-001	-2.293242e-001
2610000000	-2.174655e-001	-4.274786e-001	1.076031e+000	3.883350e+000	4.861796e-002	4.708947e-002	2.983277e-001	-2.371716e-001
2620000000	-2.168856e-001	-4.261564e-001	1.125478e+000	3.850163e+000	4.913861e-002	4.661389e-002	2.981650e-001	-2.450025e-001
2630000000	-2.167368e-001	-4.254523e-001	1.166014e+000	3.818949e+000	4.958000e-002	4.631000e-002	2.978932e-001	-2.529653e-001
2640000000	-2.165049e-001	-4.247832e-001	1.205595e+000	3.786262e+000	5.001779e-002	4.583333e-002	2.973550e-001	-2.610357e-001
2650000000	-2.159641e-001	-4.241657e-001	1.241805e+000	3.754557e+000	5.050935e-002	4.536412e-002	2.967273e-001	-2.690432e-001
2660000000	-2.155794e-001	-4.234291e-001	1.278523e+000	3.725430e+000	5.106844e-002	4.494034e-002	2.962140e-001	-2.770066e-001
2670000000	-2.150165e-001	-4.225269e-001	1.316283e+000	3.695871e+000	5.147041e-002	4.449727e-002	2.954141e-001	-2.849398e-001
2680000000	-2.146453e-001	-4.220516e-001	1.347798e+000	3.665607e+000	5.180948e-002	4.410109e-002	2.945757e-001	-2.927483e-001
2690000000	-2.140868e-001	-4.214727e-001	1.384291e+000	3.633808e+000	5.221256e-002	4.355127e-002	2.939332e-001	-3.002839e-001
2700000000	-2.136804e-001	-4.206976e-001	1.418797e+000	3.600734e+000	5.263135e-002	4.312723e-002	2.928830e-001	-3.074879e-001
2710000000	-2.132834e-001	-4.199729e-001	1.452121e+000	3.570450e+000	5.299184e-002	4.271817e-002	2.919283e-001	-3.144581e-001
2720000000	-2.127890e-001	-4.190820e-001	1.485027e+000	3.538879e+000	5.343051e-002	4.226154e-002	2.908480e-001	-3.214843e-001
2730000000	-2.127645e-001	-4.179755e-001	1.518432e+000	3.507544e+000	5.376252e-002	4.181950e-002	2.895239e-001	-3.281951e-001
2740000000	-2.122834e-001	-4.170088e-001	1.551534e+000	3.471677e+000	5.414963e-002	4.131184e-002	2.879440e-001	-3.348834e-001
2750000000	-2.122627e-001	-4.159609e-001	1.584105e+000	3.437910e+000	5.459759e-002	4.095293e-002	2.862598e-001	-3.414795e-001
2760000000	-2.122761e-001	-4.151499e-001	1.614954e+000	3.404463e+000	5.494091e-002	4.053309e-002	2.842830e-001	-3.480839e-001
2770000000	-2.123878e-001	-4.144935e-001	1.643873e+000	3.369372e+000	5.525889e-002	4.000793e-002	2.819869e-001	-3.545631e-001
2780000000	-2.124653e-001	-4.140838e-001	1.672266e+000	3.332908e+000	5.564624e-002	3.961088e-002	2.795529e-001	-3.611639e-001
2790000000	-2.126266e-001	-4.135845e-001	1.699201e+000	3.297381e+000	5.601195e-002	3.915717e-002	2.767346e-001	-3.675603e-001
2800000000	-2.127296e-001	-4.134361e-001	1.723923e+000	3.263142e+000	5.639118e-002	3.871987e-002	2.739437e-001	-3.742572e-001
2810000000	-2.127058e-001	-4.134390e-001	1.748717e+000	3.228617e+000	5.660448e-002	3.821731e-002	2.712615e-001	-3.808931e-001
2820000000	-2.127069e-001	-4.133276e-001	1.772667e+000	3.194227e+000	5.688718e-002	3.777269e-002	2.682396e-001	-3.876808e-001
2830000000	-2.126731e-001	-4.136046e-001	1.796762e+000	3.160294e+000	5.723400e-002	3.730511e-002	2.654830e-001	-3.941551e-001
2840000000	-2.123232e-001	-4.136754e-001	1.819742e+000	3.125852e+000	5.751265e-002	3.683334e-002	2.627874e-001	-4.009695e-001
2850000000	-2.119972e-001	-4.137918e-001	1.842415e+000	3.092713e+000	5.777467e-002	3.636203e-002	2.602799e-001	-4.074164e-001
2860000000	-2.118680e-001	-4.138056e-001	1.864301e+000	3.061325e+000	5.815575e-002	3.592033e-002	2.576851e-001	-4.135466e-001
2870000000	-2.114691e-001	-4.136300e-001	1.885661e+000	3.027750e+000	5.840700e-002	3.546342e-002	2.552437e-001	-4.199646e-001
2880000000	-2.113796e-001	-4.131474e-001	1.907415e+000	2.993897e+000	5.871292e-002	3.508606e-002	2.528349e-001	-4.260371e-001
2890000000	-2.113830e-001	-4.126010e-001	1.928397e+000	2.960038e+000	5.900570e-002	3.463423e-002	2.500566e-001	-4.316421e-001
2900000000	-2.114425e-001	-4.117859e-001	1.948592e+000	2.925519e+000	5.929543e-002	3.417685e-002	2.472668e-001	-4.372650e-001
2910000000	-2.116016e-001	-4.111120e-001	1.969052e+000	2.891081e+000	5.955370e-002	3.363099e-002	2.444505e-001	-4.423921e-001
2920000000	-2.117295e-001	-4.103585e-001	1.988441e+000	2.856302e+000	5.985649e-002	3.326438e-002	2.413021e-001	-4.476087e-001
2930000000	-2.121119e-001	-4.097030e-001	2.005872e+000	2.820360e+000	6.008246e-002	3.271592e-002	2.377682e-001	-4.526330e-001
2940000000	-2.125610e-001	-4.091420e-001	2.023762e+000	2.785566e+000	6.031335e-002	3.221203e-002	2.337811e-001	-4.575093e-001
2950000000	-2.132274e-001	-4.088673e-001	2.039416e+000	2.751685e+000	6.052662e-002	3.170158e-002	2.298253e-001	-4.625848e-001
2960000000	-2.139585e-001	-4.087644e-001	2.054726e+000	2.718571e+000	6.079454e-002	3.123280e-002	2.254377e-001	-4.675189e-001
2970000000	-2.144467e-001	-4.087526e-001	2.069198e+000	2.685106e+000	6.094871e-002	3.074687e-002	2.210060e-001	-4.725711e-001
2980000000	-2.149464e-001	-4.091362e-001	2.082810e+000	2.653480e+000	6.113338e-002	3.032098e-002	2.166151e-001	-4.777477e-001
2990000000	-2.154230e-001	-4.094103e-001	2.098101e+000	2.620721e+000	6.133451e-002	2.988571e-002	2.121155e-001	-4.831196e-001
3000000000	-2.156401e-001	-4.099683e-001	2.111207e+000	2.587617e+000	6.148912e-002	2.940584e-002	2.079076e-001	-4.882313e-001
3010000000	-2.158641e-001	-4.104235e-001	2.124180e+000	2.554623e+000	6.159762e-002	2.901879e-002	2.039200e-001	-4.934868e-001
3020000000	-2.162542e-001	-4.107075e-001	2.137105e+000	2.524046e+000	6.181352e-002	2.860335e-002	1.999961e-001	-4.986826e-001
3030000000	-2.164157e-001	-4.106966e-001	2.150787e+000	2.491834e+000	6.205809e-002	2.817198e-002	1.961967e-001	-5.038367e-001
3040000000	-2.163910e-001	-4.107300e-001	2.163044e+000	2.459477e+000	6.219889e-002	2.775876e-002	1.926008e-001	-5.088192e-001
3050000000	-2.164923e-001	-4.104929e-001	2.175527e+000	2.427755e+000	6.239533e-002	2.734202e-002	1.889146e-001	-5.137036e-001
3060000000	-2.163224e-001	-4.099565e-001	2.187032e+000	2.395239e+000	6.262876e-002	2.688385e-002	1.852785e-001	-5.182094e-001
3070000000	-2.165636e-001	-4.093822e-001	2.197397e+000	2.363652e+000	6.275854e-002	2.647768e-002	1.815340e-001	-5.221903e-001
3080000000	-2.170073e-001	-4.087461e-001	2.209081e+000	2.332168e+000	6.295019e-002	2.608955e-002	1.778414e-001	-5.260705e-001
3090000000	-2.174042e-001	-4.080807e-001	2.218336e+000	2.299383e+000	6.312036e-002	2.557002e-002	1.738157e-001	-5.297420e-001
3100000000	-2.181386e-001	-4.075704e-001	2.226694e+000	2.268863e+000	6.331201e-002	2.510577e-002	1.697097e-001	-5.330157e-001
3110000000	-2.191086e-001	-4.071479e-001	2.235267e+000	2.237283e+000	6.353364e-002	2.466451e-002	1.653942e-001	-5.364099e-001
3120000000	-2.201991e-001	-4.068542e-001	2.243591e+000	2.207122e+000	6.360770e-002	2.422714e-002	1.610024e-001	-5.397321e-001
3130000000	-2.213543e-001	-4.068545e-001	2.251602e+000	2.177079e+000	6.378493e-002	2.381562e-002	1.561961e-001	-5.430980e-001
3140000000	-2.223637e-001	-4.070813e-001	2.258913e+000	2.147277e+000	6.386638e-002	2.338379e-002	1.513163e-001	-5.464114e-001
3150000000	-2.234976e-001	-4.074579e-001	2.266086e+000	2.117850e+000	6.404273e-002	2.298857e-002	1.460623e-001	-5.501284e-001
3160000000	-2.244058e-001	-4.077691e-001	2.274058e+000	2.087866e+000	6.426362e-002	2.252662e-002	1.410369e-001	-5.538416e-001
3170000000	-2.255367e-001	-4.082990e-001	2.282333e+000	2.058886e+000	6.436809e-002	2.205111e-002	1.358402e-001	-5.577135e-001
3180000000	-2.263889e-001	-4.087500e-001	2.288935e+000	2.028727e+000	6.454196e-002	2.170148e-002	1.306659e-001	-5.617375e-001
3190000000	-2.269318e-001	-4.089982e-001	2.296490e+000	1.998015e+000	6.461450e-002	2.118727e-002	1.254016e-001	-5.654720e-001
3200000000	-2.272841e-001	-4.092913e-001	2.301573e+000	1.968194e+000	6.469756e-002	2.062287e-002	1.205717e-001	-5.695127e-001
3210000000	-2.275494e-001	-4.093021e-001	2.307067e+000	1.938086e+000	6.479497e-002	2.024425e-002	1.159714e-001	-5.732387e-001
3220000000	-2.279206e-001	-4.093605e-001	2.311328e+000	1.908874e+000	6.496087e-002	1.984948e-002	1.113151e-001	-5.766905e-001
3230000000	-2.281120e-001	-4.090548e-001	2.316506e+000	1.879693e+000	6.495673e-002	1.934495e-002	1.069384e-001	-5.798491e-001
3240000000	-2.282357e-001	-4.085305e-001	2.320978e+000	1.850121e+000	6.508457e-002	1.897643e-002	1.026552e-001	-5.830482e-001
3250000000	-2.286558e-001	-4.079511e-001	2.324882e+000	1.822992e+000	6.509632e-002	1.855549e-002	9.830233e-002	-5.857152e-001
3260000000	-2.293448e-001	-4.075086e-001	2.329622e+000	1.795864e+000	6.517683e-002	1.814872e-002	9.403469e-002	-5.884586e-001
3270000000	-2.301811e-001	-4.068585e-001	2.332837e+000	1.767663e+000	6.531618e-002	1.775067e-002	8.952335e-002	-5.907311e-001
3280000000	-2.314749e-001	-4.064323e-001	2.336440e+000	1.741135e+000	6.543047e-002	1.734542e-002	8.468380e-002	-5.931877e-001
3290000000	-2.328220e-001	-4.059341e-001	2.339875e+000	1.713356e+000	6.554557e-002	1.694097e-002	7.972893e-002	-5.953521e-001
3300000000	-2.342528e-001	-4.056725e-001	2.342208e+000	1.687687e+000	6.554975e-002	1.645427e-002	7.458399e-002	-5.974597e-001
3310000000	-2.357498e-001	-4.052759e-001	2.345784e+000	1.659010e+000	6.565709e-002	1.605705e-002	6.943516e-002	-5.998181e-001
3320000000	-2.372366e-001	-4.051887e-001	2.347271e+000	1.631371e+000	6.571983e-002	1.561565e-002	6.384065e-002	-6.017389e-001
3330000000	-2.387783e-001	-4.051114e-001	2.349446e+000	1.604155e+000	6.576831e-002	1.516830e-002	5.834394e-002	-6.040471e-001
3340000000	-2.398578e-001	-4.053472e-001	2.351310e+000	1.576719e+000	6.580562e-002	1.478819e-002	5.268291e-002	-6.064852e-001
3350000000	-2.410189e-001	-4.055386e-001	2.351793e+000	1.549444e+000	6.586260e-002	1.435429e-002	4.723633e-002	-6.087564e-001
3360000000	-2.421253e-001	-4.057656e-001	2.351779e+000	1.522141e+000	6.586443e-002	1.397678e-002	4.188132e-002	-6.112181e-001
3370000000	-2.426041e-001	-4.059167e-001	2.351884e+000	1.496418e+000	6.594265e-002	1.359770e-002	3.646543e-002	-6.135131e-001
3380000000	-2.433887e-001	-4.060153e-001	2.354843e+000	1.472746e+000	6.598860e-002	1.326941e-002	3.114893e-002	-6.156733e-001
3390000000	-2.440040e-001	-4.060857e-001	2.355515e+000	1.446751e+000	6.615338e-002	1.287009e-002	2.610428e-002	-6.179418e-001
3400000000	-2.445658e-001	-4.057987e-001	2.356110e+000	1.420550e+000	6.627896e-002	1.240245e-002	2.125446e-002	-6.200128e-001
3410000000	-2.452284e-001	-4.054211e-001	2.356156e+000	1.395834e+000	6.631949e-002	1.198992e-002	1.623731e-002	-6.219832e-001
3420000000	-2.459774e-001	-4.050578e-001	2.356173e+000	1.370934e+000	6.633160e-002	1.159269e-002	1.127149e-002	-6.236657e-001
3430000000	-2.470426e-001	-4.045973e-001	2.355412e+000	1.345685e+000	6.638385e-002	1.115945e-002	6.325726e-003	-6.251490e-001
3440000000	-2.481544e-001	-4.038490e-001	2.355690e+000	1.320439e+000	6.637797e-002	1.071972e-002	1.108784e-003	-6.267194e-001
3450000000	-2.494470e-001	-4.029163e-001	2.355332e+000	1.298966e+000	6.648959e-002	1.025171e-002	-4.137261e-003	-6.281081e-001
3460000000	-2.505157e-001	-4.021201e-001	2.355634e+000	1.276834e+000	6.646290e-002	9.917992e-003	-9.539719e-003	-6.292424e-001
3470000000	-2.518932e-001	-4.016114e-001	2.355409e+000	1.251998e+000	6.647650e-002	9.390060e-003	-1.513744e-002	-6.303067e-001
3480000000	-2.533023e-001	-4.012053e-001	2.354725e+000	1.227497e+000	6.645010e-002	8.973743e-003	-2.094669e-002	-6.315387e-001
3490000000	-2.548143e-001	-4.009242e-001	2.353208e+000	1.202693e+000	6.644762e-002	8.578698e-003	-2.640622e-002	-6.323904e-001
3500000000	-2.560999e-001	-4.007468e-001	2.350855e+000	1.178906e+000	6.642513e-002	8.202996e-003	-3.206701e-002	-6.333623e-001
3510000000	-2.575127e-001	-4.007340e-001	2.348318e+000	1.155430e+000	6.641200e-002	7.745807e-003	-3.761666e-002	-6.345893e-001
3520000000	-2.588040e-001	-4.006840e-001	2.346155e+000	1.132333e+000	6.640148e-002	7.360057e-003	-4.328013e-002	-6.358376e-001
3530000000	-2.598545e-001	-4.006607e-001	2.344353e+000	1.108251e+000	6.637733e-002	6.956722e-003	-4.870021e-002	-6.370596e-001
3540000000	-2.608584e-001	-4.006580e-001	2.341308e+000	1.086364e+000	6.639253e-002	6.599257e-003	-5.404831e-002	-6.382303e-001
3550000000	-2.617607e-001	-4.005765e-001	2.337957e+000	1.063017e+000	6.640839e-002	6.264346e-003	-5.911016e-002	-6.396257e-001
3560000000	-2.627729e-001	-4.004413e-001	2.335543e+000	1.040068e+000	6.639954e-002	5.912546e-003	-6.442497e-002	-6.405157e-001
3570000000	-2.638540e-001	-4.000234e-001	2.332429e+000	1.017995e+000	6.647241e-002	5.441397e-003	-6.956818e-002	-6.416132e-001
3580000000	-2.649511e-001	-3.994711e-001	2.329817e+000	9.944836e-001	6.644214e-002	5.066810e-003	-7.476941e-002	-6.422748e-001
3590000000	-2.659520e-001	-3.988161e-001	2.326723e+000	9.720501e-001	6.645601e-002	4.709940e-003	-8.012884e-002	-6.430263e-001
3600000000	-2.671387e-001	-3.980218e-001	2.324076e+000	9.502550e-001	6.641340e-002	4.268567e-003	-8.531668e-002	-6.434812e-001
3610000000	-2.683591e-001	-3.973129e-001	2.320133e+000	9.283881e-001	6.643207e-002	3.894884e-003	-9.090825e-002	-6.436812e-001
3620000000	-2.697755e-001	-3.965893e-001	2.315631e+000	9.057461e-001	6.636964e-002	3.451225e-003	-9.649022e-002	-6.437713e-001
3630000000	-2.711251e-001	-3.960140e-001	2.311052e+000	8.838830e-001	6.634024e-002	3.069889e-003	-1.020831e-001	-6.437624e-001
3640000000	-2.725289e-001	-3.954026e-001	2.306571e+000	8.623022e-001	6.624014e-002	2.667683e-003	-1.077922e-001	-6.435873e-001
3650000000	-2.739114e-001	-3.950476e-001	2.302448e+000	8.411035e-001	6.621595e-002	2.421031e-003	-1.133896e-001	-6.435871e-001
3660000000	-2.753750e-001	-3.949241e-001	2.297213e+000	8.198200e-001	6.622288e-002	2.061409e-003	-1.190051e-001	-6.436934e-001
3670000000	-2.769838e-001	-3.948507e-001	2.293086e+000	7.991002e-001	6.609810e-002	1.688383e-003	-1.247601e-001	-6.437662e-001
3680000000	-2.784203e-001	-3.947714e-001	2.287488e+000	7.789462e-001	6.616958e-002	1.290403e-003	-1.305934e-001	-6.439865e-001
3690000000	-2.796642e-001	-3.945825e-001	2.282658e+000	7.580465e-001	6.614028e-002	9.319575e-004	-1.360807e-001	-6.443518e-001
3700000000	-2.810923e-001	-3.944710e-001	2.278904e+000	7.384601e-001	6.616810e-002	4.383404e-004	-1.416065e-001	-6.447466e-001
3710000000	-2.820931e-001	-3.941215e-001	2.273466e+000	7.186140e-001	6.608031e-002	6.225798e-005	-1.470732e-001	-6.450154e-001
3720000000	-2.833078e-001	-3.937317e-001	2.269127e+000	6.984540e-001	6.606483e-002	-3.712874e-004	-1.523527e-001	-6.452404e-001
3730000000	-2.843636e-001	-3.932183e-001	2.263702e+000	6.778260e-001	6.603008e-002	-8.032737e-004	-1.576660e-001	-6.454169e-001
3740000000	-2.856089e-001	-3.924579e-001	2.259155e+000	6.570374e-001	6.589831e-002	-1.199277e-003	-1.627756e-001	-6.450585e-001
3750000000	-2.867067e-001	-3.917428e-001	2.251971e+000	6.360990e-001	6.579143e-002	-1.613648e-003	-1.680502e-001	-6.447463e-001
3760000000	-2.880175e-001	-3.909439e-001	2.246586e+000	6.158368e-001	6.566361e-002	-2.011656e-003	-1.732552e-001	-6.440817e-001
3770000000	-2.891513e-001	-3.902491e-001	2.239350e+000	5.957258e-001	6.560671e-002	-2.364776e-003	-1.785890e-001	-6.432580e-001
3780000000	-2.905191e-001	-3.895392e-001	2.232480e+000	5.767205e-001	6.547130e-002	-2.694352e-003	-1.839751e-001	-6.423718e-001
3790000000	-2.920130e-001	-3.890033e-001	2.225177e+000	5.576748e-001	6.543322e-002	-3.031218e-003	-1.894647e-001	-6.410642e-001
3800000000	-2.934981e-001	-3.885050e-001	2.219093e+000	5.396402e-001	6.528566e-002	-3.449376e-003	-1.949550e-001	-6.400845e-001
3810000000	-2.952700e-001	-3.883886e-001	2.211069e+000	5.223389e-001	6.521621e-002	-3.695103e-003	-2.007032e-001	-6.389285e-001
3820000000	-2.969564e-001	-3.881861e-001	2.204647e+000	5.046622e-001	6.507912e-002	-3.953648e-003	-2.063201e-001	-6.380485e-001
3830000000	-2.986551e-001	-3.880629e-001	2.198016e+000	4.875093e-001	6.498836e-002	-4.366042e-003	-2.120933e-001	-6.373021e-001
3840000000	-3.000831e-001	-3.879553e-001	2.190062e+000	4.708453e-001	6.495731e-002	-4.687819e-003	-2.179492e-001	-6.366609e-001
3850000000	-3.015946e-001	-3.879703e-001	2.183851e+000	4.541215e-001	6.494054e-002	-4.856807e-003	-2.235648e-001	-6.359901e-001
3860000000	-3.029910e-001	-3.878766e-001	2.177657e+000	4.362354e-001	6.488033e-002	-5.271530e-003	-2.290891e-001	-6.357382e-001
3870000000	-3.041145e-001	-3.877380e-001	2.171716e+000	4.181340e-001	6.486672e-002	-5.728628e-003	-2.346757e-001	-6.355259e-001
3880000000	-3.052283e-001	-3.873502e-001	2.165312e+000	3.996206e-001	6.486397e-002	-6.040389e-003	-2.399564e-001	-6.350120e-001
3890000000	-3.063269e-001	-3.867212e-001	2.159095e+000	3.827564e-001	6.474951e-002	-6.460682e-003	-2.452779e-001	-6.346009e-001
3900000000	-3.071734e-001	-3.857906e-001	2.152095e+000	3.651878e-001	6.464676e-002	-6.898810e-003	-2.504210e-001	-6.338231e-001
3910000000	-3.081580e-001	-3.850472e-001	2.144689e+000	3.475947e-001	6.452633e-002	-7.303720e-003	-2.554404e-001	-6.329408e-001
3920000000	-3.089940e-001	-3.840045e-001	2.135954e+000	3.298145e-001	6.434185e-002	-7.680757e-003	-2.603579e-001	-6.315069e-001
3930000000	-3.101865e-001	-3.829166e-001	2.128865e+000	3.128405e-001	6.408784e-002	-7.942912e-003	-2.653959e-001	-6.298956e-001
3940000000	-3.116541e-001	-3.818498e-001	2.120733e+000	2.966444e-001	6.392323e-002	-8.346120e-003	-2.702620e-001	-6.279477e-001
3950000000	-3.131854e-001	-3.810485e-001	2.111266e+000	2.808926e-001	6.383827e-002	-8.590958e-003	-2.750462e-001	-6.259163e-001
3960000000	-3.151251e-001	-3.802334e-001	2.103583e+000	2.655161e-001	6.371768e-002	-9.000393e-003	-2.801109e-001	-6.237626e-001
3970000000	-3.170433e-001	-3.795590e-001	2.095149e+000	2.500055e-001	6.358138e-002	-9.244386e-003	-2.854598e-001	-6.220766e-001
3980000000	-3.191763e-001	-3.789267e-001	2.087625e+000	2.349549e-001	6.352341e-002	-9.606368e-003	-2.911371e-001	-6.199105e-001
3990000000	-3.211669e-001	-3.786764e-001	2.079722e+000	2.197344e-001	6.344730e-002	-9.921128e-003	-2.970707e-001	-6.179197e-001
4000000000	-3.230392e-001	-3.785190e-001	2.072233e+000	2.046335e-001	6.331924e-002	-1.021696e-002	-3.029519e-001	-6.161321e-001
4010000000	-3.249080e-001	-3.785427e-001	2.064992e+000	1.893887e-001	6.321695e-002	-1.067506e-002	-3.090564e-001	-6.146353e-001
4020000000	-3.265207e-001	-3.784656e-001	2.057240e+000	1.732573e-001	6.305965e-002	-1.104775e-002	-3.150287e-001	-6.130701e-001
4030000000	-3.280071e-001	-3.783943e-001	2.048442e+000	1.574659e-001	6.284627e-002	-1.133631e-002	-3.207839e-001	-6.117658e-001
4040000000	-3.293015e-001	-3.784102e-001	2.041346e+000	1.428033e-001	6.268597e-002	-1.170611e-002	-3.264140e-001	-6.104240e-001
4050000000	-3.302103e-001	-3.781538e-001	2.031189e+000	1.269209e-001	6.251387e-002	-1.206573e-002	-3.319645e-001	-6.093031e-001
4060000000	-3.311704e-001	-3.778089e-001	2.023202e+000	1.126124e-001	6.228794e-002	-1.214490e-002	-3.371109e-001	-6.080538e-001
4070000000	-3.320395e-001	-3.771844e-001	2.014296e+000	9.699616e-002	6.212437e-002	-1.251476e-002	-3.422184e-001	-6.066615e-001
4080000000	-3.329881e-001	-3.764291e-001	2.006516e+000	8.214316e-002	6.196658e-002	-1.278341e-002	-3.470253e-001	-6.050496e-001
4090000000	-3.341496e-001	-3.753453e-001	1.997419e+000	6.729913e-002	6.179390e-002	-1.299959e-002	-3.519186e-001	-6.032606e-001
4100000000	-3.354780e-001	-3.742091e-001	1.988628e+000	5.218672e-002	6.173808e-002	-1.319294e-002	-3.562377e-001	-6.011640e-001
4110000000	-3.369349e-001	-3.727722e-001	1.981197e+000	3.602699e-002	6.169860e-002	-1.344766e-002	-3.606643e-001	-5.986411e-001
4120000000	-3.388968e-001	-3.710102e-001	1.974253e+000	1.663002e-002	6.157167e-002	-1.373008e-002	-3.653429e-001	-5.960163e-001
4130000000	-3.410617e-001	-3.695929e-001	1.966914e+000	1.018211e-003	6.164186e-002	-1.406535e-002	-3.697936e-001	-5.933813e-001
4140000000	-3.431070e-001	-3.683901e-001	1.957420e+000	-1.305135e-002	6.154392e-002	-1.450710e-002	-3.748212e-001	-5.903870e-001
4150000000	-3.452929e-001	-3.671317e-001	1.946878e+000	-2.642049e-002	6.157966e-002	-1.494522e-002	-3.798503e-001	-5.875753e-001
4160000000	-3.475329e-001	-3.661678e-001	1.938513e+000	-4.095829e-002	6.131008e-002	-1.550222e-002	-3.850684e-001	-5.847857e-001
4170000000	-3.497881e-001	-3.654446e-001	1.929575e+000	-5.680695e-002	6.112512e-002	-1.585299e-002	-3.906054e-001	-5.817675e-001
4180000000	-3.513760e-001	-3.642112e-001	1.910259e+000	-7.973240e-002	6.075468e-002	-1.622851e-002	-3.962563e-001	-5.788885e-001
4190000000	-3.530551e-001	-3.633249e-001	1.893869e+000	-1.018838e-001	6.053195e-002	-1.661762e-002	-4.021098e-001	-5.762192e-001
4200000000	-3.553743e-001	-3.639110e-001	1.893282e+000	-1.046006e-001	6.034040e-002	-1.690101e-002	-4.077228e-001	-5.737532e-001
4210000000	-3.566576e-001	-3.634402e-001	1.878488e+000	-1.234679e-001	5.999177e-002	-1.718368e-002	-4.130943e-001	-5.711913e-001
4220000000	-3.567874e-001	-3.603378e-001	1.844261e+000	-1.828032e-001	5.970508e-002	-1.751664e-002	-4.184714e-001	-5.684107e-001
4230000000	-3.585435e-001	-3.589954e-001	1.840017e+000	-2.144338e-001	5.950684e-002	-1.770396e-002	-4.235519e-001	-5.662343e-001
4240000000	-3.601257e-001	-3.594809e-001	1.839179e+000	-2.150891e-001	5.922012e-002	-1.793670e-002	-4.282710e-001	-5.640301e-001
4250000000	-3.611621e-001	-3.621035e-001	1.833601e+000	-1.767331e-001	5.906292e-002	-1.816993e-002	-4.326883e-001	-5.621008e-001
4260000000	-3.635401e-001	-3.625537e-001	1.844421e+000	-1.709630e-001	5.877091e-002	-1.840475e-002	-4.373826e-001	-5.598630e-001
4270000000	-3.645617e-001	-3.616062e-001	1.833958e+000	-1.828727e-001	5.857267e-002	-1.875561e-002	-4.417979e-001	-5.570424e-001
4280000000	-3.660639e-001	-3.605929e-001	1.826248e+000	-1.921114e-001	5.839141e-002	-1.890768e-002	-4.461112e-001	-5.543019e-001
4290000000	-3.674059e-001	-3.592786e-001	1.815462e+000	-2.037267e-001	5.831093e-002	-1.917527e-002	-4.501859e-001	-5.512404e-001
4300000000	-3.689008e-001	-3.580270e-001	1.805625e+000	-2.159746e-001	5.812248e-002	-1.938515e-002	-4.545683e-001	-5.480319e-001
4310000000	-3.706482e-001	-3.566669e-001	1.795615e+000	-2.274309e-001	5.792011e-002	-1.967230e-002	-4.588045e-001	-5.447416e-001
4320000000	-3.714277e-001	-3.551974e-001	1.769909e+000	-2.405129e-001	5.774819e-002	-2.001364e-002	-4.634263e-001	-5.414099e-001
4330000000	-3.726169e-001	-3.538222e-001	1.749845e+000	-2.527312e-001	5.757482e-002	-2.029806e-002	-4.680055e-001	-5.376744e-001
4340000000	-3.751847e-001	-3.528220e-001	1.745213e+000	-2.638901e-001	5.736324e-002	-2.059405e-002	-4.728959e-001	-5.341346e-001
4350000000	-3.783082e-001	-3.518748e-001	1.747628e+000	-2.739010e-001	5.709930e-002	-2.082895e-002	-4.777087e-001	-5.306544e-001
4360000000	-3.805454e-001	-3.512859e-001	1.739345e+000	-2.811484e-001	5.684878e-002	-2.092906e-002	-4.825858e-001	-5.270705e-001
4370000000	-3.826103e-001	-3.507730e-001	1.730331e+000	-2.902606e-001	5.673754e-002	-2.121014e-002	-4.874918e-001	-5.237855e-001
4380000000	-3.843285e-001	-3.500859e-001	1.719067e+000	-3.019988e-001	5.654351e-002	-2.144821e-002	-4.922630e-001	-5.204793e-001
4390000000	-3.856029e-001	-3.498890e-001	1.700630e+000	-3.079054e-001	5.635009e-002	-2.176279e-002	-4.970000e-001	-5.172862e-001
4400000000	-3.869193e-001	-3.494700e-001	1.686685e+000	-3.168730e-001	5.616549e-002	-2.206155e-002	-5.014258e-001	-5.142961e-001
4410000000	-3.881781e-001	-3.488921e-001	1.675666e+000	-3.268657e-001	5.595225e-002	-2.234697e-002	-5.058943e-001	-5.114016e-001
4420000000	-3.900665e-001	-3.480039e-001	1.672741e+000	-3.377396e-001	5.571682e-002	-2.258887e-002	-5.098940e-001	-5.084251e-001
4430000000	-3.917416e-001	-3.469222e-001	1.667319e+000	-3.505849e-001	5.545010e-002	-2.287532e-002	-5.142283e-001	-5.054762e-001
4440000000	-3.930853e-001	-3.458394e-001	1.657082e+000	-3.612574e-001	5.518820e-002	-2.317480e-002	-5.179209e-001	-5.023682e-001
4450000000	-3.944569e-001	-3.447168e-001	1.644631e+000	-3.726285e-001	5.489272e-002	-2.334964e-002	-5.218704e-001	-4.992886e-001
4460000000	-3.958365e-001	-3.436165e-001	1.635555e+000	-3.837820e-001	5.464040e-002	-2.369963e-002	-5.256581e-001	-4.958337e-001
4470000000	-3.970362e-001	-3.423692e-001	1.616513e+000	-3.924788e-001	5.434007e-002	-2.385492e-002	-5.296665e-001	-4.922164e-001
4480000000	-3.968932e-001	-3.390905e-001	1.577765e+000	-4.553584e-001	5.409296e-002	-2.403896e-002	-5.335601e-001	-4.886161e-001
4490000000	-4.011403e-001	-3.400860e-001	1.607381e+000	-4.055531e-001	5.378924e-002	-2.425790e-002	-5.373066e-001	-4.846114e-001
4500000000	-4.029704e-001	-3.389785e-001	1.596648e+000	-4.133866e-001	5.352522e-002	-2.446572e-002	-5.413365e-001	-4.807961e-001
4510000000	-4.048392e-001	-3.379846e-001	1.585505e+000	-4.219262e-001	5.322307e-002	-2.465532e-002	-5.451716e-001	-4.768714e-001
4520000000	-4.067768e-001	-3.370112e-001	1.575210e+000	-4.300491e-001	5.300756e-002	-2.480499e-002	-5.493052e-001	-4.730397e-001
4530000000	-4.078528e-001	-3.351937e-001	1.552293e+000	-4.638050e-001	5.275146e-002	-2.495981e-002	-5.535820e-001	-4.692198e-001
4540000000	-4.099504e-001	-3.351897e-001	1.538496e+000	-4.512179e-001	5.254381e-002	-2.510357e-002	-5.577932e-001	-4.655498e-001
4550000000	-4.121108e-001	-3.349744e-001	1.535882e+000	-4.437597e-001	5.228991e-002	-2.524163e-002	-5.620885e-001	-4.620848e-001
4560000000	-4.139213e-001	-3.338014e-001	1.530184e+000	-4.573160e-001	5.212921e-002	-2.540220e-002	-5.661044e-001	-4.583699e-001
4570000000	-4.155047e-001	-3.330959e-001	1.516450e+000	-4.624450e-001	5.184959e-002	-2.558704e-002	-5.700614e-001	-4.549569e-001
4580000000	-4.167082e-001	-3.326285e-001	1.495711e+000	-4.678956e-001	5.158004e-002	-2.583322e-002	-5.740968e-001	-4.513475e-001
4590000000	-4.181051e-001	-3.304134e-001	1.485893e+000	-5.039072e-001	5.143449e-002	-2.596852e-002	-5.777859e-001	-4.477858e-001
4600000000	-4.189395e-001	-3.278128e-001	1.475113e+000	-5.546111e-001	5.119311e-002	-2.623871e-002	-5.815207e-001	-4.444036e-001
4610000000	-4.208956e-001	-3.271942e-001	1.470921e+000	-5.469972e-001	5.094585e-002	-2.646275e-002	-5.850820e-001	-4.408855e-001
4620000000	-4.232548e-001	-3.275211e-001	1.466709e+000	-5.087429e-001	5.065925e-002	-2.657946e-002	-5.885462e-001	-4.372456e-001
4630000000	-4.240364e-001	-3.251365e-001	1.448625e+000	-5.500095e-001	5.040768e-002	-2.680518e-002	-5.917273e-001	-4.335309e-001
4640000000	-4.253100e-001	-3.230721e-001	1.434143e+000	-5.779036e-001	5.009048e-002	-2.688892e-002	-5.952262e-001	-4.295289e-001
4650000000	-4.271601e-001	-3.223387e-001	1.423036e+000	-5.740442e-001	4.995216e-002	-2.697941e-002	-5.985277e-001	-4.257208e-001
4660000000	-4.289865e-001	-3.213321e-001	1.413579e+000	-5.744356e-001	4.978425e-002	-2.716879e-002	-6.015624e-001	-4.217268e-001
4670000000	-4.305318e-001	-3.203884e-001	1.400925e+000	-5.779659e-001	4.932964e-002	-2.730144e-002	-6.047535e-001	-4.177537e-001
4680000000	-4.332768e-001	-3.202309e-001	1.401819e+000	-5.493259e-001	4.914247e-002	-2.755322e-002	-6.081671e-001	-4.138637e-001
4690000000	-4.351935e-001	-3.192288e-001	1.392168e+000	-5.548215e-001	4.886653e-002	-2.770791e-002	-6.112665e-001	-4.098684e-001
4700000000	-4.370271e-001	-3.183322e-001	1.381716e+000	-5.607220e-001	4.867394e-002	-2.782104e-002	-6.148090e-001	-4.061356e-001
4710000000	-4.389871e-001	-3.173049e-001	1.371127e+000	-5.666238e-001	4.840792e-002	-2.803816e-002	-6.182349e-001	-4.024660e-001
4720000000	-4.408516e-001	-3.163050e-001	1.360754e+000	-5.727124e-001	4.821586e-002	-2.817254e-002	-6.219892e-001	-3.984142e-001
4730000000	-4.425015e-001	-3.153358e-001	1.349444e+000	-5.782999e-001	4.787769e-002	-2.835694e-002	-6.253144e-001	-3.947458e-001
4740000000	-4.442467e-001	-3.142154e-001	1.338962e+000	-5.841236e-001	4.760202e-002	-2.859382e-002	-6.287590e-001	-3.908077e-001
4750000000	-4.458828e-001	-3.130977e-001	1.328103e+000	-5.897539e-001	4.723394e-002	-2.866887e-002	-6.319701e-001	-3.868576e-001
4760000000	-4.474607e-001	-3.120511e-001	1.317529e+000	-5.946615e-001	4.703337e-002	-2.877434e-002	-6.350651e-001	-3.829839e-001
4770000000	-4.489532e-001	-3.109259e-001	1.306051e+000	-5.990656e-001	4.678317e-002	-2.886828e-002	-6.379315e-001	-3.793238e-001
4780000000	-4.506563e-001	-3.097858e-001	1.295835e+000	-6.039425e-001	4.643481e-002	-2.901749e-002	-6.409088e-001	-3.750715e-001
4790000000	-4.521638e-001	-3.085986e-001	1.285037e+000	-6.081983e-001	4.616442e-002	-2.897140e-002	-6.437010e-001	-3.715880e-001
4800000000	-4.538026e-001	-3.074216e-001	1.274457e+000	-6.123946e-001	4.596158e-002	-2.917406e-002	-6.465437e-001	-3.678251e-001
4810000000	-4.553756e-001	-3.063175e-001	1.263980e+000	-6.164996e-001	4.567215e-002	-2.917979e-002	-6.493300e-001	-3.641173e-001
4820000000	-4.571349e-001	-3.052037e-001	1.254235e+000	-6.206228e-001	4.543853e-002	-2.931550e-002	-6.521683e-001	-3.602089e-001
4830000000	-4.587418e-001	-3.038544e-001	1.242863e+000	-6.256921e-001	4.516258e-002	-2.943513e-002	-6.548543e-001	-3.562253e-001
4840000000	-4.604776e-001	-3.027136e-001	1.232498e+000	-6.295549e-001	4.499828e-002	-2.951269e-002	-6.576369e-001	-3.525461e-001
4850000000	-4.621530e-001	-3.014543e-001	1.222652e+000	-6.338968e-001	4.474907e-002	-2.957419e-002	-6.605550e-001	-3.486889e-001
4860000000	-4.639777e-001	-3.002142e-001	1.212364e+000	-6.377202e-001	4.448922e-002	-2.970297e-002	-6.633148e-001	-3.447943e-001
4870000000	-4.660139e-001	-2.989770e-001	1.202598e+000	-6.411189e-001	4.423020e-002	-2.976149e-002	-6.662442e-001	-3.409276e-001
4880000000	-4.677740e-001	-2.976233e-001	1.192883e+000	-6.454281e-001	4.395226e-002	-2.992239e-002	-6.691520e-001	-3.372484e-001
4890000000	-4.695825e-001	-2.963359e-001	1.183407e+000	-6.487996e-001	4.367781e-002	-3.003585e-002	-6.719278e-001	-3.332376e-001
4900000000	-4.713889e-001	-2.950985e-001	1.172785e+000	-6.523486e-001	4.350392e-002	-3.008954e-002	-6.746515e-001	-3.295359e-001
4910000000	-4.730245e-001	-2.938728e-001	1.162406e+000	-6.556691e-001	4.319077e-002	-3.016607e-002	-6.771327e-001	-3.256002e-001
4920000000	-4.747052e-001	-2.923896e-001	1.151220e+000	-6.595855e-001	4.295582e-002	-3.019900e-002	-6.797096e-001	-3.217136e-001
4930000000	-4.762226e-001	-2.912473e-001	1.140751e+000	-6.625444e-001	4.270635e-002	-3.031083e-002	-6.819249e-001	-3.177455e-001
4940000000	-4.777757e-001	-2.898880e-001	1.130379e+000	-6.656760e-001	4.247711e-002	-3.036607e-002	-6.842887e-001	-3.139405e-001
4950000000	-4.793584e-001	-2.888129e-001	1.120435e+000	-6.682259e-001	4.219458e-002	-3.045647e-002	-6.863404e-001	-3.101293e-001
4960000000	-4.810063e-001	-2.876970e-001	1.110858e+000	-6.701693e-001	4.201198e-002	-3.042048e-002	-6.887013e-001	-3.063643e-001
4970000000	-4.825650e-001	-2.865337e-001	1.101289e+000	-6.730330e-001	4.173963e-002	-3.054038e-002	-6.909438e-001	-3.027255e-001
4980000000	-4.840409e-001	-2.853668e-001	1.091452e+000	-6.750429e-001	4.152460e-002	-3.067682e-002	-6.931621e-001	-2.991978e-001
4990000000	-4.856424e-001	-2.842242e-001	1.081877e+000	-6.773670e-001	4.130367e-002	-3.067508e-002	-6.954322e-001	-2.954388e-001
5000000000	-4.872708e-001	-2.831027e-001	1.072569e+000	-6.796872e-001	4.107775e-002	-3.072180e-002	-6.978026e-001	-2.918628e-001
5010000000	-4.888734e-001	-2.819350e-001	1.062718e+000	-6.819078e-001	4.083892e-002	-3.082349e-002	-7.001940e-001	-2.882871e-001
5020000000	-4.905628e-001	-2.807986e-001	1.053014e+000	-6.844216e-001	4.059066e-002	-3.092830e-002	-7.028367e-001	-2.846327e-001
5030000000	-4.920359e-001	-2.793598e-001	1.043001e+000	-6.867983e-001	4.038075e-002	-3.101850e-002	-7.050520e-001	-2.810969e-001
5040000000	-4.935839e-001	-2.781251e-001	1.033256e+000	-6.887685e-001	4.003706e-002	-3.105310e-002	-7.072704e-001	-2.772927e-001
5050000000	-4.952179e-001	-2.766356e-001	1.023625e+000	-6.907961e-001	3.979857e-002	-3.113129e-002	-7.094143e-001	-2.737613e-001
5060000000	-4.967458e-001	-2.752677e-001	1.014249e+000	-6.929060e-001	3.957357e-002	-3.113429e-002	-7.114493e-001	-2.704161e-001
5070000000	-4.982169e-001	-2.735610e-001	1.004578e+000	-6.948614e-001	3.924386e-002	-3.118222e-002	-7.132663e-001	-2.669249e-001
5080000000	-4.997486e-001	-2.718819e-001	9.955272e-001	-6.969736e-001	3.901023e-002	-3.123858e-002	-7.148644e-001	-2.633621e-001
5090000000	-5.013430e-001	-2.703876e-001	9.861978e-001	-6.980388e-001	3.873473e-002	-3.119021e-002	-7.165815e-001	-2.600462e-001
5100000000	-5.029935e-001	-2.686382e-001	9.769676e-001	-6.999366e-001	3.856969e-002	-3.125598e-002	-7.181905e-001	-2.566420e-001
5110000000	-5.046228e-001	-2.671802e-001	9.683852e-001	-7.011616e-001	3.835583e-002	-3.132860e-002	-7.199387e-001	-2.529640e-001
5120000000	-5.063849e-001	-2.659059e-001	9.596255e-001	-7.015327e-001	3.807618e-002	-3.125860e-002	-7.219278e-001	-2.494129e-001
5130000000	-5.081785e-001	-2.645896e-001	9.507938e-001	-7.025429e-001	3.789199e-002	-3.130078e-002	-7.236718e-001	-2.457416e-001
5140000000	-5.099159e-001	-2.634291e-001	9.418504e-001	-7.032368e-001	3.764931e-002	-3.130058e-002	-7.254436e-001	-2.420059e-001
5150000000	-5.118610e-001	-2.622366e-001	9.337322e-001	-7.046355e-001	3.743871e-002	-3.128874e-002	-7.274650e-001	-2.382949e-001
5160000000	-5.137446e-001	-2.611526e-001	9.248635e-001	-7.055738e-001	3.719745e-002	-3.137768e-002	-7.296735e-001	-2.348427e-001
5170000000	-5.154081e-001	-2.599036e-001	9.162378e-001	-7.064939e-001	3.699520e-002	-3.140208e-002	-7.316967e-001	-2.307999e-001
5180000000	-5.169815e-001	-2.588285e-001	9.070182e-001	-7.078323e-001	3.679007e-002	-3.136284e-002	-7.337592e-001	-2.273011e-001
5190000000	-5.183703e-001	-2.575489e-001	8.979101e-001	-7.091865e-001	3.656800e-002	-3.142819e-002	-7.360081e-001	-2.237564e-001
5200000000	-5.198041e-001	-2.563860e-001	8.887952e-001	-7.095970e-001	3.642028e-002	-3.137965e-002	-7.382045e-001	-2.204287e-001
5210000000	-5.211173e-001	-2.551933e-001	8.803331e-001	-7.104294e-001	3.613734e-002	-3.141235e-002	-7.400340e-001	-2.172308e-001
5220000000	-5.222818e-001	-2.537875e-001	8.713068e-001	-7.112518e-001	3.599842e-002	-3.145842e-002	-7.418583e-001	-2.142132e-001
5230000000	-5.235152e-001	-2.522453e-001	8.631209e-001	-7.115344e-001	3.568102e-002	-3.148473e-002	-7.435658e-001	-2.111039e-001
5240000000	-5.246903e-001	-2.508022e-001	8.546320e-001	-7.117424e-001	3.544444e-002	-3.149182e-002	-7.450420e-001	-2.083431e-001
5250000000	-5.258981e-001	-2.492720e-001	8.458832e-001	-7.117523e-001	3.533231e-002	-3.154868e-002	-7.469136e-001	-2.055724e-001
5260000000	-5.273527e-001	-2.476883e-001	8.382344e-001	-7.118643e-001	3.509587e-002	-3.153763e-002	-7.481108e-001	-2.028934e-001
5270000000	-5.288547e-001	-2.460625e-001	8.305813e-001	-7.114359e-001	3.481966e-002	-3.153022e-002	-7.493280e-001	-1.998800e-001
5280000000	-5.304189e-001	-2.445399e-001	8.228657e-001	-7.115431e-001	3.456511e-002	-3.157823e-002	-7.504811e-001	-1.965618e-001
5290000000	-5.323525e-001	-2.427539e-001	8.153919e-001	-7.119961e-001	3.438705e-002	-3.156196e-002	-7.517749e-001	-1.936268e-001
5300000000	-5.342047e-001	-2.411789e-001	8.076320e-001	-7.120506e-001	3.411052e-002	-3.157410e-002	-7.529269e-001	-1.903213e-001
5310000000	-5.361199e-001	-2.396766e-001	7.997415e-001	-7.122706e-001	3.392330e-002	-3.154038e-002	-7.542767e-001	-1.865939e-001
5320000000	-5.380468e-001	-2.381993e-001	7.911679e-001	-7.127074e-001	3.371388e-002	-3.154897e-002	-7.556343e-001	-1.830480e-001
5330000000	-5.401018e-001	-2.367050e-001	7.838000e-001	-7.134328e-001	3.347447e-002	-3.151288e-002	-7.569548e-001	-1.795988e-001
5340000000	-5.418087e-001	-2.353525e-001	7.750498e-001	-7.137353e-001	3.331378e-002	-3.142890e-002	-7.582979e-001	-1.757689e-001
5350000000	-5.434575e-001	-2.340366e-001	7.672524e-001	-7.136382e-001	3.312076e-002	-3.141440e-002	-7.598761e-001	-1.722791e-001
5360000000	-5.451437e-001	-2.329799e-001	7.592494e-001	-7.131951e-001	3.291522e-002	-3.144568e-002	-7.613251e-001	-1.687404e-001
5370000000	-5.466107e-001	-2.317526e-001	7.516976e-001	-7.125891e-001	3.275427e-002	-3.139807e-002	-7.630837e-001	-1.655155e-001
5380000000	-5.479664e-001	-2.305641e-001	7.438212e-001	-7.121322e-001	3.250032e-002	-3.137846e-002	-7.646997e-001	-1.624154e-001
5390000000	-5.493102e-001	-2.294461e-001	7.367796e-001	-7.111913e-001	3.239097e-002	-3.134111e-002	-7.661464e-001	-1.596000e-001
5400000000	-5.503835e-001	-2.281907e-001	7.292980e-001	-7.105709e-001	3.222201e-002	-3.139003e-002	-7.677027e-001	-1.566747e-001
5410000000	-5.514804e-001	-2.269911e-001	7.220548e-001	-7.095681e-001	3.201722e-002	-3.129960e-002	-7.690289e-001	-1.539936e-001
5420000000	-5.526772e-001	-2.256021e-001	7.147112e-001	-7.089087e-001	3.179760e-002	-3.133170e-002	-7.703567e-001	-1.514498e-001
5430000000	-5.538635e-001	-2.239813e-001	7.073585e-001	-7.083273e-001	3.156342e-002	-3.137183e-002	-7.715227e-001	-1.491538e-001
5440000000	-5.552004e-001	-2.223831e-001	6.999042e-001	-7.078969e-001	3.138407e-002	-3.129071e-002	-7.727643e-001	-1.465031e-001
5450000000	-5.565933e-001	-2.207381e-001	6.929608e-001	-7.069893e-001	3.117569e-002	-3.127049e-002	-7.735129e-001	-1.439201e-001
5460000000	-5.580031e-001	-2.188351e-001	6.858828e-001	-7.064549e-001	3.102243e-002	-3.126137e-002	-7.744419e-001	-1.411608e-001
5470000000	-5.594466e-001	-2.171467e-001	6.790450e-001	-7.060441e-001	3.082548e-002	-3.115938e-002	-7.750274e-001	-1.386505e-001
5480000000	-5.610300e-001	-2.150492e-001	6.720727e-001	-7.053479e-001	3.069116e-002	-3.114927e-002	-7.757666e-001	-1.359893e-001
5490000000	-5.628009e-001	-2.132986e-001	6.657472e-001	-7.051464e-001	3.049667e-002	-3.116192e-002	-7.767495e-001	-1.329055e-001
5500000000	-5.646389e-001	-2.117056e-001	6.590548e-001	-7.042636e-001	3.031372e-002	-3.116956e-002	-7.774787e-001	-1.299791e-001
5510000000	-5.661813e-001	-2.100017e-001	6.524454e-001	-7.037979e-001	3.017663e-002	-3.113103e-002	-7.784512e-001	-1.269684e-001
5520000000	-5.678070e-001	-2.085222e-001	6.458162e-001	-7.025801e-001	2.996903e-002	-3.108162e-002	-7.794891e-001	-1.238830e-001
5530000000	-5.695341e-001	-2.068999e-001	6.389651e-001	-7.019848e-001	2.974194e-002	-3.108314e-002	-7.804448e-001	-1.207411e-001
5540000000	-5.710254e-001	-2.054980e-001	6.323687e-001	-7.004922e-001	2.957053e-002	-3.110706e-002	-7.816025e-001	-1.177202e-001
5550000000	-5.724917e-001	-2.041704e-001	6.252402e-001	-6.996064e-001	2.933743e-002	-3.102811e-002	-7.828191e-001	-1.147935e-001
5560000000	-5.738462e-001	-2.027252e-001	6.185643e-001	-6.983579e-001	2.916285e-002	-3.097673e-002	-7.838830e-001	-1.120961e-001
5570000000	-5.751595e-001	-2.014418e-001	6.119543e-001	-6.968699e-001	2.900616e-002	-3.098268e-002	-7.850774e-001	-1.091979e-001
5580000000	-5.765166e-001	-2.000662e-001	6.054645e-001	-6.957434e-001	2.885045e-002	-3.091178e-002	-7.862387e-001	-1.063547e-001
5590000000	-5.775921e-001	-1.985352e-001	5.986712e-001	-6.943693e-001	2.864344e-002	-3.089134e-002	-7.872518e-001	-1.039794e-001
5600000000	-5.788039e-001	-1.969960e-001	5.926310e-001	-6.930264e-001	2.846119e-002	-3.077119e-002	-7.883762e-001	-1.016182e-001
5610000000	-5.799658e-001	-1.956439e-001	5.861476e-001	-6.915231e-001	2.829636e-002	-3.065967e-002	-7.891124e-001	-9.927970e-002
5620000000	-5.810319e-001	-1.939204e-001	5.799873e-001	-6.901035e-001	2.810699e-002	-3.061075e-002	-7.898956e-001	-9.715657e-002
5630000000	-5.823030e-001	-1.923494e-001	5.744446e-001	-6.886680e-001	2.802530e-002	-3.051854e-002	-7.906408e-001	-9.500951e-002
5640000000	-5.836334e-001	-1.907968e-001	5.687622e-001	-6.872361e-001	2.782687e-002	-3.052494e-002	-7.914671e-001	-9.293603e-002
5650000000	-5.848839e-001	-1.893439e-001	5.627949e-001	-6.856376e-001	2.767979e-002	-3.043971e-002	-7.922150e-001	-9.085566e-002
5660000000	-5.863020e-001	-1.875354e-001	5.571858e-001	-6.843981e-001	2.749878e-002	-3.034880e-002	-7.927807e-001	-8.858721e-002
5670000000	-5.875086e-001	-1.861955e-001	5.512906e-001	-6.826271e-001	2.740013e-002	-3.034156e-002	-7.934188e-001	-8.609238e-002
5680000000	-5.888612e-001	-1.846106e-001	5.454821e-001	-6.813523e-001	2.726385e-002	-3.029427e-002	-7.939027e-001	-8.376697e-002
5690000000	-5.901721e-001	-1.830513e-001	5.398553e-001	-6.796454e-001	2.711168e-002	-3.024898e-002	-7.946504e-001	-8.160762e-002
5700000000	-5.913398e-001	-1.816340e-001	5.342077e-001	-6.783073e-001	2.696664e-002	-3.019437e-002	-7.953631e-001	-7.921310e-002
5710000000	-5.924658e-001	-1.800485e-001	5.287109e-001	-6.768974e-001	2.680062e-002	-3.017682e-002	-7.959265e-001	-7.690020e-002
5720000000	-5.937054e-001	-1.783518e-001	5.230511e-001	-6.754692e-001	2.660618e-002	-3.018872e-002	-7.964193e-001	-7.441555e-002
5730000000	-5.949999e-001	-1.768161e-001	5.174496e-001	-6.739855e-001	2.645194e-002	-3.007533e-002	-7.975029e-001	-7.203951e-002
5740000000	-5.959967e-001	-1.751983e-001	5.117020e-001	-6.724992e-001	2.625230e-002	-2.997374e-002	-7.980413e-001	-6.977487e-002
5750000000	-5.972109e-001	-1.733650e-001	5.065707e-001	-6.710057e-001	2.614128e-002	-2.985646e-002	-7.987209e-001	-6.759765e-002
5760000000	-5.982298e-001	-1.717260e-001	5.009258e-001	-6.691655e-001	2.598784e-002	-2.978648e-002	-7.997096e-001	-6.517330e-002
5770000000	-5.995139e-001	-1.699602e-001	4.958592e-001	-6.675228e-001	2.589365e-002	-2.977639e-002	-8.004973e-001	-6.314484e-002
5780000000	-6.009210e-001	-1.682306e-001	4.909281e-001	-6.656439e-001	2.581380e-002	-2.957323e-002	-8.013261e-001	-6.103245e-002
5790000000	-6.021073e-001	-1.665785e-001	4.856466e-001	-6.636219e-001	2.559769e-002	-2.958401e-002	-8.018718e-001	-5.899878e-002
5800000000	-6.033542e-001	-1.650778e-001	4.807930e-001	-6.613656e-001	2.556732e-002	-2.953604e-002	-8.025171e-001	-5.708102e-002
5810000000	-6.048192e-001	-1.636126e-001	4.753957e-001	-6.594671e-001	2.540002e-002	-2.951976e-002	-8.033138e-001	-5.512992e-002
5820000000	-6.059920e-001	-1.620569e-001	4.705425e-001	-6.577521e-001	2.527747e-002	-2.941324e-002	-8.039986e-001	-5.349502e-002
5830000000	-6.072841e-001	-1.605204e-001	4.653070e-001	-6.564265e-001	2.511672e-002	-2.939656e-002	-8.046984e-001	-5.163193e-002
5840000000	-6.086261e-001	-1.593060e-001	4.601598e-001	-6.546307e-001	2.495530e-002	-2.936282e-002	-8.055011e-001	-5.016933e-002
5850000000	-6.096390e-001	-1.580007e-001	4.551343e-001	-6.530877e-001	2.485873e-002	-2.924712e-002	-8.060975e-001	-4.842404e-002
5860000000	-6.107113e-001	-1.565030e-001	4.502479e-001	-6.513522e-001	2.476624e-002	-2.924384e-002	-8.064404e-001	-4.676542e-002
5870000000	-6.118810e-001	-1.550653e-001	4.458122e-001	-6.496839e-001	2.458304e-002	-2.909475e-002	-8.072011e-001	-4.491278e-002
5880000000	-6.126182e-001	-1.536195e-001	4.411750e-001	-6.479523e-001	2.450477e-002	-2.902680e-002	-8.075532e-001	-4.332396e-002
5890000000	-6.136323e-001	-1.522124e-001	4.367803e-001	-6.458180e-001	2.441131e-002	-2.897505e-002	-8.079792e-001	-4.156418e-002
5900000000	-6.144685e-001	-1.507200e-001	4.324265e-001	-6.438877e-001	2.423363e-002	-2.895915e-002	-8.082453e-001	-3.981847e-002
5910000000	-6.152149e-001	-1.491880e-001	4.279162e-001	-6.417848e-001	2.417762e-002	-2.879637e-002	-8.087241e-001	-3.812181e-002
5920000000	-6.161696e-001	-1.473945e-001	4.238211e-001	-6.397868e-001	2.399604e-002	-2.879947e-002	-8.090164e-001	-3.647866e-002
5930000000	-6.171279e-001	-1.457531e-001	4.192512e-001	-6.378161e-001	2.395120e-002	-2.862445e-002	-8.093992e-001	-3.487041e-002
5940000000	-6.182755e-001	-1.439607e-001	4.148605e-001	-6.356087e-001	2.382512e-002	-2.860762e-002	-8.098776e-001	-3.290932e-002
5950000000	-6.193800e-001	-1.422510e-001	4.104525e-001	-6.335101e-001	2.373024e-002	-2.854207e-002	-8.101454e-001	-3.129566e-002
5960000000	-6.205854e-001	-1.402968e-001	4.063456e-001	-6.318767e-001	2.362742e-002	-2.850549e-002	-8.105789e-001	-2.944932e-002
5970000000	-6.218439e-001	-1.387567e-001	4.019384e-001	-6.298849e-001	2.352850e-002	-2.839822e-002	-8.112754e-001	-2.789686e-002
5980000000	-6.232104e-001	-1.371615e-001	3.976347e-001	-6.283670e-001	2.347311e-002	-2.840154e-002	-8.117249e-001	-2.621260e-002
5990000000	-6.245934e-001	-1.356588e-001	3.934191e-001	-6.264314e-001	2.335169e-002	-2.832983e-002	-8.123022e-001	-2.451671e-002
6000000000	-6.259871e-001	-1.341831e-001	3.892389e-001	-6.247126e-001	2.326193e-002	-2.821191e-002	-8.130866e-001	-2.303934e-002
6010000000	-6.272580e-001	-1.329829e-001	3.851007e-001	-6.227570e-001	2.310158e-002	-2.813566e-002	-8.138062e-001	-2.141483e-002
6020000000	-6.283460e-001	-1.317382e-001	3.809578e-001	-6.209775e-001	2.292844e-002	-2.817655e-002	-8.145568e-001	-2.022675e-002
6030000000	-6.295988e-001	-1.303720e-001	3.769291e-001	-6.188510e-001	2.288610e-002	-2.804402e-002	-8.152518e-001	-1.891569e-002
6040000000	-6.303808e-001	-1.293071e-001	3.729695e-001	-6.171309e-001	2.277222e-002	-2.800458e-002	-8.160061e-001	-1.772222e-002
6050000000	-6.311812e-001	-1.281095e-001	3.693734e-001	-6.149161e-001	2.260038e-002	-2.794576e-002	-8.165763e-001	-1.667016e-002
6060000000	-6.318340e-001	-1.269057e-001	3.653385e-001	-6.128843e-001	2.255765e-002	-2.776823e-002	-8.169605e-001	-1.551925e-002
6070000000	-6.325298e-001	-1.255113e-001	3.615466e-001	-6.105263e-001	2.250464e-002	-2.768678e-002	-8.173197e-001	-1.451063e-002
6080000000	-6.331804e-001	-1.241787e-001	3.577419e-001	-6.084895e-001	2.234236e-002	-2.765368e-002	-8.177180e-001	-1.359065e-002
6090000000	-6.336384e-001	-1.226247e-001	3.539862e-001	-6.065778e-001	2.233452e-002	-2.755689e-002	-8.178045e-001	-1.236841e-002
6100000000	-6.343850e-001	-1.210106e-001	3.506055e-001	-6.045204e-001	2.221093e-002	-2.745976e-002	-8.178035e-001	-1.133405e-002
6110000000	-6.353438e-001	-1.192820e-001	3.472743e-001	-6.026884e-001	2.219937e-002	-2.740288e-002	-8.178853e-001	-1.014982e-002
6120000000	-6.363340e-001	-1.173656e-001	3.439529e-001	-6.007256e-001	2.201483e-002	-2.731610e-002	-8.183042e-001	-8.887278e-003
6130000000	-6.373897e-001	-1.155554e-001	3.405568e-001	-5.990210e-001	2.198713e-002	-2.718464e-002	-8.184834e-001	-7.413449e-003
6140000000	-6.386770e-001	-1.136532e-001	3.371686e-001	-5.974438e-001	2.192842e-002	-2.717116e-002	-8.187496e-001	-5.988648e-003
6150000000	-6.398194e-001	-1.120912e-001	3.339746e-001	-5.954360e-001	2.186758e-002	-2.707047e-002	-8.191474e-001	-4.395383e-003
6160000000	-6.412422e-001	-1.104028e-001	3.305466e-001	-5.936279e-001	2.175540e-002	-2.691473e-002	-8.195906e-001	-2.656276e-003
6170000000	-6.425463e-001	-1.089641e-001	3.268008e-001	-5.917964e-001	2.176073e-002	-2.683604e-002	-8.201720e-001	-1.158375e-003
6180000000	-6.439533e-001	-1.076780e-001	3.233088e-001	-5.895828e-001	2.170715e-002	-2.677600e-002	-8.210344e-001	1.008320e-004
6190000000	-6.450102e-001	-1.065217e-001	3.195075e-001	-5.876631e-001	2.158953e-002	-2.667005e-002	-8.217523e-001	1.447627e-003
6200000000	-6.460897e-001	-1.054166e-001	3.163348e-001	-5.856778e-001	2.156359e-002	-2.663186e-002	-8.223522e-001	2.742984e-003
6210000000	-6.468663e-001	-1.044429e-001	3.129053e-001	-5.836037e-001	2.154790e-002	-2.656373e-002	-8.230835e-001	3.561579e-003
6220000000	-6.476803e-001	-1.033623e-001	3.095458e-001	-5.814753e-001	2.156734e-002	-2.649084e-002	-8.238091e-001	4.538082e-003
6230000000	-6.482320e-001	-1.021421e-001	3.065632e-001	-5.794693e-001	2.153431e-002	-2.647582e-002	-8.244758e-001	5.345497e-003
6240000000	-6.486403e-001	-1.008311e-001	3.032753e-001	-5.776564e-001	2.154668e-002	-2.644157e-002	-8.248476e-001	5.972985e-003
6250000000	-6.491082e-001	-9.954032e-002	3.003323e-001	-5.757408e-001	2.150434e-002	-2.639733e-002	-8.251871e-001	6.605458e-003
6260000000	-6.494213e-001	-9.792303e-002	2.975212e-001	-5.739369e-001	2.144779e-002	-2.643633e-002	-8.255565e-001	6.918814e-003
6270000000	-6.501260e-001	-9.630451e-002	2.945573e-001	-5.723337e-001	2.139395e-002	-2.640396e-002	-8.256069e-001	7.755210e-003
6280000000	-6.507757e-001	-9.452230e-002	2.914880e-001	-5.706823e-001	2.124603e-002	-2.636044e-002	-8.257120e-001	8.430600e-003
6290000000	-6.514465e-001	-9.261095e-002	2.884066e-001	-5.689178e-001	2.109481e-002	-2.634275e-002	-8.257148e-001	9.126747e-003
6300000000	-6.523874e-001	-9.081946e-002	2.854216e-001	-5.670326e-001	2.104982e-002	-2.623490e-002	-8.256366e-001	1.023689e-002
6310000000	-6.533085e-001	-8.885050e-002	2.824486e-001	-5.649055e-001	2.100084e-002	-2.610590e-002	-8.253862e-001	1.137211e-002
6320000000	-6.545368e-001	-8.707947e-002	2.794880e-001	-5.628740e-001	2.094767e-002	-2.607421e-002	-8.254026e-001	1.252974e-002
6330000000	-6.557880e-001	-8.547331e-002	2.764197e-001	-5.608279e-001	2.095884e-002	-2.598989e-002	-8.253516e-001	1.365924e-002
6340000000	-6.571210e-001	-8.396508e-002	2.734883e-001	-5.586471e-001	2.089212e-002	-2.590452e-002	-8.254728e-001	1.481621e-002
6350000000	-6.582781e-001	-8.272969e-002	2.708885e-001	-5.568334e-001	2.087564e-002	-2.590325e-002	-8.258864e-001	1.599860e-002
6360000000	-6.593704e-001	-8.156822e-002	2.681844e-001	-5.550409e-001	2.087523e-002	-2.584864e-002	-8.263025e-001	1.707284e-002
6370000000	-6.604416e-001	-8.056982e-002	2.656167e-001	-5.536379e-001	2.080781e-002	-2.583399e-002	-8.268828e-001	1.821729e-002
6380000000	-6.615584e-001	-7.968382e-002	2.630666e-001	-5.520323e-001	2.072074e-002	-2.573247e-002	-8.276762e-001	1.922049e-002
6390000000	-6.623410e-001	-7.879566e-002	2.602163e-001	-5.505601e-001	2.066918e-002	-2.581257e-002	-8.284794e-001	2.019997e-002
6400000000	-6.629053e-001	-7.781444e-002	2.576363e-001	-5.488625e-001	2.064052e-002	-2.573350e-002	-8.293439e-001	2.115083e-002
6410000000	-6.633350e-001	-7.673078e-002	2.550794e-001	-5.470088e-001	2.060580e-002	-2.563503e-002	-8.299816e-001	2.194226e-002
6420000000	-6.636701e-001	-7.553274e-002	2.524960e-001	-5.450267e-001	2.057931e-002	-2.560956e-002	-8.303251e-001	2.267890e-002
6430000000	-6.639899e-001	-7.417199e-002	2.497447e-001	-5.431071e-001	2.057743e-002	-2.550269e-002	-8.307163e-001	2.319243e-002
6440000000	-6.638805e-001	-7.266906e-002	2.472694e-001	-5.411489e-001	2.042874e-002	-2.545460e-002	-8.308675e-001	2.356684e-002
6450000000	-6.640458e-001	-7.106224e-002	2.447316e-001	-5.390843e-001	2.048976e-002	-2.536567e-002	-8.309127e-001	2.373368e-002
6460000000	-6.642480e-001	-6.927100e-002	2.422812e-001	-5.371268e-001	2.047019e-002	-2.536803e-002	-8.308228e-001	2.394975e-002
6470000000	-6.646061e-001	-6.746576e-002	2.397250e-001	-5.353894e-001	2.047752e-002	-2.531885e-002	-8.306314e-001	2.429690e-002
6480000000	-6.651853e-001	-6.557362e-002	2.372439e-001	-5.337962e-001	2.052856e-002	-2.525278e-002	-8.304101e-001	2.465192e-002
6490000000	-6.658442e-001	-6.378910e-002	2.348902e-001	-5.321402e-001	2.049721e-002	-2.519445e-002	-8.301476e-001	2.522125e-002
6500000000	-6.668752e-001	-6.204852e-002	2.325363e-001	-5.303422e-001	2.060048e-002	-2.517182e-002	-8.299878e-001	2.583197e-002
6510000000	-6.679205e-001	-6.044826e-002	2.305713e-001	-5.288005e-001	2.057219e-002	-2.526352e-002	-8.299891e-001	2.641903e-002
6520000000	-6.690652e-001	-5.901046e-002	2.282500e-001	-5.273371e-001	2.053122e-002	-2.530956e-002	-8.302002e-001	2.699975e-002
6530000000	-6.703339e-001	-5.756174e-002	2.261173e-001	-5.258090e-001	2.055036e-002	-2.541184e-002	-8.304208e-001	2.813193e-002
6540000000	-6.714671e-001	-5.639819e-002	2.236990e-001	-5.243062e-001	2.046364e-002	-2.549705e-002	-8.309233e-001	2.907612e-002
6550000000	-6.726195e-001	-5.554403e-002	2.215073e-001	-5.225481e-001	2.039661e-002	-2.551384e-002	-8.313275e-001	2.996775e-002
6560000000	-6.735249e-001	-5.460871e-002	2.190272e-001	-5.208768e-001	2.030577e-002	-2.553820e-002	-8.318480e-001	3.089585e-002
6570000000	-6.744077e-001	-5.377692e-002	2.165635e-001	-5.188512e-001	2.012862e-002	-2.553164e-002	-8.321922e-001	3.191520e-002
6580000000	-6.749019e-001	-5.284452e-002	2.141077e-001	-5.171692e-001	1.998825e-002	-2.544717e-002	-8.326414e-001	3.266181e-002
6590000000	-6.753495e-001	-5.194675e-002	2.112874e-001	-5.150170e-001	1.990598e-002	-2.536131e-002	-8.329218e-001	3.338819e-002
6600000000	-6.755207e-001	-5.086186e-002	2.092102e-001	-5.130799e-001	1.983499e-002	-2.529055e-002	-8.329976e-001	3.387329e-002
6610000000	-6.756259e-001	-4.981102e-002	2.069896e-001	-5.112502e-001	1.993847e-002	-2.519896e-002	-8.329215e-001	3.408786e-002
6620000000	-6.756424e-001	-4.869428e-002	2.050151e-001	-5.096456e-001	1.995540e-002	-2.528296e-002	-8.331299e-001	3.430198e-002
6630000000	-6.757001e-001	-4.743641e-002	2.031187e-001	-5.081390e-001	1.993800e-002	-2.535115e-002	-8.330339e-001	3.408346e-002
6640000000	-6.759857e-001	-4.620741e-002	2.012866e-001	-5.068278e-001	1.988336e-002	-2.547496e-002	-8.332139e-001	3.398945e-002
6650000000	-6.763339e-001	-4.471746e-002	1.995230e-001	-5.053803e-001	1.975100e-002	-2.552962e-002	-8.334195e-001	3.386126e-002
6660000000	-6.769492e-001	-4.309073e-002	1.977133e-001	-5.038428e-001	1.957673e-002	-2.549937e-002	-8.336065e-001	3.370359e-002
6670000000	-6.776396e-001	-4.145438e-002	1.956840e-001	-5.025600e-001	1.948599e-002	-2.549255e-002	-8.337703e-001	3.401306e-002
6680000000	-6.785166e-001	-3.961894e-002	1.936436e-001	-5.009968e-001	1.928228e-002	-2.545651e-002	-8.340664e-001	3.425195e-002
6690000000	-6.792847e-001	-3.781357e-002	1.917976e-001	-4.994603e-001	1.914726e-002	-2.530681e-002	-8.343852e-001	3.472420e-002
6700000000	-6.801056e-001	-3.625836e-002	1.895624e-001	-4.979568e-001	1.912553e-002	-2.518873e-002	-8.345276e-001	3.558951e-002
6710000000	-6.808966e-001	-3.478744e-002	1.873411e-001	-4.963833e-001	1.910680e-002	-2.511787e-002	-8.345822e-001	3.613768e-002
6720000000	-6.816379e-001	-3.329312e-002	1.851290e-001	-4.946398e-001	1.913889e-002	-2.508681e-002	-8.346573e-001	3.697561e-002
6730000000	-6.823234e-001	-3.226451e-002	1.827686e-001	-4.929584e-001	1.908103e-002	-2.504477e-002	-8.347057e-001	3.764150e-002
6740000000	-6.830254e-001	-3.134609e-002	1.806684e-001	-4.912477e-001	1.908039e-002	-2.514276e-002	-8.348191e-001	3.836780e-002
6750000000	-6.836904e-001	-3.040555e-002	1.785238e-001	-4.896108e-001	1.903289e-002	-2.515845e-002	-8.348783e-001	3.894362e-002
6760000000	-6.842022e-001	-2.968981e-002	1.768884e-001	-4.879130e-001	1.896049e-002	-2.511975e-002	-8.349034e-001	3.947796e-002
6770000000	-6.847238e-001	-2.885304e-002	1.751595e-001	-4.864526e-001	1.886866e-002	-2.517454e-002	-8.352109e-001	3.991694e-002
6780000000	-6.852001e-001	-2.805859e-002	1.736853e-001	-4.848403e-001	1.868294e-002	-2.521414e-002	-8.354155e-001	4.017081e-002
6790000000	-6.856508e-001	-2.717508e-002	1.718513e-001	-4.832154e-001	1.861594e-002	-2.521866e-002	-8.356173e-001	4.035876e-002
6800000000	-6.861555e-001	-2.618745e-002	1.703128e-001	-4.819343e-001	1.850227e-002	-2.508854e-002	-8.358859e-001	4.055915e-002
6810000000	-6.866342e-001	-2.512107e-002	1.686172e-001	-4.801019e-001	1.835031e-002	-2.510824e-002	-8.362020e-001	4.069710e-002
6820000000	-6.870293e-001	-2.396366e-002	1.667699e-001	-4.784536e-001	1.823928e-002	-2.511957e-002	-8.365668e-001	4.085530e-002
6830000000	-6.875439e-001	-2.262109e-002	1.648402e-001	-4.769537e-001	1.810795e-002	-2.495250e-002	-8.368260e-001	4.093416e-002
6840000000	-6.881602e-001	-2.123350e-002	1.628460e-001	-4.754773e-001	1.801634e-002	-2.483091e-002	-8.371034e-001	4.111205e-002
6850000000	-6.887534e-001	-1.979791e-002	1.609471e-001	-4.739960e-001	1.793365e-002	-2.477605e-002	-8.373135e-001	4.146272e-002
6860000000	-6.893240e-001	-1.841913e-002	1.592067e-001	-4.724508e-001	1.786941e-002	-2.470980e-002	-8.374157e-001	4.190298e-002
6870000000	-6.898890e-001	-1.694034e-002	1.572881e-001	-4.711236e-001	1.784873e-002	-2.465686e-002	-8.374478e-001	4.231585e-002
6880000000	-6.904726e-001	-1.538488e-002	1.553929e-001	-4.696776e-001	1.781915e-002	-2.457408e-002	-8.374975e-001	4.271337e-002
6890000000	-6.909946e-001	-1.404519e-002	1.535201e-001	-4.683711e-001	1.782756e-002	-2.447466e-002	-8.373765e-001	4.327250e-002
6900000000	-6.914915e-001	-1.277283e-002	1.520688e-001	-4.669180e-001	1.779986e-002	-2.443702e-002	-8.374287e-001	4.370539e-002
6910000000	-6.919096e-001	-1.152924e-002	1.505286e-001	-4.653780e-001	1.780195e-002	-2.444916e-002	-8.372919e-001	4.415406e-002
6920000000	-6.923343e-001	-1.037740e-002	1.490967e-001	-4.637236e-001	1.775368e-002	-2.445603e-002	-8.372606e-001	4.451009e-002
6930000000	-6.928140e-001	-9.346174e-003	1.476264e-001	-4.621912e-001	1.764586e-002	-2.443119e-002	-8.372889e-001	4.483936e-002
6940000000	-6.932425e-001	-8.122290e-003	1.458970e-001	-4.605334e-001	1.748998e-002	-2.435915e-002	-8.375366e-001	4.532410e-002
6950000000	-6.936180e-001	-7.121256e-003	1.443393e-001	-4.589103e-001	1.744978e-002	-2.430987e-002	-8.377142e-001	4.553234e-002
6960000000	-6.940753e-001	-6.073837e-003	1.428616e-001	-4.573749e-001	1.735326e-002	-2.422349e-002	-8.380137e-001	4.597761e-002
6970000000	-6.945024e-001	-4.912167e-003	1.411763e-001	-4.559878e-001	1.728945e-002	-2.419695e-002	-8.382158e-001	4.639895e-002
6980000000	-6.949203e-001	-3.788044e-003	1.395594e-001	-4.544099e-001	1.729577e-002	-2.410101e-002	-8.385247e-001	4.677766e-002
6990000000	-6.954587e-001	-2.590884e-003	1.380208e-001	-4.531420e-001	1.724661e-002	-2.395462e-002	-8.386453e-001	4.717237e-002
7000000000	-6.958385e-001	-1.556901e-003	1.365546e-001	-4.516907e-001	1.728499e-002	-2.395683e-002	-8.388720e-001	4.738910e-002
7010000000	-6.963163e-001	-4.395020e-004	1.351026e-001	-4.505174e-001	1.717653e-002	-2.392349e-002	-8.388938e-001	4.754406e-002
7020000000	-6.969227e-001	6.342312e-004	1.337126e-001	-4.492741e-001	1.715138e-002	-2.394358e-002	-8.390465e-001	4.777023e-002
7030000000	-6.974611e-001	1.720735e-003	1.321996e-001	-4.479943e-001	1.708656e-002	-2.393051e-002	-8.391103e-001	4.802618e-002
7040000000	-6.980538e-001	2.814805e-003	1.307572e-001	-4.465608e-001	1.702304e-002	-2.388191e-002	-8.391048e-001	4.811327e-002
7050000000	-6.986241e-001	3.847027e-003	1.291661e-001	-4.451450e-001	1.691073e-002	-2.384655e-002	-8.389653e-001	4.827745e-002
7060000000	-6.990192e-001	4.747407e-003	1.278272e-001	-4.436803e-001	1.691966e-002	-2.376136e-002	-8.389203e-001	4.833494e-002
7070000000	-6.992470e-001	5.682601e-003	1.262207e-001	-4.418765e-001	1.674129e-002	-2.367055e-002	-8.387966e-001	4.850973e-002
7080000000	-6.998112e-001	6.850637e-003	1.247508e-001	-4.404210e-001	1.669182e-002	-2.367007e-002	-8.387149e-001	4.882785e-002
7090000000	-7.000922e-001	7.799356e-003	1.233296e-001	-4.390696e-001	1.674425e-002	-2.356190e-002	-8.387313e-001	4.915048e-002
7100000000	-7.005147e-001	8.732551e-003	1.220104e-001	-4.377034e-001	1.660330e-002	-2.352919e-002	-8.387637e-001	4.959186e-002
7110000000	-7.006928e-001	9.744320e-003	1.205223e-001	-4.365231e-001	1.659661e-002	-2.342932e-002	-8.386057e-001	4.995246e-002
7120000000	-7.011878e-001	1.088415e-002	1.191589e-001	-4.355505e-001	1.662045e-002	-2.338700e-002	-8.386967e-001	5.066811e-002
7130000000	-7.015425e-001	1.212164e-002	1.177937e-001	-4.345369e-001	1.641721e-002	-2.329931e-002	-8.387534e-001	5.102747e-002
7140000000	-7.018952e-001	1.337966e-002	1.164788e-001	-4.334123e-001	1.648486e-002	-2.319534e-002	-8.388924e-001	5.169922e-002
7150000000	-7.021421e-001	1.463915e-002	1.149799e-001	-4.323284e-001	1.634963e-002	-2.317129e-002	-8.389596e-001	5.222926e-002
7160000000	-7.025959e-001	1.586808e-002	1.136153e-001	-4.310799e-001	1.642918e-002	-2.313957e-002	-8.389638e-001	5.278334e-002
7170000000	-7.029162e-001	1.728420e-002	1.123685e-001	-4.295120e-001	1.637757e-002	-2.307217e-002	-8.390768e-001	5.318225e-002
7180000000	-7.032169e-001	1.843333e-002	1.109210e-001	-4.282266e-001	1.636188e-002	-2.298331e-002	-8.390659e-001	5.371431e-002
7190000000	-7.035164e-001	1.964709e-002	1.094999e-001	-4.267769e-001	1.628767e-002	-2.295581e-002	-8.392489e-001	5.412726e-002
7200000000	-7.039441e-001	2.078544e-002	1.083059e-001	-4.252569e-001	1.628137e-002	-2.292086e-002	-8.393014e-001	5.441938e-002
7210000000	-7.041875e-001	2.174969e-002	1.069739e-001	-4.237633e-001	1.625221e-002	-2.284563e-002	-8.392798e-001	5.456763e-002
7220000000	-7.044740e-001	2.272540e-002	1.056698e-001	-4.221785e-001	1.618630e-002	-2.268700e-002	-8.391922e-001	5.477327e-002
7230000000	-7.049022e-001	2.351168e-002	1.042895e-001	-4.208285e-001	1.616826e-002	-2.260304e-002	-8.390622e-001	5.478817e-002
7240000000	-7.052793e-001	2.435557e-002	1.030287e-001	-4.194664e-001	1.617259e-002	-2.260495e-002	-8.390688e-001	5.496236e-002
7250000000	-7.057251e-001	2.506723e-002	1.017596e-001	-4.181868e-001	1.611047e-002	-2.256340e-002	-8.388617e-001	5.493112e-002
7260000000	-7.061163e-001	2.580891e-002	1.007582e-001	-4.169778e-001	1.615124e-002	-2.258212e-002	-8.389136e-001	5.497184e-002
7270000000	-7.066724e-001	2.665382e-002	9.961355e-002	-4.159144e-001	1.606034e-002	-2.249646e-002	-8.387490e-001	5.514646e-002
7280000000	-7.071312e-001	2.734702e-002	9.861186e-002	-4.148574e-001	1.606187e-002	-2.238802e-002	-8.384753e-001	5.552339e-002
7290000000	-7.074997e-001	2.827034e-002	9.769387e-002	-4.137371e-001	1.599828e-002	-2.232831e-002	-8.384649e-001	5.562299e-002
7300000000	-7.078764e-001	2.911016e-002	9.650001e-002	-4.125611e-001	1.604089e-002	-2.231288e-002	-8.383011e-001	5.613977e-002
7310000000	-7.082938e-001	3.013476e-002	9.543500e-002	-4.115113e-001	1.604116e-002	-2.227422e-002	-8.382148e-001	5.641755e-002
7320000000	-7.084758e-001	3.113642e-002	9.410313e-002	-4.102803e-001	1.595594e-002	-2.222684e-002	-8.382080e-001	5.706321e-002
7330000000	-7.087663e-001	3.226144e-002	9.270623e-002	-4.091432e-001	1.595112e-002	-2.217867e-002	-8.379227e-001	5.755523e-002
7340000000	-7.089383e-001	3.330563e-002	9.142052e-002	-4.079971e-001	1.593970e-002	-2.210987e-002	-8.380265e-001	5.820329e-002
7350000000	-7.090859e-001	3.424081e-002	9.021932e-002	-4.067700e-001	1.590383e-002	-2.209016e-002	-8.380689e-001	5.869755e-002
7360000000	-7.092865e-001	3.536184e-002	8.889406e-002	-4.056867e-001	1.588186e-002	-2.208659e-002	-8.381958e-001	5.914297e-002
7370000000	-7.093602e-001	3.641941e-002	8.754673e-002	-4.045733e-001	1.583163e-002	-2.200928e-002	-8.382778e-001	5.968502e-002
7380000000	-7.095000e-001	3.732038e-002	8.642848e-002	-4.034245e-001	1.578645e-002	-2.195621e-002	-8.385232e-001	6.007944e-002
7390000000	-7.097399e-001	3.836138e-002	8.510144e-002	-4.023107e-001	1.581747e-002	-2.184628e-002	-8.385829e-001	6.054358e-002
7400000000	-7.099375e-001	3.927470e-002	8.409346e-002	-4.011621e-001	1.578857e-002	-2.181197e-002	-8.387533e-001	6.100706e-002
7410000000	-7.102211e-001	3.999268e-002	8.310723e-002	-3.999796e-001	1.577255e-002	-2.177887e-002	-8.387928e-001	6.127081e-002
7420000000	-7.105945e-001	4.095915e-002	8.216610e-002	-3.987764e-001	1.567488e-002	-2.166005e-002	-8.387091e-001	6.166840e-002
7430000000	-7.111609e-001	4.193387e-002	8.118288e-002	-3.976471e-001	1.571932e-002	-2.168185e-002	-8.385819e-001	6.203158e-002
7440000000	-7.116138e-001	4.288891e-002	8.012131e-002	-3.963863e-001	1.573904e-002	-2.161224e-002	-8.382910e-001	6.235880e-002
7450000000	-7.122842e-001	4.400505e-002	7.915738e-002	-3.953581e-001	1.574185e-002	-2.157536e-002	-8.378530e-001	6.269459e-002
7460000000	-7.128909e-001	4.497345e-002	7.794162e-002	-3.941342e-001	1.569271e-002	-2.153728e-002	-8.373932e-001	6.304535e-002
7470000000	-7.134278e-001	4.606902e-002	7.673023e-002	-3.930276e-001	1.571676e-002	-2.143341e-002	-8.369312e-001	6.312825e-002
7480000000	-7.139298e-001	4.704097e-002	7.552054e-002	-3.919284e-001	1.568889e-002	-2.137932e-002	-8.366340e-001	6.374957e-002
7490000000	-7.145092e-001	4.786021e-002	7.434518e-002	-3.907006e-001	1.570144e-002	-2.136927e-002	-8.361965e-001	6.411370e-002
7500000000	-7.150009e-001	4.853211e-002	7.324396e-002	-3.896612e-001	1.562333e-002	-2.136674e-002	-8.359108e-001	6.465343e-002
7510000000	-7.155094e-001	4.916742e-002	7.229803e-002	-3.887426e-001	1.565926e-002	-2.133278e-002	-8.358151e-001	6.504473e-002
7520000000	-7.158340e-001	4.968045e-002	7.129598e-002	-3.876097e-001	1.570233e-002	-2.117100e-002	-8.357557e-001	6.577036e-002
7530000000	-7.162833e-001	5.020939e-002	7.037402e-002	-3.867203e-001	1.564649e-002	-2.115606e-002	-8.356763e-001	6.636921e-002
7540000000	-7.166633e-001	5.064350e-002	6.933731e-002	-3.857177e-001	1.562603e-002	-2.117826e-002	-8.357616e-001	6.721695e-002
7550000000	-7.168668e-001	5.125169e-002	6.852340e-002	-3.849366e-001	1.564296e-002	-2.113204e-002	-8.358168e-001	6.803547e-002
7560000000	-7.169436e-001	5.171659e-002	6.753395e-002	-3.837408e-001	1.559470e-002	-2.111798e-002	-8.357523e-001	6.873448e-002
7570000000	-7.171544e-001	5.241801e-002	6.638944e-002	-3.826562e-001	1.569915e-002	-2.099413e-002	-8.357299e-001	6.956656e-002
7580000000	-7.171353e-001	5.336668e-002	6.536316e-002	-3.814061e-001	1.566729e-002	-2.099153e-002	-8.355029e-001	7.032423e-002
7590000000	-7.171758e-001	5.430138e-002	6.410507e-002	-3.802884e-001	1.560323e-002	-2.092074e-002	-8.354168e-001	7.100514e-002
7600000000	-7.171505e-001	5.532818e-002	6.308039e-002	-3.790639e-001	1.560740e-002	-2.093578e-002	-8.349817e-001	7.144097e-002
7610000000	-7.171090e-001	5.656835e-002	6.175983e-002	-3.779623e-001	1.552682e-002	-2.078732e-002	-8.344916e-001	7.174649e-002
7620000000	-7.172805e-001	5.774776e-002	6.091733e-002	-3.769175e-001	1.559049e-002	-2.079896e-002	-8.342144e-001	7.210289e-002
7630000000	-7.174623e-001	5.931144e-002	5.978561e-002	-3.759197e-001	1.554164e-002	-2.081432e-002	-8.337878e-001	7.254231e-002
7640000000	-7.178177e-001	6.046531e-002	5.879199e-002	-3.749465e-001	1.558348e-002	-2.070225e-002	-8.332171e-001	7.261190e-002
7650000000	-7.182513e-001	6.161270e-002	5.794828e-002	-3.739182e-001	1.556442e-002	-2.072319e-002	-8.325652e-001	7.285971e-002
7660000000	-7.188235e-001	6.274570e-002	5.703090e-002	-3.729757e-001	1.554519e-002	-2.064784e-002	-8.321620e-001	7.318876e-002
7670000000	-7.194564e-001	6.385411e-002	5.622584e-002	-3.720420e-001	1.553079e-002	-2.063746e-002	-8.316976e-001	7.354474e-002
7680000000	-7.202177e-001	6.481146e-002	5.502361e-002	-3.709597e-001	1.549283e-002	-2.056371e-002	-8.315513e-001	7.416005e-002
7690000000	-7.210235e-001	6.579015e-002	5.408714e-002	-3.700865e-001	1.545751e-002	-2.054893e-002	-8.310949e-001	7.475686e-002
7700000000	-7.217957e-001	6.645464e-002	5.312793e-002	-3.690631e-001	1.551596e-002	-2.045768e-002	-8.308067e-001	7.557811e-002
7710000000	-7.221955e-001	6.708197e-002	5.196927e-002	-3.680902e-001	1.557376e-002	-2.040474e-002	-8.304921e-001	7.646657e-002
7720000000	-7.228048e-001	6.786245e-002	5.092761e-002	-3.670337e-001	1.552253e-002	-2.036948e-002	-8.302619e-001	7.727342e-002
7730000000	-7.229439e-001	6.832425e-002	4.998159e-002	-3.660374e-001	1.551896e-002	-2.033170e-002	-8.299228e-001	7.813441e-002
7740000000	-7.230944e-001	6.882990e-002	4.893817e-002	-3.651142e-001	1.557077e-002	-2.031585e-002	-8.296810e-001	7.912701e-002
7750000000	-7.230921e-001	6.922843e-002	4.792242e-002	-3.640232e-001	1.556749e-002	-2.024639e-002	-8.292760e-001	8.009572e-002
7760000000	-7.228221e-001	6.978996e-002	4.708435e-002	-3.630057e-001	1.549148e-002	-2.022422e-002	-8.289024e-001	8.070937e-002
7770000000	-7.224686e-001	7.037348e-002	4.603991e-002	-3.620052e-001	1.545126e-002	-2.022157e-002	-8.283624e-001	8.125994e-002
7780000000	-7.223184e-001	7.107914e-002	4.522564e-002	-3.609739e-001	1.548385e-002	-2.008418e-002	-8.280514e-001	8.198401e-002
7790000000	-7.221161e-001	7.197978e-002	4.416917e-002	-3.598556e-001	1.545061e-002	-2.011218e-002	-8.275039e-001	8.235064e-002
7800000000	-7.218037e-001	7.293243e-002	4.330987e-002	-3.587513e-001	1.549447e-002	-1.998137e-002	-8.269191e-001	8.303432e-002
7810000000	-7.218871e-001	7.399262e-002	4.244186e-002	-3.576780e-001	1.544382e-002	-2.002862e-002	-8.265603e-001	8.343077e-002
7820000000	-7.218704e-001	7.531272e-002	4.164895e-002	-3.566149e-001	1.555072e-002	-1.987957e-002	-8.259855e-001	8.396883e-002
7830000000	-7.220332e-001	7.655143e-002	4.087671e-002	-3.554967e-001	1.552471e-002	-1.984105e-002	-8.254798e-001	8.492278e-002
7840000000	-7.223414e-001	7.790335e-002	3.988236e-002	-3.544438e-001	1.559078e-002	-1.973590e-002	-8.248310e-001	8.542054e-002
7850000000	-7.227518e-001	7.924754e-002	3.901756e-002	-3.534611e-001	1.561484e-002	-1.970987e-002	-8.242313e-001	8.607483e-002
7860000000	-7.231489e-001	8.025744e-002	3.816496e-002	-3.524444e-001	1.573940e-002	-1.973307e-002	-8.238313e-001	8.684426e-002
7870000000	-7.235277e-001	8.138411e-002	3.711830e-002	-3.516827e-001	1.572553e-002	-1.963572e-002	-8.233376e-001	8.760988e-002
7880000000	-7.242681e-001	8.238050e-002	3.626999e-002	-3.507397e-001	1.580423e-002	-1.958229e-002	-8.228251e-001	8.835127e-002
7890000000	-7.245893e-001	8.302507e-002	3.538004e-002	-3.499402e-001	1.585241e-002	-1.959446e-002	-8.222390e-001	8.910217e-002
7900000000	-7.249091e-001	8.350117e-002	3.458487e-002	-3.488287e-001	1.585036e-002	-1.958181e-002	-8.216928e-001	8.999961e-002
7910000000	-7.253178e-001	8.394285e-002	3.371620e-002	-3.477676e-001	1.590921e-002	-1.956416e-002	-8.211200e-001	9.060937e-002
7920000000	-7.253115e-001	8.425605e-002	3.296563e-002	-3.467937e-001	1.598949e-002	-1.951671e-002	-8.205936e-001	9.145831e-002
7930000000	-7.253577e-001	8.453524e-002	3.215304e-002	-3.459473e-001	1.605752e-002	-1.958355e-002	-8.199942e-001	9.209993e-002
7940000000	-7.254589e-001	8.493445e-002	3.147185e-002	-3.448731e-001	1.608952e-002	-1.951656e-002	-8.193863e-001	9.276703e-002
7950000000	-7.252428e-001	8.512619e-002	3.082020e-002	-3.440082e-001	1.602322e-002	-1.960318e-002	-8.187968e-001	9.350278e-002
7960000000	-7.252607e-001	8.562838e-002	2.994856e-002	-3.429216e-001	1.605792e-002	-1.964112e-002	-8.179982e-001	9.408102e-002
7970000000	-7.250978e-001	8.621743e-002	2.932941e-002	-3.418525e-001	1.612676e-002	-1.952026e-002	-8.175263e-001	9.499087e-002
7980000000	-7.249154e-001	8.687135e-002	2.862244e-002	-3.409074e-001	1.606960e-002	-1.960439e-002	-8.169129e-001	9.579913e-002
7990000000	-7.247962e-001	8.780310e-002	2.776401e-002	-3.399565e-001	1.616892e-002	-1.952407e-002	-8.162655e-001	9.667850e-002
8000000000	-7.248100e-001	8.858264e-002	2.703568e-002	-3.389075e-001	1.608062e-002	-1.953277e-002	-8.156156e-001	9.769457e-002
8010000000	-7.247812e-001	8.938701e-002	2.611056e-002	-3.379229e-001	1.621989e-002	-1.953442e-002	-8.150611e-001	9.865722e-002
8020000000	-7.247456e-001	9.036904e-002	2.511292e-002	-3.370173e-001	1.621267e-002	-1.951338e-002	-8.142659e-001	9.949557e-002
8030000000	-7.250028e-001	9.111903e-002	2.418155e-002	-3.360715e-001	1.627091e-002	-1.942657e-002	-8.137947e-001	1.004534e-001
8040000000	-7.251073e-001	9.191853e-002	2.333448e-002	-3.351667e-001	1.628792e-002	-1.947777e-002	-8.133009e-001	1.012492e-001
8050000000	-7.254327e-001	9.256773e-002	2.261482e-002	-3.341873e-001	1.632381e-002	-1.946167e-002	-8.128526e-001	1.021012e-001
8060000000	-7.257706e-001	9.293062e-002	2.204488e-002	-3.331079e-001	1.637986e-002	-1.945717e-002	-8.121620e-001	1.027500e-001
8070000000	-7.259126e-001	9.350376e-002	2.139305e-002	-3.321728e-001	1.643869e-002	-1.941776e-002	-8.115417e-001	1.033611e-001
8080000000	-7.261243e-001	9.405880e-002	2.091867e-002	-3.313036e-001	1.653035e-002	-1.942988e-002	-8.109891e-001	1.039381e-001
8090000000	-7.262383e-001	9.450993e-002	2.013322e-002	-3.304437e-001	1.666129e-002	-1.946445e-002	-8.102382e-001	1.045200e-001
8100000000	-7.262596e-001	9.474848e-002	1.969297e-002	-3.295344e-001	1.672172e-002	-1.939399e-002	-8.095066e-001	1.049855e-001
8110000000	-7.260728e-001	9.536010e-002	1.908299e-002	-3.287416e-001	1.685752e-002	-1.943089e-002	-8.089922e-001	1.053717e-001
8120000000	-7.258228e-001	9.573433e-002	1.844765e-002	-3.278228e-001	1.699725e-002	-1.954593e-002	-8.081370e-001	1.059600e-001
8130000000	-7.258227e-001	9.649017e-002	1.768823e-002	-3.271049e-001	1.708615e-002	-1.957154e-002	-8.073148e-001	1.064903e-001
8140000000	-7.254694e-001	9.698645e-002	1.698876e-002	-3.263685e-001	1.719749e-002	-1.971566e-002	-8.064244e-001	1.070812e-001
8150000000	-7.252345e-001	9.757652e-002	1.635138e-002	-3.256319e-001	1.731174e-002	-1.984509e-002	-8.055568e-001	1.078078e-001
8160000000	-7.251367e-001	9.813693e-002	1.576565e-002	-3.249883e-001	1.729025e-002	-1.997143e-002	-8.044336e-001	1.085095e-001
8170000000	-7.250505e-001	9.852240e-002	1.509513e-002	-3.243160e-001	1.739466e-002	-2.014920e-002	-8.035367e-001	1.094365e-001
8180000000	-7.251533e-001	9.895157e-002	1.439382e-002	-3.236555e-001	1.737956e-002	-2.041959e-002	-8.025871e-001	1.103419e-001
8190000000	-7.254485e-001	9.907092e-002	1.373272e-002	-3.229509e-001	1.724624e-002	-2.063795e-002	-8.019101e-001	1.112164e-001
8200000000	-7.257170e-001	9.935404e-002	1.273453e-002	-3.223003e-001	1.709311e-002	-2.076276e-002	-8.014407e-001	1.119650e-001
8210000000	-7.263145e-001	9.946185e-002	1.191147e-002	-3.216197e-001	1.702659e-002	-2.096591e-002	-8.009163e-001	1.128130e-001
8220000000	-7.268040e-001	9.965239e-002	1.104445e-002	-3.208325e-001	1.680760e-002	-2.110296e-002	-8.005673e-001	1.138092e-001
8230000000	-7.272331e-001	9.981054e-002	1.013700e-002	-3.199569e-001	1.656842e-002	-2.114826e-002	-8.001258e-001	1.145903e-001
8240000000	-7.278043e-001	1.000861e-001	9.141763e-003	-3.193764e-001	1.641766e-002	-2.115131e-002	-7.999706e-001	1.154669e-001
8250000000	-7.281549e-001	1.001507e-001	8.341250e-003	-3.184576e-001	1.634702e-002	-2.115220e-002	-7.997985e-001	1.160844e-001
8260000000	-7.283920e-001	1.003285e-001	7.684188e-003	-3.175760e-001	1.618948e-002	-2.104311e-002	-7.995795e-001	1.169275e-001
8270000000	-7.283365e-001	1.007301e-001	6.810837e-003	-3.168126e-001	1.618081e-002	-2.098292e-002	-7.992306e-001	1.175486e-001
8280000000	-7.283496e-001	1.009607e-001	6.001759e-003	-3.160792e-001	1.611068e-002	-2.109080e-002	-7.987445e-001	1.182469e-001
8290000000	-7.281499e-001	1.014990e-001	5.173790e-003	-3.154992e-001	1.597978e-002	-2.109439e-002	-7.981074e-001	1.189748e-001
8300000000	-7.280144e-001	1.018854e-001	4.360254e-003	-3.147789e-001	1.593540e-002	-2.112020e-002	-7.975930e-001	1.195488e-001
8310000000	-7.278068e-001	1.026827e-001	3.463294e-003	-3.139550e-001	1.578853e-002	-2.103331e-002	-7.967340e-001	1.203316e-001
8320000000	-7.276659e-001	1.033574e-001	2.506134e-003	-3.130508e-001	1.568300e-002	-2.097075e-002	-7.958294e-001	1.214069e-001
8330000000	-7.276763e-001	1.040430e-001	1.622682e-003	-3.120945e-001	1.558975e-002	-2.097562e-002	-7.948459e-001	1.227354e-001
8340000000	-7.278291e-001	1.047640e-001	6.771139e-004	-3.109779e-001	1.550353e-002	-2.090067e-002	-7.937307e-001	1.239778e-001
8350000000	-7.279548e-001	1.057539e-001	2.251049e-005	-3.100225e-001	1.548250e-002	-2.085066e-002	-7.927710e-001	1.252827e-001
8360000000	-7.284902e-001	1.061005e-001	-6.583760e-004	-3.090537e-001	1.540228e-002	-2.082032e-002	-7.918182e-001	1.265509e-001
8370000000	-7.289074e-001	1.067268e-001	-1.529813e-003	-3.081603e-001	1.536436e-002	-2.082725e-002	-7.911871e-001	1.279655e-001
8380000000	-7.294093e-001	1.072008e-001	-2.310105e-003	-3.073589e-001	1.529320e-002	-2.075149e-002	-7.905096e-001	1.293517e-001
8390000000	-7.299787e-001	1.074881e-001	-2.870858e-003	-3.066590e-001	1.522243e-002	-2.077736e-002	-7.899849e-001	1.304947e-001
8400000000	-7.308182e-001	1.077564e-001	-3.574177e-003	-3.058812e-001	1.514730e-002	-2.072788e-002	-7.897598e-001	1.317982e-001
8410000000	-7.312093e-001	1.076691e-001	-4.358955e-003	-3.050315e-001	1.506710e-002	-2.077718e-002	-7.895276e-001	1.328723e-001
8420000000	-7.315727e-001	1.077313e-001	-5.266012e-003	-3.042352e-001	1.489405e-002	-2.070217e-002	-7.891760e-001	1.340087e-001
8430000000	-7.319726e-001	1.076986e-001	-6.054008e-003	-3.033139e-001	1.480797e-002	-2.055333e-002	-7.892438e-001	1.349708e-001
8440000000	-7.319914e-001	1.078766e-001	-6.896684e-003	-3.023229e-001	1.477565e-002	-2.051319e-002	-7.887422e-001	1.358348e-001
8450000000	-7.320336e-001	1.078445e-001	-7.679637e-003	-3.014178e-001	1.473020e-002	-2.042669e-002	-7.879683e-001	1.364225e-001
8460000000	-7.319022e-001	1.076969e-001	-8.389628e-003	-3.005178e-001	1.469126e-002	-2.034384e-002	-7.874290e-001	1.373049e-001
8470000000	-7.317914e-001	1.078254e-001	-9.034706e-003	-2.994811e-001	1.467095e-002	-2.021156e-002	-7.863959e-001	1.377662e-001
8480000000	-7.315498e-001	1.082916e-001	-9.588144e-003	-2.985490e-001	1.462079e-002	-2.012655e-002	-7.852479e-001	1.383878e-001
8490000000	-7.314915e-001	1.086664e-001	-1.019332e-002	-2.976132e-001	1.463007e-002	-2.009078e-002	-7.839539e-001	1.393654e-001
8500000000	-7.315344e-001	1.090499e-001	-1.084868e-002	-2.966209e-001	1.468089e-002	-2.001535e-002	-7.826950e-001	1.401282e-001
8510000000	-7.316979e-001	1.100317e-001	-1.116468e-002	-2.957731e-001	1.446240e-002	-2.001078e-002	-7.812874e-001	1.408693e-001
8520000000	-7.317680e-001	1.105315e-001	-1.176492e-002	-2.952921e-001	1.460594e-002	-1.996026e-002	-7.798448e-001	1.425443e-001
8530000000	-7.324035e-001	1.115510e-001	-1.270765e-002	-2.937273e-001	1.445327e-002	-1.970212e-002	-7.786812e-001	1.440611e-001
8540000000	-7.328668e-001	1.130229e-001	-1.344163e-002	-2.933380e-001	1.476795e-002	-1.977549e-002	-7.773362e-001	1.457563e-001
8550000000	-7.332326e-001	1.133943e-001	-1.391712e-002	-2.924262e-001	1.454096e-002	-1.966282e-002	-7.766557e-001	1.477099e-001
8560000000	-7.337934e-001	1.146380e-001	-1.483080e-002	-2.911216e-001	1.464574e-002	-1.959326e-002	-7.759034e-001	1.498335e-001
8570000000	-7.341078e-001	1.145120e-001	-1.535293e-002	-2.903910e-001	1.456575e-002	-1.951227e-002	-7.751412e-001	1.513519e-001
8580000000	-7.339103e-001	1.149126e-001	-1.586803e-002	-2.901318e-001	1.475613e-002	-1.940364e-002	-7.744569e-001	1.532313e-001
8590000000	-7.343360e-001	1.147127e-001	-1.641089e-002	-2.884001e-001	1.490521e-002	-1.949375e-002	-7.741765e-001	1.547667e-001
8600000000	-7.343576e-001	1.151813e-001	-1.669595e-002	-2.877626e-001	1.468500e-002	-1.923427e-002	-7.735682e-001	1.560034e-001
8610000000	-7.343141e-001	1.143465e-001	-1.771717e-002	-2.866103e-001	1.461207e-002	-1.936577e-002	-7.728336e-001	1.568935e-001
8620000000	-7.339110e-001	1.146486e-001	-1.841039e-002	-2.856288e-001	1.472308e-002	-1.920249e-002	-7.717016e-001	1.575535e-001
8630000000	-7.340215e-001	1.140040e-001	-1.857621e-002	-2.844239e-001	1.474094e-002	-1.926945e-002	-7.711121e-001	1.583047e-001
8640000000	-7.336227e-001	1.138674e-001	-1.906653e-002	-2.841620e-001	1.498435e-002	-1.932360e-002	-7.702582e-001	1.584992e-001
8650000000	-7.340010e-001	1.140304e-001	-1.987532e-002	-2.830575e-001	1.486012e-002	-1.911237e-002	-7.686999e-001	1.586708e-001
8660000000	-7.335561e-001	1.140081e-001	-2.035205e-002	-2.818650e-001	1.485628e-002	-1.916083e-002	-7.675398e-001	1.591680e-001
8670000000	-7.336935e-001	1.149727e-001	-2.068463e-002	-2.811229e-001	1.493579e-002	-1.917106e-002	-7.658627e-001	1.593443e-001
8680000000	-7.338541e-001	1.161058e-001	-2.141811e-002	-2.806881e-001	1.488950e-002	-1.921015e-002	-7.642314e-001	1.602277e-001
8690000000	-7.340905e-001	1.162395e-001	-2.133389e-002	-2.799340e-001	1.501046e-002	-1.931920e-002	-7.626610e-001	1.608901e-001
8700000000	-7.344591e-001	1.170001e-001	-2.210885e-002	-2.790530e-001	1.487660e-002	-1.916040e-002	-7.609553e-001	1.620903e-001
8710000000	-7.343793e-001	1.177498e-001	-2.250998e-002	-2.785572e-001	1.509114e-002	-1.915144e-002	-7.593261e-001	1.632179e-001
8720000000	-7.349454e-001	1.191546e-001	-2.302566e-002	-2.775359e-001	1.485084e-002	-1.916710e-002	-7.581912e-001	1.647892e-001
8730000000	-7.349431e-001	1.193902e-001	-2.387131e-002	-2.762201e-001	1.493425e-002	-1.911797e-002	-7.571044e-001	1.669571e-001
8740000000	-7.350941e-001	1.194126e-001	-2.430058e-002	-2.756085e-001	1.495190e-002	-1.903056e-002	-7.559359e-001	1.684537e-001
8750000000	-7.358480e-001	1.194657e-001	-2.502324e-002	-2.748086e-001	1.510913e-002	-1.904204e-002	-7.550147e-001	1.702962e-001
8760000000	-7.356129e-001	1.193970e-001	-2.576295e-002	-2.739562e-001	1.472746e-002	-1.900326e-002	-7.537277e-001	1.716309e-001
8770000000	-7.364014e-001	1.185522e-001	-2.592988e-002	-2.728328e-001	1.488016e-002	-1.898165e-002	-7.540557e-001	1.730576e-001
8780000000	-7.357420e-001	1.185903e-001	-2.649384e-002	-2.718488e-001	1.490654e-002	-1.905353e-002	-7.533101e-001	1.743184e-001
8790000000	-7.356095e-001	1.185923e-001	-2.682506e-002	-2.705878e-001	1.515620e-002	-1.872399e-002	-7.521883e-001	1.747492e-001
8800000000	-7.355655e-001	1.180865e-001	-2.741165e-002	-2.700067e-001	1.498619e-002	-1.876759e-002	-7.514218e-001	1.752608e-001
8810000000	-7.357845e-001	1.176954e-001	-2.759016e-002	-2.690420e-001	1.480555e-002	-1.875312e-002	-7.505130e-001	1.755574e-001
8820000000	-7.354820e-001	1.182075e-001	-2.793865e-002	-2.682373e-001	1.490787e-002	-1.877258e-002	-7.498889e-001	1.752487e-001
8830000000	-7.350342e-001	1.185384e-001	-2.865904e-002	-2.677502e-001	1.492087e-002	-1.867121e-002	-7.484872e-001	1.755731e-001
8840000000	-7.349767e-001	1.187170e-001	-2.914014e-002	-2.667302e-001	1.499354e-002	-1.882428e-002	-7.470558e-001	1.755230e-001
8850000000	-7.348396e-001	1.197060e-001	-2.972042e-002	-2.661061e-001	1.486933e-002	-1.874808e-002	-7.455118e-001	1.759980e-001
8860000000	-7.347088e-001	1.200135e-001	-2.974314e-002	-2.650169e-001	1.512517e-002	-1.880683e-002	-7.434529e-001	1.768244e-001
8870000000	-7.340125e-001	1.209449e-001	-3.018707e-002	-2.643498e-001	1.511889e-002	-1.866684e-002	-7.417649e-001	1.775205e-001
8880000000	-7.343743e-001	1.211138e-001	-3.053404e-002	-2.630489e-001	1.499567e-002	-1.880526e-002	-7.402962e-001	1.783254e-001
8890000000	-7.342756e-001	1.222892e-001	-3.125133e-002	-2.627285e-001	1.508626e-002	-1.859568e-002	-7.380243e-001	1.797685e-001
8900000000	-7.346999e-001	1.221037e-001	-3.170836e-002	-2.619400e-001	1.521893e-002	-1.873507e-002	-7.366701e-001	1.813215e-001
8910000000	-7.351069e-001	1.219298e-001	-3.209531e-002	-2.611500e-001	1.520337e-002	-1.861230e-002	-7.353075e-001	1.830342e-001
8920000000	-7.357302e-001	1.219919e-001	-3.253447e-002	-2.602715e-001	1.509678e-002	-1.867171e-002	-7.344141e-001	1.849048e-001
8930000000	-7.354259e-001	1.216107e-001	-3.277061e-002	-2.592361e-001	1.529413e-002	-1.851258e-002	-7.340008e-001	1.865331e-001
8940000000	-7.359222e-001	1.217310e-001	-3.311881e-002	-2.581985e-001	1.526133e-002	-1.867343e-002	-7.330692e-001	1.874445e-001
8950000000	-7.361468e-001	1.205455e-001	-3.344224e-002	-2.574640e-001	1.531665e-002	-1.849107e-002	-7.318125e-001	1.880235e-001
8960000000	-7.365273e-001	1.199189e-001	-3.367549e-002	-2.567470e-001	1.510790e-002	-1.857462e-002	-7.315511e-001	1.891319e-001
8970000000	-7.360858e-001	1.197859e-001	-3.456724e-002	-2.558438e-001	1.523947e-002	-1.848148e-002	-7.314624e-001	1.896387e-001
8980000000	-7.353397e-001	1.197906e-001	-3.481312e-002	-2.550754e-001	1.528120e-002	-1.850983e-002	-7.304591e-001	1.894637e-001
8990000000	-7.354370e-001	1.191553e-001	-3.486782e-002	-2.544962e-001	1.522866e-002	-1.840314e-002	-7.297302e-001	1.897484e-001
9000000000	-7.348922e-001	1.194521e-001	-3.523444e-002	-2.536862e-001	1.532553e-002	-1.837664e-002	-7.284767e-001	1.894431e-001
9010000000	-7.342244e-001	1.201591e-001	-3.567459e-002	-2.525146e-001	1.540858e-002	-1.854264e-002	-7.276359e-001	1.891672e-001
9020000000	-7.336761e-001	1.201345e-001	-3.586026e-002	-2.521187e-001	1.545203e-002	-1.843608e-002	-7.259113e-001	1.895343e-001
9030000000	-7.334580e-001	1.210777e-001	-3.654844e-002	-2.512943e-001	1.549204e-002	-1.846561e-002	-7.243309e-001	1.893540e-001
9040000000	-7.327340e-001	1.216573e-001	-3.682977e-002	-2.506274e-001	1.532783e-002	-1.841448e-002	-7.227585e-001	1.900512e-001
9050000000	-7.333309e-001	1.222950e-001	-3.700488e-002	-2.496787e-001	1.531523e-002	-1.820233e-002	-7.202627e-001	1.906762e-001
9060000000	-7.333463e-001	1.225619e-001	-3.755856e-002	-2.488788e-001	1.537512e-002	-1.839799e-002	-7.188307e-001	1.920496e-001
9070000000	-7.336968e-001	1.224760e-001	-3.758078e-002	-2.482606e-001	1.539120e-002	-1.814904e-002	-7.170985e-001	1.931176e-001
9080000000	-7.341546e-001	1.226064e-001	-3.779115e-002	-2.471154e-001	1.556215e-002	-1.832204e-002	-7.154682e-001	1.943395e-001
9090000000	-7.346137e-001	1.224010e-001	-3.831716e-002	-2.463263e-001	1.559183e-002	-1.810748e-002	-7.137968e-001	1.960048e-001
9100000000	-7.352817e-001	1.215935e-001	-3.819299e-002	-2.452906e-001	1.562529e-002	-1.835489e-002	-7.127407e-001	1.972844e-001
9110000000	-7.353318e-001	1.207112e-001	-3.851507e-002	-2.447782e-001	1.546837e-002	-1.802899e-002	-7.119995e-001	1.987046e-001
9120000000	-7.358984e-001	1.197916e-001	-3.878637e-002	-2.438745e-001	1.548489e-002	-1.830538e-002	-7.114204e-001	1.998558e-001
9130000000	-7.357297e-001	1.194732e-001	-3.917044e-002	-2.434162e-001	1.559826e-002	-1.818859e-002	-7.114728e-001	2.003618e-001
9140000000	-7.360338e-001	1.177861e-001	-3.908676e-002	-2.425292e-001	1.564097e-002	-1.821696e-002	-7.109175e-001	2.004834e-001
9150000000	-7.355771e-001	1.171443e-001	-3.978953e-002	-2.418575e-001	1.570524e-002	-1.808921e-002	-7.106885e-001	2.005396e-001
9160000000	-7.349441e-001	1.165262e-001	-3.995917e-002	-2.414983e-001	1.578930e-002	-1.828805e-002	-7.100362e-001	2.003455e-001
9170000000	-7.344960e-001	1.160871e-001	-3.991271e-002	-2.406260e-001	1.554161e-002	-1.842668e-002	-7.092672e-001	1.999771e-001
9180000000	-7.333864e-001	1.164330e-001	-4.025959e-002	-2.399877e-001	1.566173e-002	-1.827778e-002	-7.089842e-001	1.997673e-001
9190000000	-7.328976e-001	1.164208e-001	-4.040835e-002	-2.395372e-001	1.565556e-002	-1.817444e-002	-7.074287e-001	1.995684e-001
9200000000	-7.324349e-001	1.167576e-001	-4.102207e-002	-2.388785e-001	1.565198e-002	-1.818266e-002	-7.062514e-001	1.990530e-001
9210000000	-7.314188e-001	1.174452e-001	-4.172719e-002	-2.381795e-001	1.565522e-002	-1.828906e-002	-7.043988e-001	1.996054e-001
9220000000	-7.312445e-001	1.180881e-001	-4.194998e-002	-2.371388e-001	1.561339e-002	-1.824008e-002	-7.023854e-001	2.003154e-001
9230000000	-7.311494e-001	1.187703e-001	-4.190705e-002	-2.361803e-001	1.587844e-002	-1.826323e-002	-7.002754e-001	2.006792e-001
9240000000	-7.314859e-001	1.192557e-001	-4.211437e-002	-2.354763e-001	1.571114e-002	-1.818130e-002	-6.982271e-001	2.017577e-001
9250000000	-7.318106e-001	1.192618e-001	-4.206773e-002	-2.350752e-001	1.573978e-002	-1.833486e-002	-6.970322e-001	2.030851e-001
9260000000	-7.320011e-001	1.191870e-001	-4.254191e-002	-2.339609e-001	1.568202e-002	-1.837501e-002	-6.955551e-001	2.043741e-001
9270000000	-7.326955e-001	1.191341e-001	-4.280478e-002	-2.335375e-001	1.576756e-002	-1.807642e-002	-6.944418e-001	2.056593e-001
9280000000	-7.326005e-001	1.184406e-001	-4.263609e-002	-2.327396e-001	1.566013e-002	-1.822039e-002	-6.936629e-001	2.062521e-001
9290000000	-7.336823e-001	1.177764e-001	-4.301278e-002	-2.318074e-001	1.590550e-002	-1.812819e-002	-6.934954e-001	2.079151e-001
9300000000	-7.343629e-001	1.171402e-001	-4.347043e-002	-2.316482e-001	1.583014e-002	-1.809880e-002	-6.920600e-001	2.081068e-001
9310000000	-7.343351e-001	1.165269e-001	-4.350730e-002	-2.305046e-001	1.575151e-002	-1.805261e-002	-6.920249e-001	2.084515e-001
9320000000	-7.346873e-001	1.155541e-001	-4.363158e-002	-2.301321e-001	1.583446e-002	-1.792031e-002	-6.924468e-001	2.087033e-001
9330000000	-7.342362e-001	1.148661e-001	-4.366536e-002	-2.293567e-001	1.591642e-002	-1.818047e-002	-6.918435e-001	2.088331e-001
9340000000	-7.340219e-001	1.146872e-001	-4.401637e-002	-2.286993e-001	1.585556e-002	-1.794288e-002	-6.914783e-001	2.089194e-001
9350000000	-7.330438e-001	1.136744e-001	-4.434864e-002	-2.279267e-001	1.590961e-002	-1.791030e-002	-6.909075e-001	2.084178e-001
9360000000	-7.325855e-001	1.139680e-001	-4.458956e-002	-2.272491e-001	1.596436e-002	-1.805069e-002	-6.898699e-001	2.081106e-001
9370000000	-7.319525e-001	1.131552e-001	-4.468724e-002	-2.264217e-001	1.595071e-002	-1.786495e-002	-6.887680e-001	2.076676e-001
9380000000	-7.319387e-001	1.130778e-001	-4.484867e-002	-2.257215e-001	1.598657e-002	-1.794317e-002	-6.871210e-001	2.070517e-001
9390000000	-7.315773e-001	1.133533e-001	-4.487612e-002	-2.253189e-001	1.571299e-002	-1.801747e-002	-6.860450e-001	2.075653e-001
9400000000	-7.314898e-001	1.123952e-001	-4.501969e-002	-2.243462e-001	1.590548e-002	-1.792027e-002	-6.841406e-001	2.078148e-001
9410000000	-7.310572e-001	1.120836e-001	-4.562099e-002	-2.238733e-001	1.597577e-002	-1.810725e-002	-6.821541e-001	2.083283e-001
9420000000	-7.317246e-001	1.121172e-001	-4.526667e-002	-2.230207e-001	1.616788e-002	-1.786775e-002	-6.804887e-001	2.085698e-001
9430000000	-7.323242e-001	1.112091e-001	-4.513888e-002	-2.228473e-001	1.611467e-002	-1.791899e-002	-6.786602e-001	2.099301e-001
9440000000	-7.319679e-001	1.116652e-001	-4.552398e-002	-2.223145e-001	1.618290e-002	-1.792721e-002	-6.774493e-001	2.104771e-001
9450000000	-7.329017e-001	1.108268e-001	-4.530469e-002	-2.218411e-001	1.615585e-002	-1.751852e-002	-6.767223e-001	2.114537e-001
9460000000	-7.329204e-001	1.107385e-001	-4.560465e-002	-2.211844e-001	1.606622e-002	-1.770373e-002	-6.760543e-001	2.126711e-001
9470000000	-7.334382e-001	1.105043e-001	-4.588123e-002	-2.209158e-001	1.615949e-002	-1.779902e-002	-6.763634e-001	2.133605e-001
9480000000	-7.329114e-001	1.095289e-001	-4.634712e-002	-2.200495e-001	1.620562e-002	-1.784671e-002	-6.751209e-001	2.135462e-001
9490000000	-7.324833e-001	1.098273e-001	-4.639129e-002	-2.194166e-001	1.612113e-002	-1.779480e-002	-6.752832e-001	2.134767e-001
9500000000	-7.319051e-001	1.090881e-001	-4.687268e-002	-2.185110e-001	1.619351e-002	-1.768627e-002	-6.757104e-001	2.136445e-001
9510000000	-7.315388e-001	1.089231e-001	-4.684329e-002	-2.179881e-001	1.624086e-002	-1.764024e-002	-6.750366e-001	2.133244e-001
9520000000	-7.307569e-001	1.083027e-001	-4.677786e-002	-2.173457e-001	1.628465e-002	-1.769230e-002	-6.745473e-001	2.127148e-001
9530000000	-7.305472e-001	1.084776e-001	-4.686473e-002	-2.166531e-001	1.651219e-002	-1.740051e-002	-6.740127e-001	2.122712e-001
9540000000	-7.306389e-001	1.081630e-001	-4.705047e-002	-2.162310e-001	1.653431e-002	-1.749540e-002	-6.731729e-001	2.116042e-001
9550000000	-7.300574e-001	1.076990e-001	-4.730986e-002	-2.154086e-001	1.658438e-002	-1.745187e-002	-6.716562e-001	2.115969e-001
9560000000	-7.304310e-001	1.070012e-001	-4.683969e-002	-2.149602e-001	1.654812e-002	-1.766746e-002	-6.698377e-001	2.111930e-001
9570000000	-7.305587e-001	1.072356e-001	-4.691629e-002	-2.145331e-001	1.657052e-002	-1.747813e-002	-6.691474e-001	2.107555e-001
9580000000	-7.307348e-001	1.071790e-001	-4.722366e-002	-2.140157e-001	1.676278e-002	-1.761552e-002	-6.672733e-001	2.115924e-001
9590000000	-7.308718e-001	1.067336e-001	-4.751434e-002	-2.138459e-001	1.686189e-002	-1.739110e-002	-6.658010e-001	2.121726e-001
9600000000	-7.315602e-001	1.063427e-001	-4.720212e-002	-2.132113e-001	1.677303e-002	-1.751991e-002	-6.647673e-001	2.123033e-001
9610000000	-7.318298e-001	1.055014e-001	-4.750041e-002	-2.128762e-001	1.707764e-002	-1.754494e-002	-6.634674e-001	2.140653e-001
9620000000	-7.321782e-001	1.052614e-001	-4.788338e-002	-2.123185e-001	1.701860e-002	-1.759211e-002	-6.622763e-001	2.142356e-001
9630000000	-7.319530e-001	1.041316e-001	-4.780873e-002	-2.118094e-001	1.691904e-002	-1.740151e-002	-6.621104e-001	2.154644e-001
9640000000	-7.318557e-001	1.035306e-001	-4.807630e-002	-2.112264e-001	1.697533e-002	-1.760962e-002	-6.616820e-001	2.153720e-001
9650000000	-7.314897e-001	1.026199e-001	-4.816260e-002	-2.106952e-001	1.702189e-002	-1.745682e-002	-6.618096e-001	2.156694e-001
9660000000	-7.302172e-001	1.025663e-001	-4.805590e-002	-2.103512e-001	1.713746e-002	-1.759279e-002	-6.616594e-001	2.158616e-001
9670000000	-7.296090e-001	1.018581e-001	-4.807268e-002	-2.096167e-001	1.708733e-002	-1.746858e-002	-6.616686e-001	2.155251e-001
9680000000	-7.292815e-001	1.023858e-001	-4.831226e-002	-2.094901e-001	1.714263e-002	-1.733879e-002	-6.614860e-001	2.150381e-001
9690000000	-7.291891e-001	1.014196e-001	-4.814778e-002	-2.088414e-001	1.698011e-002	-1.746280e-002	-6.612214e-001	2.143340e-001
9700000000	-7.282859e-001	1.016228e-001	-4.822522e-002	-2.085930e-001	1.727967e-002	-1.764064e-002	-6.605782e-001	2.129776e-001
9710000000	-7.288810e-001	1.025050e-001	-4.806328e-002	-2.078966e-001	1.725037e-002	-1.764595e-002	-6.595459e-001	2.134660e-001
9720000000	-7.288903e-001	1.019725e-001	-4.835552e-002	-2.071977e-001	1.734044e-002	-1.758918e-002	-6.588091e-001	2.123149e-001
9730000000	-7.291516e-001	1.026122e-001	-4.853604e-002	-2.070051e-001	1.746109e-002	-1.774102e-002	-6.574164e-001	2.120697e-001
9740000000	-7.299808e-001	1.027187e-001	-4.872523e-002	-2.065552e-001	1.738807e-002	-1.790815e-002	-6.565136e-001	2.118964e-001
9750000000	-7.293536e-001	1.025589e-001	-4.885580e-002	-2.061308e-001	1.746593e-002	-1.756105e-002	-6.544253e-001	2.111568e-001
9760000000	-7.299257e-001	1.025094e-001	-4.870250e-002	-2.058569e-001	1.758633e-002	-1.760889e-002	-6.536548e-001	2.123178e-001
9770000000	-7.305721e-001	1.024761e-001	-4.902346e-002	-2.052315e-001	1.756997e-002	-1.733381e-002	-6.529084e-001	2.125571e-001
9780000000	-7.305409e-001	1.012074e-001	-4.910067e-002	-2.043531e-001	1.743674e-002	-1.766629e-002	-6.516891e-001	2.129847e-001
9790000000	-7.299366e-001	1.010874e-001	-4.915572e-002	-2.043014e-001	1.757896e-002	-1.748975e-002	-6.514358e-001	2.139560e-001
9800000000	-7.297860e-001	9.987106e-002	-4.898527e-002	-2.038037e-001	1.768954e-002	-1.751099e-002	-6.505748e-001	2.137922e-001
9810000000	-7.296907e-001	9.836791e-002	-4.939603e-002	-2.035890e-001	1.776041e-002	-1.749102e-002	-6.511236e-001	2.144076e-001
9820000000	-7.286905e-001	9.693984e-002	-4.927107e-002	-2.029978e-001	1.788141e-002	-1.736971e-002	-6.508696e-001	2.144130e-001
9830000000	-7.273661e-001	9.594407e-002	-4.926868e-002	-2.028645e-001	1.766471e-002	-1.768110e-002	-6.510020e-001	2.141830e-001
9840000000	-7.275009e-001	9.577720e-002	-4.882429e-002	-2.026297e-001	1.786572e-002	-1.743546e-002	-6.510457e-001	2.140720e-001
9850000000	-7.264342e-001	9.484379e-002	-4.922240e-002	-2.023347e-001	1.796712e-002	-1.737162e-002	-6.514551e-001	2.135460e-001
9860000000	-7.254914e-001	9.450802e-002	-4.928021e-002	-2.018171e-001	1.792909e-002	-1.759467e-002	-6.510587e-001	2.125854e-001
9870000000	-7.249497e-001	9.518031e-002	-4.900213e-002	-2.013998e-001	1.830690e-002	-1.758583e-002	-6.503914e-001	2.116336e-001
9880000000	-7.245010e-001	9.546392e-002	-4.914620e-002	-2.009952e-001	1.806612e-002	-1.752786e-002	-6.501419e-001	2.103565e-001
9890000000	-7.248539e-001	9.621950e-002	-4.956480e-002	-2.003042e-001	1.829615e-002	-1.776714e-002	-6.492350e-001	2.106699e-001
9900000000	-7.236574e-001	9.626808e-002	-4.958540e-002	-2.002817e-001	1.838601e-002	-1.748105e-002	-6.484239e-001	2.096867e-001
9910000000	-7.241160e-001	9.716881e-002	-4.953708e-002	-1.997041e-001	1.832100e-002	-1.757190e-002	-6.465375e-001	2.093188e-001
9920000000	-7.240500e-001	9.669200e-002	-5.010581e-002	-1.993661e-001	1.815788e-002	-1.762244e-002	-6.451817e-001	2.087256e-001
9930000000	-7.245715e-001	9.656276e-002	-4.993155e-002	-1.996945e-001	1.818597e-002	-1.778842e-002	-6.449925e-001	2.087279e-001
9940000000	-7.246539e-001	9.651088e-002	-4.977334e-002	-1.987793e-001	1.835891e-002	-1.745048e-002	-6.433063e-001	2.090134e-001
9950000000	-7.247117e-001	9.585033e-002	-4.986502e-002	-1.985659e-001	1.831725e-002	-1.762079e-002	-6.426097e-001	2.096231e-001
9960000000	-7.255859e-001	9.483480e-002	-4.996027e-002	-1.982011e-001	1.838513e-002	-1.775664e-002	-6.427477e-001	2.100525e-001
9970000000	-7.257848e-001	9.245365e-002	-5.013065e-002	-1.980566e-001	1.825387e-002	-1.749040e-002	-6.426879e-001	2.106819e-001
9980000000	-7.244876e-001	9.213236e-002	-5.029348e-002	-1.974315e-001	1.844875e-002	-1.779815e-002	-6.428757e-001	2.115155e-001
9990000000	-7.237167e-001	9.131169e-002	-5.001829e-002	-1.970897e-001	1.851803e-002	-1.760210e-002	-6.430154e-001	2.113460e-001
10000000000	-7.228087e-001	9.019765e-002	-4.994195e-002	-1.969504e-001	1.871250e-002	-1.754501e-002	-6.439100e-001	2.107689e-001
10010000000	-7.216019e-001	8.921521e-002	-5.000328e-002	-1.966816e-001	1.869174e-002	-1.770453e-002	-6.446714e-001	2.108892e-001



!Noise Parameters
!Freq  NFmin(dB)  Mag(GammaOpt)  Ang(GammaOpt)(deg)  rn(normalized by ref. impedance)
1.45e9       0.9845       0.44213      69.216       0.20957     
1.5e9        1.0045       0.42392      71.625       0.20495     
1.6e9        1.0144       0.39344      75.78        0.20063     
1.7e9        1.0141       0.40823      80.106       0.20212     
1.8e9        1.0244       0.40751      83.684       0.19403     
1.85e9       1.0267       0.42383      85.076       0.17237     
1.9e9        1.0278       0.41889      88.787       0.18531     
2e9          1.0501       0.46628      91.192       0.14993     
2.1e9        1.0669       0.42857      94.469       0.17967     
2.2e9        1.1069       0.4253       96.001       0.19233     
2.3e9        1.1045       0.44421      98.137       0.17747     
2.4e9        1.1121       0.4553       100.13       0.15493     
2.5e9        1.1067       0.46237      101.16       0.1624      
2.6e9        1.1566       0.4423       103.39       0.17071     
2.7e9        1.1727       0.45396      106.08       0.16739     
2.75e9       1.2038       0.449        110.27       0.16233     
