!Agilent Technologies,E5071C,MY46317100,A.11.08
!Date: Fri Dec 12 16:51:30 2014
!Data & Calibration Information:
!Freq	S11:SOLT2(ON)	S21:SOLT2(ON)	S12:SOLT2(ON)	S22:SOLT2(ON)
!PortZ  Port1:50+j0    Port2:50+j0
!Above PortZ is port z conversion or system Z0 setting when saving the data.
!When reading, reference impedance value at option line is always used.
# Hz S RI R 50
300000	9.231536e-001	3.771124e-001	-5.898188e-004	-8.021398e-004	-2.979408e-003	1.942845e-003	9.219764e-001	3.795130e-001
6549813	9.356804e-001	1.513312e-001	-1.555241e-002	-1.777778e-002	-8.705631e-004	9.215394e-004	9.814424e-001	1.792107e-001
12799625	9.399733e-001	-3.043587e-002	-2.026865e-002	-1.931423e-002	-3.012359e-004	-2.144376e-004	9.991297e-001	-1.832480e-002
19049438	9.391893e-001	-3.481868e-002	-1.900708e-002	-2.334136e-002	-2.630070e-004	3.231146e-004	9.999032e-001	-2.707461e-002
25299250	9.368627e-001	-3.744721e-002	-2.028866e-002	-2.832158e-002	-2.764429e-004	-1.553195e-004	9.992502e-001	-3.535005e-002
31549063	9.361889e-001	-4.274478e-002	-1.942605e-002	-3.308212e-002	1.004234e-004	-3.352362e-004	9.978227e-001	-4.562755e-002
37798875	9.360412e-001	-4.994533e-002	-1.864816e-002	-3.886503e-002	-1.118915e-004	3.188292e-004	9.982546e-001	-5.534145e-002
44048688	9.343552e-001	-5.820516e-002	-1.841433e-002	-4.454109e-002	7.789428e-005	1.146397e-004	9.976448e-001	-6.287765e-002
50298500	9.333893e-001	-6.229995e-002	-1.650777e-002	-5.018583e-002	4.732145e-004	1.662324e-004	9.959822e-001	-7.228656e-002
56548313	9.342060e-001	-6.718709e-002	-1.539990e-002	-5.696209e-002	3.216475e-004	-5.532841e-005	9.947409e-001	-8.106394e-002
62798125	9.324357e-001	-7.614437e-002	-1.407594e-002	-6.279788e-002	-1.776306e-004	1.307944e-004	9.943626e-001	-8.993708e-002
69047938	9.304458e-001	-8.275279e-002	-1.264718e-002	-6.950159e-002	-3.859196e-004	1.786605e-005	9.925921e-001	-9.893286e-002
75297750	9.304889e-001	-8.939317e-002	-1.115063e-002	-7.557438e-002	8.152218e-005	7.918092e-005	9.936965e-001	-1.073230e-001
81547563	9.302869e-001	-9.509124e-002	-8.549947e-003	-8.251198e-002	2.606247e-004	-1.387749e-004	9.927707e-001	-1.158368e-001
87797375	9.276766e-001	-1.017462e-001	-7.370638e-003	-8.881479e-002	2.694627e-004	3.176299e-004	9.904845e-001	-1.242101e-001
94047188	9.275791e-001	-1.089554e-001	-5.771724e-003	-9.519953e-002	-2.356618e-005	-3.063464e-004	9.896344e-001	-1.332127e-001
100297000	9.256296e-001	-1.140697e-001	-3.139140e-003	-1.024240e-001	-7.518848e-005	2.311159e-004	9.883408e-001	-1.421763e-001
106546813	9.238961e-001	-1.209705e-001	-6.100352e-004	-1.095829e-001	1.011100e-004	3.115963e-004	9.865527e-001	-1.515680e-001
112796625	9.230329e-001	-1.281791e-001	9.588953e-004	-1.170723e-001	-1.092944e-004	1.859580e-004	9.838079e-001	-1.604229e-001
119046438	9.224464e-001	-1.351413e-001	3.369135e-003	-1.250588e-001	-3.273784e-004	-3.152586e-006	9.837321e-001	-1.687482e-001
125296250	9.201116e-001	-1.412171e-001	6.558610e-003	-1.333609e-001	-1.016056e-004	-2.106429e-004	9.816914e-001	-1.763596e-001
131546063	9.197803e-001	-1.478228e-001	9.114424e-003	-1.411557e-001	3.479067e-004	1.810082e-004	9.792960e-001	-1.851990e-001
137795875	9.186820e-001	-1.541605e-001	1.205933e-002	-1.497378e-001	-2.272056e-004	6.274967e-005	9.779675e-001	-1.940790e-001
144045688	9.170185e-001	-1.609160e-001	1.435357e-002	-1.583964e-001	6.906165e-005	2.859774e-004	9.764429e-001	-2.030535e-001
150295500	9.160980e-001	-1.670762e-001	1.850164e-002	-1.663599e-001	9.972840e-005	-5.480064e-004	9.747447e-001	-2.114768e-001
156545313	9.139784e-001	-1.741976e-001	2.184336e-002	-1.756328e-001	-1.204556e-005	-3.221378e-004	9.718747e-001	-2.216624e-001
162795125	9.121168e-001	-1.815984e-001	2.483002e-002	-1.861639e-001	1.541102e-004	1.095113e-004	9.705064e-001	-2.287165e-001
169044938	9.094192e-001	-1.884618e-001	2.767253e-002	-1.963793e-001	-1.908526e-005	4.352888e-005	9.677558e-001	-2.379004e-001
175294750	9.087571e-001	-1.946417e-001	3.050391e-002	-2.061002e-001	-9.068586e-005	-1.453259e-004	9.644925e-001	-2.472603e-001
181544563	9.082396e-001	-2.007410e-001	3.378426e-002	-2.172252e-001	1.559173e-004	5.869616e-005	9.628864e-001	-2.554340e-001
187794375	9.063500e-001	-2.072255e-001	3.735231e-002	-2.277444e-001	-2.726699e-005	-7.727438e-005	9.608856e-001	-2.633814e-001
194044188	9.043155e-001	-2.136918e-001	4.063102e-002	-2.386370e-001	-1.824290e-004	-3.917168e-004	9.578216e-001	-2.720140e-001
200294000	9.028045e-001	-2.194698e-001	4.414530e-002	-2.495352e-001	-4.409149e-004	2.263375e-004	9.546501e-001	-2.796366e-001
206543813	9.019597e-001	-2.264486e-001	4.634613e-002	-2.619178e-001	-2.728229e-004	-1.145336e-004	9.524959e-001	-2.886121e-001
212793625	8.993801e-001	-2.324141e-001	4.883449e-002	-2.742399e-001	-1.653154e-004	-3.498823e-005	9.491887e-001	-2.982103e-001
219043438	8.976460e-001	-2.393291e-001	5.098376e-002	-2.871301e-001	-7.294449e-004	-2.314969e-004	9.454863e-001	-3.059135e-001
225293250	8.962415e-001	-2.459638e-001	5.360163e-002	-3.002755e-001	-2.162998e-004	3.417366e-005	9.423656e-001	-3.140569e-001
231543063	8.930821e-001	-2.514146e-001	5.554071e-002	-3.130659e-001	-3.856211e-004	-1.473761e-004	9.390785e-001	-3.222797e-001
237792875	8.909579e-001	-2.580958e-001	5.787122e-002	-3.272176e-001	-7.416494e-005	-7.638785e-005	9.353436e-001	-3.309809e-001
244042688	8.888841e-001	-2.649908e-001	5.963404e-002	-3.416113e-001	-1.952432e-004	3.143578e-005	9.323854e-001	-3.386193e-001
250292500	8.878270e-001	-2.715451e-001	6.218401e-002	-3.563269e-001	2.031176e-004	-3.237421e-004	9.289825e-001	-3.473589e-001
256542313	8.853385e-001	-2.777895e-001	6.506234e-002	-3.720464e-001	-3.167193e-004	-7.384261e-004	9.258117e-001	-3.553913e-001
262792125	8.823057e-001	-2.845032e-001	6.550628e-002	-3.883891e-001	-1.297625e-003	-4.293177e-004	9.225175e-001	-3.633955e-001
269041938	8.803418e-001	-2.908258e-001	6.696325e-002	-4.058431e-001	-1.081484e-004	-3.395865e-004	9.171971e-001	-3.711379e-001
275291750	8.777264e-001	-2.967618e-001	6.838408e-002	-4.213633e-001	-7.665481e-004	-1.380368e-004	9.138725e-001	-3.797336e-001
281541563	8.763320e-001	-3.028953e-001	6.784390e-002	-4.393395e-001	1.914424e-005	-1.421906e-004	9.088075e-001	-3.870034e-001
287791375	8.734889e-001	-3.087304e-001	6.858968e-002	-4.572056e-001	-6.258267e-004	-4.166645e-004	9.055043e-001	-3.957041e-001
294041188	8.705974e-001	-3.153147e-001	6.757877e-002	-4.740204e-001	-9.674031e-004	-3.959177e-004	9.009586e-001	-4.029644e-001
300291000	8.682562e-001	-3.217549e-001	6.743578e-002	-4.923249e-001	-3.966099e-004	4.290874e-004	8.968736e-001	-4.121333e-001
306540813	8.665623e-001	-3.282739e-001	6.754850e-002	-5.129224e-001	-4.476523e-004	-3.404305e-004	8.928824e-001	-4.188164e-001
312790625	8.632398e-001	-3.339969e-001	6.483449e-002	-5.333204e-001	-4.068463e-004	-5.962090e-004	8.884610e-001	-4.262829e-001
319040438	8.599717e-001	-3.401480e-001	6.248774e-002	-5.539784e-001	-5.100227e-004	-2.642300e-004	8.838465e-001	-4.346059e-001
325290250	8.579860e-001	-3.470167e-001	5.780120e-002	-5.740478e-001	-6.002357e-004	-3.337550e-004	8.768766e-001	-4.432853e-001
331540063	8.554105e-001	-3.534452e-001	5.469320e-002	-5.961978e-001	-4.126467e-004	-3.929030e-004	8.732163e-001	-4.507775e-001
337789875	8.513326e-001	-3.597437e-001	4.938651e-002	-6.171941e-001	-1.192147e-003	-2.899532e-004	8.688297e-001	-4.575100e-001
344039688	8.485973e-001	-3.649654e-001	4.487228e-002	-6.383887e-001	-6.143678e-004	-6.431022e-004	8.646123e-001	-4.652373e-001
350289500	8.466437e-001	-3.720761e-001	3.841616e-002	-6.636731e-001	-7.135084e-004	-4.209765e-004	8.590427e-001	-4.728612e-001
356539313	8.437947e-001	-3.779602e-001	3.109503e-002	-6.869470e-001	-8.849113e-004	-3.729854e-004	8.529200e-001	-4.794252e-001
362789125	8.402268e-001	-3.838771e-001	2.423924e-002	-7.107443e-001	-1.218561e-003	-8.805817e-005	8.483119e-001	-4.859766e-001
369038938	8.371988e-001	-3.898248e-001	1.352928e-002	-7.354598e-001	-1.036529e-003	5.344063e-004	8.425504e-001	-4.942752e-001
375288750	8.329778e-001	-3.970015e-001	2.612130e-003	-7.625121e-001	-8.019037e-004	-2.279852e-005	8.370814e-001	-5.005648e-001
381538563	8.302068e-001	-4.027512e-001	-9.563806e-003	-7.860942e-001	-9.388518e-004	-4.891295e-004	8.321221e-001	-5.073682e-001
387788375	8.272048e-001	-4.098217e-001	-2.403203e-002	-8.144556e-001	-1.468427e-003	-4.056253e-004	8.258569e-001	-5.142424e-001
394038188	8.239788e-001	-4.154175e-001	-3.937598e-002	-8.389847e-001	-1.384066e-003	-5.871626e-004	8.203122e-001	-5.211890e-001
400288000	8.201050e-001	-4.208990e-001	-5.704143e-002	-8.632065e-001	-1.485635e-003	-2.525859e-004	8.152739e-001	-5.272902e-001
406537813	8.165645e-001	-4.277083e-001	-7.529485e-002	-8.910010e-001	-1.468233e-003	-5.620992e-004	8.091561e-001	-5.339460e-001
412787625	8.127874e-001	-4.335443e-001	-9.787732e-002	-9.194052e-001	-1.171951e-003	-2.420491e-005	8.016630e-001	-5.401804e-001
419037438	8.091533e-001	-4.401692e-001	-1.208561e-001	-9.445932e-001	-2.119114e-003	-2.409196e-004	7.968840e-001	-5.464031e-001
425287250	8.046382e-001	-4.461847e-001	-1.476642e-001	-9.710085e-001	-1.610327e-003	-2.010615e-004	7.896838e-001	-5.514017e-001
431537063	8.006857e-001	-4.526099e-001	-1.758322e-001	-9.961373e-001	-1.937826e-003	-6.511223e-005	7.844129e-001	-5.580349e-001
437786875	7.958984e-001	-4.590791e-001	-2.082880e-001	-1.021461e+000	-1.913646e-003	-2.060387e-004	7.763402e-001	-5.639460e-001
444036688	7.906910e-001	-4.643515e-001	-2.411959e-001	-1.042257e+000	-1.909255e-003	-8.206377e-004	7.714198e-001	-5.693765e-001
450286500	7.852523e-001	-4.700457e-001	-2.754052e-001	-1.065702e+000	-1.898837e-003	3.919279e-004	7.637983e-001	-5.736727e-001
456536313	7.807497e-001	-4.757613e-001	-3.138987e-001	-1.084808e+000	-2.791040e-003	1.818002e-004	7.574854e-001	-5.796472e-001
462786125	7.759081e-001	-4.820068e-001	-3.564942e-001	-1.103945e+000	-1.707784e-003	-4.826105e-004	7.507174e-001	-5.843813e-001
469035938	7.703728e-001	-4.875434e-001	-3.981950e-001	-1.121194e+000	-2.938669e-003	2.244776e-004	7.443135e-001	-5.887400e-001
475285750	7.655055e-001	-4.922191e-001	-4.465444e-001	-1.130393e+000	-2.819430e-003	4.172035e-004	7.374752e-001	-5.930032e-001
481535563	7.595873e-001	-4.984775e-001	-4.991496e-001	-1.138872e+000	-2.738985e-003	6.044315e-004	7.312170e-001	-5.961466e-001
487785375	7.532116e-001	-5.034483e-001	-5.508210e-001	-1.139319e+000	-3.098428e-003	1.669862e-004	7.255858e-001	-5.995718e-001
494035188	7.474730e-001	-5.075794e-001	-6.074440e-001	-1.136345e+000	-2.621535e-003	9.108439e-004	7.196448e-001	-6.041559e-001
500285000	7.420491e-001	-5.121620e-001	-6.628883e-001	-1.130542e+000	-3.274261e-003	5.648615e-004	7.135706e-001	-6.074003e-001
506534813	7.366068e-001	-5.160839e-001	-7.202501e-001	-1.117059e+000	-3.045293e-003	1.000217e-003	7.076358e-001	-6.102552e-001
512784625	7.298905e-001	-5.213100e-001	-7.748750e-001	-1.095832e+000	-2.558853e-003	9.910436e-004	7.013389e-001	-6.133962e-001
519034438	7.224758e-001	-5.238893e-001	-8.298525e-001	-1.066129e+000	-2.743621e-003	1.245627e-003	6.973336e-001	-6.173915e-001
525284250	7.159830e-001	-5.280919e-001	-8.837740e-001	-1.031992e+000	-2.576109e-003	1.090417e-003	6.928981e-001	-6.198158e-001
531534063	7.103354e-001	-5.299682e-001	-9.292937e-001	-9.872317e-001	-3.133276e-003	1.532041e-003	6.880965e-001	-6.210099e-001
537783875	7.041831e-001	-5.324761e-001	-9.675155e-001	-9.407395e-001	-2.577189e-003	1.718288e-003	6.843924e-001	-6.251560e-001
544033688	6.986708e-001	-5.336543e-001	-1.006180e+000	-8.840852e-001	-2.834110e-003	1.731786e-003	6.805900e-001	-6.283179e-001
550283500	6.927989e-001	-5.352933e-001	-1.032530e+000	-8.276964e-001	-3.060833e-003	2.062916e-003	6.787324e-001	-6.310112e-001
556533313	6.869048e-001	-5.360543e-001	-1.051232e+000	-7.639575e-001	-2.326274e-003	1.683096e-003	6.747680e-001	-6.336608e-001
562783125	6.827189e-001	-5.371774e-001	-1.063603e+000	-7.037680e-001	-2.812083e-003	2.310535e-003	6.722900e-001	-6.384506e-001
569032938	6.783186e-001	-5.386606e-001	-1.060074e+000	-6.414498e-001	-2.873108e-003	1.995825e-003	6.695413e-001	-6.428122e-001
575282750	6.736510e-001	-5.388525e-001	-1.053493e+000	-5.819804e-001	-2.214518e-003	2.034920e-003	6.661983e-001	-6.469378e-001
581532563	6.707886e-001	-5.400800e-001	-1.039709e+000	-5.222330e-001	-2.116649e-003	2.262949e-003	6.627217e-001	-6.529330e-001
587782375	6.663496e-001	-5.407514e-001	-1.014723e+000	-4.713619e-001	-2.158240e-003	2.364784e-003	6.611104e-001	-6.575404e-001
594032188	6.641039e-001	-5.417143e-001	-9.873236e-001	-4.235107e-001	-2.008210e-003	2.296891e-003	6.576562e-001	-6.626244e-001
600282000	6.609082e-001	-5.429701e-001	-9.529432e-001	-3.821052e-001	-2.476471e-003	2.370927e-003	6.535911e-001	-6.696308e-001
606531813	6.587154e-001	-5.446454e-001	-9.152020e-001	-3.469609e-001	-1.405779e-003	1.944964e-003	6.510687e-001	-6.763415e-001
612781625	6.567276e-001	-5.464596e-001	-8.756981e-001	-3.183254e-001	-1.566973e-003	2.215672e-003	6.467349e-001	-6.819330e-001
619031438	6.546794e-001	-5.483102e-001	-8.346138e-001	-2.964330e-001	-1.513265e-003	2.082080e-003	6.420504e-001	-6.881162e-001
625281250	6.522581e-001	-5.500517e-001	-7.941836e-001	-2.770771e-001	-1.938751e-003	2.307511e-003	6.383709e-001	-6.958962e-001
631531063	6.498008e-001	-5.530913e-001	-7.533731e-001	-2.637683e-001	-1.311980e-003	1.637438e-003	6.336417e-001	-7.024809e-001
637780875	6.476463e-001	-5.536072e-001	-7.100562e-001	-2.574543e-001	-1.158386e-003	1.959657e-003	6.284888e-001	-7.095155e-001
644030688	6.452866e-001	-5.566281e-001	-6.692240e-001	-2.574542e-001	-1.653227e-003	2.149902e-003	6.239482e-001	-7.139066e-001
650280500	6.446133e-001	-5.598194e-001	-6.318712e-001	-2.613194e-001	-1.488911e-003	1.970808e-003	6.172647e-001	-7.222440e-001
656530313	6.413285e-001	-5.634002e-001	-5.950467e-001	-2.660471e-001	-1.660292e-003	1.303097e-003	6.116401e-001	-7.274463e-001
662780125	6.394313e-001	-5.661356e-001	-5.621012e-001	-2.744979e-001	-1.646640e-003	1.981028e-003	6.062828e-001	-7.350352e-001
669029938	6.377693e-001	-5.699757e-001	-5.287328e-001	-2.856294e-001	-1.180644e-003	1.667286e-003	5.999643e-001	-7.413976e-001
675279750	6.352035e-001	-5.731546e-001	-4.963874e-001	-3.003388e-001	-1.676845e-003	1.639126e-003	5.922853e-001	-7.472513e-001
681529563	6.326630e-001	-5.759955e-001	-4.675153e-001	-3.146725e-001	-1.490330e-003	1.014302e-003	5.868908e-001	-7.539173e-001
687779375	6.298950e-001	-5.802568e-001	-4.406729e-001	-3.324221e-001	-1.772277e-003	1.269255e-003	5.796729e-001	-7.607632e-001
694029188	6.282024e-001	-5.835687e-001	-4.160140e-001	-3.536758e-001	-1.568141e-003	1.109192e-003	5.729711e-001	-7.664234e-001
700279000	6.249299e-001	-5.868257e-001	-3.930658e-001	-3.734829e-001	-1.560032e-003	1.343274e-003	5.662160e-001	-7.716659e-001
706528813	6.221870e-001	-5.909291e-001	-3.723682e-001	-3.966211e-001	-1.595171e-003	8.722612e-004	5.593937e-001	-7.785018e-001
712778625	6.200719e-001	-5.951201e-001	-3.538313e-001	-4.194997e-001	-1.655621e-003	1.091932e-003	5.508854e-001	-7.829720e-001
719028438	6.177074e-001	-5.971881e-001	-3.366064e-001	-4.434148e-001	-1.781194e-003	1.063762e-003	5.445298e-001	-7.882741e-001
725278250	6.144725e-001	-6.000474e-001	-3.207253e-001	-4.691964e-001	-1.712699e-003	8.886892e-004	5.365948e-001	-7.933657e-001
731528063	6.128668e-001	-6.044500e-001	-3.075322e-001	-4.947256e-001	-1.332706e-003	3.878513e-004	5.285246e-001	-7.994899e-001
737777875	6.098994e-001	-6.081663e-001	-2.972280e-001	-5.190031e-001	-2.259887e-003	8.275298e-004	5.220653e-001	-8.031473e-001
744027688	6.067489e-001	-6.115273e-001	-2.878939e-001	-5.464036e-001	-2.015531e-003	1.044239e-003	5.136444e-001	-8.081031e-001
750277500	6.027812e-001	-6.154557e-001	-2.801524e-001	-5.726871e-001	-1.601747e-003	6.188612e-004	5.062974e-001	-8.135016e-001
756527313	5.998076e-001	-6.185967e-001	-2.704310e-001	-5.995626e-001	-2.143260e-003	2.353883e-004	4.985298e-001	-8.180753e-001
762777125	5.968717e-001	-6.221415e-001	-2.644366e-001	-6.260995e-001	-2.266300e-003	4.331923e-004	4.906707e-001	-8.227965e-001
769026938	5.943682e-001	-6.260915e-001	-2.616103e-001	-6.526108e-001	-2.201692e-003	7.454113e-004	4.821611e-001	-8.273723e-001
775276750	5.906365e-001	-6.303497e-001	-2.591672e-001	-6.784541e-001	-2.167518e-003	6.124623e-004	4.739469e-001	-8.313652e-001
781526563	5.875437e-001	-6.333349e-001	-2.555822e-001	-7.056135e-001	-2.270535e-003	3.892070e-004	4.663227e-001	-8.352373e-001
787776375	5.835734e-001	-6.369279e-001	-2.553641e-001	-7.308005e-001	-2.376673e-003	3.280729e-004	4.576640e-001	-8.389455e-001
794026188	5.808479e-001	-6.407251e-001	-2.549164e-001	-7.588658e-001	-2.650364e-003	2.057519e-004	4.489740e-001	-8.441969e-001
800276000	5.774654e-001	-6.439284e-001	-2.566153e-001	-7.860852e-001	-2.874831e-003	9.418362e-005	4.410356e-001	-8.466800e-001
806525813	5.741637e-001	-6.469840e-001	-2.588497e-001	-8.104448e-001	-2.714906e-003	1.480834e-004	4.331426e-001	-8.499625e-001
812775625	5.708819e-001	-6.515567e-001	-2.632536e-001	-8.355250e-001	-3.083265e-003	-1.481680e-004	4.256512e-001	-8.543665e-001
819025438	5.674760e-001	-6.546504e-001	-2.667490e-001	-8.628586e-001	-3.327428e-003	1.539569e-004	4.171195e-001	-8.573549e-001
825275250	5.631574e-001	-6.579412e-001	-2.704648e-001	-8.878769e-001	-3.386621e-003	-1.077864e-004	4.071857e-001	-8.610279e-001
831525063	5.596086e-001	-6.618180e-001	-2.777064e-001	-9.140936e-001	-3.489327e-003	-2.773786e-004	3.988773e-001	-8.631800e-001
837774875	5.564069e-001	-6.647927e-001	-2.852895e-001	-9.402969e-001	-3.669640e-003	-1.848727e-004	3.913589e-001	-8.672064e-001
844024688	5.534159e-001	-6.681472e-001	-2.936129e-001	-9.647768e-001	-3.364293e-003	-3.210346e-004	3.817707e-001	-8.707775e-001
850274500	5.492109e-001	-6.709570e-001	-3.008410e-001	-9.860683e-001	-3.941758e-003	-5.219601e-004	3.748378e-001	-8.714728e-001
856524313	5.456901e-001	-6.748131e-001	-3.110637e-001	-1.012971e+000	-4.115113e-003	-3.003994e-004	3.647694e-001	-8.758033e-001
862774125	5.413354e-001	-6.779264e-001	-3.171281e-001	-1.037740e+000	-3.391671e-003	-2.627759e-004	3.565451e-001	-8.782364e-001
869023938	5.382676e-001	-6.812875e-001	-3.261140e-001	-1.061155e+000	-3.720522e-003	-5.561960e-004	3.477333e-001	-8.812872e-001
875273750	5.346136e-001	-6.852456e-001	-3.400829e-001	-1.085934e+000	-4.380339e-003	-6.994547e-004	3.392430e-001	-8.827047e-001
881523563	5.298929e-001	-6.883015e-001	-3.509541e-001	-1.110000e+000	-4.416048e-003	-4.005815e-004	3.293837e-001	-8.857112e-001
887773375	5.257671e-001	-6.902512e-001	-3.629234e-001	-1.132605e+000	-3.991781e-003	-4.981843e-004	3.219316e-001	-8.861844e-001
894023188	5.224601e-001	-6.940611e-001	-3.779972e-001	-1.156734e+000	-4.578068e-003	-9.472885e-004	3.144266e-001	-8.894702e-001
900273000	5.176880e-001	-6.976557e-001	-3.916758e-001	-1.175423e+000	-4.509744e-003	-4.940237e-004	3.046628e-001	-8.913296e-001
906522813	5.144879e-001	-7.002012e-001	-4.055331e-001	-1.200435e+000	-4.796362e-003	-7.794320e-004	2.955428e-001	-8.934282e-001
912772625	5.098921e-001	-7.037654e-001	-4.219889e-001	-1.222237e+000	-4.806167e-003	-2.797132e-004	2.861814e-001	-8.956223e-001
919022438	5.071723e-001	-7.073434e-001	-4.353712e-001	-1.243100e+000	-5.243835e-003	-7.155835e-004	2.785573e-001	-8.970323e-001
925272250	5.030349e-001	-7.091701e-001	-4.515549e-001	-1.266463e+000	-5.594446e-003	-9.967940e-004	2.697651e-001	-8.996506e-001
931522063	4.987725e-001	-7.125374e-001	-4.691681e-001	-1.287792e+000	-5.414753e-003	-4.771257e-004	2.627234e-001	-8.993724e-001
937771875	4.943709e-001	-7.158083e-001	-4.838183e-001	-1.306753e+000	-5.097989e-003	-3.280031e-004	2.528185e-001	-9.012269e-001
944021688	4.903292e-001	-7.177317e-001	-4.997603e-001	-1.329611e+000	-5.697455e-003	-3.104133e-004	2.435236e-001	-9.023350e-001
950271500	4.864621e-001	-7.206648e-001	-5.186940e-001	-1.351992e+000	-6.136501e-003	-3.326456e-004	2.360771e-001	-9.038252e-001
956521313	4.824794e-001	-7.235426e-001	-5.399863e-001	-1.372501e+000	-6.173974e-003	-6.001662e-004	2.270379e-001	-9.043647e-001
962771125	4.781695e-001	-7.273089e-001	-5.578793e-001	-1.393644e+000	-6.316511e-003	-4.246079e-004	2.157258e-001	-9.081013e-001
969020938	4.736707e-001	-7.297264e-001	-5.775190e-001	-1.411410e+000	-6.238002e-003	-8.438995e-004	2.097380e-001	-9.071382e-001
975270750	4.708497e-001	-7.320343e-001	-5.963431e-001	-1.433318e+000	-6.403507e-003	-5.338031e-004	1.995503e-001	-9.086811e-001
981520563	4.672463e-001	-7.363116e-001	-6.194555e-001	-1.454681e+000	-6.937504e-003	-6.456815e-004	1.905371e-001	-9.090872e-001
987770375	4.622773e-001	-7.375918e-001	-6.455878e-001	-1.474596e+000	-6.372380e-003	-7.302594e-005	1.830040e-001	-9.090749e-001
994020188	4.578422e-001	-7.403460e-001	-6.604846e-001	-1.487938e+000	-6.848158e-003	-5.963187e-004	1.725421e-001	-9.098353e-001
1000270000	4.527935e-001	-7.430962e-001	-6.858224e-001	-1.505940e+000	-7.040151e-003	-3.999119e-004	1.637283e-001	-9.103078e-001
1006519813	4.499562e-001	-7.454684e-001	-7.030518e-001	-1.527491e+000	-7.163884e-003	-4.778609e-004	1.560687e-001	-9.112842e-001
1012769625	4.457088e-001	-7.490312e-001	-7.291244e-001	-1.543150e+000	-7.518739e-003	-4.527136e-004	1.466498e-001	-9.112151e-001
1019019438	4.412895e-001	-7.517753e-001	-7.508955e-001	-1.559232e+000	-7.957186e-003	2.365226e-004	1.369619e-001	-9.108215e-001
1025269250	4.363476e-001	-7.534240e-001	-7.758471e-001	-1.575568e+000	-8.151527e-003	-5.202371e-004	1.292089e-001	-9.106695e-001
1031519063	4.316903e-001	-7.558058e-001	-8.008466e-001	-1.587780e+000	-8.408865e-003	-6.652380e-004	1.193024e-001	-9.098975e-001
1037768875	4.279646e-001	-7.587456e-001	-8.208831e-001	-1.603836e+000	-8.070517e-003	-3.098579e-004	1.109835e-001	-9.095536e-001
1044018688	4.236794e-001	-7.611267e-001	-8.481466e-001	-1.623095e+000	-8.183185e-003	-2.908588e-004	1.036649e-001	-9.099866e-001
1050268500	4.194006e-001	-7.636729e-001	-8.774713e-001	-1.640521e+000	-8.650730e-003	-7.364266e-004	9.377315e-002	-9.106687e-001
1056518313	4.143826e-001	-7.664147e-001	-9.055159e-001	-1.652484e+000	-9.259517e-003	4.754349e-006	8.567185e-002	-9.094077e-001
1062768125	4.104314e-001	-7.687860e-001	-9.291251e-001	-1.666663e+000	-8.910152e-003	1.385903e-004	7.581094e-002	-9.086934e-001
1069017938	4.051277e-001	-7.699827e-001	-9.567625e-001	-1.681114e+000	-9.115542e-003	-3.139218e-004	6.792153e-002	-9.063713e-001
1075267750	4.019340e-001	-7.727024e-001	-9.811864e-001	-1.694140e+000	-9.526174e-003	-2.628961e-004	5.847355e-002	-9.056186e-001
1081517563	3.960877e-001	-7.751116e-001	-1.011555e+000	-1.710315e+000	-9.643747e-003	-2.797552e-004	4.957322e-002	-9.065597e-001
1087767375	3.922174e-001	-7.774718e-001	-1.042393e+000	-1.722790e+000	-9.862483e-003	-2.087029e-004	4.030930e-002	-9.047365e-001
1094017188	3.875482e-001	-7.794492e-001	-1.068487e+000	-1.732966e+000	-1.007127e-002	-3.649948e-004	3.203785e-002	-9.024836e-001
1100267000	3.831295e-001	-7.815832e-001	-1.098022e+000	-1.741629e+000	-1.009356e-002	3.962403e-004	2.456872e-002	-9.006253e-001
1106516813	3.785749e-001	-7.831466e-001	-1.122915e+000	-1.752936e+000	-1.043000e-002	5.138979e-004	1.471578e-002	-8.998056e-001
1112766625	3.743676e-001	-7.852186e-001	-1.155923e+000	-1.766953e+000	-1.079240e-002	4.971543e-004	6.677291e-003	-8.982114e-001
1119016438	3.709805e-001	-7.882721e-001	-1.182287e+000	-1.781627e+000	-1.080883e-002	2.802517e-004	-2.394588e-003	-8.981506e-001
1125266250	3.640171e-001	-7.903363e-001	-1.215393e+000	-1.790020e+000	-1.068915e-002	3.769605e-004	-1.120024e-002	-8.959671e-001
1131516063	3.596102e-001	-7.916766e-001	-1.244132e+000	-1.796796e+000	-1.132253e-002	3.478073e-004	-1.879581e-002	-8.946509e-001
1137765875	3.552801e-001	-7.936337e-001	-1.275914e+000	-1.809497e+000	-1.117523e-002	7.329333e-004	-2.857620e-002	-8.914983e-001
1144015688	3.507234e-001	-7.953186e-001	-1.307717e+000	-1.815814e+000	-1.198972e-002	1.139059e-003	-3.710556e-002	-8.895066e-001
1150265500	3.455953e-001	-7.982799e-001	-1.338598e+000	-1.824622e+000	-1.195975e-002	7.336706e-004	-4.617309e-002	-8.866795e-001
1156515313	3.416219e-001	-7.985277e-001	-1.371586e+000	-1.829785e+000	-1.244513e-002	5.666903e-004	-5.479378e-002	-8.858627e-001
1162765125	3.369258e-001	-8.021578e-001	-1.403515e+000	-1.836863e+000	-1.290428e-002	1.023005e-003	-6.246054e-002	-8.835076e-001
1169014938	3.322066e-001	-8.022594e-001	-1.438653e+000	-1.847731e+000	-1.222815e-002	1.125162e-003	-7.063960e-002	-8.814117e-001
1175264750	3.270785e-001	-8.037649e-001	-1.465600e+000	-1.850665e+000	-1.262184e-002	8.501810e-004	-7.958223e-002	-8.787224e-001
1181514563	3.224644e-001	-8.067813e-001	-1.505931e+000	-1.855011e+000	-1.277630e-002	1.042890e-003	-8.805630e-002	-8.766872e-001
1187764375	3.174046e-001	-8.090459e-001	-1.532478e+000	-1.860217e+000	-1.321274e-002	1.286838e-003	-9.590852e-002	-8.724351e-001
1194014188	3.129802e-001	-8.088305e-001	-1.573578e+000	-1.870172e+000	-1.305975e-002	9.755644e-004	-1.042177e-001	-8.698380e-001
1200264000	3.086440e-001	-8.102924e-001	-1.599675e+000	-1.871184e+000	-1.387940e-002	1.642679e-003	-1.131827e-001	-8.674576e-001
1206513813	3.038213e-001	-8.128493e-001	-1.636310e+000	-1.872196e+000	-1.360145e-002	1.876617e-003	-1.216020e-001	-8.635138e-001
1212763625	2.997765e-001	-8.148812e-001	-1.669353e+000	-1.879015e+000	-1.432888e-002	1.740929e-003	-1.286936e-001	-8.612053e-001
1219013438	2.953804e-001	-8.156139e-001	-1.702587e+000	-1.874816e+000	-1.446687e-002	2.250476e-003	-1.382367e-001	-8.581739e-001
1225263250	2.903644e-001	-8.172620e-001	-1.735305e+000	-1.875688e+000	-1.442062e-002	2.572857e-003	-1.465665e-001	-8.540713e-001
1231513063	2.851071e-001	-8.189136e-001	-1.773563e+000	-1.881049e+000	-1.505646e-002	2.202711e-003	-1.534757e-001	-8.509829e-001
1237762875	2.807566e-001	-8.193883e-001	-1.810565e+000	-1.882389e+000	-1.538779e-002	2.384427e-003	-1.616827e-001	-8.467099e-001
1244012688	2.747890e-001	-8.222152e-001	-1.842795e+000	-1.878781e+000	-1.544045e-002	2.625020e-003	-1.698775e-001	-8.437104e-001
1250262500	2.698632e-001	-8.233107e-001	-1.877898e+000	-1.875233e+000	-1.560405e-002	3.140760e-003	-1.783899e-001	-8.400690e-001
1256512313	2.654000e-001	-8.242239e-001	-1.914738e+000	-1.877560e+000	-1.565985e-002	3.174625e-003	-1.857668e-001	-8.358489e-001
1262762125	2.602274e-001	-8.255880e-001	-1.944801e+000	-1.881874e+000	-1.566746e-002	2.925462e-003	-1.938858e-001	-8.317677e-001
1269011938	2.557728e-001	-8.268428e-001	-1.986961e+000	-1.885894e+000	-1.605262e-002	3.002335e-003	-2.007938e-001	-8.279829e-001
1275261750	2.517435e-001	-8.281102e-001	-2.020235e+000	-1.878354e+000	-1.656956e-002	3.555640e-003	-2.084287e-001	-8.231916e-001
1281511563	2.462159e-001	-8.281517e-001	-2.057263e+000	-1.875688e+000	-1.661919e-002	3.976697e-003	-2.167273e-001	-8.201193e-001
1287761375	2.412538e-001	-8.295535e-001	-2.094656e+000	-1.868138e+000	-1.665262e-002	4.048271e-003	-2.247191e-001	-8.163186e-001
1294011188	2.360473e-001	-8.301880e-001	-2.125194e+000	-1.862858e+000	-1.693162e-002	4.305657e-003	-2.315924e-001	-8.109184e-001
1300261000	2.305514e-001	-8.319608e-001	-2.164991e+000	-1.861898e+000	-1.692826e-002	4.171993e-003	-2.397155e-001	-8.052779e-001
1306510813	2.260200e-001	-8.336949e-001	-2.202352e+000	-1.857848e+000	-1.755418e-002	4.420395e-003	-2.478214e-001	-8.021878e-001
1312760625	2.213105e-001	-8.332638e-001	-2.233388e+000	-1.853315e+000	-1.810949e-002	4.060096e-003	-2.555420e-001	-7.970630e-001
1319010438	2.166770e-001	-8.337981e-001	-2.273639e+000	-1.844249e+000	-1.812860e-002	4.685046e-003	-2.625855e-001	-7.920617e-001
1325260250	2.114229e-001	-8.345613e-001	-2.315907e+000	-1.833999e+000	-1.829282e-002	5.353686e-003	-2.690705e-001	-7.871991e-001
1331510063	2.065060e-001	-8.355071e-001	-2.353658e+000	-1.830950e+000	-1.886932e-002	5.339434e-003	-2.776626e-001	-7.809114e-001
1337759875	2.009142e-001	-8.371406e-001	-2.387288e+000	-1.815739e+000	-1.885449e-002	5.431379e-003	-2.832819e-001	-7.755016e-001
1344009688	1.962912e-001	-8.376717e-001	-2.422267e+000	-1.809487e+000	-1.877831e-002	5.928370e-003	-2.909644e-001	-7.695014e-001
1350259500	1.913932e-001	-8.375249e-001	-2.459886e+000	-1.800825e+000	-1.882120e-002	5.813128e-003	-2.986162e-001	-7.651969e-001
1356509313	1.862896e-001	-8.383893e-001	-2.500330e+000	-1.792771e+000	-1.956813e-002	6.424284e-003	-3.045994e-001	-7.589623e-001
1362759125	1.814134e-001	-8.390850e-001	-2.536385e+000	-1.787321e+000	-1.993783e-002	6.304943e-003	-3.120334e-001	-7.530421e-001
1369008938	1.762593e-001	-8.388067e-001	-2.573211e+000	-1.771163e+000	-1.980268e-002	6.761797e-003	-3.188239e-001	-7.480192e-001
1375258750	1.714632e-001	-8.403629e-001	-2.612314e+000	-1.759369e+000	-1.999365e-002	6.938873e-003	-3.257327e-001	-7.430800e-001
1381508563	1.670842e-001	-8.407062e-001	-2.645105e+000	-1.741804e+000	-2.038218e-002	7.394441e-003	-3.316965e-001	-7.357843e-001
1387758375	1.609325e-001	-8.401664e-001	-2.691234e+000	-1.725422e+000	-2.054430e-002	7.532847e-003	-3.391528e-001	-7.283424e-001
1394008188	1.567497e-001	-8.407897e-001	-2.726131e+000	-1.717855e+000	-2.106596e-002	7.320662e-003	-3.450026e-001	-7.243430e-001
1400258000	1.516427e-001	-8.410011e-001	-2.758258e+000	-1.702664e+000	-2.116787e-002	7.758892e-003	-3.516294e-001	-7.175975e-001
1406507813	1.456878e-001	-8.417376e-001	-2.797880e+000	-1.688038e+000	-2.143654e-002	8.806957e-003	-3.568851e-001	-7.115012e-001
1412757625	1.415380e-001	-8.424101e-001	-2.834455e+000	-1.666887e+000	-2.119385e-002	8.286940e-003	-3.633391e-001	-7.058289e-001
1419007438	1.367424e-001	-8.424772e-001	-2.871214e+000	-1.652566e+000	-2.167544e-002	9.040484e-003	-3.710326e-001	-6.982493e-001
1425257250	1.314943e-001	-8.420659e-001	-2.909120e+000	-1.633943e+000	-2.216334e-002	9.411676e-003	-3.770649e-001	-6.918008e-001
1431507063	1.261010e-001	-8.410411e-001	-2.944764e+000	-1.613216e+000	-2.212432e-002	9.184615e-003	-3.816741e-001	-6.852148e-001
1437756875	1.214815e-001	-8.419790e-001	-2.980715e+000	-1.595098e+000	-2.215540e-002	9.470940e-003	-3.888406e-001	-6.794244e-001
1444006688	1.158459e-001	-8.426099e-001	-3.015659e+000	-1.583791e+000	-2.198260e-002	1.007814e-002	-3.947513e-001	-6.729183e-001
1450256500	1.117795e-001	-8.419563e-001	-3.049256e+000	-1.557640e+000	-2.246292e-002	1.065397e-002	-3.998890e-001	-6.654394e-001
1456506313	1.068895e-001	-8.419172e-001	-3.089847e+000	-1.539560e+000	-2.231510e-002	1.079603e-002	-4.055467e-001	-6.591950e-001
1462756125	1.015498e-001	-8.420248e-001	-3.130681e+000	-1.517856e+000	-2.307471e-002	1.129415e-002	-4.109993e-001	-6.517550e-001
1469005938	9.606850e-002	-8.416833e-001	-3.164723e+000	-1.490742e+000	-2.311016e-002	1.061192e-002	-4.156142e-001	-6.447477e-001
1475255750	9.121103e-002	-8.411404e-001	-3.207409e+000	-1.473407e+000	-2.321991e-002	1.180670e-002	-4.216944e-001	-6.362284e-001
1481505563	8.671473e-002	-8.405886e-001	-3.235384e+000	-1.449828e+000	-2.341683e-002	1.215180e-002	-4.264273e-001	-6.305167e-001
1487755375	8.240849e-002	-8.406876e-001	-3.267768e+000	-1.420177e+000	-2.356827e-002	1.240949e-002	-4.312263e-001	-6.220770e-001
1494005188	7.834891e-002	-8.396880e-001	-3.300348e+000	-1.395590e+000	-2.412736e-002	1.263552e-002	-4.356967e-001	-6.159186e-001
1500255000	7.234777e-002	-8.394991e-001	-3.336605e+000	-1.381723e+000	-2.412987e-002	1.348965e-002	-4.407376e-001	-6.090492e-001
1506504813	6.710734e-002	-8.402380e-001	-3.370918e+000	-1.348092e+000	-2.403622e-002	1.349070e-002	-4.464530e-001	-5.999100e-001
1512754625	6.379064e-002	-8.392070e-001	-3.406539e+000	-1.327963e+000	-2.466053e-002	1.329098e-002	-4.497229e-001	-5.939653e-001
1519004438	5.679639e-002	-8.382423e-001	-3.441689e+000	-1.293605e+000	-2.455252e-002	1.398338e-002	-4.559703e-001	-5.862067e-001
1525254250	5.209662e-002	-8.378105e-001	-3.479776e+000	-1.263168e+000	-2.460045e-002	1.440010e-002	-4.585922e-001	-5.775691e-001
1531504063	4.807319e-002	-8.371821e-001	-3.505277e+000	-1.235712e+000	-2.494522e-002	1.495669e-002	-4.624149e-001	-5.699953e-001
1537753875	4.415771e-002	-8.359786e-001	-3.539406e+000	-1.210267e+000	-2.503379e-002	1.506329e-002	-4.673468e-001	-5.627378e-001
1544003688	3.859514e-002	-8.354795e-001	-3.570490e+000	-1.179257e+000	-2.523868e-002	1.549657e-002	-4.718308e-001	-5.544281e-001
1550253500	3.413912e-002	-8.354392e-001	-3.605463e+000	-1.154849e+000	-2.521773e-002	1.554602e-002	-4.755036e-001	-5.473730e-001
1556503313	2.957776e-002	-8.340687e-001	-3.637219e+000	-1.118323e+000	-2.551828e-002	1.631730e-002	-4.785611e-001	-5.394008e-001
1562753125	2.505746e-002	-8.329554e-001	-3.669575e+000	-1.083784e+000	-2.563542e-002	1.656108e-002	-4.820192e-001	-5.313434e-001
1569002938	1.901376e-002	-8.324947e-001	-3.693805e+000	-1.051490e+000	-2.580862e-002	1.679072e-002	-4.857160e-001	-5.226908e-001
1575252750	1.407084e-002	-8.305462e-001	-3.726298e+000	-1.024574e+000	-2.556857e-002	1.772048e-002	-4.893196e-001	-5.155328e-001
1581502563	9.639882e-003	-8.304444e-001	-3.753915e+000	-9.856408e-001	-2.631873e-002	1.770545e-002	-4.927892e-001	-5.069739e-001
1587752375	5.468860e-003	-8.292396e-001	-3.789167e+000	-9.614531e-001	-2.647279e-002	1.799452e-002	-4.960884e-001	-4.988737e-001
1594002188	-3.149737e-004	-8.281231e-001	-3.815948e+000	-9.251382e-001	-2.690741e-002	1.925139e-002	-4.992982e-001	-4.910739e-001
1600252000	-4.301010e-003	-8.269256e-001	-3.850907e+000	-8.918956e-001	-2.680844e-002	1.932672e-002	-5.008562e-001	-4.811395e-001
1606501813	-8.901035e-003	-8.270218e-001	-3.873442e+000	-8.568505e-001	-2.643263e-002	1.935055e-002	-5.052272e-001	-4.735843e-001
1612751625	-1.358686e-002	-8.243293e-001	-3.900467e+000	-8.199831e-001	-2.663127e-002	1.979345e-002	-5.074692e-001	-4.648532e-001
1619001438	-1.904376e-002	-8.234793e-001	-3.934085e+000	-7.773276e-001	-2.644379e-002	2.009766e-002	-5.094620e-001	-4.565228e-001
1625251250	-2.200671e-002	-8.213994e-001	-3.971863e+000	-7.481505e-001	-2.710770e-002	2.104755e-002	-5.127834e-001	-4.477633e-001
1631501063	-2.811269e-002	-8.201677e-001	-3.987175e+000	-7.144827e-001	-2.738464e-002	2.138411e-002	-5.148210e-001	-4.393466e-001
1637750875	-3.269589e-002	-8.195154e-001	-4.013915e+000	-6.696811e-001	-2.729058e-002	2.178183e-002	-5.185470e-001	-4.300379e-001
1644000688	-3.680248e-002	-8.180404e-001	-4.036163e+000	-6.202540e-001	-2.719330e-002	2.236191e-002	-5.195289e-001	-4.216967e-001
1650250500	-4.114329e-002	-8.168282e-001	-4.062292e+000	-5.879982e-001	-2.737793e-002	2.261167e-002	-5.207249e-001	-4.139762e-001
1656500313	-4.549119e-002	-8.150207e-001	-4.087485e+000	-5.535337e-001	-2.724149e-002	2.336229e-002	-5.225858e-001	-4.058391e-001
1662750125	-4.910371e-002	-8.132242e-001	-4.118023e+000	-5.076774e-001	-2.819507e-002	2.363884e-002	-5.243244e-001	-3.961030e-001
1668999938	-5.480700e-002	-8.124690e-001	-4.137896e+000	-4.715923e-001	-2.735940e-002	2.437784e-002	-5.267831e-001	-3.888935e-001
1675249750	-5.920828e-002	-8.095134e-001	-4.160518e+000	-4.306607e-001	-2.714543e-002	2.442184e-002	-5.268246e-001	-3.800782e-001
1681499563	-6.330383e-002	-8.076973e-001	-4.184537e+000	-3.854197e-001	-2.759297e-002	2.521791e-002	-5.271089e-001	-3.712711e-001
1687749375	-6.834227e-002	-8.060030e-001	-4.204631e+000	-3.407201e-001	-2.780487e-002	2.542751e-002	-5.286722e-001	-3.625908e-001
1693999188	-7.311996e-002	-8.049140e-001	-4.231223e+000	-3.039940e-001	-2.795945e-002	2.577450e-002	-5.289962e-001	-3.535756e-001
1700249000	-7.724726e-002	-8.033686e-001	-4.247464e+000	-2.610737e-001	-2.770622e-002	2.632449e-002	-5.310654e-001	-3.448308e-001
1706498813	-8.205052e-002	-8.007820e-001	-4.263289e+000	-2.145909e-001	-2.745999e-002	2.714918e-002	-5.303110e-001	-3.356983e-001
1712748625	-8.623688e-002	-7.993334e-001	-4.289099e+000	-1.707801e-001	-2.739043e-002	2.737448e-002	-5.310442e-001	-3.268249e-001
1718998438	-8.957106e-002	-7.972789e-001	-4.308570e+000	-1.270495e-001	-2.771172e-002	2.778841e-002	-5.326219e-001	-3.174933e-001
1725248250	-9.448350e-002	-7.947602e-001	-4.329088e+000	-8.263066e-002	-2.761583e-002	2.790652e-002	-5.326200e-001	-3.098302e-001
1731498063	-9.797911e-002	-7.927062e-001	-4.341440e+000	-3.741351e-002	-2.782214e-002	2.868542e-002	-5.321253e-001	-3.009457e-001
1737747875	-1.032186e-001	-7.901782e-001	-4.363959e+000	7.565601e-003	-2.725054e-002	2.961088e-002	-5.318107e-001	-2.925334e-001
1743997688	-1.073977e-001	-7.885079e-001	-4.373165e+000	4.983584e-002	-2.802210e-002	2.943983e-002	-5.317269e-001	-2.840899e-001
1750247500	-1.102211e-001	-7.859891e-001	-4.397331e+000	9.537168e-002	-2.799347e-002	3.063888e-002	-5.318928e-001	-2.755793e-001
1756497313	-1.141427e-001	-7.848551e-001	-4.406226e+000	1.522489e-001	-2.771964e-002	3.056741e-002	-5.315706e-001	-2.668796e-001
1762747125	-1.187824e-001	-7.817997e-001	-4.425763e+000	1.941398e-001	-2.781891e-002	3.146873e-002	-5.302496e-001	-2.575734e-001
1768996938	-1.233303e-001	-7.799934e-001	-4.434517e+000	2.406861e-001	-2.737084e-002	3.183086e-002	-5.293718e-001	-2.485301e-001
1775246750	-1.271377e-001	-7.775127e-001	-4.447838e+000	2.902845e-001	-2.778643e-002	3.258611e-002	-5.295745e-001	-2.409169e-001
1781496563	-1.304864e-001	-7.746939e-001	-4.459697e+000	3.365058e-001	-2.726874e-002	3.249890e-002	-5.283142e-001	-2.322151e-001
1787746375	-1.344931e-001	-7.721086e-001	-4.462083e+000	3.819454e-001	-2.724129e-002	3.392221e-002	-5.269139e-001	-2.240353e-001
1793996188	-1.383481e-001	-7.693461e-001	-4.481868e+000	4.311607e-001	-2.747762e-002	3.388787e-002	-5.261043e-001	-2.146925e-001
1800246000	-1.428407e-001	-7.683375e-001	-4.492663e+000	4.802479e-001	-2.758239e-002	3.425012e-002	-5.237426e-001	-2.059359e-001
1806495813	-1.466740e-001	-7.656386e-001	-4.501913e+000	5.336046e-001	-2.735323e-002	3.485119e-002	-5.225143e-001	-1.988192e-001
1812745625	-1.499293e-001	-7.617639e-001	-4.509815e+000	5.825900e-001	-2.708553e-002	3.542827e-002	-5.205259e-001	-1.891722e-001
1818995438	-1.542174e-001	-7.604406e-001	-4.518254e+000	6.290290e-001	-2.739523e-002	3.578132e-002	-5.196356e-001	-1.815801e-001
1825245250	-1.570774e-001	-7.573342e-001	-4.525878e+000	6.813386e-001	-2.670647e-002	3.693093e-002	-5.165438e-001	-1.726394e-001
1831495063	-1.624523e-001	-7.549874e-001	-4.532966e+000	7.301051e-001	-2.673038e-002	3.666251e-002	-5.146090e-001	-1.650069e-001
1837744875	-1.646493e-001	-7.517949e-001	-4.536444e+000	7.811704e-001	-2.670323e-002	3.766314e-002	-5.123644e-001	-1.572908e-001
1843994688	-1.679120e-001	-7.482405e-001	-4.544167e+000	8.243017e-001	-2.688850e-002	3.826565e-002	-5.095481e-001	-1.488049e-001
1850244500	-1.722810e-001	-7.462140e-001	-4.543179e+000	8.775130e-001	-2.634521e-002	3.857275e-002	-5.070994e-001	-1.402354e-001
1856494313	-1.760373e-001	-7.431112e-001	-4.548251e+000	9.241373e-001	-2.656650e-002	3.935120e-002	-5.049959e-001	-1.326340e-001
1862744125	-1.783114e-001	-7.402640e-001	-4.554690e+000	9.736721e-001	-2.606714e-002	3.966760e-002	-5.017475e-001	-1.244113e-001
1868993938	-1.817848e-001	-7.376576e-001	-4.548447e+000	1.027201e+000	-2.632586e-002	3.995816e-002	-4.985084e-001	-1.168922e-001
1875243750	-1.850845e-001	-7.347336e-001	-4.555431e+000	1.079572e+000	-2.584729e-002	4.036185e-002	-4.948870e-001	-1.087467e-001
1881493563	-1.881801e-001	-7.323216e-001	-4.554646e+000	1.125612e+000	-2.540411e-002	4.163936e-002	-4.924952e-001	-1.006138e-001
1887743375	-1.922532e-001	-7.296671e-001	-4.550969e+000	1.178502e+000	-2.544764e-002	4.131670e-002	-4.886521e-001	-9.345860e-002
1893993188	-1.949885e-001	-7.265252e-001	-4.552398e+000	1.228131e+000	-2.536089e-002	4.220919e-002	-4.852573e-001	-8.557497e-002
1900243000	-1.978720e-001	-7.242749e-001	-4.556103e+000	1.276760e+000	-2.506368e-002	4.254630e-002	-4.835990e-001	-7.738661e-002
1906492813	-2.017273e-001	-7.213439e-001	-4.542154e+000	1.331402e+000	-2.455576e-002	4.334606e-002	-4.781207e-001	-6.979267e-002
1912742625	-2.036144e-001	-7.176120e-001	-4.545040e+000	1.386574e+000	-2.452524e-002	4.385022e-002	-4.741379e-001	-6.303075e-002
1918992438	-2.078499e-001	-7.144722e-001	-4.544095e+000	1.426897e+000	-2.417833e-002	4.400306e-002	-4.712911e-001	-5.490207e-002
1925242250	-2.102084e-001	-7.113740e-001	-4.540093e+000	1.478108e+000	-2.375742e-002	4.410901e-002	-4.668985e-001	-4.720379e-002
1931492063	-2.137375e-001	-7.086065e-001	-4.529350e+000	1.531480e+000	-2.410106e-002	4.501126e-002	-4.627641e-001	-4.069709e-002
1937741875	-2.168253e-001	-7.054496e-001	-4.522498e+000	1.585143e+000	-2.384149e-002	4.519091e-002	-4.588942e-001	-3.393297e-002
1943991688	-2.198283e-001	-7.029634e-001	-4.519973e+000	1.635998e+000	-2.350129e-002	4.600689e-002	-4.542468e-001	-2.583354e-002
1950241500	-2.219321e-001	-6.989765e-001	-4.501488e+000	1.691557e+000	-2.354184e-002	4.610055e-002	-4.501869e-001	-1.979157e-002
1956491313	-2.239814e-001	-6.953224e-001	-4.501761e+000	1.729471e+000	-2.315730e-002	4.655570e-002	-4.448849e-001	-1.337876e-002
1962741125	-2.274445e-001	-6.925035e-001	-4.486456e+000	1.779697e+000	-2.296845e-002	4.762057e-002	-4.406786e-001	-6.599669e-003
1968990938	-2.306880e-001	-6.894076e-001	-4.472290e+000	1.830082e+000	-2.273562e-002	4.762392e-002	-4.356893e-001	7.640459e-004
1975240750	-2.333144e-001	-6.857108e-001	-4.461635e+000	1.884391e+000	-2.228078e-002	4.838527e-002	-4.298862e-001	7.730869e-003
1981490563	-2.352878e-001	-6.822111e-001	-4.453184e+000	1.937575e+000	-2.224006e-002	4.896505e-002	-4.257689e-001	1.366560e-002
1987740375	-2.377455e-001	-6.799314e-001	-4.435285e+000	1.978675e+000	-2.182949e-002	4.966116e-002	-4.203931e-001	2.021716e-002
1993990188	-2.394530e-001	-6.768538e-001	-4.422310e+000	2.036879e+000	-2.154068e-002	5.039671e-002	-4.146842e-001	2.650714e-002
2000240000	-2.417584e-001	-6.721732e-001	-4.415507e+000	2.084647e+000	-2.109347e-002	5.030441e-002	-4.092424e-001	3.227656e-002
2006489813	-2.443098e-001	-6.703285e-001	-4.390145e+000	2.130582e+000	-2.091231e-002	5.105365e-002	-4.040992e-001	3.866064e-002
2012739625	-2.474500e-001	-6.657486e-001	-4.375316e+000	2.180294e+000	-2.025369e-002	5.145533e-002	-3.975112e-001	4.449104e-002
2018989438	-2.494814e-001	-6.631706e-001	-4.362400e+000	2.223503e+000	-1.924641e-002	5.172168e-002	-3.929260e-001	5.013053e-002
2025239250	-2.506827e-001	-6.599896e-001	-4.341547e+000	2.278596e+000	-1.981205e-002	5.195538e-002	-3.863368e-001	5.661173e-002
2031489063	-2.543999e-001	-6.564106e-001	-4.331048e+000	2.320768e+000	-1.925712e-002	5.291340e-002	-3.804707e-001	6.262089e-002
2037738875	-2.555793e-001	-6.521051e-001	-4.312873e+000	2.368471e+000	-1.884526e-002	5.324922e-002	-3.742204e-001	6.841895e-002
2043988688	-2.573137e-001	-6.487008e-001	-4.285335e+000	2.411382e+000	-1.879113e-002	5.378253e-002	-3.689758e-001	7.337916e-002
2050238500	-2.595539e-001	-6.448290e-001	-4.263094e+000	2.464820e+000	-1.797932e-002	5.393646e-002	-3.633275e-001	7.798129e-002
2056488313	-2.620879e-001	-6.413498e-001	-4.243176e+000	2.506579e+000	-1.853837e-002	5.427609e-002	-3.570887e-001	8.270614e-002
2062738125	-2.631670e-001	-6.387341e-001	-4.214230e+000	2.549862e+000	-1.706145e-002	5.477228e-002	-3.496231e-001	8.839213e-002
2068987938	-2.654198e-001	-6.352685e-001	-4.191856e+000	2.601477e+000	-1.677053e-002	5.554075e-002	-3.436714e-001	9.350989e-002
2075237750	-2.674857e-001	-6.310664e-001	-4.178328e+000	2.651090e+000	-1.655908e-002	5.531609e-002	-3.386016e-001	9.878107e-002
2081487563	-2.698436e-001	-6.278455e-001	-4.144870e+000	2.684994e+000	-1.640842e-002	5.620170e-002	-3.314713e-001	1.022913e-001
2087737375	-2.710705e-001	-6.246225e-001	-4.125428e+000	2.734078e+000	-1.562275e-002	5.644034e-002	-3.249301e-001	1.073844e-001
2093987188	-2.727900e-001	-6.216081e-001	-4.106862e+000	2.774060e+000	-1.551929e-002	5.714035e-002	-3.195263e-001	1.131846e-001
2100237000	-2.741746e-001	-6.177915e-001	-4.076134e+000	2.816012e+000	-1.453505e-002	5.729386e-002	-3.132274e-001	1.165385e-001
2106486813	-2.763211e-001	-6.143154e-001	-4.045958e+000	2.859116e+000	-1.447646e-002	5.784517e-002	-3.069845e-001	1.207556e-001
2112736625	-2.767544e-001	-6.109866e-001	-4.019932e+000	2.903792e+000	-1.457088e-002	5.832708e-002	-2.997232e-001	1.262249e-001
2118986438	-2.787963e-001	-6.086900e-001	-3.999630e+000	2.939354e+000	-1.358600e-002	5.840888e-002	-2.932283e-001	1.296960e-001
2125236250	-2.798340e-001	-6.046618e-001	-3.970370e+000	2.987217e+000	-1.313762e-002	5.918255e-002	-2.874342e-001	1.339461e-001
2131486063	-2.814439e-001	-6.016784e-001	-3.939801e+000	3.024814e+000	-1.300664e-002	5.976200e-002	-2.798483e-001	1.364069e-001
2137735875	-2.821233e-001	-5.987698e-001	-3.909846e+000	3.066587e+000	-1.299289e-002	6.027356e-002	-2.732393e-001	1.404603e-001
2143985688	-2.834491e-001	-5.956695e-001	-3.889353e+000	3.112018e+000	-1.184315e-002	6.029765e-002	-2.657511e-001	1.439869e-001
2150235500	-2.850804e-001	-5.924924e-001	-3.852240e+000	3.149392e+000	-1.179934e-002	6.075762e-002	-2.599686e-001	1.471469e-001
2156485313	-2.863766e-001	-5.890247e-001	-3.821128e+000	3.186843e+000	-1.146089e-002	6.083345e-002	-2.531155e-001	1.508906e-001
2162735125	-2.869593e-001	-5.862705e-001	-3.795264e+000	3.229907e+000	-1.068609e-002	6.125629e-002	-2.463388e-001	1.531617e-001
2168984938	-2.867542e-001	-5.826319e-001	-3.759898e+000	3.265088e+000	-1.031930e-002	6.148965e-002	-2.394774e-001	1.561015e-001
2175234750	-2.889267e-001	-5.795316e-001	-3.724973e+000	3.304756e+000	-9.649977e-003	6.194365e-002	-2.316472e-001	1.581838e-001
2181484563	-2.903308e-001	-5.765504e-001	-3.691935e+000	3.346044e+000	-9.007890e-003	6.242606e-002	-2.252862e-001	1.613978e-001
2187734375	-2.908937e-001	-5.731141e-001	-3.660957e+000	3.379125e+000	-8.200382e-003	6.246005e-002	-2.184983e-001	1.631275e-001
2193984188	-2.921779e-001	-5.696444e-001	-3.626814e+000	3.407981e+000	-8.480351e-003	6.328301e-002	-2.108070e-001	1.663215e-001
2200234000	-2.932721e-001	-5.655441e-001	-3.598739e+000	3.444120e+000	-8.291890e-003	6.330884e-002	-2.034338e-001	1.692162e-001
2206483813	-2.930311e-001	-5.641686e-001	-3.558077e+000	3.486343e+000	-7.064949e-003	6.350528e-002	-1.961481e-001	1.715336e-001
2212733625	-2.953466e-001	-5.598325e-001	-3.520054e+000	3.512695e+000	-7.129594e-003	6.416807e-002	-1.894165e-001	1.738199e-001
2218983438	-2.938454e-001	-5.562752e-001	-3.488773e+000	3.543727e+000	-5.939813e-003	6.411964e-002	-1.827408e-001	1.750801e-001
2225233250	-2.949008e-001	-5.539542e-001	-3.451431e+000	3.580031e+000	-5.983073e-003	6.453623e-002	-1.753027e-001	1.771364e-001
2231483063	-2.968658e-001	-5.501420e-001	-3.415680e+000	3.613438e+000	-5.200964e-003	6.471161e-002	-1.686620e-001	1.785281e-001
2237732875	-2.972319e-001	-5.469974e-001	-3.388821e+000	3.647801e+000	-4.871640e-003	6.482815e-002	-1.604661e-001	1.802551e-001
2243982688	-2.977170e-001	-5.436619e-001	-3.343334e+000	3.677680e+000	-3.987757e-003	6.525053e-002	-1.546951e-001	1.816259e-001
2250232500	-2.992594e-001	-5.411031e-001	-3.307594e+000	3.704091e+000	-4.242389e-003	6.553261e-002	-1.465866e-001	1.845432e-001
2256482313	-2.981553e-001	-5.372385e-001	-3.271394e+000	3.733958e+000	-2.843898e-003	6.614611e-002	-1.395983e-001	1.850251e-001
2262732125	-2.992874e-001	-5.345483e-001	-3.227684e+000	3.764741e+000	-3.516897e-003	6.662400e-002	-1.325674e-001	1.868696e-001
2268981938	-3.003949e-001	-5.302947e-001	-3.197927e+000	3.793207e+000	-2.141366e-003	6.575061e-002	-1.255906e-001	1.872026e-001
2275231750	-3.001973e-001	-5.289819e-001	-3.154955e+000	3.825498e+000	-2.224104e-003	6.650206e-002	-1.185051e-001	1.883129e-001
2281481563	-2.994870e-001	-5.252603e-001	-3.121982e+000	3.845819e+000	-1.665113e-003	6.668324e-002	-1.107268e-001	1.895071e-001
2287731375	-3.003840e-001	-5.235360e-001	-3.079167e+000	3.869963e+000	-2.765590e-004	6.687785e-002	-1.042996e-001	1.901136e-001
2293981188	-3.004977e-001	-5.191770e-001	-3.039660e+000	3.904295e+000	-4.245139e-004	6.684487e-002	-9.727065e-002	1.899152e-001
2300231000	-3.032124e-001	-5.165669e-001	-3.006112e+000	3.928198e+000	6.044171e-004	6.733495e-002	-9.031576e-002	1.907827e-001
2306480813	-3.022748e-001	-5.150945e-001	-2.969688e+000	3.955171e+000	8.067266e-004	6.778093e-002	-8.324703e-002	1.918498e-001
2312730625	-3.025601e-001	-5.115110e-001	-2.919005e+000	3.978441e+000	1.778445e-003	6.782259e-002	-7.790426e-002	1.917506e-001
2318980438	-3.027818e-001	-5.089514e-001	-2.885144e+000	4.005576e+000	1.755201e-003	6.802539e-002	-6.953798e-002	1.911707e-001
2325230250	-3.022427e-001	-5.072251e-001	-2.843018e+000	4.028568e+000	2.827370e-003	6.795714e-002	-6.272816e-002	1.900144e-001
2331480063	-3.023644e-001	-5.039783e-001	-2.805384e+000	4.049157e+000	2.688335e-003	6.782019e-002	-5.577644e-002	1.901778e-001
2337729875	-3.027677e-001	-5.015041e-001	-2.766548e+000	4.063329e+000	3.486811e-003	6.848742e-002	-5.035003e-002	1.911860e-001
2343979688	-3.032325e-001	-4.975855e-001	-2.723121e+000	4.086446e+000	4.083688e-003	6.856054e-002	-4.268673e-002	1.896074e-001
2350229500	-3.027552e-001	-4.963262e-001	-2.683182e+000	4.114236e+000	4.558531e-003	6.860871e-002	-3.584017e-002	1.898065e-001
2356479313	-3.038663e-001	-4.948942e-001	-2.651839e+000	4.132172e+000	5.007180e-003	6.847967e-002	-3.031894e-002	1.896086e-001
2362729125	-3.032670e-001	-4.923861e-001	-2.603555e+000	4.150349e+000	6.052000e-003	6.859116e-002	-2.251609e-002	1.888446e-001
2368978938	-3.038193e-001	-4.883213e-001	-2.558421e+000	4.169680e+000	6.185465e-003	6.887896e-002	-1.518282e-002	1.875259e-001
2375228750	-3.030692e-001	-4.861491e-001	-2.523801e+000	4.188524e+000	7.155314e-003	6.932135e-002	-9.312756e-003	1.871587e-001
2381478563	-3.022058e-001	-4.824932e-001	-2.474169e+000	4.205724e+000	7.436483e-003	6.955705e-002	-3.164012e-003	1.866844e-001
2387728375	-3.027283e-001	-4.805186e-001	-2.438180e+000	4.224560e+000	7.801284e-003	6.924004e-002	3.287999e-003	1.852349e-001
2393978188	-3.023412e-001	-4.778509e-001	-2.399848e+000	4.246107e+000	8.927596e-003	6.907526e-002	9.797141e-003	1.843386e-001
2400228000	-3.031036e-001	-4.753047e-001	-2.357680e+000	4.253513e+000	8.645569e-003	6.946291e-002	1.585205e-002	1.841476e-001
2406477813	-3.027154e-001	-4.715321e-001	-2.315541e+000	4.281858e+000	9.409762e-003	7.003368e-002	2.225459e-002	1.821817e-001
2412727625	-3.019332e-001	-4.706216e-001	-2.273073e+000	4.288157e+000	9.873874e-003	6.957226e-002	2.893880e-002	1.801268e-001
2418977438	-3.016661e-001	-4.671660e-001	-2.236639e+000	4.301869e+000	1.062283e-002	7.016723e-002	3.619350e-002	1.794469e-001
2425227250	-3.022016e-001	-4.648877e-001	-2.193493e+000	4.317531e+000	1.134765e-002	7.037003e-002	4.261808e-002	1.781527e-001
2431477063	-3.011924e-001	-4.628877e-001	-2.144801e+000	4.329618e+000	1.129312e-002	7.003911e-002	4.921678e-002	1.761518e-001
2437726875	-3.009633e-001	-4.601366e-001	-2.110940e+000	4.341015e+000	1.248539e-002	7.032424e-002	5.374509e-002	1.754156e-001
2443976688	-3.016424e-001	-4.591741e-001	-2.067266e+000	4.357100e+000	1.317000e-002	7.007968e-002	6.106668e-002	1.721364e-001
2450226500	-3.005850e-001	-4.563296e-001	-2.024558e+000	4.364931e+000	1.361878e-002	7.044452e-002	6.597537e-002	1.706350e-001
2456476313	-3.012497e-001	-4.538738e-001	-1.983495e+000	4.370417e+000	1.427345e-002	6.992823e-002	7.320453e-002	1.695712e-001
2462726125	-3.013947e-001	-4.513869e-001	-1.945518e+000	4.383031e+000	1.440742e-002	7.055006e-002	7.905392e-002	1.673841e-001
2468975938	-3.009921e-001	-4.493727e-001	-1.902316e+000	4.395119e+000	1.493466e-002	7.021849e-002	8.408205e-002	1.640107e-001
2475225750	-2.998682e-001	-4.484981e-001	-1.866896e+000	4.403740e+000	1.584580e-002	7.067144e-002	8.879248e-002	1.623918e-001
2481475563	-2.990552e-001	-4.455480e-001	-1.816883e+000	4.410769e+000	1.598778e-002	7.072149e-002	9.382696e-002	1.592470e-001
2487725375	-2.996901e-001	-4.438936e-001	-1.778508e+000	4.425693e+000	1.671519e-002	7.044139e-002	1.004234e-001	1.562725e-001
2493975188	-2.993833e-001	-4.414079e-001	-1.738025e+000	4.423963e+000	1.722126e-002	7.009934e-002	1.059575e-001	1.553157e-001
2500225000	-2.980430e-001	-4.396326e-001	-1.695813e+000	4.434088e+000	1.741404e-002	7.047770e-002	1.114344e-001	1.520702e-001
2506474813	-2.983890e-001	-4.370875e-001	-1.656359e+000	4.440774e+000	1.802730e-002	7.015638e-002	1.162813e-001	1.512949e-001
2512724625	-2.974669e-001	-4.362392e-001	-1.615011e+000	4.445403e+000	1.872979e-002	7.009767e-002	1.226853e-001	1.470220e-001
2518974438	-2.971348e-001	-4.336541e-001	-1.579552e+000	4.451055e+000	1.914194e-002	7.054019e-002	1.266673e-001	1.450245e-001
2525224250	-2.969195e-001	-4.324163e-001	-1.533527e+000	4.455975e+000	1.942613e-002	6.997080e-002	1.324265e-001	1.418429e-001
2531474063	-2.967491e-001	-4.301407e-001	-1.494011e+000	4.455258e+000	2.016249e-002	7.014634e-002	1.374235e-001	1.393731e-001
2537723875	-2.965129e-001	-4.283525e-001	-1.455536e+000	4.455885e+000	2.061132e-002	7.038281e-002	1.438716e-001	1.375166e-001
2543973688	-2.946849e-001	-4.271364e-001	-1.411085e+000	4.467894e+000	2.118563e-002	7.021062e-002	1.481075e-001	1.344551e-001
2550223500	-2.949476e-001	-4.239818e-001	-1.378403e+000	4.471949e+000	2.132291e-002	7.046354e-002	1.536886e-001	1.309064e-001
2556473313	-2.934829e-001	-4.225904e-001	-1.332503e+000	4.466435e+000	2.230377e-002	7.045467e-002	1.594404e-001	1.283665e-001
2562723125	-2.930463e-001	-4.211655e-001	-1.300030e+000	4.482335e+000	2.303902e-002	7.012146e-002	1.639959e-001	1.249862e-001
2568972938	-2.915597e-001	-4.193214e-001	-1.265894e+000	4.473251e+000	2.351804e-002	7.054047e-002	1.684162e-001	1.220089e-001
2575222750	-2.910457e-001	-4.179482e-001	-1.221666e+000	4.476324e+000	2.382897e-002	7.021363e-002	1.745645e-001	1.192768e-001
2581472563	-2.904876e-001	-4.146944e-001	-1.183240e+000	4.476573e+000	2.448471e-002	7.018168e-002	1.786305e-001	1.162582e-001
2587722375	-2.909520e-001	-4.139046e-001	-1.140292e+000	4.479330e+000	2.433141e-002	6.986354e-002	1.832789e-001	1.128324e-001
2593972188	-2.890845e-001	-4.119966e-001	-1.107429e+000	4.480545e+000	2.542314e-002	6.983888e-002	1.883418e-001	1.095837e-001
2600222000	-2.892108e-001	-4.107504e-001	-1.067444e+000	4.475172e+000	2.596753e-002	6.940451e-002	1.918720e-001	1.066456e-001
2606471813	-2.896479e-001	-4.106134e-001	-1.026889e+000	4.476356e+000	2.597293e-002	7.020724e-002	1.977334e-001	1.035688e-001
2612721625	-2.882012e-001	-4.084730e-001	-9.883064e-001	4.475045e+000	2.723932e-002	6.953030e-002	2.015708e-001	9.898686e-002
2618971438	-2.894602e-001	-4.060273e-001	-9.554256e-001	4.478129e+000	2.751062e-002	6.879308e-002	2.057913e-001	9.667518e-002
2625221250	-2.880095e-001	-4.059888e-001	-9.127516e-001	4.477554e+000	2.817486e-002	6.973193e-002	2.096698e-001	9.221870e-002
2631471063	-2.876727e-001	-4.035361e-001	-8.758503e-001	4.468804e+000	2.808562e-002	6.896173e-002	2.142221e-001	8.930794e-002
2637720875	-2.870310e-001	-4.024596e-001	-8.412225e-001	4.465019e+000	2.908204e-002	6.923198e-002	2.187299e-001	8.550589e-002
2643970688	-2.864767e-001	-4.008591e-001	-8.014087e-001	4.460037e+000	2.908758e-002	6.947379e-002	2.213885e-001	8.304713e-002
2650220500	-2.856114e-001	-3.990906e-001	-7.687901e-001	4.458634e+000	2.966420e-002	6.847362e-002	2.268860e-001	7.784681e-002
2656470313	-2.849638e-001	-3.974368e-001	-7.302137e-001	4.449149e+000	3.059028e-002	6.860280e-002	2.299235e-001	7.462887e-002
2662720125	-2.843922e-001	-3.982644e-001	-6.943080e-001	4.445675e+000	3.013853e-002	6.886434e-002	2.338442e-001	7.062080e-002
2668969938	-2.850305e-001	-3.952991e-001	-6.624856e-001	4.444579e+000	3.092869e-002	6.826689e-002	2.362143e-001	6.740681e-002
2675219750	-2.837469e-001	-3.944693e-001	-6.283227e-001	4.432947e+000	3.146697e-002	6.847965e-002	2.412774e-001	6.294793e-002
2681469563	-2.824951e-001	-3.936264e-001	-5.941605e-001	4.431038e+000	3.174491e-002	6.810093e-002	2.451914e-001	5.922348e-002
2687719375	-2.830154e-001	-3.919383e-001	-5.499196e-001	4.423465e+000	3.250893e-002	6.861841e-002	2.472128e-001	5.495470e-002
2693969188	-2.833547e-001	-3.907662e-001	-5.140154e-001	4.424189e+000	3.299715e-002	6.778440e-002	2.511804e-001	5.156868e-002
2700219000	-2.799633e-001	-3.889646e-001	-4.870193e-001	4.410323e+000	3.303315e-002	6.751989e-002	2.557856e-001	4.687427e-002
2706468813	-2.802534e-001	-3.884239e-001	-4.484651e-001	4.404984e+000	3.349870e-002	6.731131e-002	2.584863e-001	4.311138e-002
2712718625	-2.809229e-001	-3.875573e-001	-4.105291e-001	4.399896e+000	3.457559e-002	6.798599e-002	2.626971e-001	4.024064e-002
2718968438	-2.801832e-001	-3.858539e-001	-3.760091e-001	4.391321e+000	3.491649e-002	6.750139e-002	2.658590e-001	3.490103e-002
2725218250	-2.789253e-001	-3.841264e-001	-3.475905e-001	4.386913e+000	3.516742e-002	6.731299e-002	2.688694e-001	3.116125e-002
2731468063	-2.778012e-001	-3.840536e-001	-3.194428e-001	4.378902e+000	3.536019e-002	6.737453e-002	2.721646e-001	2.767994e-002
2737717875	-2.784229e-001	-3.834028e-001	-2.793569e-001	4.372381e+000	3.539902e-002	6.670726e-002	2.758603e-001	2.284725e-002
2743967688	-2.767243e-001	-3.822981e-001	-2.501644e-001	4.356763e+000	3.615064e-002	6.669600e-002	2.787017e-001	1.936719e-002
2750217500	-2.763554e-001	-3.808827e-001	-2.153352e-001	4.351573e+000	3.689176e-002	6.708283e-002	2.817676e-001	1.555778e-002
2756467313	-2.748269e-001	-3.806270e-001	-1.772200e-001	4.340174e+000	3.754173e-002	6.655556e-002	2.850811e-001	1.100723e-002
2762717125	-2.751467e-001	-3.790955e-001	-1.526325e-001	4.336134e+000	3.743599e-002	6.662533e-002	2.874362e-001	7.930238e-003
2768966938	-2.740216e-001	-3.771841e-001	-1.178708e-001	4.325462e+000	3.818780e-002	6.602745e-002	2.900012e-001	3.918259e-003
2775216750	-2.735645e-001	-3.758996e-001	-8.858168e-002	4.305941e+000	3.852459e-002	6.614679e-002	2.931575e-001	-3.060213e-004
2781466563	-2.738590e-001	-3.759660e-001	-5.490243e-002	4.301990e+000	3.952994e-002	6.613290e-002	2.956128e-001	-3.591023e-003
2787716375	-2.723988e-001	-3.749834e-001	-2.492133e-002	4.282793e+000	3.891404e-002	6.564584e-002	2.972188e-001	-8.037309e-003
2793966188	-2.716606e-001	-3.738143e-001	5.340032e-003	4.270778e+000	3.973780e-002	6.576094e-002	3.001606e-001	-1.278702e-002
2800216000	-2.720935e-001	-3.736018e-001	3.196265e-002	4.265261e+000	4.061631e-002	6.508390e-002	3.033087e-001	-1.625607e-002
2806465813	-2.705623e-001	-3.716686e-001	6.268842e-002	4.258475e+000	4.034351e-002	6.534740e-002	3.056884e-001	-2.075748e-002
2812715625	-2.719531e-001	-3.721179e-001	9.475110e-002	4.242062e+000	4.092272e-002	6.480893e-002	3.077412e-001	-2.503696e-002
2818965438	-2.706556e-001	-3.721297e-001	1.221865e-001	4.230456e+000	4.164994e-002	6.474466e-002	3.097789e-001	-2.948560e-002
2825215250	-2.710598e-001	-3.706839e-001	1.508597e-001	4.222922e+000	4.160033e-002	6.452283e-002	3.133182e-001	-3.319799e-002
2831465063	-2.697089e-001	-3.690418e-001	1.812035e-001	4.210490e+000	4.211720e-002	6.456771e-002	3.134985e-001	-3.738182e-002
2837714875	-2.700407e-001	-3.683434e-001	2.115932e-001	4.195738e+000	4.213671e-002	6.391370e-002	3.164565e-001	-4.170412e-002
2843964688	-2.696418e-001	-3.685993e-001	2.392636e-001	4.182440e+000	4.329487e-002	6.372500e-002	3.189215e-001	-4.655674e-002
2850214500	-2.680905e-001	-3.686485e-001	2.651683e-001	4.172630e+000	4.311448e-002	6.392562e-002	3.203289e-001	-5.047904e-002
2856464313	-2.687072e-001	-3.667086e-001	2.959504e-001	4.160054e+000	4.404399e-002	6.325541e-002	3.236429e-001	-5.456706e-002
2862714125	-2.679131e-001	-3.661630e-001	3.194671e-001	4.143833e+000	4.432855e-002	6.393651e-002	3.241317e-001	-5.942169e-002
2868963938	-2.669820e-001	-3.654887e-001	3.494262e-001	4.132773e+000	4.455580e-002	6.320829e-002	3.253002e-001	-6.440745e-002
2875213750	-2.659549e-001	-3.657399e-001	3.753238e-001	4.122485e+000	4.497042e-002	6.307888e-002	3.280054e-001	-6.726715e-002
2881463563	-2.662771e-001	-3.648291e-001	4.019605e-001	4.108771e+000	4.509409e-002	6.293670e-002	3.293006e-001	-7.230567e-002
2887713375	-2.648656e-001	-3.637826e-001	4.291884e-001	4.087199e+000	4.535774e-002	6.222992e-002	3.315963e-001	-7.629833e-002
2893963188	-2.651759e-001	-3.631619e-001	4.586304e-001	4.075750e+000	4.550901e-002	6.213487e-002	3.333373e-001	-8.060385e-002
2900213000	-2.641035e-001	-3.620032e-001	4.853797e-001	4.058197e+000	4.604249e-002	6.201896e-002	3.343713e-001	-8.607813e-002
2906462813	-2.639488e-001	-3.624085e-001	5.066348e-001	4.050589e+000	4.640299e-002	6.162938e-002	3.364967e-001	-8.947599e-002
2912712625	-2.628093e-001	-3.617607e-001	5.342057e-001	4.033780e+000	4.724042e-002	6.146323e-002	3.376503e-001	-9.282414e-002
2918962438	-2.619953e-001	-3.607742e-001	5.573587e-001	4.019757e+000	4.750069e-002	6.134379e-002	3.392351e-001	-9.741614e-002
2925212250	-2.626244e-001	-3.619166e-001	5.852363e-001	4.006181e+000	4.803109e-002	6.089931e-002	3.412358e-001	-1.019659e-001
2931462063	-2.634592e-001	-3.600601e-001	6.120372e-001	3.984487e+000	4.742495e-002	6.087189e-002	3.428456e-001	-1.064646e-001
2937711875	-2.617689e-001	-3.584874e-001	6.302264e-001	3.978210e+000	4.796326e-002	6.092201e-002	3.435903e-001	-1.098253e-001
2943961688	-2.627011e-001	-3.582865e-001	6.545066e-001	3.964744e+000	4.834181e-002	6.056544e-002	3.453485e-001	-1.139274e-001
2950211500	-2.617166e-001	-3.567022e-001	6.830755e-001	3.940337e+000	4.866283e-002	6.051321e-002	3.457277e-001	-1.173671e-001
2956461313	-2.611608e-001	-3.573557e-001	7.007526e-001	3.930311e+000	4.866637e-002	5.996500e-002	3.477420e-001	-1.228351e-001
2962711125	-2.611362e-001	-3.568302e-001	7.312041e-001	3.914657e+000	4.938661e-002	5.995670e-002	3.489092e-001	-1.264553e-001
2968960938	-2.605590e-001	-3.573795e-001	7.482828e-001	3.903529e+000	4.924668e-002	6.016477e-002	3.499966e-001	-1.314187e-001
2975210750	-2.608912e-001	-3.560086e-001	7.741650e-001	3.885376e+000	5.071550e-002	5.972652e-002	3.498952e-001	-1.349740e-001
2981460563	-2.604971e-001	-3.559052e-001	7.933159e-001	3.869875e+000	5.034608e-002	5.916023e-002	3.517932e-001	-1.379574e-001
2987710375	-2.596376e-001	-3.555091e-001	8.177466e-001	3.851335e+000	5.073685e-002	5.914944e-002	3.529694e-001	-1.435580e-001
2993960188	-2.604502e-001	-3.543094e-001	8.436364e-001	3.835819e+000	5.150007e-002	5.863022e-002	3.523995e-001	-1.470864e-001
3000210000	-2.598902e-001	-3.534386e-001	8.626686e-001	3.811275e+000	5.123134e-002	5.821277e-002	3.547473e-001	-1.512472e-001
3006459813	-2.592239e-001	-3.537553e-001	8.843107e-001	3.803528e+000	5.189014e-002	5.801711e-002	3.545635e-001	-1.544713e-001
3012709625	-2.590861e-001	-3.536654e-001	9.038071e-001	3.790347e+000	5.229650e-002	5.763337e-002	3.545093e-001	-1.600557e-001
3018959438	-2.594157e-001	-3.529237e-001	9.229422e-001	3.771113e+000	5.271485e-002	5.747093e-002	3.563310e-001	-1.636415e-001
3025209250	-2.591012e-001	-3.528073e-001	9.489276e-001	3.753842e+000	5.226661e-002	5.652063e-002	3.569321e-001	-1.673042e-001
3031459063	-2.582519e-001	-3.540864e-001	9.669675e-001	3.740015e+000	5.305524e-002	5.661649e-002	3.562668e-001	-1.725100e-001
3037708875	-2.598854e-001	-3.531333e-001	9.922143e-001	3.715541e+000	5.285674e-002	5.687204e-002	3.588001e-001	-1.761665e-001
3043958688	-2.586072e-001	-3.527976e-001	1.010065e+000	3.702851e+000	5.310943e-002	5.587829e-002	3.580972e-001	-1.792643e-001
3050208500	-2.567348e-001	-3.524229e-001	1.028865e+000	3.682877e+000	5.384716e-002	5.657186e-002	3.580157e-001	-1.840064e-001
3056458313	-2.578162e-001	-3.520845e-001	1.046023e+000	3.675692e+000	5.430444e-002	5.635080e-002	3.590593e-001	-1.893111e-001
3062708125	-2.570501e-001	-3.522791e-001	1.070851e+000	3.656461e+000	5.432104e-002	5.518828e-002	3.586169e-001	-1.918055e-001
3068957938	-2.569295e-001	-3.523096e-001	1.081848e+000	3.638836e+000	5.464817e-002	5.560358e-002	3.598351e-001	-1.959370e-001
3075207750	-2.561975e-001	-3.516005e-001	1.104815e+000	3.621472e+000	5.467477e-002	5.569839e-002	3.599640e-001	-1.999931e-001
3081457563	-2.558996e-001	-3.509284e-001	1.121532e+000	3.602264e+000	5.494418e-002	5.500382e-002	3.602867e-001	-2.043694e-001
3087707375	-2.556535e-001	-3.516126e-001	1.142830e+000	3.584221e+000	5.525892e-002	5.557980e-002	3.610607e-001	-2.078820e-001
3093957188	-2.554279e-001	-3.498001e-001	1.158047e+000	3.568053e+000	5.579055e-002	5.427749e-002	3.602691e-001	-2.116228e-001
3100207000	-2.557068e-001	-3.502447e-001	1.184089e+000	3.550761e+000	5.533159e-002	5.382303e-002	3.621159e-001	-2.159667e-001
3106456813	-2.555418e-001	-3.492852e-001	1.195866e+000	3.530462e+000	5.580967e-002	5.376575e-002	3.611605e-001	-2.200267e-001
3112706625	-2.570440e-001	-3.498658e-001	1.203204e+000	3.517371e+000	5.675025e-002	5.376355e-002	3.620668e-001	-2.231778e-001
3118956438	-2.555388e-001	-3.504897e-001	1.227853e+000	3.496883e+000	5.690655e-002	5.367589e-002	3.606851e-001	-2.267223e-001
3125206250	-2.566452e-001	-3.478028e-001	1.249789e+000	3.485396e+000	5.687027e-002	5.333006e-002	3.616729e-001	-2.310201e-001
3131456063	-2.559104e-001	-3.495505e-001	1.266262e+000	3.465610e+000	5.763224e-002	5.387193e-002	3.607845e-001	-2.349532e-001
3137705875	-2.559610e-001	-3.485457e-001	1.280668e+000	3.449744e+000	5.762159e-002	5.281348e-002	3.610173e-001	-2.377275e-001
3143955688	-2.554131e-001	-3.486644e-001	1.297437e+000	3.433406e+000	5.780100e-002	5.230888e-002	3.610897e-001	-2.426343e-001
3150205500	-2.563082e-001	-3.481599e-001	1.312964e+000	3.410854e+000	5.813350e-002	5.166404e-002	3.616224e-001	-2.463716e-001
3156455313	-2.564236e-001	-3.478326e-001	1.326912e+000	3.395664e+000	5.818032e-002	5.193266e-002	3.610310e-001	-2.509724e-001
3162705125	-2.567704e-001	-3.483778e-001	1.341352e+000	3.383312e+000	5.826359e-002	5.118862e-002	3.611063e-001	-2.532050e-001
3168954938	-2.568432e-001	-3.485933e-001	1.362111e+000	3.366932e+000	5.900519e-002	5.115588e-002	3.604809e-001	-2.578394e-001
3175204750	-2.563606e-001	-3.472214e-001	1.373486e+000	3.340256e+000	5.842682e-002	5.091796e-002	3.610794e-001	-2.615706e-001
3181454563	-2.565096e-001	-3.474337e-001	1.392607e+000	3.328150e+000	5.920939e-002	5.001707e-002	3.603980e-001	-2.648798e-001
3187704375	-2.572167e-001	-3.477023e-001	1.411832e+000	3.310944e+000	5.932451e-002	5.091875e-002	3.590312e-001	-2.692123e-001
3193954188	-2.570886e-001	-3.470554e-001	1.419006e+000	3.294317e+000	5.985661e-002	5.029391e-002	3.590576e-001	-2.718457e-001
3200204000	-2.575163e-001	-3.473515e-001	1.430531e+000	3.276789e+000	5.928582e-002	4.977474e-002	3.596340e-001	-2.756180e-001
3206453813	-2.564809e-001	-3.476180e-001	1.445382e+000	3.257123e+000	6.000615e-002	4.950529e-002	3.583298e-001	-2.796951e-001
3212703625	-2.554706e-001	-3.465665e-001	1.460418e+000	3.240670e+000	6.018546e-002	4.959341e-002	3.580556e-001	-2.830180e-001
3218953438	-2.566962e-001	-3.466937e-001	1.476390e+000	3.223837e+000	6.021364e-002	4.921720e-002	3.568396e-001	-2.879355e-001
3225203250	-2.577014e-001	-3.470417e-001	1.491281e+000	3.197366e+000	6.027198e-002	4.915713e-002	3.579749e-001	-2.903415e-001
3231453063	-2.563558e-001	-3.459486e-001	1.504806e+000	3.188272e+000	6.054214e-002	4.862389e-002	3.573380e-001	-2.941216e-001
3237702875	-2.579330e-001	-3.464902e-001	1.513959e+000	3.168545e+000	6.145376e-002	4.821981e-002	3.559052e-001	-2.983598e-001
3243952688	-2.575280e-001	-3.462722e-001	1.531667e+000	3.150661e+000	6.155817e-002	4.802700e-002	3.559457e-001	-3.016755e-001
3250202500	-2.572529e-001	-3.458914e-001	1.541687e+000	3.137037e+000	6.160656e-002	4.840463e-002	3.558876e-001	-3.052229e-001
3256452313	-2.567517e-001	-3.452327e-001	1.554597e+000	3.119178e+000	6.188979e-002	4.774212e-002	3.547752e-001	-3.088883e-001
3262702125	-2.566219e-001	-3.454349e-001	1.567772e+000	3.098516e+000	6.187978e-002	4.730581e-002	3.548687e-001	-3.112639e-001
3268951938	-2.571830e-001	-3.450925e-001	1.579757e+000	3.079081e+000	6.197252e-002	4.714781e-002	3.539661e-001	-3.149231e-001
3275201750	-2.584009e-001	-3.456560e-001	1.594472e+000	3.062767e+000	6.257092e-002	4.662704e-002	3.531095e-001	-3.177477e-001
3281451563	-2.590091e-001	-3.441505e-001	1.602011e+000	3.048756e+000	6.307733e-002	4.604903e-002	3.517155e-001	-3.224268e-001
3287701375	-2.578219e-001	-3.455277e-001	1.617517e+000	3.027678e+000	6.323141e-002	4.613924e-002	3.516191e-001	-3.248125e-001
3293951188	-2.582544e-001	-3.453953e-001	1.627494e+000	3.011799e+000	6.243252e-002	4.579889e-002	3.509638e-001	-3.282132e-001
3300201000	-2.596011e-001	-3.451903e-001	1.638758e+000	2.997204e+000	6.259744e-002	4.610453e-002	3.508921e-001	-3.315816e-001
3306450813	-2.586042e-001	-3.449616e-001	1.649597e+000	2.981018e+000	6.285106e-002	4.573780e-002	3.492301e-001	-3.356450e-001
3312700625	-2.589146e-001	-3.455775e-001	1.662485e+000	2.954743e+000	6.300028e-002	4.545002e-002	3.490905e-001	-3.382169e-001
3318950438	-2.589751e-001	-3.447126e-001	1.670879e+000	2.944944e+000	6.331896e-002	4.495490e-002	3.476494e-001	-3.413928e-001
3325200250	-2.597167e-001	-3.449906e-001	1.687376e+000	2.924121e+000	6.377453e-002	4.439248e-002	3.465074e-001	-3.453785e-001
3331450063	-2.593695e-001	-3.456075e-001	1.694889e+000	2.907914e+000	6.426599e-002	4.483865e-002	3.462812e-001	-3.476780e-001
3337699875	-2.601302e-001	-3.455086e-001	1.707081e+000	2.890939e+000	6.378601e-002	4.363307e-002	3.455433e-001	-3.531746e-001
3343949688	-2.598289e-001	-3.448262e-001	1.713546e+000	2.877156e+000	6.461221e-002	4.403939e-002	3.443129e-001	-3.544257e-001
3350199500	-2.599915e-001	-3.448738e-001	1.722777e+000	2.860369e+000	6.379871e-002	4.406091e-002	3.424188e-001	-3.578815e-001
3356449313	-2.612299e-001	-3.445966e-001	1.739527e+000	2.841351e+000	6.427641e-002	4.312911e-002	3.403602e-001	-3.611307e-001
3362699125	-2.612050e-001	-3.452247e-001	1.747737e+000	2.824322e+000	6.524553e-002	4.303255e-002	3.407355e-001	-3.652282e-001
3368948938	-2.613861e-001	-3.452159e-001	1.751845e+000	2.807187e+000	6.495151e-002	4.275637e-002	3.390503e-001	-3.685122e-001
3375198750	-2.615685e-001	-3.444597e-001	1.764336e+000	2.793215e+000	6.478774e-002	4.231839e-002	3.380231e-001	-3.714639e-001
3381448563	-2.609632e-001	-3.453054e-001	1.775149e+000	2.780076e+000	6.549619e-002	4.218153e-002	3.378631e-001	-3.754835e-001
3387698375	-2.624770e-001	-3.448437e-001	1.776123e+000	2.756070e+000	6.509667e-002	4.182791e-002	3.358877e-001	-3.783496e-001
3393948188	-2.625766e-001	-3.449380e-001	1.787536e+000	2.733055e+000	6.567573e-002	4.205248e-002	3.349561e-001	-3.812290e-001
3400198000	-2.627583e-001	-3.438158e-001	1.803538e+000	2.724421e+000	6.590428e-002	4.104740e-002	3.348429e-001	-3.854055e-001
3406447813	-2.633640e-001	-3.447276e-001	1.807039e+000	2.708559e+000	6.639799e-002	4.084654e-002	3.332672e-001	-3.879010e-001
3412697625	-2.629335e-001	-3.444175e-001	1.818113e+000	2.690389e+000	6.648370e-002	4.061412e-002	3.321891e-001	-3.910299e-001
3418947438	-2.640036e-001	-3.436215e-001	1.823342e+000	2.672871e+000	6.643384e-002	4.068433e-002	3.306472e-001	-3.935911e-001
3425197250	-2.638362e-001	-3.444616e-001	1.834327e+000	2.655392e+000	6.649787e-002	4.060463e-002	3.301693e-001	-3.972252e-001
3431447063	-2.635666e-001	-3.439351e-001	1.841015e+000	2.640921e+000	6.664508e-002	3.964148e-002	3.302797e-001	-3.991738e-001
3437696875	-2.645166e-001	-3.441491e-001	1.848953e+000	2.621458e+000	6.665033e-002	3.986502e-002	3.281174e-001	-4.026344e-001
3443946688	-2.641356e-001	-3.446816e-001	1.857276e+000	2.604713e+000	6.697945e-002	3.968539e-002	3.261670e-001	-4.058312e-001
3450196500	-2.645366e-001	-3.436440e-001	1.859760e+000	2.588002e+000	6.685038e-002	3.978665e-002	3.259957e-001	-4.079925e-001
3456446313	-2.651583e-001	-3.429606e-001	1.870631e+000	2.569497e+000	6.683454e-002	3.852453e-002	3.236020e-001	-4.110602e-001
3462696125	-2.658951e-001	-3.445575e-001	1.879653e+000	2.555999e+000	6.723588e-002	3.880581e-002	3.227259e-001	-4.138147e-001
3468945938	-2.664607e-001	-3.436751e-001	1.886977e+000	2.541460e+000	6.725317e-002	3.827489e-002	3.211441e-001	-4.170047e-001
3475195750	-2.676244e-001	-3.430104e-001	1.896211e+000	2.521233e+000	6.772033e-002	3.799052e-002	3.190944e-001	-4.183743e-001
3481445563	-2.681868e-001	-3.436429e-001	1.900900e+000	2.506443e+000	6.676506e-002	3.798901e-002	3.179618e-001	-4.212990e-001
3487695375	-2.683330e-001	-3.448942e-001	1.908726e+000	2.489068e+000	6.757590e-002	3.752518e-002	3.169052e-001	-4.241828e-001
3493945188	-2.694295e-001	-3.442361e-001	1.918319e+000	2.475779e+000	6.810470e-002	3.732101e-002	3.160115e-001	-4.280175e-001
3500195000	-2.695520e-001	-3.440978e-001	1.917354e+000	2.458612e+000	6.811051e-002	3.684243e-002	3.146210e-001	-4.309443e-001
3506444813	-2.697187e-001	-3.439794e-001	1.927203e+000	2.449027e+000	6.818229e-002	3.695162e-002	3.124810e-001	-4.328060e-001
3512694625	-2.710056e-001	-3.441922e-001	1.934043e+000	2.429455e+000	6.876574e-002	3.631226e-002	3.113030e-001	-4.364518e-001
3518944438	-2.708215e-001	-3.437938e-001	1.939973e+000	2.409187e+000	6.844879e-002	3.623731e-002	3.088666e-001	-4.396029e-001
3525194250	-2.710925e-001	-3.445224e-001	1.945492e+000	2.395807e+000	6.852349e-002	3.630849e-002	3.068641e-001	-4.428580e-001
3531444063	-2.717380e-001	-3.452306e-001	1.956922e+000	2.376588e+000	6.878719e-002	3.569187e-002	3.060972e-001	-4.454037e-001
3537693875	-2.716485e-001	-3.439705e-001	1.955495e+000	2.362473e+000	6.883539e-002	3.509330e-002	3.028737e-001	-4.479966e-001
3543943688	-2.728043e-001	-3.446354e-001	1.964209e+000	2.346996e+000	6.871048e-002	3.555774e-002	3.026498e-001	-4.519606e-001
3550193500	-2.730310e-001	-3.443723e-001	1.972202e+000	2.330261e+000	6.926114e-002	3.497018e-002	3.020015e-001	-4.544104e-001
3556443313	-2.725122e-001	-3.441871e-001	1.974019e+000	2.316992e+000	6.895565e-002	3.494039e-002	2.998295e-001	-4.569668e-001
3562693125	-2.744177e-001	-3.438692e-001	1.978836e+000	2.299872e+000	6.885992e-002	3.435064e-002	2.970293e-001	-4.587453e-001
3568942938	-2.738711e-001	-3.453553e-001	1.986053e+000	2.284768e+000	6.975515e-002	3.374002e-002	2.961139e-001	-4.623762e-001
3575192750	-2.747010e-001	-3.445785e-001	1.988828e+000	2.269136e+000	6.937134e-002	3.435816e-002	2.949670e-001	-4.651489e-001
3581442563	-2.754173e-001	-3.443029e-001	1.997085e+000	2.252141e+000	6.982237e-002	3.331979e-002	2.936432e-001	-4.669190e-001
3587692375	-2.756973e-001	-3.439033e-001	2.004269e+000	2.236151e+000	7.011779e-002	3.300124e-002	2.914946e-001	-4.705945e-001
3593942188	-2.750270e-001	-3.445987e-001	2.007641e+000	2.220606e+000	7.053583e-002	3.236772e-002	2.895905e-001	-4.725003e-001
3600192000	-2.760721e-001	-3.434900e-001	2.012462e+000	2.204163e+000	7.034205e-002	3.253886e-002	2.879260e-001	-4.750122e-001
3606441813	-2.767800e-001	-3.437338e-001	2.017854e+000	2.193993e+000	6.984676e-002	3.277883e-002	2.872255e-001	-4.779516e-001
3612691625	-2.772147e-001	-3.440482e-001	2.025139e+000	2.175447e+000	7.050414e-002	3.226030e-002	2.851334e-001	-4.802444e-001
3618941438	-2.772553e-001	-3.432595e-001	2.025972e+000	2.159982e+000	6.977872e-002	3.176321e-002	2.837644e-001	-4.825486e-001
3625191250	-2.775977e-001	-3.429524e-001	2.032157e+000	2.144412e+000	7.040085e-002	3.125161e-002	2.825133e-001	-4.847515e-001
3631441063	-2.783848e-001	-3.427401e-001	2.037384e+000	2.131454e+000	7.007515e-002	3.158548e-002	2.810331e-001	-4.871406e-001
3637690875	-2.802380e-001	-3.438410e-001	2.044901e+000	2.114379e+000	7.060827e-002	3.166268e-002	2.787042e-001	-4.896843e-001
3643940688	-2.803787e-001	-3.436279e-001	2.043678e+000	2.096880e+000	7.051222e-002	3.120200e-002	2.774754e-001	-4.918532e-001
3650190500	-2.807343e-001	-3.433808e-001	2.049051e+000	2.085569e+000	7.022536e-002	3.103569e-002	2.746093e-001	-4.931495e-001
3656440313	-2.820370e-001	-3.418293e-001	2.050912e+000	2.066548e+000	7.104450e-002	3.001318e-002	2.727778e-001	-4.964306e-001
3662690125	-2.821501e-001	-3.428238e-001	2.056674e+000	2.055322e+000	7.081258e-002	2.979003e-002	2.711595e-001	-4.986129e-001
3668939938	-2.827040e-001	-3.423055e-001	2.056544e+000	2.040865e+000	7.148710e-002	3.033543e-002	2.697387e-001	-5.003220e-001
3675189750	-2.837158e-001	-3.430203e-001	2.065339e+000	2.024662e+000	7.122031e-002	2.946580e-002	2.669918e-001	-5.037712e-001
3681439563	-2.842811e-001	-3.433409e-001	2.066446e+000	2.009296e+000	7.100374e-002	2.936843e-002	2.637758e-001	-5.051118e-001
3687689375	-2.848226e-001	-3.431873e-001	2.067318e+000	1.995464e+000	7.119849e-002	2.925357e-002	2.627960e-001	-5.088390e-001
3693939188	-2.857702e-001	-3.429151e-001	2.074559e+000	1.981614e+000	7.075297e-002	2.899261e-002	2.610817e-001	-5.115518e-001
3700189000	-2.862041e-001	-3.437113e-001	2.076921e+000	1.963944e+000	7.152584e-002	2.825620e-002	2.583982e-001	-5.133575e-001
3706438813	-2.869758e-001	-3.436679e-001	2.081758e+000	1.952075e+000	7.112102e-002	2.806962e-002	2.568315e-001	-5.143823e-001
3712688625	-2.871380e-001	-3.442926e-001	2.084134e+000	1.937923e+000	7.152838e-002	2.770430e-002	2.554989e-001	-5.169344e-001
3718938438	-2.879122e-001	-3.442598e-001	2.083485e+000	1.920253e+000	7.091868e-002	2.774782e-002	2.527400e-001	-5.200302e-001
3725188250	-2.880311e-001	-3.443393e-001	2.085933e+000	1.912984e+000	7.197277e-002	2.730665e-002	2.502648e-001	-5.228488e-001
3731438063	-2.889977e-001	-3.444873e-001	2.088823e+000	1.895012e+000	7.145395e-002	2.714500e-002	2.488067e-001	-5.253644e-001
3737687875	-2.887658e-001	-3.439719e-001	2.092061e+000	1.876903e+000	7.195365e-002	2.705759e-002	2.473915e-001	-5.268964e-001
3743937688	-2.898687e-001	-3.440945e-001	2.094461e+000	1.863877e+000	7.175651e-002	2.696972e-002	2.458529e-001	-5.298324e-001
3750187500	-2.910783e-001	-3.433411e-001	2.100706e+000	1.851936e+000	7.186786e-002	2.571065e-002	2.437550e-001	-5.310559e-001
3756437313	-2.912232e-001	-3.442384e-001	2.104024e+000	1.838584e+000	7.239064e-002	2.603545e-002	2.414165e-001	-5.333765e-001
3762687125	-2.913402e-001	-3.440077e-001	2.101309e+000	1.823461e+000	7.197021e-002	2.560013e-002	2.395584e-001	-5.353037e-001
3768936938	-2.916798e-001	-3.438179e-001	2.111646e+000	1.809948e+000	7.253590e-002	2.493453e-002	2.375433e-001	-5.381056e-001
3775186750	-2.916065e-001	-3.435426e-001	2.109811e+000	1.799030e+000	7.206454e-002	2.513941e-002	2.357835e-001	-5.406108e-001
3781436563	-2.931016e-001	-3.430707e-001	2.111599e+000	1.783089e+000	7.221025e-002	2.504498e-002	2.343746e-001	-5.422481e-001
3787686375	-2.929339e-001	-3.425003e-001	2.115173e+000	1.765029e+000	7.220952e-002	2.450701e-002	2.321423e-001	-5.446948e-001
3793936188	-2.943962e-001	-3.418846e-001	2.121503e+000	1.753949e+000	7.244878e-002	2.439707e-002	2.298377e-001	-5.464499e-001
3800186000	-2.947030e-001	-3.419021e-001	2.118535e+000	1.741518e+000	7.268127e-002	2.406293e-002	2.274070e-001	-5.479791e-001
3806435813	-2.958927e-001	-3.419773e-001	2.123697e+000	1.722565e+000	7.282263e-002	2.442260e-002	2.249310e-001	-5.499689e-001
3812685625	-2.970335e-001	-3.409590e-001	2.123077e+000	1.714595e+000	7.265584e-002	2.409135e-002	2.231454e-001	-5.519220e-001
3818935438	-2.973381e-001	-3.412447e-001	2.127548e+000	1.699715e+000	7.260259e-002	2.308320e-002	2.210821e-001	-5.535823e-001
3825185250	-2.982331e-001	-3.415146e-001	2.130078e+000	1.687699e+000	7.267437e-002	2.351351e-002	2.199142e-001	-5.547122e-001
3831435063	-2.981112e-001	-3.415417e-001	2.132972e+000	1.670757e+000	7.281666e-002	2.281017e-002	2.166962e-001	-5.569422e-001
3837684875	-2.991702e-001	-3.415821e-001	2.132687e+000	1.659517e+000	7.264394e-002	2.253874e-002	2.153941e-001	-5.598740e-001
3843934688	-2.998742e-001	-3.405190e-001	2.134334e+000	1.641167e+000	7.272124e-002	2.234082e-002	2.129079e-001	-5.607490e-001
3850184500	-3.012468e-001	-3.410251e-001	2.140009e+000	1.630059e+000	7.266101e-002	2.218498e-002	2.098539e-001	-5.629932e-001
3856434313	-3.017321e-001	-3.407501e-001	2.138380e+000	1.615905e+000	7.304647e-002	2.162790e-002	2.077230e-001	-5.643508e-001
3862684125	-3.027522e-001	-3.408146e-001	2.137208e+000	1.606497e+000	7.336578e-002	2.215305e-002	2.061583e-001	-5.655310e-001
3868933938	-3.034346e-001	-3.410568e-001	2.139273e+000	1.595587e+000	7.270256e-002	2.153273e-002	2.036736e-001	-5.677141e-001
3875183750	-3.043821e-001	-3.408665e-001	2.134261e+000	1.579552e+000	7.263566e-002	2.144407e-002	2.010602e-001	-5.702926e-001
3881433563	-3.050295e-001	-3.403087e-001	2.143468e+000	1.561134e+000	7.260175e-002	2.061176e-002	1.978709e-001	-5.726304e-001
3887683375	-3.057985e-001	-3.416247e-001	2.144376e+000	1.555890e+000	7.332230e-002	2.053916e-002	1.956418e-001	-5.735251e-001
3893933188	-3.060059e-001	-3.406706e-001	2.142401e+000	1.540560e+000	7.335900e-002	2.028646e-002	1.935829e-001	-5.750076e-001
3900183000	-3.063844e-001	-3.411063e-001	2.143653e+000	1.523941e+000	7.336492e-002	2.075324e-002	1.924228e-001	-5.759183e-001
3906432813	-3.076388e-001	-3.416112e-001	2.149770e+000	1.510097e+000	7.298931e-002	1.999342e-002	1.895996e-001	-5.789161e-001
3912682625	-3.084192e-001	-3.407243e-001	2.149134e+000	1.501182e+000	7.338496e-002	1.939262e-002	1.871679e-001	-5.810698e-001
3918932438	-3.088810e-001	-3.418186e-001	2.150347e+000	1.486191e+000	7.348801e-002	1.912389e-002	1.849189e-001	-5.827601e-001
3925182250	-3.093480e-001	-3.413600e-001	2.148576e+000	1.472646e+000	7.366795e-002	1.929886e-002	1.823630e-001	-5.841327e-001
3931432063	-3.089857e-001	-3.400069e-001	2.146452e+000	1.460684e+000	7.344269e-002	1.888078e-002	1.798425e-001	-5.864873e-001
3937681875	-3.109939e-001	-3.409201e-001	2.151639e+000	1.446450e+000	7.319698e-002	1.863000e-002	1.782703e-001	-5.876426e-001
3943931688	-3.115048e-001	-3.406769e-001	2.155183e+000	1.434268e+000	7.366949e-002	1.896093e-002	1.766924e-001	-5.894685e-001
3950181500	-3.113732e-001	-3.405488e-001	2.154093e+000	1.424746e+000	7.348007e-002	1.851341e-002	1.744087e-001	-5.916151e-001
3956431313	-3.116224e-001	-3.402744e-001	2.152568e+000	1.413726e+000	7.317230e-002	1.841268e-002	1.711694e-001	-5.929624e-001
3962681125	-3.131366e-001	-3.408455e-001	2.154532e+000	1.397740e+000	7.329476e-002	1.832621e-002	1.706223e-001	-5.937762e-001
3968930938	-3.137786e-001	-3.396349e-001	2.151633e+000	1.385757e+000	7.371088e-002	1.779667e-002	1.675676e-001	-5.962882e-001
3975180750	-3.140689e-001	-3.401256e-001	2.152638e+000	1.372683e+000	7.354374e-002	1.743169e-002	1.650847e-001	-5.980882e-001
3981430563	-3.141975e-001	-3.399656e-001	2.153871e+000	1.363446e+000	7.355151e-002	1.736916e-002	1.624242e-001	-5.989480e-001
3987680375	-3.145625e-001	-3.401316e-001	2.155924e+000	1.349384e+000	7.338182e-002	1.665893e-002	1.601473e-001	-6.009869e-001
3993930188	-3.160412e-001	-3.384269e-001	2.153303e+000	1.335091e+000	7.346296e-002	1.693706e-002	1.584776e-001	-6.018726e-001
4000180000	-3.178905e-001	-3.376226e-001	2.150968e+000	1.319929e+000	7.385814e-002	1.650236e-002	1.564454e-001	-6.032617e-001
4006429813	-3.171525e-001	-3.384327e-001	2.157753e+000	1.312392e+000	7.377348e-002	1.632988e-002	1.546816e-001	-6.042882e-001
4012679625	-3.178636e-001	-3.386146e-001	2.155947e+000	1.303732e+000	7.311665e-002	1.684556e-002	1.510293e-001	-6.060428e-001
4018929438	-3.179434e-001	-3.385369e-001	2.155001e+000	1.287052e+000	7.373619e-002	1.582584e-002	1.483985e-001	-6.071042e-001
4025179250	-3.195041e-001	-3.383396e-001	2.150658e+000	1.276242e+000	7.343502e-002	1.550814e-002	1.461144e-001	-6.090447e-001
4031429063	-3.202955e-001	-3.380115e-001	2.154181e+000	1.263283e+000	7.343839e-002	1.567713e-002	1.438297e-001	-6.104440e-001
4037678875	-3.209823e-001	-3.383898e-001	2.158126e+000	1.249673e+000	7.363150e-002	1.526048e-002	1.418349e-001	-6.115114e-001
4043928688	-3.216232e-001	-3.384240e-001	2.156493e+000	1.239640e+000	7.323222e-002	1.483158e-002	1.395889e-001	-6.129084e-001
4050178500	-3.221212e-001	-3.377195e-001	2.150592e+000	1.224858e+000	7.330135e-002	1.484494e-002	1.367318e-001	-6.144133e-001
4056428313	-3.233268e-001	-3.376495e-001	2.154070e+000	1.213051e+000	7.391931e-002	1.393661e-002	1.332783e-001	-6.158679e-001
4062678125	-3.234304e-001	-3.375080e-001	2.153898e+000	1.201199e+000	7.380837e-002	1.408925e-002	1.313024e-001	-6.171758e-001
4068927938	-3.242320e-001	-3.375704e-001	2.152057e+000	1.190002e+000	7.417869e-002	1.371229e-002	1.288993e-001	-6.192022e-001
4075177750	-3.259611e-001	-3.374296e-001	2.151542e+000	1.176403e+000	7.378011e-002	1.345683e-002	1.270491e-001	-6.200469e-001
4081427563	-3.256038e-001	-3.368442e-001	2.151692e+000	1.169922e+000	7.369036e-002	1.331007e-002	1.242037e-001	-6.205251e-001
4087677375	-3.278106e-001	-3.373785e-001	2.151284e+000	1.156116e+000	7.382429e-002	1.319302e-002	1.214393e-001	-6.221849e-001
4093927188	-3.277583e-001	-3.369810e-001	2.151418e+000	1.143820e+000	7.367739e-002	1.280699e-002	1.199484e-001	-6.237821e-001
4100177000	-3.290992e-001	-3.363589e-001	2.146836e+000	1.133263e+000	7.413695e-002	1.262873e-002	1.174530e-001	-6.257164e-001
4106426813	-3.301671e-001	-3.369969e-001	2.151501e+000	1.119992e+000	7.362849e-002	1.236658e-002	1.145357e-001	-6.266300e-001
4112676625	-3.296242e-001	-3.367289e-001	2.147198e+000	1.105641e+000	7.381143e-002	1.270461e-002	1.123213e-001	-6.272097e-001
4118926438	-3.312492e-001	-3.368119e-001	2.148853e+000	1.097539e+000	7.397920e-002	1.230012e-002	1.102132e-001	-6.285538e-001
4125176250	-3.312068e-001	-3.365278e-001	2.145295e+000	1.082777e+000	7.353961e-002	1.168955e-002	1.060504e-001	-6.306586e-001
4131426063	-3.321295e-001	-3.367739e-001	2.145892e+000	1.075434e+000	7.412610e-002	1.182070e-002	1.044664e-001	-6.307446e-001
4137675875	-3.322140e-001	-3.365948e-001	2.143404e+000	1.063933e+000	7.368436e-002	1.136806e-002	1.029294e-001	-6.310554e-001
4143925688	-3.339407e-001	-3.357378e-001	2.140775e+000	1.046483e+000	7.383126e-002	1.094429e-002	9.991279e-002	-6.333837e-001
4150175500	-3.343014e-001	-3.362125e-001	2.141391e+000	1.043047e+000	7.322952e-002	1.106198e-002	9.745398e-002	-6.342805e-001
4156425313	-3.342550e-001	-3.359311e-001	2.138572e+000	1.034290e+000	7.424959e-002	1.054786e-002	9.573456e-002	-6.352956e-001
4162675125	-3.353212e-001	-3.360474e-001	2.140732e+000	1.021865e+000	7.382069e-002	1.077498e-002	9.337771e-002	-6.366543e-001
4168924938	-3.362311e-001	-3.347506e-001	2.135465e+000	1.007454e+000	7.381120e-002	1.020512e-002	9.049765e-002	-6.385154e-001
4175174750	-3.369246e-001	-3.359734e-001	2.135329e+000	9.935415e-001	7.397270e-002	9.690723e-003	8.828980e-002	-6.394225e-001
4181424563	-3.377833e-001	-3.354970e-001	2.134470e+000	9.848757e-001	7.373222e-002	9.488739e-003	8.517732e-002	-6.404237e-001
4187674375	-3.389473e-001	-3.346382e-001	2.137008e+000	9.766174e-001	7.387204e-002	9.749055e-003	8.282382e-002	-6.409231e-001
4193924188	-3.387583e-001	-3.352542e-001	2.133095e+000	9.639591e-001	7.392348e-002	9.076217e-003	8.000609e-002	-6.429789e-001
4200174000	-3.399454e-001	-3.351271e-001	2.126479e+000	9.564741e-001	7.344086e-002	9.302516e-003	7.825299e-002	-6.425379e-001
4206423813	-3.408859e-001	-3.337667e-001	2.129408e+000	9.409476e-001	7.337694e-002	9.049364e-003	7.462411e-002	-6.440122e-001
4212673625	-3.413483e-001	-3.344243e-001	2.130079e+000	9.311867e-001	7.354411e-002	8.800407e-003	7.303225e-002	-6.454949e-001
4218923438	-3.414457e-001	-3.340440e-001	2.129385e+000	9.192568e-001	7.369189e-002	8.017378e-003	7.104108e-002	-6.456805e-001
4225173250	-3.426634e-001	-3.338325e-001	2.128492e+000	9.082379e-001	7.357560e-002	8.285889e-003	6.783605e-002	-6.475179e-001
4231423063	-3.434629e-001	-3.336895e-001	2.128398e+000	9.002999e-001	7.368367e-002	8.080745e-003	6.591535e-002	-6.497639e-001
4237672875	-3.439494e-001	-3.321106e-001	2.128251e+000	8.835027e-001	7.319369e-002	7.910136e-003	6.266625e-002	-6.495764e-001
4243922688	-3.452668e-001	-3.325912e-001	2.121248e+000	8.788933e-001	7.372837e-002	7.646674e-003	6.205245e-002	-6.495112e-001
4250172500	-3.450217e-001	-3.325852e-001	2.114332e+000	8.646087e-001	7.382817e-002	7.758734e-003	5.902241e-002	-6.517151e-001
4256422313	-3.461663e-001	-3.334053e-001	2.115907e+000	8.576753e-001	7.378220e-002	7.553999e-003	5.604239e-002	-6.516250e-001
4262672125	-3.471530e-001	-3.328062e-001	2.113631e+000	8.490787e-001	7.370782e-002	6.410190e-003	5.390238e-002	-6.534013e-001
4268921938	-3.479370e-001	-3.328750e-001	2.115202e+000	8.372853e-001	7.355101e-002	6.864357e-003	5.138368e-002	-6.529483e-001
4275171750	-3.477630e-001	-3.328515e-001	2.110814e+000	8.251660e-001	7.383765e-002	7.091866e-003	4.915927e-002	-6.541732e-001
4281421563	-3.496194e-001	-3.326390e-001	2.112836e+000	8.166533e-001	7.382128e-002	6.832211e-003	4.619973e-002	-6.553000e-001
4287671375	-3.502682e-001	-3.324903e-001	2.103602e+000	8.083020e-001	7.391679e-002	5.726978e-003	4.381706e-002	-6.561205e-001
4293921188	-3.519164e-001	-3.326773e-001	2.107048e+000	7.970206e-001	7.407652e-002	5.475211e-003	4.251804e-002	-6.566792e-001
4300171000	-3.530310e-001	-3.325619e-001	2.103142e+000	7.876825e-001	7.354520e-002	5.864432e-003	3.995432e-002	-6.574179e-001
4306420813	-3.536951e-001	-3.319165e-001	2.102474e+000	7.759668e-001	7.397409e-002	5.825264e-003	3.680626e-002	-6.578502e-001
4312670625	-3.540936e-001	-3.320942e-001	2.099165e+000	7.664399e-001	7.369599e-002	5.266498e-003	3.392747e-002	-6.592521e-001
4318920438	-3.544967e-001	-3.309113e-001	2.092874e+000	7.547939e-001	7.330843e-002	5.113485e-003	3.221309e-002	-6.585972e-001
4325170250	-3.559421e-001	-3.316802e-001	2.095730e+000	7.459697e-001	7.373609e-002	4.494269e-003	2.868971e-002	-6.601557e-001
4331420063	-3.573052e-001	-3.321669e-001	2.094031e+000	7.379004e-001	7.397204e-002	4.549202e-003	2.604402e-002	-6.618230e-001
4337669875	-3.580258e-001	-3.309796e-001	2.093808e+000	7.248038e-001	7.368747e-002	4.584859e-003	2.444505e-002	-6.619511e-001
4343919688	-3.595710e-001	-3.316486e-001	2.093145e+000	7.198751e-001	7.360966e-002	4.116000e-003	2.103919e-002	-6.622696e-001
4350169500	-3.601846e-001	-3.310046e-001	2.087283e+000	7.056154e-001	7.367207e-002	4.143853e-003	1.863104e-002	-6.630294e-001
4356419313	-3.608611e-001	-3.300374e-001	2.085352e+000	6.945309e-001	7.376410e-002	3.824390e-003	1.576664e-002	-6.632099e-001
4362669125	-3.608982e-001	-3.301020e-001	2.078777e+000	6.872824e-001	7.332071e-002	3.041307e-003	1.329458e-002	-6.639467e-001
4368918938	-3.619393e-001	-3.309235e-001	2.078788e+000	6.773963e-001	7.350292e-002	2.817578e-003	1.019861e-002	-6.657686e-001
4375168750	-3.629215e-001	-3.302189e-001	2.079595e+000	6.678910e-001	7.311545e-002	2.404864e-003	8.162249e-003	-6.666794e-001
4381418563	-3.636134e-001	-3.300587e-001	2.077089e+000	6.604204e-001	7.275055e-002	2.037178e-003	5.701183e-003	-6.669881e-001
4387668375	-3.649954e-001	-3.306075e-001	2.075961e+000	6.519856e-001	7.337927e-002	2.736050e-003	3.186517e-003	-6.681857e-001
4393918188	-3.646470e-001	-3.289159e-001	2.066454e+000	6.370088e-001	7.306664e-002	1.924862e-003	1.062585e-003	-6.683361e-001
4400168000	-3.654774e-001	-3.294426e-001	2.068048e+000	6.281354e-001	7.350364e-002	2.307139e-003	-1.199749e-003	-6.695399e-001
4406417813	-3.661688e-001	-3.293266e-001	2.063097e+000	6.229858e-001	7.332399e-002	2.398845e-003	-3.067804e-003	-6.696690e-001
4412667625	-3.665474e-001	-3.298231e-001	2.062180e+000	6.126411e-001	7.323027e-002	1.910676e-003	-6.822604e-003	-6.699530e-001
4418917438	-3.666628e-001	-3.275177e-001	2.058017e+000	6.005659e-001	7.308002e-002	1.406962e-003	-9.612426e-003	-6.714780e-001
4425167250	-3.689666e-001	-3.278022e-001	2.058065e+000	5.919757e-001	7.288513e-002	1.135598e-003	-1.141319e-002	-6.719779e-001
4431417063	-3.676715e-001	-3.285397e-001	2.052820e+000	5.861315e-001	7.354284e-002	8.238538e-004	-1.399600e-002	-6.730981e-001
4437666875	-3.698167e-001	-3.284687e-001	2.052172e+000	5.756490e-001	7.335132e-002	1.253693e-003	-1.619421e-002	-6.716294e-001
4443916688	-3.702937e-001	-3.283198e-001	2.049121e+000	5.663143e-001	7.288137e-002	5.183793e-004	-1.812921e-002	-6.727080e-001
4450166500	-3.717632e-001	-3.277940e-001	2.044428e+000	5.605184e-001	7.340742e-002	2.523057e-004	-2.142688e-002	-6.740029e-001
4456416313	-3.726823e-001	-3.270286e-001	2.043179e+000	5.424867e-001	7.349239e-002	5.392153e-004	-2.293373e-002	-6.745166e-001
4462666125	-3.726808e-001	-3.269855e-001	2.044147e+000	5.396872e-001	7.307264e-002	2.160710e-004	-2.611887e-002	-6.754801e-001
4468915938	-3.732407e-001	-3.264459e-001	2.039794e+000	5.305215e-001	7.305034e-002	-8.884927e-004	-2.847599e-002	-6.750501e-001
4475165750	-3.755102e-001	-3.262288e-001	2.033979e+000	5.180078e-001	7.324031e-002	-4.222655e-004	-3.212928e-002	-6.756109e-001
4481415563	-3.761072e-001	-3.258795e-001	2.033091e+000	5.120421e-001	7.322435e-002	-8.428998e-004	-3.478933e-002	-6.753900e-001
4487665375	-3.766362e-001	-3.257296e-001	2.030461e+000	5.001286e-001	7.241102e-002	-1.003336e-003	-3.608400e-002	-6.757261e-001
4493915188	-3.778245e-001	-3.259586e-001	2.027216e+000	4.921386e-001	7.285318e-002	-1.790369e-003	-3.993731e-002	-6.767116e-001
4500165000	-3.784651e-001	-3.252620e-001	2.023271e+000	4.809882e-001	7.295044e-002	-1.455078e-003	-4.210223e-002	-6.755199e-001
4506414813	-3.795241e-001	-3.253983e-001	2.018444e+000	4.747846e-001	7.246408e-002	-1.905303e-003	-4.429685e-002	-6.773169e-001
4512664625	-3.808606e-001	-3.247609e-001	2.017118e+000	4.641721e-001	7.273780e-002	-2.053070e-003	-4.677327e-002	-6.779808e-001
4518914438	-3.811986e-001	-3.254427e-001	2.013149e+000	4.563021e-001	7.214336e-002	-2.120140e-003	-5.004058e-002	-6.776701e-001
4525164250	-3.825776e-001	-3.250707e-001	2.011441e+000	4.489894e-001	7.270223e-002	-2.079585e-003	-5.263190e-002	-6.782655e-001
4531414063	-3.828082e-001	-3.249787e-001	2.001943e+000	4.406569e-001	7.223607e-002	-2.704523e-003	-5.557549e-002	-6.784851e-001
4537663875	-3.834664e-001	-3.249851e-001	2.002575e+000	4.323293e-001	7.241797e-002	-2.698726e-003	-5.762879e-002	-6.785390e-001
4543913688	-3.842286e-001	-3.246269e-001	2.000366e+000	4.254746e-001	7.234719e-002	-2.668347e-003	-6.077677e-002	-6.794045e-001
4550163500	-3.853418e-001	-3.240052e-001	1.993754e+000	4.103615e-001	7.248388e-002	-3.253692e-003	-6.272337e-002	-6.794775e-001
4556413313	-3.862209e-001	-3.242357e-001	1.994783e+000	4.031703e-001	7.269626e-002	-3.406242e-003	-6.609316e-002	-6.799659e-001
4562663125	-3.876281e-001	-3.237423e-001	1.994776e+000	3.996243e-001	7.207567e-002	-3.633527e-003	-6.898403e-002	-6.816683e-001
4568912938	-3.878287e-001	-3.232467e-001	1.988533e+000	3.872541e-001	7.196348e-002	-3.384525e-003	-7.096238e-002	-6.815671e-001
4575162750	-3.874538e-001	-3.227080e-001	1.980704e+000	3.777943e-001	7.192699e-002	-3.969115e-003	-7.403393e-002	-6.814424e-001
4581412563	-3.888448e-001	-3.243119e-001	1.981658e+000	3.737166e-001	7.175119e-002	-3.631793e-003	-7.639844e-002	-6.821467e-001
4587662375	-3.896762e-001	-3.233080e-001	1.978229e+000	3.629962e-001	7.197257e-002	-3.862203e-003	-7.818615e-002	-6.829526e-001
4593912188	-3.906132e-001	-3.225037e-001	1.975088e+000	3.552562e-001	7.182243e-002	-4.307807e-003	-8.072027e-002	-6.815046e-001
4600162000	-3.909237e-001	-3.220778e-001	1.968920e+000	3.470225e-001	7.183642e-002	-4.149177e-003	-8.283848e-002	-6.831550e-001
4606411813	-3.912832e-001	-3.225047e-001	1.969629e+000	3.411969e-001	7.179886e-002	-4.597137e-003	-8.647965e-002	-6.838262e-001
4612661625	-3.926173e-001	-3.218857e-001	1.960775e+000	3.311111e-001	7.147670e-002	-4.841341e-003	-8.792697e-002	-6.825103e-001
4618911438	-3.929829e-001	-3.221970e-001	1.960933e+000	3.275209e-001	7.185965e-002	-5.117536e-003	-9.040584e-002	-6.837771e-001
4625161250	-3.938599e-001	-3.200030e-001	1.954066e+000	3.127022e-001	7.166276e-002	-5.424556e-003	-9.373857e-002	-6.835019e-001
4631411063	-3.945084e-001	-3.207047e-001	1.951762e+000	3.089708e-001	7.134249e-002	-5.678940e-003	-9.479311e-002	-6.829367e-001
4637660875	-3.958962e-001	-3.198719e-001	1.948141e+000	2.970193e-001	7.176150e-002	-5.404526e-003	-9.707942e-002	-6.827362e-001
4643910688	-3.972936e-001	-3.199457e-001	1.945711e+000	2.938676e-001	7.141657e-002	-5.821713e-003	-9.995043e-002	-6.838074e-001
4650160500	-3.973772e-001	-3.197987e-001	1.943281e+000	2.826035e-001	7.152822e-002	-6.006953e-003	-1.019582e-001	-6.829849e-001
4656410313	-3.985554e-001	-3.187198e-001	1.936508e+000	2.744777e-001	7.150345e-002	-6.205057e-003	-1.062095e-001	-6.838125e-001
4662660125	-3.997982e-001	-3.185270e-001	1.936749e+000	2.663475e-001	7.105476e-002	-6.591689e-003	-1.081169e-001	-6.847921e-001
4668909938	-4.001099e-001	-3.189203e-001	1.928735e+000	2.629174e-001	7.066886e-002	-6.793767e-003	-1.104502e-001	-6.835045e-001
4675159750	-4.017276e-001	-3.188509e-001	1.929778e+000	2.501143e-001	7.122228e-002	-6.677512e-003	-1.141193e-001	-6.843367e-001
4681409563	-4.020688e-001	-3.191830e-001	1.925009e+000	2.415672e-001	7.126596e-002	-7.086519e-003	-1.164095e-001	-6.838894e-001
4687659375	-4.031750e-001	-3.180696e-001	1.921890e+000	2.364216e-001	7.147088e-002	-6.814308e-003	-1.181406e-001	-6.836323e-001
4693909188	-4.036472e-001	-3.183637e-001	1.915435e+000	2.288013e-001	7.085400e-002	-7.832727e-003	-1.215108e-001	-6.842409e-001
4700159000	-4.040584e-001	-3.182822e-001	1.911956e+000	2.241325e-001	7.087148e-002	-7.583507e-003	-1.242993e-001	-6.839341e-001
4706408813	-4.065715e-001	-3.177922e-001	1.912704e+000	2.148775e-001	7.086798e-002	-7.859780e-003	-1.265186e-001	-6.834917e-001
4712658625	-4.068934e-001	-3.166589e-001	1.909784e+000	2.064630e-001	7.056714e-002	-7.790176e-003	-1.303858e-001	-6.846721e-001
4718908438	-4.067070e-001	-3.183510e-001	1.900376e+000	1.977854e-001	7.033107e-002	-7.774963e-003	-1.324831e-001	-6.840773e-001
4725158250	-4.085105e-001	-3.174138e-001	1.899777e+000	1.926415e-001	7.067591e-002	-8.024915e-003	-1.351856e-001	-6.846347e-001
4731408063	-4.076640e-001	-3.173924e-001	1.894569e+000	1.848701e-001	7.042568e-002	-8.617537e-003	-1.380977e-001	-6.841687e-001
4737657875	-4.096034e-001	-3.165707e-001	1.888391e+000	1.712537e-001	6.968741e-002	-9.245340e-003	-1.401773e-001	-6.837567e-001
4743907688	-4.102095e-001	-3.173023e-001	1.883810e+000	1.702496e-001	7.053796e-002	-9.017614e-003	-1.424953e-001	-6.855769e-001
4750157500	-4.116319e-001	-3.160348e-001	1.883911e+000	1.623418e-001	7.030202e-002	-9.012888e-003	-1.464779e-001	-6.846567e-001
4756407313	-4.114555e-001	-3.164660e-001	1.876818e+000	1.542511e-001	6.989132e-002	-9.477937e-003	-1.471794e-001	-6.845714e-001
4762657125	-4.115036e-001	-3.166639e-001	1.873239e+000	1.510306e-001	6.981654e-002	-9.215245e-003	-1.488671e-001	-6.845424e-001
4768906938	-4.126990e-001	-3.159813e-001	1.869270e+000	1.433608e-001	6.953740e-002	-9.735117e-003	-1.517115e-001	-6.848332e-001
4775156750	-4.132165e-001	-3.152282e-001	1.864710e+000	1.317672e-001	6.983722e-002	-9.730413e-003	-1.559223e-001	-6.852299e-001
4781406563	-4.145708e-001	-3.149885e-001	1.861447e+000	1.279082e-001	6.989781e-002	-9.805820e-003	-1.563990e-001	-6.862348e-001
4787656375	-4.158785e-001	-3.144046e-001	1.860442e+000	1.212361e-001	6.991126e-002	-9.483549e-003	-1.603901e-001	-6.841291e-001
4793906188	-4.155025e-001	-3.145724e-001	1.855501e+000	1.155688e-001	6.946922e-002	-1.001872e-002	-1.631050e-001	-6.847078e-001
4800156000	-4.163855e-001	-3.142679e-001	1.850930e+000	1.085775e-001	6.936474e-002	-1.048909e-002	-1.647777e-001	-6.851861e-001
4806405813	-4.171730e-001	-3.134568e-001	1.847937e+000	9.877545e-002	6.901594e-002	-1.030441e-002	-1.671699e-001	-6.842301e-001
4812655625	-4.180541e-001	-3.131510e-001	1.841318e+000	9.488187e-002	6.924966e-002	-1.078933e-002	-1.693161e-001	-6.843961e-001
4818905438	-4.190924e-001	-3.128683e-001	1.838494e+000	8.810942e-002	6.900053e-002	-1.101510e-002	-1.730773e-001	-6.846500e-001
4825155250	-4.199288e-001	-3.124822e-001	1.834089e+000	8.069768e-002	6.916596e-002	-1.084525e-002	-1.740793e-001	-6.836427e-001
4831405063	-4.210161e-001	-3.121166e-001	1.831798e+000	7.194671e-002	6.921284e-002	-1.092974e-002	-1.753520e-001	-6.824276e-001
4837654875	-4.219419e-001	-3.119727e-001	1.826276e+000	6.684536e-002	6.854127e-002	-1.093167e-002	-1.794191e-001	-6.822508e-001
4843904688	-4.235304e-001	-3.121998e-001	1.822023e+000	6.013241e-002	6.866766e-002	-1.135955e-002	-1.818217e-001	-6.816714e-001
4850154500	-4.232166e-001	-3.105641e-001	1.813727e+000	5.244534e-002	6.882206e-002	-1.179899e-002	-1.850161e-001	-6.820859e-001
4856404313	-4.243383e-001	-3.109040e-001	1.812930e+000	4.212104e-002	6.913701e-002	-1.197061e-002	-1.883267e-001	-6.826553e-001
4862654125	-4.258621e-001	-3.107326e-001	1.814688e+000	3.823687e-002	6.829400e-002	-1.214045e-002	-1.903315e-001	-6.810024e-001
4868903938	-4.269709e-001	-3.110145e-001	1.810871e+000	3.100274e-002	6.857141e-002	-1.225302e-002	-1.933004e-001	-6.807379e-001
4875153750	-4.276691e-001	-3.105868e-001	1.802953e+000	2.765413e-002	6.886030e-002	-1.250062e-002	-1.946662e-001	-6.826109e-001
4881403563	-4.279301e-001	-3.102762e-001	1.795924e+000	2.185686e-002	6.920080e-002	-1.230868e-002	-1.988568e-001	-6.810804e-001
4887653375	-4.291353e-001	-3.105709e-001	1.795675e+000	1.270796e-002	6.850908e-002	-1.270594e-002	-2.008616e-001	-6.801814e-001
4893903188	-4.293653e-001	-3.108301e-001	1.788244e+000	6.597737e-003	6.858923e-002	-1.306899e-002	-2.029636e-001	-6.800704e-001
4900153000	-4.299556e-001	-3.098802e-001	1.783350e+000	1.336001e-003	6.793291e-002	-1.271279e-002	-2.054884e-001	-6.805269e-001
4906402813	-4.304740e-001	-3.099165e-001	1.779001e+000	-4.101303e-003	6.811905e-002	-1.352791e-002	-2.087051e-001	-6.790672e-001
4912652625	-4.310850e-001	-3.105076e-001	1.773217e+000	-1.140817e-002	6.783496e-002	-1.313427e-002	-2.126916e-001	-6.808503e-001
4918902438	-4.316281e-001	-3.097417e-001	1.770227e+000	-1.888930e-002	6.772587e-002	-1.315448e-002	-2.145249e-001	-6.794293e-001
4925152250	-4.326853e-001	-3.093055e-001	1.767869e+000	-2.247918e-002	6.814640e-002	-1.388916e-002	-2.165719e-001	-6.793438e-001
4931402063	-4.333373e-001	-3.081262e-001	1.760074e+000	-3.091694e-002	6.788938e-002	-1.389945e-002	-2.188165e-001	-6.783010e-001
4937651875	-4.340137e-001	-3.083537e-001	1.758724e+000	-3.651588e-002	6.813196e-002	-1.411549e-002	-2.210018e-001	-6.795718e-001
4943901688	-4.352172e-001	-3.072491e-001	1.751402e+000	-4.308955e-002	6.769461e-002	-1.409257e-002	-2.242243e-001	-6.778886e-001
4950151500	-4.361349e-001	-3.077035e-001	1.755700e+000	-4.693888e-002	6.782285e-002	-1.402776e-002	-2.279318e-001	-6.787476e-001
4956401313	-4.358808e-001	-3.073815e-001	1.744154e+000	-5.156301e-002	6.740677e-002	-1.473675e-002	-2.307155e-001	-6.800510e-001
4962651125	-4.379054e-001	-3.062273e-001	1.745706e+000	-6.173558e-002	6.744741e-002	-1.462372e-002	-2.325890e-001	-6.786538e-001
4968900938	-4.366654e-001	-3.062019e-001	1.736026e+000	-6.679473e-002	6.707944e-002	-1.516954e-002	-2.340848e-001	-6.773606e-001
4975150750	-4.381755e-001	-3.058365e-001	1.733982e+000	-7.224321e-002	6.699337e-002	-1.481076e-002	-2.363981e-001	-6.776246e-001
4981400563	-4.395555e-001	-3.045931e-001	1.729543e+000	-7.960137e-002	6.776155e-002	-1.504691e-002	-2.376833e-001	-6.761781e-001
4987650375	-4.406331e-001	-3.040479e-001	1.725730e+000	-8.492224e-002	6.675168e-002	-1.529521e-002	-2.425440e-001	-6.761846e-001
4993900188	-4.416650e-001	-3.035495e-001	1.719136e+000	-9.255656e-002	6.697319e-002	-1.536350e-002	-2.453485e-001	-6.749091e-001
5000150000	-4.418172e-001	-3.035392e-001	1.714394e+000	-9.485487e-002	6.664478e-002	-1.579326e-002	-2.457451e-001	-6.748928e-001
5006399813	-4.434160e-001	-3.026093e-001	1.713909e+000	-1.026445e-001	6.670990e-002	-1.539656e-002	-2.483750e-001	-6.750780e-001
5012649625	-4.427815e-001	-3.029682e-001	1.699368e+000	-1.079656e-001	6.669771e-002	-1.601836e-002	-2.514967e-001	-6.720587e-001
5018899438	-4.445426e-001	-3.029112e-001	1.698550e+000	-1.136667e-001	6.609533e-002	-1.591268e-002	-2.527038e-001	-6.731862e-001
5025149250	-4.459666e-001	-3.029426e-001	1.695152e+000	-1.141959e-001	6.678770e-002	-1.643677e-002	-2.565236e-001	-6.708185e-001
5031399063	-4.466213e-001	-3.024908e-001	1.691467e+000	-1.204068e-001	6.596074e-002	-1.616221e-002	-2.594193e-001	-6.700042e-001
5037648875	-4.477380e-001	-3.022120e-001	1.687925e+000	-1.294585e-001	6.605639e-002	-1.601152e-002	-2.620248e-001	-6.716377e-001
5043898688	-4.491244e-001	-3.022696e-001	1.683884e+000	-1.344061e-001	6.665413e-002	-1.692998e-002	-2.642480e-001	-6.693402e-001
5050148500	-4.497936e-001	-3.012491e-001	1.676995e+000	-1.392828e-001	6.623085e-002	-1.657774e-002	-2.669561e-001	-6.687130e-001
5056398313	-4.510907e-001	-3.016594e-001	1.676245e+000	-1.449673e-001	6.594226e-002	-1.716261e-002	-2.690773e-001	-6.679001e-001
5062648125	-4.508760e-001	-3.010058e-001	1.668565e+000	-1.531553e-001	6.609700e-002	-1.698762e-002	-2.716668e-001	-6.690292e-001
5068897938	-4.520610e-001	-3.014132e-001	1.664690e+000	-1.571517e-001	6.599980e-002	-1.709550e-002	-2.751221e-001	-6.692035e-001
5075147750	-4.525130e-001	-3.011050e-001	1.661596e+000	-1.622512e-001	6.567400e-002	-1.706971e-002	-2.766377e-001	-6.687904e-001
5081397563	-4.531655e-001	-2.998458e-001	1.655663e+000	-1.645026e-001	6.576915e-002	-1.736729e-002	-2.795968e-001	-6.679035e-001
5087647375	-4.543327e-001	-3.001384e-001	1.651732e+000	-1.694834e-001	6.635826e-002	-1.749565e-002	-2.820871e-001	-6.682926e-001
5093897188	-4.544481e-001	-3.006872e-001	1.640479e+000	-1.754722e-001	6.572573e-002	-1.796998e-002	-2.853250e-001	-6.667561e-001
5100147000	-4.550323e-001	-2.999855e-001	1.640040e+000	-1.841783e-001	6.570120e-002	-1.775510e-002	-2.878944e-001	-6.642534e-001
5106396813	-4.556806e-001	-3.001503e-001	1.635094e+000	-1.915232e-001	6.578999e-002	-1.813062e-002	-2.914608e-001	-6.650025e-001
5112646625	-4.573854e-001	-2.982996e-001	1.633309e+000	-1.957816e-001	6.490813e-002	-1.886307e-002	-2.933232e-001	-6.644663e-001
5118896438	-4.571069e-001	-2.994929e-001	1.626691e+000	-2.009957e-001	6.500709e-002	-1.810592e-002	-2.938744e-001	-6.651086e-001
5125146250	-4.578466e-001	-2.980980e-001	1.622538e+000	-2.070210e-001	6.532891e-002	-1.872645e-002	-2.973989e-001	-6.638454e-001
5131396063	-4.592403e-001	-2.968045e-001	1.620958e+000	-2.102440e-001	6.528532e-002	-1.902113e-002	-3.007159e-001	-6.635015e-001
5137645875	-4.593125e-001	-2.971037e-001	1.613928e+000	-2.134524e-001	6.454138e-002	-1.879284e-002	-3.014474e-001	-6.632493e-001
5143895688	-4.606041e-001	-2.962987e-001	1.611276e+000	-2.204348e-001	6.457398e-002	-1.873987e-002	-3.045241e-001	-6.621779e-001
5150145500	-4.612028e-001	-2.954796e-001	1.603955e+000	-2.240307e-001	6.497758e-002	-1.898597e-002	-3.058554e-001	-6.617557e-001
5156395313	-4.621207e-001	-2.948079e-001	1.599270e+000	-2.312879e-001	6.462665e-002	-1.952994e-002	-3.097681e-001	-6.624096e-001
5162645125	-4.620984e-001	-2.949392e-001	1.593295e+000	-2.332557e-001	6.380790e-002	-1.970194e-002	-3.122911e-001	-6.591610e-001
5168894938	-4.635717e-001	-2.939162e-001	1.585536e+000	-2.404938e-001	6.417090e-002	-1.979234e-002	-3.140142e-001	-6.583584e-001
5175144750	-4.647501e-001	-2.932477e-001	1.589074e+000	-2.438098e-001	6.397529e-002	-1.922033e-002	-3.150459e-001	-6.579725e-001
5181394563	-4.650904e-001	-2.935776e-001	1.581545e+000	-2.479411e-001	6.386611e-002	-1.975686e-002	-3.175565e-001	-6.577594e-001
5187644375	-4.667185e-001	-2.932481e-001	1.579058e+000	-2.545759e-001	6.359414e-002	-1.987485e-002	-3.209082e-001	-6.576213e-001
5193894188	-4.672640e-001	-2.924194e-001	1.573592e+000	-2.590649e-001	6.358715e-002	-1.985981e-002	-3.222127e-001	-6.554583e-001
5200144000	-4.676455e-001	-2.924181e-001	1.568393e+000	-2.635290e-001	6.372799e-002	-2.001054e-002	-3.255351e-001	-6.543392e-001
5206393813	-4.688748e-001	-2.919471e-001	1.562354e+000	-2.686496e-001	6.366697e-002	-1.995377e-002	-3.289695e-001	-6.546546e-001
5212643625	-4.693704e-001	-2.915974e-001	1.556820e+000	-2.766807e-001	6.361738e-002	-2.046718e-002	-3.305809e-001	-6.528947e-001
5218893438	-4.707597e-001	-2.923664e-001	1.556276e+000	-2.728495e-001	6.362944e-002	-2.069950e-002	-3.333824e-001	-6.523920e-001
5225143250	-4.707834e-001	-2.919280e-001	1.548460e+000	-2.819541e-001	6.343086e-002	-2.061452e-002	-3.353223e-001	-6.524579e-001
5231393063	-4.718931e-001	-2.910556e-001	1.542248e+000	-2.862954e-001	6.360853e-002	-2.076982e-002	-3.394157e-001	-6.507745e-001
5237642875	-4.737550e-001	-2.900699e-001	1.537143e+000	-2.901886e-001	6.282382e-002	-2.079443e-002	-3.406975e-001	-6.497588e-001
5243892688	-4.742004e-001	-2.896598e-001	1.537081e+000	-2.969993e-001	6.281364e-002	-2.099159e-002	-3.415788e-001	-6.497248e-001
5250142500	-4.743209e-001	-2.896180e-001	1.528112e+000	-2.973659e-001	6.336652e-002	-2.109877e-002	-3.467206e-001	-6.495772e-001
5256392313	-4.754580e-001	-2.894177e-001	1.527675e+000	-3.031542e-001	6.269793e-002	-2.161141e-002	-3.467812e-001	-6.481002e-001
5262642125	-4.774978e-001	-2.889914e-001	1.525008e+000	-3.083173e-001	6.288660e-002	-2.103464e-002	-3.486318e-001	-6.464564e-001
5268891938	-4.764765e-001	-2.884071e-001	1.513636e+000	-3.146536e-001	6.295679e-002	-2.121518e-002	-3.514449e-001	-6.460779e-001
5275141750	-4.769701e-001	-2.882148e-001	1.510408e+000	-3.203227e-001	6.248077e-002	-2.135209e-002	-3.532532e-001	-6.452479e-001
5281391563	-4.782754e-001	-2.876760e-001	1.503557e+000	-3.214172e-001	6.246776e-002	-2.223229e-002	-3.559281e-001	-6.458346e-001
5287641375	-4.801922e-001	-2.867176e-001	1.500670e+000	-3.281107e-001	6.263109e-002	-2.170415e-002	-3.581080e-001	-6.436022e-001
5293891188	-4.796616e-001	-2.877438e-001	1.498066e+000	-3.273445e-001	6.194532e-002	-2.185688e-002	-3.617111e-001	-6.424383e-001
5300141000	-4.799660e-001	-2.864285e-001	1.489856e+000	-3.335210e-001	6.186005e-002	-2.290434e-002	-3.645548e-001	-6.423177e-001
5306390813	-4.803840e-001	-2.856254e-001	1.485778e+000	-3.345607e-001	6.206218e-002	-2.260999e-002	-3.660273e-001	-6.417346e-001
5312640625	-4.818932e-001	-2.847980e-001	1.482788e+000	-3.413044e-001	6.200046e-002	-2.282451e-002	-3.685894e-001	-6.395053e-001
5318890438	-4.827233e-001	-2.847434e-001	1.480495e+000	-3.442500e-001	6.179697e-002	-2.222087e-002	-3.696688e-001	-6.407133e-001
5325140250	-4.830540e-001	-2.847179e-001	1.472532e+000	-3.495360e-001	6.151982e-002	-2.324365e-002	-3.737555e-001	-6.386071e-001
5331390063	-4.839119e-001	-2.842901e-001	1.466272e+000	-3.522434e-001	6.166399e-002	-2.250642e-002	-3.759592e-001	-6.378989e-001
5337639875	-4.837345e-001	-2.830895e-001	1.460928e+000	-3.567793e-001	6.133717e-002	-2.325945e-002	-3.775212e-001	-6.367484e-001
5343889688	-4.856294e-001	-2.833610e-001	1.455858e+000	-3.603158e-001	6.089005e-002	-2.358929e-002	-3.798392e-001	-6.357131e-001
5350139500	-4.856436e-001	-2.821423e-001	1.452070e+000	-3.691534e-001	6.082980e-002	-2.347233e-002	-3.827032e-001	-6.344298e-001
5356389313	-4.876767e-001	-2.821498e-001	1.446027e+000	-3.740028e-001	6.044404e-002	-2.281511e-002	-3.846357e-001	-6.341500e-001
5362639125	-4.884781e-001	-2.808557e-001	1.441856e+000	-3.757946e-001	6.065305e-002	-2.360961e-002	-3.867820e-001	-6.327437e-001
5368888938	-4.895405e-001	-2.804458e-001	1.438891e+000	-3.752696e-001	6.100168e-002	-2.380654e-002	-3.893275e-001	-6.323817e-001
5375138750	-4.902089e-001	-2.795888e-001	1.433882e+000	-3.820364e-001	6.093899e-002	-2.433659e-002	-3.898049e-001	-6.310232e-001
5381388563	-4.896297e-001	-2.792057e-001	1.429770e+000	-3.880233e-001	6.007261e-002	-2.427983e-002	-3.934389e-001	-6.299111e-001
5387638375	-4.911893e-001	-2.781953e-001	1.424632e+000	-3.936553e-001	6.033224e-002	-2.357117e-002	-3.956315e-001	-6.291903e-001
5393888188	-4.916473e-001	-2.796277e-001	1.419062e+000	-3.922576e-001	6.004260e-002	-2.383393e-002	-3.981721e-001	-6.273240e-001
5400138000	-4.936200e-001	-2.786458e-001	1.417094e+000	-3.970324e-001	5.940244e-002	-2.394694e-002	-4.003703e-001	-6.267873e-001
5406387813	-4.928001e-001	-2.774738e-001	1.406413e+000	-4.017505e-001	5.983922e-002	-2.455925e-002	-4.026703e-001	-6.258858e-001
5412637625	-4.934762e-001	-2.779352e-001	1.403315e+000	-3.999886e-001	6.014671e-002	-2.428948e-002	-4.043795e-001	-6.251942e-001
5418887438	-4.968843e-001	-2.775019e-001	1.401626e+000	-4.070219e-001	5.940229e-002	-2.484296e-002	-4.062573e-001	-6.240237e-001
5425137250	-4.960657e-001	-2.765733e-001	1.394122e+000	-4.095867e-001	5.893824e-002	-2.477192e-002	-4.086225e-001	-6.227815e-001
5431387063	-4.966886e-001	-2.772176e-001	1.391286e+000	-4.119915e-001	5.982506e-002	-2.454730e-002	-4.122837e-001	-6.219527e-001
5437636875	-4.978448e-001	-2.750598e-001	1.385410e+000	-4.186188e-001	5.940583e-002	-2.442048e-002	-4.127011e-001	-6.227494e-001
5443886688	-4.990997e-001	-2.748361e-001	1.379066e+000	-4.224470e-001	5.952314e-002	-2.457645e-002	-4.147582e-001	-6.198909e-001
5450136500	-4.982334e-001	-2.740184e-001	1.373060e+000	-4.274819e-001	5.969494e-002	-2.484490e-002	-4.179942e-001	-6.196548e-001
5456386313	-4.992404e-001	-2.738560e-001	1.370999e+000	-4.270579e-001	5.942612e-002	-2.509327e-002	-4.198079e-001	-6.189552e-001
5462636125	-5.004409e-001	-2.723014e-001	1.363733e+000	-4.301617e-001	5.870900e-002	-2.492709e-002	-4.209831e-001	-6.185249e-001
5468885938	-5.010154e-001	-2.724762e-001	1.361525e+000	-4.332287e-001	5.903291e-002	-2.520767e-002	-4.231717e-001	-6.174147e-001
5475135750	-5.006349e-001	-2.715870e-001	1.356063e+000	-4.388521e-001	5.844447e-002	-2.494181e-002	-4.266907e-001	-6.153035e-001
5481385563	-5.027363e-001	-2.715830e-001	1.347197e+000	-4.434448e-001	5.879277e-002	-2.542646e-002	-4.273465e-001	-6.147934e-001
5487635375	-5.042586e-001	-2.716871e-001	1.350788e+000	-4.435983e-001	5.883977e-002	-2.558449e-002	-4.300539e-001	-6.131018e-001
5493885188	-5.045695e-001	-2.712405e-001	1.346102e+000	-4.466024e-001	5.834675e-002	-2.557730e-002	-4.334576e-001	-6.112910e-001
5500135000	-5.042081e-001	-2.702085e-001	1.338012e+000	-4.507073e-001	5.838986e-002	-2.564967e-002	-4.354765e-001	-6.096034e-001
5506384813	-5.066731e-001	-2.701323e-001	1.332488e+000	-4.515837e-001	5.843913e-002	-2.573088e-002	-4.382195e-001	-6.107489e-001
5512634625	-5.066023e-001	-2.687679e-001	1.329121e+000	-4.591643e-001	5.801982e-002	-2.589652e-002	-4.395881e-001	-6.091368e-001
5518884438	-5.081563e-001	-2.689696e-001	1.321769e+000	-4.610625e-001	5.799880e-002	-2.570095e-002	-4.415269e-001	-6.078190e-001
5525134250	-5.070708e-001	-2.678234e-001	1.317266e+000	-4.662138e-001	5.815122e-002	-2.566548e-002	-4.435393e-001	-6.058212e-001
5531384063	-5.080211e-001	-2.678679e-001	1.316319e+000	-4.678760e-001	5.804264e-002	-2.654306e-002	-4.462163e-001	-6.042211e-001
5537633875	-5.094628e-001	-2.678955e-001	1.308913e+000	-4.660498e-001	5.762389e-002	-2.640427e-002	-4.475993e-001	-6.031807e-001
5543883688	-5.100752e-001	-2.672257e-001	1.300918e+000	-4.734429e-001	5.768001e-002	-2.674479e-002	-4.483931e-001	-6.024983e-001
5550133500	-5.113665e-001	-2.668418e-001	1.301857e+000	-4.723474e-001	5.765200e-002	-2.673026e-002	-4.518709e-001	-6.020074e-001
5556383313	-5.119640e-001	-2.666550e-001	1.293984e+000	-4.793757e-001	5.686943e-002	-2.652877e-002	-4.550492e-001	-6.010590e-001
5562633125	-5.128274e-001	-2.674247e-001	1.287557e+000	-4.762936e-001	5.675087e-002	-2.651324e-002	-4.559665e-001	-5.988193e-001
5568882938	-5.128308e-001	-2.663391e-001	1.281642e+000	-4.807930e-001	5.657121e-002	-2.729972e-002	-4.602141e-001	-5.978133e-001
5575132750	-5.139973e-001	-2.657625e-001	1.282434e+000	-4.859966e-001	5.680379e-002	-2.734034e-002	-4.605778e-001	-5.971837e-001
5581382563	-5.149867e-001	-2.641006e-001	1.274221e+000	-4.895128e-001	5.644603e-002	-2.779344e-002	-4.620934e-001	-5.959082e-001
5587632375	-5.157432e-001	-2.651977e-001	1.267820e+000	-4.905555e-001	5.668956e-002	-2.725002e-002	-4.660616e-001	-5.949474e-001
5593882188	-5.151881e-001	-2.641762e-001	1.262552e+000	-4.947567e-001	5.636344e-002	-2.681472e-002	-4.666581e-001	-5.947933e-001
5600132000	-5.168018e-001	-2.635304e-001	1.261646e+000	-4.969807e-001	5.595750e-002	-2.713500e-002	-4.694646e-001	-5.926806e-001
5606381813	-5.174527e-001	-2.633963e-001	1.257530e+000	-4.986202e-001	5.599381e-002	-2.783856e-002	-4.711596e-001	-5.914787e-001
5612631625	-5.185540e-001	-2.635312e-001	1.251786e+000	-4.994724e-001	5.613301e-002	-2.772339e-002	-4.728166e-001	-5.907090e-001
5618881438	-5.189049e-001	-2.615496e-001	1.247166e+000	-5.059507e-001	5.609682e-002	-2.730559e-002	-4.755647e-001	-5.893478e-001
5625131250	-5.204622e-001	-2.613040e-001	1.244166e+000	-5.073677e-001	5.571993e-002	-2.735583e-002	-4.766511e-001	-5.884403e-001
5631381063	-5.202086e-001	-2.601129e-001	1.236698e+000	-5.093735e-001	5.624157e-002	-2.764289e-002	-4.790408e-001	-5.870910e-001
5637630875	-5.212890e-001	-2.600896e-001	1.234276e+000	-5.118040e-001	5.543108e-002	-2.798738e-002	-4.816436e-001	-5.856618e-001
5643880688	-5.219415e-001	-2.597895e-001	1.231313e+000	-5.169339e-001	5.535330e-002	-2.789200e-002	-4.833924e-001	-5.858668e-001
5650130500	-5.220095e-001	-2.585088e-001	1.222772e+000	-5.188496e-001	5.513579e-002	-2.839395e-002	-4.853473e-001	-5.840530e-001
5656380313	-5.235435e-001	-2.580384e-001	1.220586e+000	-5.219122e-001	5.494346e-002	-2.787264e-002	-4.854366e-001	-5.838745e-001
5662630125	-5.248109e-001	-2.575698e-001	1.215316e+000	-5.228356e-001	5.502812e-002	-2.810449e-002	-4.881821e-001	-5.813967e-001
5668879938	-5.254210e-001	-2.553138e-001	1.211334e+000	-5.281360e-001	5.470289e-002	-2.776719e-002	-4.907485e-001	-5.806053e-001
5675129750	-5.262092e-001	-2.566467e-001	1.207859e+000	-5.283998e-001	5.461994e-002	-2.796736e-002	-4.928290e-001	-5.779970e-001
5681379563	-5.259188e-001	-2.551045e-001	1.199846e+000	-5.310621e-001	5.462058e-002	-2.832422e-002	-4.959093e-001	-5.773428e-001
5687629375	-5.276460e-001	-2.544681e-001	1.190551e+000	-5.354093e-001	5.482060e-002	-2.859887e-002	-4.974373e-001	-5.761886e-001
5693879188	-5.288986e-001	-2.548123e-001	1.191066e+000	-5.361733e-001	5.448477e-002	-2.862901e-002	-4.992587e-001	-5.745369e-001
5700129000	-5.293749e-001	-2.546398e-001	1.185449e+000	-5.387142e-001	5.435104e-002	-2.858225e-002	-5.001352e-001	-5.733684e-001
5706378813	-5.309283e-001	-2.536846e-001	1.181889e+000	-5.423506e-001	5.422092e-002	-2.867687e-002	-5.041295e-001	-5.704603e-001
5712628625	-5.303929e-001	-2.536635e-001	1.176483e+000	-5.424560e-001	5.405155e-002	-2.846296e-002	-5.057269e-001	-5.696565e-001
5718878438	-5.313383e-001	-2.531050e-001	1.171388e+000	-5.460740e-001	5.421402e-002	-2.924327e-002	-5.071884e-001	-5.682928e-001
5725128250	-5.314460e-001	-2.525788e-001	1.169080e+000	-5.444299e-001	5.377354e-002	-2.842095e-002	-5.093812e-001	-5.680021e-001
5731378063	-5.328290e-001	-2.520573e-001	1.162954e+000	-5.497674e-001	5.343847e-002	-2.862467e-002	-5.115552e-001	-5.671468e-001
5737627875	-5.333488e-001	-2.527160e-001	1.159188e+000	-5.500915e-001	5.297079e-002	-2.867355e-002	-5.128845e-001	-5.648462e-001
5743877688	-5.344889e-001	-2.509242e-001	1.154028e+000	-5.547932e-001	5.339385e-002	-2.925216e-002	-5.154988e-001	-5.635185e-001
5750127500	-5.345575e-001	-2.516210e-001	1.148313e+000	-5.546757e-001	5.333828e-002	-2.933796e-002	-5.177225e-001	-5.627561e-001
5756377313	-5.347534e-001	-2.506940e-001	1.144303e+000	-5.586012e-001	5.356028e-002	-2.981066e-002	-5.189460e-001	-5.623485e-001
5762627125	-5.365062e-001	-2.502654e-001	1.140220e+000	-5.579859e-001	5.282543e-002	-2.966326e-002	-5.217529e-001	-5.612749e-001
5768876938	-5.358456e-001	-2.492440e-001	1.134727e+000	-5.626629e-001	5.275118e-002	-2.879708e-002	-5.230876e-001	-5.582336e-001
5775126750	-5.372953e-001	-2.495687e-001	1.133161e+000	-5.651486e-001	5.330252e-002	-2.976386e-002	-5.244517e-001	-5.581921e-001
5781376563	-5.380193e-001	-2.489375e-001	1.128835e+000	-5.657992e-001	5.287981e-002	-2.976034e-002	-5.280353e-001	-5.567379e-001
5787626375	-5.389777e-001	-2.478722e-001	1.122299e+000	-5.669171e-001	5.224024e-002	-2.961174e-002	-5.292015e-001	-5.566291e-001
5793876188	-5.383865e-001	-2.474286e-001	1.117459e+000	-5.676590e-001	5.274995e-002	-2.930652e-002	-5.305042e-001	-5.547809e-001
5800126000	-5.387347e-001	-2.462138e-001	1.110218e+000	-5.732329e-001	5.219090e-002	-3.008929e-002	-5.319273e-001	-5.530939e-001
5806375813	-5.393808e-001	-2.470788e-001	1.105520e+000	-5.711096e-001	5.200394e-002	-3.003807e-002	-5.324701e-001	-5.499451e-001
5812625625	-5.416774e-001	-2.455798e-001	1.108517e+000	-5.748760e-001	5.186187e-002	-3.009532e-002	-5.362868e-001	-5.492162e-001
5818875438	-5.413045e-001	-2.437681e-001	1.097291e+000	-5.783582e-001	5.209491e-002	-2.980051e-002	-5.381913e-001	-5.485639e-001
5825125250	-5.424654e-001	-2.440507e-001	1.096662e+000	-5.795497e-001	5.152560e-002	-3.037347e-002	-5.390468e-001	-5.465255e-001
5831375063	-5.433942e-001	-2.431769e-001	1.090034e+000	-5.820284e-001	5.151067e-002	-3.018704e-002	-5.388684e-001	-5.459746e-001
5837624875	-5.436014e-001	-2.428063e-001	1.085638e+000	-5.818751e-001	5.148942e-002	-3.033069e-002	-5.438994e-001	-5.448961e-001
5843874688	-5.448826e-001	-2.424936e-001	1.083757e+000	-5.799729e-001	5.133840e-002	-3.013439e-002	-5.447477e-001	-5.434460e-001
5850124500	-5.463305e-001	-2.412593e-001	1.080602e+000	-5.857731e-001	5.130552e-002	-3.061145e-002	-5.472192e-001	-5.407727e-001
5856374313	-5.470776e-001	-2.407796e-001	1.074754e+000	-5.891722e-001	5.080613e-002	-3.056504e-002	-5.472394e-001	-5.391289e-001
5862624125	-5.469882e-001	-2.403403e-001	1.065651e+000	-5.906251e-001	5.099415e-002	-3.042276e-002	-5.508973e-001	-5.379686e-001
5868873938	-5.477104e-001	-2.383846e-001	1.062256e+000	-5.928998e-001	5.050943e-002	-3.017592e-002	-5.508407e-001	-5.367349e-001
5875123750	-5.493530e-001	-2.388650e-001	1.058489e+000	-5.937001e-001	5.092455e-002	-3.070948e-002	-5.538504e-001	-5.357399e-001
5881373563	-5.505446e-001	-2.388269e-001	1.056263e+000	-5.956703e-001	5.062007e-002	-3.111382e-002	-5.557609e-001	-5.337444e-001
5887623375	-5.509027e-001	-2.376661e-001	1.051112e+000	-5.951885e-001	5.039129e-002	-3.104800e-002	-5.579465e-001	-5.327748e-001
5893873188	-5.518020e-001	-2.368616e-001	1.047003e+000	-6.008148e-001	5.047255e-002	-3.079804e-002	-5.593141e-001	-5.315056e-001
5900123000	-5.517548e-001	-2.367835e-001	1.043065e+000	-5.989760e-001	4.976373e-002	-3.065358e-002	-5.614901e-001	-5.289361e-001
5906372813	-5.526326e-001	-2.358510e-001	1.035081e+000	-6.067829e-001	5.020277e-002	-3.090892e-002	-5.637439e-001	-5.286050e-001
5912622625	-5.527822e-001	-2.358806e-001	1.032772e+000	-6.028683e-001	4.994791e-002	-3.093905e-002	-5.652176e-001	-5.260315e-001
5918872438	-5.546965e-001	-2.351230e-001	1.029599e+000	-6.021772e-001	5.045244e-002	-3.080908e-002	-5.664240e-001	-5.261041e-001
5925122250	-5.551881e-001	-2.348544e-001	1.026588e+000	-6.065419e-001	5.010132e-002	-3.060232e-002	-5.685385e-001	-5.245478e-001
5931372063	-5.554364e-001	-2.353940e-001	1.019332e+000	-6.054262e-001	4.986355e-002	-3.078066e-002	-5.707010e-001	-5.244467e-001
5937621875	-5.560129e-001	-2.342496e-001	1.016549e+000	-6.088994e-001	5.018724e-002	-3.157380e-002	-5.738204e-001	-5.215747e-001
5943871688	-5.555951e-001	-2.341374e-001	1.010227e+000	-6.097924e-001	4.951737e-002	-3.169838e-002	-5.745577e-001	-5.215371e-001
5950121500	-5.571191e-001	-2.334608e-001	1.009113e+000	-6.091240e-001	4.940771e-002	-3.123246e-002	-5.769507e-001	-5.187098e-001
5956371313	-5.575981e-001	-2.316172e-001	1.000744e+000	-6.144289e-001	4.937747e-002	-3.091556e-002	-5.775309e-001	-5.181350e-001
5962621125	-5.576499e-001	-2.319505e-001	9.972929e-001	-6.138091e-001	4.915848e-002	-3.107838e-002	-5.787254e-001	-5.173774e-001
5968870938	-5.583648e-001	-2.305960e-001	9.921193e-001	-6.173503e-001	4.905907e-002	-3.142873e-002	-5.815558e-001	-5.163996e-001
5975120750	-5.589774e-001	-2.308640e-001	9.878503e-001	-6.156450e-001	4.940822e-002	-3.183456e-002	-5.821342e-001	-5.138854e-001
5981370563	-5.596580e-001	-2.286421e-001	9.837612e-001	-6.190577e-001	4.862456e-002	-3.172968e-002	-5.856430e-001	-5.111428e-001
5987620375	-5.614319e-001	-2.277788e-001	9.813529e-001	-6.207932e-001	4.868635e-002	-3.152841e-002	-5.859270e-001	-5.117812e-001
5993870188	-5.605622e-001	-2.273551e-001	9.741498e-001	-6.227214e-001	4.838829e-002	-3.123634e-002	-5.883468e-001	-5.100226e-001
6000120000	-5.614684e-001	-2.274722e-001	9.712150e-001	-6.243875e-001	4.836074e-002	-3.158073e-002	-5.892263e-001	-5.077228e-001
6006369813	-5.626085e-001	-2.261224e-001	9.669186e-001	-6.238770e-001	4.844512e-002	-3.160578e-002	-5.890961e-001	-5.073346e-001
6012619625	-5.632399e-001	-2.263717e-001	9.628048e-001	-6.236500e-001	4.809452e-002	-3.159929e-002	-5.921857e-001	-5.062601e-001
6018869438	-5.645840e-001	-2.251338e-001	9.586128e-001	-6.264344e-001	4.793605e-002	-3.208383e-002	-5.938872e-001	-5.021959e-001
6025119250	-5.639641e-001	-2.241545e-001	9.552720e-001	-6.277742e-001	4.776426e-002	-3.199524e-002	-5.956270e-001	-5.019304e-001
6031369063	-5.656673e-001	-2.243599e-001	9.534199e-001	-6.266699e-001	4.754513e-002	-3.192324e-002	-5.973603e-001	-5.004114e-001
6037618875	-5.661168e-001	-2.232990e-001	9.431732e-001	-6.311726e-001	4.738689e-002	-3.205259e-002	-5.981722e-001	-4.982897e-001
6043868688	-5.677895e-001	-2.213419e-001	9.420283e-001	-6.320490e-001	4.809479e-002	-3.179599e-002	-6.005840e-001	-4.969613e-001
6050118500	-5.679735e-001	-2.211683e-001	9.355770e-001	-6.314577e-001	4.708652e-002	-3.227583e-002	-6.023228e-001	-4.961765e-001
6056368313	-5.688564e-001	-2.203748e-001	9.316948e-001	-6.317668e-001	4.727810e-002	-3.241731e-002	-6.043200e-001	-4.927842e-001
6062618125	-5.700542e-001	-2.204860e-001	9.300974e-001	-6.335551e-001	4.720062e-002	-3.234882e-002	-6.060941e-001	-4.924814e-001
6068867938	-5.707329e-001	-2.190291e-001	9.243222e-001	-6.360062e-001	4.682045e-002	-3.198514e-002	-6.071510e-001	-4.915042e-001
6075117750	-5.709186e-001	-2.187728e-001	9.189861e-001	-6.360960e-001	4.683662e-002	-3.182772e-002	-6.091353e-001	-4.899041e-001
6081367563	-5.719956e-001	-2.189791e-001	9.177631e-001	-6.386920e-001	4.673753e-002	-3.243811e-002	-6.107094e-001	-4.884943e-001
6087617375	-5.714695e-001	-2.181674e-001	9.126810e-001	-6.354948e-001	4.652359e-002	-3.250574e-002	-6.121398e-001	-4.874390e-001
6093867188	-5.731586e-001	-2.174184e-001	9.102670e-001	-6.379895e-001	4.674553e-002	-3.236783e-002	-6.140907e-001	-4.835500e-001
6100117000	-5.750028e-001	-2.160058e-001	9.024220e-001	-6.414901e-001	4.637031e-002	-3.245349e-002	-6.170915e-001	-4.828851e-001
6106366813	-5.740118e-001	-2.149086e-001	8.980649e-001	-6.428833e-001	4.637066e-002	-3.248129e-002	-6.167532e-001	-4.815240e-001
6112616625	-5.745716e-001	-2.154682e-001	8.975673e-001	-6.434609e-001	4.604624e-002	-3.289091e-002	-6.180709e-001	-4.797624e-001
6118866438	-5.746244e-001	-2.137550e-001	8.879315e-001	-6.435099e-001	4.602686e-002	-3.263205e-002	-6.210002e-001	-4.786419e-001
6125116250	-5.756562e-001	-2.149710e-001	8.851472e-001	-6.447384e-001	4.617234e-002	-3.234573e-002	-6.223858e-001	-4.777178e-001
6131366063	-5.766378e-001	-2.145700e-001	8.822144e-001	-6.437768e-001	4.595416e-002	-3.273706e-002	-6.240384e-001	-4.762002e-001
6137615875	-5.768215e-001	-2.130705e-001	8.769287e-001	-6.428212e-001	4.594860e-002	-3.241003e-002	-6.250086e-001	-4.756192e-001
6143865688	-5.773407e-001	-2.111874e-001	8.741806e-001	-6.466036e-001	4.567351e-002	-3.246609e-002	-6.256872e-001	-4.753215e-001
6150115500	-5.765809e-001	-2.118075e-001	8.703528e-001	-6.442351e-001	4.505371e-002	-3.272011e-002	-6.297134e-001	-4.705650e-001
6156365313	-5.781619e-001	-2.110734e-001	8.643374e-001	-6.482234e-001	4.488677e-002	-3.259379e-002	-6.297628e-001	-4.701756e-001
6162615125	-5.786425e-001	-2.096717e-001	8.608136e-001	-6.470321e-001	4.514260e-002	-3.242399e-002	-6.305646e-001	-4.693962e-001
6168864938	-5.795179e-001	-2.093186e-001	8.591184e-001	-6.485631e-001	4.535323e-002	-3.257694e-002	-6.325955e-001	-4.675421e-001
6175114750	-5.790558e-001	-2.086286e-001	8.524145e-001	-6.480292e-001	4.546786e-002	-3.244194e-002	-6.327609e-001	-4.660974e-001
6181364563	-5.798154e-001	-2.080730e-001	8.504805e-001	-6.485177e-001	4.459384e-002	-3.288120e-002	-6.344190e-001	-4.647058e-001
6187614375	-5.812940e-001	-2.063812e-001	8.463450e-001	-6.499360e-001	4.526269e-002	-3.241766e-002	-6.360305e-001	-4.645356e-001
6193864188	-5.815969e-001	-2.070016e-001	8.437394e-001	-6.519237e-001	4.494033e-002	-3.259200e-002	-6.367346e-001	-4.618389e-001
6200114000	-5.828093e-001	-2.049157e-001	8.384497e-001	-6.521599e-001	4.440771e-002	-3.289075e-002	-6.395362e-001	-4.616248e-001
6206363813	-5.830867e-001	-2.047246e-001	8.355839e-001	-6.521349e-001	4.424687e-002	-3.332345e-002	-6.390439e-001	-4.591793e-001
6212613625	-5.834744e-001	-2.040938e-001	8.293843e-001	-6.513435e-001	4.472987e-002	-3.295991e-002	-6.422393e-001	-4.575883e-001
6218863438	-5.842972e-001	-2.035066e-001	8.249014e-001	-6.537299e-001	4.469192e-002	-3.304289e-002	-6.430497e-001	-4.560126e-001
6225113250	-5.853329e-001	-2.019778e-001	8.198698e-001	-6.565062e-001	4.377845e-002	-3.274895e-002	-6.447727e-001	-4.553024e-001
6231363063	-5.854330e-001	-2.021653e-001	8.173512e-001	-6.533166e-001	4.394393e-002	-3.294790e-002	-6.462665e-001	-4.531347e-001
6237612875	-5.867856e-001	-2.010455e-001	8.120380e-001	-6.551696e-001	4.436296e-002	-3.329779e-002	-6.468214e-001	-4.523503e-001
6243862688	-5.869923e-001	-2.007775e-001	8.104886e-001	-6.537376e-001	4.379469e-002	-3.297962e-002	-6.483005e-001	-4.498899e-001
6250112500	-5.883730e-001	-2.005426e-001	8.069633e-001	-6.586437e-001	4.363749e-002	-3.277883e-002	-6.507927e-001	-4.484033e-001
6256362313	-5.890823e-001	-1.990558e-001	8.015672e-001	-6.561150e-001	4.300681e-002	-3.287699e-002	-6.524598e-001	-4.459891e-001
6262612125	-5.897629e-001	-1.995619e-001	8.007900e-001	-6.567454e-001	4.348337e-002	-3.297068e-002	-6.538156e-001	-4.458967e-001
6268861938	-5.888417e-001	-1.973886e-001	7.955244e-001	-6.572220e-001	4.340173e-002	-3.298004e-002	-6.545321e-001	-4.437162e-001
6275111750	-5.900540e-001	-1.978288e-001	7.929031e-001	-6.564173e-001	4.323745e-002	-3.359973e-002	-6.545384e-001	-4.423363e-001
6281361563	-5.903771e-001	-1.958059e-001	7.856566e-001	-6.596236e-001	4.318474e-002	-3.261589e-002	-6.564320e-001	-4.411375e-001
6287611375	-5.914875e-001	-1.964873e-001	7.826289e-001	-6.562852e-001	4.245988e-002	-3.257855e-002	-6.570127e-001	-4.377064e-001
6293861188	-5.921547e-001	-1.942519e-001	7.768133e-001	-6.580836e-001	4.266851e-002	-3.274392e-002	-6.595116e-001	-4.375511e-001
6300111000	-5.919490e-001	-1.942640e-001	7.746283e-001	-6.559935e-001	4.274395e-002	-3.283394e-002	-6.605786e-001	-4.364736e-001
6306360813	-5.929229e-001	-1.940872e-001	7.707799e-001	-6.606066e-001	4.237822e-002	-3.293348e-002	-6.619598e-001	-4.354633e-001
6312610625	-5.933409e-001	-1.931654e-001	7.656772e-001	-6.602094e-001	4.268703e-002	-3.299200e-002	-6.626460e-001	-4.333968e-001
6318860438	-5.937734e-001	-1.920247e-001	7.627419e-001	-6.592123e-001	4.194720e-002	-3.300356e-002	-6.637696e-001	-4.319800e-001
6325110250	-5.947468e-001	-1.914953e-001	7.594630e-001	-6.602617e-001	4.229988e-002	-3.336503e-002	-6.671062e-001	-4.300836e-001
6331360063	-5.946091e-001	-1.911267e-001	7.555048e-001	-6.602012e-001	4.249010e-002	-3.292100e-002	-6.670098e-001	-4.290598e-001
6337609875	-5.954641e-001	-1.901983e-001	7.518439e-001	-6.621470e-001	4.227279e-002	-3.282361e-002	-6.677574e-001	-4.273652e-001
6343859688	-5.962494e-001	-1.892734e-001	7.491139e-001	-6.632457e-001	4.193809e-002	-3.280923e-002	-6.693970e-001	-4.264120e-001
6350109500	-5.972582e-001	-1.888362e-001	7.424204e-001	-6.621667e-001	4.213629e-002	-3.312987e-002	-6.715645e-001	-4.237779e-001
6356359313	-5.970015e-001	-1.875777e-001	7.431655e-001	-6.612157e-001	4.155859e-002	-3.312542e-002	-6.720057e-001	-4.244763e-001
6362609125	-5.981235e-001	-1.874273e-001	7.384691e-001	-6.606541e-001	4.153021e-002	-3.350516e-002	-6.738166e-001	-4.223865e-001
6368858938	-5.991253e-001	-1.859177e-001	7.337333e-001	-6.626165e-001	4.103246e-002	-3.306302e-002	-6.763209e-001	-4.197081e-001
6375108750	-5.997147e-001	-1.854202e-001	7.313401e-001	-6.632010e-001	4.133200e-002	-3.290621e-002	-6.769396e-001	-4.172708e-001
6381358563	-5.997357e-001	-1.846614e-001	7.272897e-001	-6.599786e-001	4.163019e-002	-3.337207e-002	-6.787445e-001	-4.163514e-001
6387608375	-5.999017e-001	-1.839953e-001	7.216561e-001	-6.644432e-001	4.125677e-002	-3.295102e-002	-6.788609e-001	-4.146906e-001
6393858188	-6.007225e-001	-1.824454e-001	7.213281e-001	-6.613049e-001	4.128143e-002	-3.341957e-002	-6.811794e-001	-4.144829e-001
6400108000	-6.016701e-001	-1.824929e-001	7.156666e-001	-6.627097e-001	4.057970e-002	-3.317964e-002	-6.823860e-001	-4.127750e-001
6406357813	-6.012253e-001	-1.818294e-001	7.136820e-001	-6.607375e-001	4.128025e-002	-3.316958e-002	-6.825925e-001	-4.108696e-001
6412607625	-6.022491e-001	-1.798938e-001	7.094976e-001	-6.615044e-001	4.117977e-002	-3.301871e-002	-6.836538e-001	-4.102958e-001
6418857438	-6.025618e-001	-1.799104e-001	7.030761e-001	-6.647000e-001	4.118448e-002	-3.297606e-002	-6.835653e-001	-4.082906e-001
6425107250	-6.031899e-001	-1.800076e-001	6.987348e-001	-6.621486e-001	4.084668e-002	-3.272234e-002	-6.845841e-001	-4.070501e-001
6431357063	-6.035259e-001	-1.790578e-001	6.970173e-001	-6.608111e-001	4.056802e-002	-3.312969e-002	-6.883277e-001	-4.060805e-001
6437606875	-6.046757e-001	-1.779346e-001	6.949727e-001	-6.636226e-001	4.089964e-002	-3.309690e-002	-6.873689e-001	-4.035337e-001
6443856688	-6.062209e-001	-1.766709e-001	6.915979e-001	-6.623737e-001	4.078650e-002	-3.321368e-002	-6.885802e-001	-4.017567e-001
6450106500	-6.040154e-001	-1.775213e-001	6.875966e-001	-6.620690e-001	4.015191e-002	-3.350524e-002	-6.897222e-001	-4.013832e-001
6456356313	-6.062315e-001	-1.747083e-001	6.842481e-001	-6.637950e-001	4.018130e-002	-3.318042e-002	-6.901181e-001	-3.994062e-001
6462606125	-6.074669e-001	-1.754748e-001	6.816792e-001	-6.592392e-001	4.015750e-002	-3.279399e-002	-6.917072e-001	-3.992480e-001
6468855938	-6.071504e-001	-1.745687e-001	6.782358e-001	-6.603744e-001	4.027244e-002	-3.276118e-002	-6.930829e-001	-3.971333e-001
6475105750	-6.077882e-001	-1.744010e-001	6.723031e-001	-6.616771e-001	3.988561e-002	-3.329087e-002	-6.948106e-001	-3.951385e-001
6481355563	-6.080712e-001	-1.733331e-001	6.684293e-001	-6.617885e-001	4.026143e-002	-3.297815e-002	-6.962390e-001	-3.932180e-001
6487605375	-6.102821e-001	-1.724356e-001	6.663035e-001	-6.639007e-001	3.943470e-002	-3.311660e-002	-6.984801e-001	-3.925816e-001
6493855188	-6.106727e-001	-1.720420e-001	6.625076e-001	-6.615087e-001	3.973074e-002	-3.348070e-002	-6.987739e-001	-3.903126e-001
6500105000	-6.099971e-001	-1.705770e-001	6.596582e-001	-6.610678e-001	3.962981e-002	-3.286579e-002	-6.992409e-001	-3.896143e-001
6506354813	-6.113465e-001	-1.702351e-001	6.559351e-001	-6.627579e-001	3.991253e-002	-3.333293e-002	-7.018462e-001	-3.869315e-001
6512604625	-6.123969e-001	-1.695170e-001	6.544309e-001	-6.617046e-001	3.911030e-002	-3.268870e-002	-7.026075e-001	-3.858051e-001
6518854438	-6.124377e-001	-1.691303e-001	6.506056e-001	-6.613192e-001	3.953894e-002	-3.282573e-002	-7.029371e-001	-3.857414e-001
6525104250	-6.126748e-001	-1.680227e-001	6.447988e-001	-6.598255e-001	3.865652e-002	-3.301408e-002	-7.042207e-001	-3.815181e-001
6531354063	-6.131614e-001	-1.669461e-001	6.398244e-001	-6.637709e-001	3.900829e-002	-3.333055e-002	-7.071634e-001	-3.809973e-001
6537603875	-6.134379e-001	-1.650418e-001	6.375504e-001	-6.627328e-001	3.888616e-002	-3.289021e-002	-7.066754e-001	-3.795539e-001
6543853688	-6.141045e-001	-1.656743e-001	6.355958e-001	-6.618347e-001	3.944917e-002	-3.246487e-002	-7.071635e-001	-3.793166e-001
6550103500	-6.136118e-001	-1.651651e-001	6.294919e-001	-6.601524e-001	3.932684e-002	-3.276433e-002	-7.097366e-001	-3.781906e-001
6556353313	-6.148540e-001	-1.638069e-001	6.280656e-001	-6.601814e-001	3.844080e-002	-3.287579e-002	-7.101359e-001	-3.759215e-001
6562603125	-6.155528e-001	-1.641798e-001	6.245960e-001	-6.609353e-001	3.889367e-002	-3.335723e-002	-7.115775e-001	-3.736993e-001
6568852938	-6.159816e-001	-1.634478e-001	6.226973e-001	-6.586957e-001	3.902893e-002	-3.338749e-002	-7.131759e-001	-3.721184e-001
6575102750	-6.156536e-001	-1.619074e-001	6.182501e-001	-6.593917e-001	3.844311e-002	-3.199023e-002	-7.131243e-001	-3.727596e-001
6581352563	-6.167221e-001	-1.614707e-001	6.163737e-001	-6.571423e-001	3.848005e-002	-3.270382e-002	-7.142436e-001	-3.692215e-001
6587602375	-6.172443e-001	-1.604036e-001	6.118778e-001	-6.593456e-001	3.855601e-002	-3.303102e-002	-7.162955e-001	-3.685919e-001
6593852188	-6.182186e-001	-1.598557e-001	6.104460e-001	-6.584976e-001	3.832981e-002	-3.267295e-002	-7.157669e-001	-3.656942e-001
6600102000	-6.180785e-001	-1.588297e-001	6.072638e-001	-6.564404e-001	3.836680e-002	-3.283510e-002	-7.162206e-001	-3.628512e-001
6606351813	-6.188586e-001	-1.586017e-001	6.046957e-001	-6.554300e-001	3.849322e-002	-3.273741e-002	-7.182960e-001	-3.643348e-001
6612601625	-6.193848e-001	-1.572991e-001	6.008622e-001	-6.578612e-001	3.805628e-002	-3.287851e-002	-7.186354e-001	-3.635834e-001
6618851438	-6.195373e-001	-1.563859e-001	5.967592e-001	-6.577612e-001	3.874140e-002	-3.220300e-002	-7.198661e-001	-3.615793e-001
6625101250	-6.206626e-001	-1.556500e-001	5.929109e-001	-6.570883e-001	3.795411e-002	-3.242550e-002	-7.214057e-001	-3.599873e-001
6631351063	-6.202181e-001	-1.553030e-001	5.889676e-001	-6.559704e-001	3.840080e-002	-3.308670e-002	-7.205776e-001	-3.571518e-001
6637600875	-6.219623e-001	-1.532801e-001	5.892210e-001	-6.560510e-001	3.870763e-002	-3.241362e-002	-7.222172e-001	-3.560088e-001
6643850688	-6.220171e-001	-1.528848e-001	5.860463e-001	-6.569398e-001	3.817360e-002	-3.279214e-002	-7.239479e-001	-3.563074e-001
6650100500	-6.226911e-001	-1.520844e-001	5.813317e-001	-6.554385e-001	3.846500e-002	-3.251746e-002	-7.245978e-001	-3.532725e-001
6656350313	-6.234117e-001	-1.522969e-001	5.799090e-001	-6.550475e-001	3.830089e-002	-3.257938e-002	-7.255741e-001	-3.525905e-001
6662600125	-6.228797e-001	-1.510870e-001	5.746300e-001	-6.547308e-001	3.859649e-002	-3.294150e-002	-7.269631e-001	-3.514068e-001
6668849938	-6.240090e-001	-1.504740e-001	5.719792e-001	-6.528819e-001	3.774979e-002	-3.252921e-002	-7.266695e-001	-3.492297e-001
6675099750	-6.245087e-001	-1.493632e-001	5.684890e-001	-6.538322e-001	3.815572e-002	-3.296495e-002	-7.290301e-001	-3.478426e-001
6681349563	-6.251495e-001	-1.490819e-001	5.657480e-001	-6.556585e-001	3.814726e-002	-3.324033e-002	-7.301006e-001	-3.463150e-001
6687599375	-6.257419e-001	-1.490381e-001	5.666030e-001	-6.526419e-001	3.822730e-002	-3.307973e-002	-7.305485e-001	-3.449641e-001
6693849188	-6.266792e-001	-1.477198e-001	5.602020e-001	-6.537480e-001	3.772526e-002	-3.324324e-002	-7.309989e-001	-3.429261e-001
6700099000	-6.274514e-001	-1.476963e-001	5.563902e-001	-6.522141e-001	3.761288e-002	-3.376357e-002	-7.328272e-001	-3.420279e-001
6706348813	-6.272211e-001	-1.477854e-001	5.524075e-001	-6.509998e-001	3.739350e-002	-3.360262e-002	-7.341939e-001	-3.407739e-001
6712598625	-6.277687e-001	-1.468963e-001	5.481574e-001	-6.527489e-001	3.700825e-002	-3.313033e-002	-7.349956e-001	-3.380146e-001
6718848438	-6.281775e-001	-1.459791e-001	5.472059e-001	-6.495852e-001	3.751993e-002	-3.314413e-002	-7.363134e-001	-3.373873e-001
6725098250	-6.291925e-001	-1.458197e-001	5.459219e-001	-6.524989e-001	3.701761e-002	-3.267975e-002	-7.366986e-001	-3.375081e-001
6731348063	-6.284553e-001	-1.450630e-001	5.415991e-001	-6.488813e-001	3.660534e-002	-3.305081e-002	-7.373579e-001	-3.341198e-001
6737597875	-6.300473e-001	-1.430903e-001	5.396418e-001	-6.489503e-001	3.731209e-002	-3.263339e-002	-7.382481e-001	-3.333107e-001
6743847688	-6.303752e-001	-1.435139e-001	5.348068e-001	-6.483593e-001	3.745086e-002	-3.267719e-002	-7.388048e-001	-3.332289e-001
6750097500	-6.300114e-001	-1.429023e-001	5.335266e-001	-6.461513e-001	3.706560e-002	-3.244515e-002	-7.396795e-001	-3.319261e-001
6756347313	-6.300511e-001	-1.422629e-001	5.319834e-001	-6.466998e-001	3.716133e-002	-3.293712e-002	-7.405224e-001	-3.289184e-001
6762597125	-6.303797e-001	-1.409281e-001	5.292598e-001	-6.470118e-001	3.720186e-002	-3.257983e-002	-7.412676e-001	-3.290200e-001
6768846938	-6.309520e-001	-1.405456e-001	5.250343e-001	-6.446185e-001	3.705221e-002	-3.251860e-002	-7.404252e-001	-3.270693e-001
6775096750	-6.314098e-001	-1.392196e-001	5.241057e-001	-6.449687e-001	3.720309e-002	-3.226974e-002	-7.427456e-001	-3.260228e-001
6781346563	-6.309390e-001	-1.390557e-001	5.191546e-001	-6.433001e-001	3.754378e-002	-3.259335e-002	-7.432151e-001	-3.239958e-001
6787596375	-6.318142e-001	-1.376853e-001	5.176718e-001	-6.442710e-001	3.745901e-002	-3.272818e-002	-7.454748e-001	-3.249873e-001
6793846188	-6.318247e-001	-1.375338e-001	5.150606e-001	-6.437771e-001	3.780940e-002	-3.303133e-002	-7.437929e-001	-3.218611e-001
6800096000	-6.323654e-001	-1.358271e-001	5.123238e-001	-6.428018e-001	3.721843e-002	-3.290972e-002	-7.447218e-001	-3.194843e-001
6806345813	-6.332434e-001	-1.345900e-001	5.106707e-001	-6.424855e-001	3.730265e-002	-3.334712e-002	-7.455984e-001	-3.205498e-001
6812595625	-6.325363e-001	-1.343526e-001	5.081581e-001	-6.421033e-001	3.781087e-002	-3.297282e-002	-7.462191e-001	-3.179057e-001
6818845438	-6.340149e-001	-1.331190e-001	5.051354e-001	-6.414124e-001	3.808031e-002	-3.337804e-002	-7.476840e-001	-3.187225e-001
6825095250	-6.336814e-001	-1.332049e-001	5.022973e-001	-6.409198e-001	3.746022e-002	-3.347621e-002	-7.473954e-001	-3.163788e-001
6831345063	-6.347575e-001	-1.328326e-001	4.989892e-001	-6.411697e-001	3.776472e-002	-3.378461e-002	-7.492297e-001	-3.141037e-001
6837594875	-6.346173e-001	-1.322639e-001	4.956505e-001	-6.408585e-001	3.776799e-002	-3.365058e-002	-7.492046e-001	-3.122367e-001
6843844688	-6.346057e-001	-1.312517e-001	4.922986e-001	-6.383994e-001	3.769315e-002	-3.358511e-002	-7.495917e-001	-3.113257e-001
6850094500	-6.360538e-001	-1.315979e-001	4.926184e-001	-6.398599e-001	3.760690e-002	-3.412402e-002	-7.514083e-001	-3.087017e-001
6856344313	-6.358298e-001	-1.299152e-001	4.895342e-001	-6.388668e-001	3.736735e-002	-3.411304e-002	-7.508624e-001	-3.082575e-001
6862594125	-6.373423e-001	-1.298466e-001	4.855457e-001	-6.394147e-001	3.714266e-002	-3.415190e-002	-7.530668e-001	-3.049770e-001
6868843938	-6.372951e-001	-1.294392e-001	4.822224e-001	-6.381245e-001	3.756509e-002	-3.415607e-002	-7.526711e-001	-3.060397e-001
6875093750	-6.376075e-001	-1.292927e-001	4.806576e-001	-6.359406e-001	3.697731e-002	-3.496465e-002	-7.544116e-001	-3.049125e-001
6881343563	-6.376669e-001	-1.288458e-001	4.771541e-001	-6.355468e-001	3.687019e-002	-3.436210e-002	-7.541431e-001	-3.029435e-001
6887593375	-6.387071e-001	-1.288505e-001	4.750117e-001	-6.362025e-001	3.673948e-002	-3.513357e-002	-7.551566e-001	-3.013869e-001
6893843188	-6.388014e-001	-1.276857e-001	4.729488e-001	-6.359989e-001	3.672858e-002	-3.489737e-002	-7.561517e-001	-3.010147e-001
6900093000	-6.395881e-001	-1.273453e-001	4.692214e-001	-6.359109e-001	3.679158e-002	-3.499395e-002	-7.568340e-001	-2.976633e-001
6906342813	-6.393457e-001	-1.277910e-001	4.662158e-001	-6.342467e-001	3.675379e-002	-3.564144e-002	-7.586866e-001	-2.992618e-001
6912592625	-6.399300e-001	-1.270830e-001	4.659315e-001	-6.346306e-001	3.629435e-002	-3.521871e-002	-7.591986e-001	-2.966771e-001
6918842438	-6.402850e-001	-1.290438e-001	4.631514e-001	-6.324735e-001	3.672177e-002	-3.559535e-002	-7.597251e-001	-2.974821e-001
6925092250	-6.407715e-001	-1.262573e-001	4.587181e-001	-6.331444e-001	3.631654e-002	-3.617249e-002	-7.621431e-001	-2.968458e-001
6931342063	-6.411034e-001	-1.261522e-001	4.562080e-001	-6.319193e-001	3.610516e-002	-3.619753e-002	-7.627900e-001	-2.946403e-001
6937591875	-6.430891e-001	-1.249253e-001	4.547381e-001	-6.331695e-001	3.599462e-002	-3.542053e-002	-7.634387e-001	-2.948604e-001
6943841688	-6.430797e-001	-1.246498e-001	4.518568e-001	-6.304127e-001	3.537921e-002	-3.540128e-002	-7.642877e-001	-2.931859e-001
6950091500	-6.445088e-001	-1.235776e-001	4.500796e-001	-6.308685e-001	3.517174e-002	-3.526550e-002	-7.643666e-001	-2.918940e-001
6956341313	-6.440303e-001	-1.233200e-001	4.466252e-001	-6.304931e-001	3.494717e-002	-3.547617e-002	-7.656884e-001	-2.911503e-001
6962591125	-6.443083e-001	-1.219905e-001	4.443578e-001	-6.307961e-001	3.457178e-002	-3.524432e-002	-7.651600e-001	-2.880230e-001
6968840938	-6.429907e-001	-1.198677e-001	4.408224e-001	-6.293420e-001	3.488205e-002	-3.519039e-002	-7.664924e-001	-2.885639e-001
6975090750	-6.447039e-001	-1.196052e-001	4.391826e-001	-6.287309e-001	3.456702e-002	-3.449043e-002	-7.666771e-001	-2.872396e-001
6981340563	-6.441958e-001	-1.186637e-001	4.378125e-001	-6.271570e-001	3.519916e-002	-3.555123e-002	-7.661644e-001	-2.854353e-001
6987590375	-6.444581e-001	-1.183894e-001	4.348574e-001	-6.250688e-001	3.492417e-002	-3.505492e-002	-7.674191e-001	-2.837145e-001
6993840188	-6.467413e-001	-1.189506e-001	4.332891e-001	-6.260573e-001	3.493178e-002	-3.554300e-002	-7.680801e-001	-2.818019e-001
7000090000	-6.455558e-001	-1.175182e-001	4.309027e-001	-6.259570e-001	3.539890e-002	-3.587567e-002	-7.697146e-001	-2.802454e-001
7006339813	-6.470105e-001	-1.173990e-001	4.282366e-001	-6.249018e-001	3.496812e-002	-3.576224e-002	-7.688037e-001	-2.815963e-001
7012589625	-6.467229e-001	-1.163615e-001	4.248378e-001	-6.245080e-001	3.495500e-002	-3.620447e-002	-7.707798e-001	-2.793496e-001
7018839438	-6.477000e-001	-1.158123e-001	4.246457e-001	-6.237124e-001	3.487304e-002	-3.594048e-002	-7.704727e-001	-2.768378e-001
7025089250	-6.486457e-001	-1.150279e-001	4.207858e-001	-6.238240e-001	3.445540e-002	-3.699955e-002	-7.702731e-001	-2.755945e-001
7031339063	-6.496436e-001	-1.157027e-001	4.193011e-001	-6.222755e-001	3.413906e-002	-3.655844e-002	-7.717429e-001	-2.732472e-001
7037588875	-6.495991e-001	-1.142261e-001	4.134220e-001	-6.225383e-001	3.353381e-002	-3.646745e-002	-7.728597e-001	-2.737027e-001
7043838688	-6.502888e-001	-1.151429e-001	4.131101e-001	-6.206246e-001	3.435832e-002	-3.680421e-002	-7.730954e-001	-2.736208e-001
7050088500	-6.512586e-001	-1.154400e-001	4.135551e-001	-6.206503e-001	3.385974e-002	-3.683966e-002	-7.732716e-001	-2.710984e-001
7056338313	-6.520098e-001	-1.131285e-001	4.081550e-001	-6.212970e-001	3.338222e-002	-3.696283e-002	-7.760878e-001	-2.700586e-001
7062588125	-6.531571e-001	-1.139116e-001	4.065074e-001	-6.217095e-001	3.373331e-002	-3.654980e-002	-7.755464e-001	-2.692448e-001
7068837938	-6.523223e-001	-1.128741e-001	4.027500e-001	-6.179946e-001	3.337646e-002	-3.708553e-002	-7.762528e-001	-2.681317e-001
7075087750	-6.529146e-001	-1.122027e-001	4.016372e-001	-6.194162e-001	3.268174e-002	-3.683776e-002	-7.776019e-001	-2.669615e-001
7081337563	-6.532779e-001	-1.118855e-001	3.983843e-001	-6.188793e-001	3.267451e-002	-3.670613e-002	-7.784729e-001	-2.647600e-001
7087587375	-6.544854e-001	-1.114933e-001	3.958393e-001	-6.176472e-001	3.245923e-002	-3.730215e-002	-7.805403e-001	-2.655592e-001
7093837188	-6.548742e-001	-1.105134e-001	3.947507e-001	-6.171696e-001	3.192616e-002	-3.681452e-002	-7.800387e-001	-2.638939e-001
7100087000	-6.549097e-001	-1.093439e-001	3.918968e-001	-6.167260e-001	3.201817e-002	-3.688492e-002	-7.797449e-001	-2.615175e-001
7106336813	-6.558253e-001	-1.094313e-001	3.899372e-001	-6.157237e-001	3.224862e-002	-3.728349e-002	-7.829151e-001	-2.617775e-001
7112586625	-6.555827e-001	-1.093559e-001	3.883991e-001	-6.143231e-001	3.112947e-002	-3.709788e-002	-7.830596e-001	-2.597746e-001
7118836438	-6.551655e-001	-1.081664e-001	3.840144e-001	-6.119194e-001	3.126105e-002	-3.708564e-002	-7.840077e-001	-2.597926e-001
7125086250	-6.566869e-001	-1.079517e-001	3.824164e-001	-6.125054e-001	3.104033e-002	-3.716308e-002	-7.859760e-001	-2.576882e-001
7131336063	-6.571033e-001	-1.059567e-001	3.791281e-001	-6.131619e-001	3.122308e-002	-3.734762e-002	-7.858382e-001	-2.568633e-001
7137585875	-6.566866e-001	-1.060710e-001	3.764428e-001	-6.109692e-001	3.069227e-002	-3.712771e-002	-7.861974e-001	-2.564159e-001
7143835688	-6.581530e-001	-1.040470e-001	3.749008e-001	-6.138420e-001	3.049775e-002	-3.695921e-002	-7.877761e-001	-2.542029e-001
7150085500	-6.584592e-001	-1.040356e-001	3.726164e-001	-6.102554e-001	3.051991e-002	-3.671964e-002	-7.876908e-001	-2.549009e-001
7156335313	-6.591455e-001	-1.042890e-001	3.712608e-001	-6.078631e-001	3.004430e-002	-3.649605e-002	-7.868736e-001	-2.530300e-001
7162585125	-6.591598e-001	-1.031712e-001	3.682362e-001	-6.083636e-001	3.065195e-002	-3.649516e-002	-7.876869e-001	-2.515886e-001
7168834938	-6.596851e-001	-1.025231e-001	3.661141e-001	-6.071686e-001	3.000912e-002	-3.647522e-002	-7.888412e-001	-2.498755e-001
7175084750	-6.606686e-001	-1.022290e-001	3.640459e-001	-6.047072e-001	3.000109e-002	-3.652382e-002	-7.888286e-001	-2.493069e-001
7181334563	-6.620176e-001	-1.008415e-001	3.628628e-001	-6.066498e-001	2.990075e-002	-3.629277e-002	-7.890559e-001	-2.481865e-001
7187584375	-6.626930e-001	-1.005817e-001	3.583266e-001	-6.052266e-001	2.933801e-002	-3.634327e-002	-7.894786e-001	-2.458601e-001
7193834188	-6.626869e-001	-9.952783e-002	3.582577e-001	-6.028766e-001	2.960285e-002	-3.648859e-002	-7.905853e-001	-2.440768e-001
7200084000	-6.638213e-001	-9.945142e-002	3.548230e-001	-6.023718e-001	2.970497e-002	-3.638469e-002	-7.914628e-001	-2.417105e-001
7206333813	-6.637698e-001	-9.876643e-002	3.528093e-001	-6.020148e-001	2.955781e-002	-3.597030e-002	-7.909010e-001	-2.412021e-001
7212583625	-6.647694e-001	-9.845368e-002	3.503261e-001	-6.003307e-001	2.975056e-002	-3.624473e-002	-7.919313e-001	-2.422734e-001
7218833438	-6.660104e-001	-9.768976e-002	3.490229e-001	-6.003034e-001	2.985891e-002	-3.607841e-002	-7.931694e-001	-2.400744e-001
7225083250	-6.664656e-001	-9.779135e-002	3.468180e-001	-5.984327e-001	2.935560e-002	-3.615803e-002	-7.947040e-001	-2.390398e-001
7231333063	-6.659115e-001	-9.636229e-002	3.451244e-001	-5.996026e-001	2.977590e-002	-3.576359e-002	-7.944874e-001	-2.379636e-001
7237582875	-6.655301e-001	-9.705980e-002	3.427743e-001	-5.969383e-001	2.918848e-002	-3.595579e-002	-7.955016e-001	-2.366106e-001
7243832688	-6.682085e-001	-9.556357e-002	3.402044e-001	-5.979314e-001	2.894100e-002	-3.629402e-002	-7.958069e-001	-2.343069e-001
7250082500	-6.679013e-001	-9.568646e-002	3.382149e-001	-5.971949e-001	2.915149e-002	-3.638362e-002	-7.976768e-001	-2.325941e-001
7256332313	-6.677730e-001	-9.512523e-002	3.362819e-001	-5.963685e-001	2.903707e-002	-3.649633e-002	-7.979237e-001	-2.328142e-001
7262582125	-6.682169e-001	-9.476238e-002	3.348357e-001	-5.950897e-001	2.892761e-002	-3.637817e-002	-7.986444e-001	-2.322905e-001
7268831938	-6.689779e-001	-9.476776e-002	3.311095e-001	-5.930104e-001	2.843743e-002	-3.618738e-002	-7.987602e-001	-2.311114e-001
7275081750	-6.677786e-001	-9.382139e-002	3.284986e-001	-5.930788e-001	2.828203e-002	-3.597573e-002	-7.991667e-001	-2.289191e-001
7281331563	-6.681957e-001	-9.278520e-002	3.268543e-001	-5.911597e-001	2.774232e-002	-3.598673e-002	-8.015033e-001	-2.286226e-001
7287581375	-6.686954e-001	-9.250004e-002	3.255456e-001	-5.910725e-001	2.822809e-002	-3.599365e-002	-8.020312e-001	-2.277242e-001
7293831188	-6.684436e-001	-9.046036e-002	3.240171e-001	-5.906335e-001	2.807240e-002	-3.633049e-002	-8.018329e-001	-2.259098e-001
7300081000	-6.698162e-001	-9.101676e-002	3.216076e-001	-5.901958e-001	2.764276e-002	-3.605451e-002	-8.041132e-001	-2.248808e-001
7306330813	-6.691903e-001	-9.108929e-002	3.199016e-001	-5.889512e-001	2.721509e-002	-3.573929e-002	-8.024272e-001	-2.224969e-001
7312580625	-6.715379e-001	-8.918460e-002	3.183443e-001	-5.884276e-001	2.739360e-002	-3.592899e-002	-8.031245e-001	-2.234646e-001
7318830438	-6.695648e-001	-8.841011e-002	3.150720e-001	-5.864404e-001	2.712520e-002	-3.586695e-002	-8.036630e-001	-2.230802e-001
7325080250	-6.706735e-001	-8.776812e-002	3.135311e-001	-5.861128e-001	2.736132e-002	-3.588952e-002	-8.044852e-001	-2.216003e-001
7331330063	-6.718436e-001	-8.553721e-002	3.104857e-001	-5.850539e-001	2.682154e-002	-3.543988e-002	-8.053280e-001	-2.200006e-001
7337579875	-6.726880e-001	-8.566194e-002	3.090038e-001	-5.826263e-001	2.685931e-002	-3.530774e-002	-8.043130e-001	-2.202195e-001
7343829688	-6.729887e-001	-8.478887e-002	3.076696e-001	-5.826306e-001	2.672584e-002	-3.582776e-002	-8.037875e-001	-2.185266e-001
7350079500	-6.734972e-001	-8.491817e-002	3.054726e-001	-5.810331e-001	2.696456e-002	-3.535083e-002	-8.064208e-001	-2.176977e-001
7356329313	-6.739260e-001	-8.459472e-002	3.032476e-001	-5.803019e-001	2.665065e-002	-3.553809e-002	-8.053686e-001	-2.156972e-001
7362579125	-6.743912e-001	-8.360525e-002	3.017261e-001	-5.803133e-001	2.634695e-002	-3.530056e-002	-8.065948e-001	-2.141436e-001
7368828938	-6.753920e-001	-8.261058e-002	2.999006e-001	-5.797458e-001	2.628013e-002	-3.553517e-002	-8.080745e-001	-2.149283e-001
7375078750	-6.759290e-001	-8.147501e-002	2.974487e-001	-5.778162e-001	2.596731e-002	-3.527726e-002	-8.071573e-001	-2.138152e-001
7381328563	-6.759590e-001	-8.081142e-002	2.960052e-001	-5.769387e-001	2.651293e-002	-3.477036e-002	-8.092108e-001	-2.113787e-001
7387578375	-6.789708e-001	-8.109528e-002	2.939932e-001	-5.776038e-001	2.625734e-002	-3.494523e-002	-8.093956e-001	-2.103044e-001
7393828188	-6.785634e-001	-8.073044e-002	2.943612e-001	-5.751435e-001	2.608669e-002	-3.555269e-002	-8.101606e-001	-2.089426e-001
7400078000	-6.792202e-001	-8.083670e-002	2.910427e-001	-5.739586e-001	2.614990e-002	-3.554774e-002	-8.106431e-001	-2.073865e-001
7406327813	-6.795959e-001	-8.019931e-002	2.896079e-001	-5.739351e-001	2.560237e-002	-3.513174e-002	-8.096250e-001	-2.065043e-001
7412577625	-6.796727e-001	-7.894304e-002	2.865838e-001	-5.724482e-001	2.543476e-002	-3.447289e-002	-8.124234e-001	-2.055308e-001
7418827438	-6.807915e-001	-7.851144e-002	2.851279e-001	-5.717614e-001	2.562654e-002	-3.474195e-002	-8.114241e-001	-2.041904e-001
7425077250	-6.799686e-001	-7.871217e-002	2.819841e-001	-5.705395e-001	2.547337e-002	-3.449216e-002	-8.119912e-001	-2.030055e-001
7431327063	-6.804498e-001	-7.883313e-002	2.803488e-001	-5.687105e-001	2.512193e-002	-3.450879e-002	-8.132921e-001	-2.021029e-001
7437576875	-6.805045e-001	-7.806810e-002	2.784974e-001	-5.683417e-001	2.537974e-002	-3.427827e-002	-8.138228e-001	-2.021718e-001
7443826688	-6.804832e-001	-7.719922e-002	2.780187e-001	-5.677116e-001	2.576529e-002	-3.470643e-002	-8.134180e-001	-2.018932e-001
7450076500	-6.811165e-001	-7.698051e-002	2.767914e-001	-5.656872e-001	2.507874e-002	-3.443125e-002	-8.137170e-001	-2.002330e-001
7456326313	-6.807348e-001	-7.733399e-002	2.750880e-001	-5.658712e-001	2.555752e-002	-3.434852e-002	-8.140785e-001	-1.986411e-001
7462576125	-6.796601e-001	-7.614475e-002	2.724537e-001	-5.643474e-001	2.522933e-002	-3.424629e-002	-8.146813e-001	-1.974366e-001
7468825938	-6.815693e-001	-7.548394e-002	2.709997e-001	-5.621241e-001	2.490525e-002	-3.414683e-002	-8.149662e-001	-1.967701e-001
7475075750	-6.811088e-001	-7.495301e-002	2.696064e-001	-5.615414e-001	2.483686e-002	-3.411226e-002	-8.156918e-001	-1.975364e-001
7481325563	-6.823805e-001	-7.488992e-002	2.675137e-001	-5.600594e-001	2.502047e-002	-3.435393e-002	-8.169995e-001	-1.956047e-001
7487575375	-6.834911e-001	-7.425861e-002	2.661825e-001	-5.600448e-001	2.467463e-002	-3.454372e-002	-8.162634e-001	-1.954754e-001
7493825188	-6.812777e-001	-7.214065e-002	2.627089e-001	-5.592742e-001	2.477907e-002	-3.389556e-002	-8.165490e-001	-1.934354e-001
7500075000	-6.831411e-001	-7.216747e-002	2.636749e-001	-5.586877e-001	2.502630e-002	-3.411297e-002	-8.179086e-001	-1.929561e-001
7506324813	-6.835665e-001	-7.066984e-002	2.615730e-001	-5.588194e-001	2.468817e-002	-3.433248e-002	-8.178604e-001	-1.922080e-001
7512574625	-6.840147e-001	-6.927350e-002	2.587744e-001	-5.573132e-001	2.445927e-002	-3.421413e-002	-8.181372e-001	-1.893392e-001
7518824438	-6.843851e-001	-6.953435e-002	2.580714e-001	-5.546464e-001	2.422768e-002	-3.401615e-002	-8.191526e-001	-1.899398e-001
7525074250	-6.846585e-001	-6.964668e-002	2.555261e-001	-5.543053e-001	2.432492e-002	-3.372885e-002	-8.196476e-001	-1.880783e-001
7531324063	-6.858836e-001	-6.834022e-002	2.556511e-001	-5.537126e-001	2.449667e-002	-3.388951e-002	-8.180499e-001	-1.865197e-001
7537573875	-6.869769e-001	-6.662512e-002	2.531906e-001	-5.532882e-001	2.375248e-002	-3.415464e-002	-8.188934e-001	-1.857711e-001
7543823688	-6.865345e-001	-6.665729e-002	2.497185e-001	-5.516817e-001	2.395944e-002	-3.322013e-002	-8.201128e-001	-1.840379e-001
7550073500	-6.870504e-001	-6.594189e-002	2.491657e-001	-5.500973e-001	2.411857e-002	-3.365604e-002	-8.211457e-001	-1.836129e-001
7556323313	-6.870987e-001	-6.534263e-002	2.468315e-001	-5.497681e-001	2.394890e-002	-3.356166e-002	-8.209554e-001	-1.826095e-001
7562573125	-6.881937e-001	-6.397848e-002	2.458011e-001	-5.486348e-001	2.393758e-002	-3.346563e-002	-8.211874e-001	-1.826272e-001
7568822938	-6.895917e-001	-6.568108e-002	2.435783e-001	-5.466023e-001	2.360053e-002	-3.330269e-002	-8.218010e-001	-1.811302e-001
7575072750	-6.903283e-001	-6.563150e-002	2.433172e-001	-5.459268e-001	2.362609e-002	-3.354718e-002	-8.228120e-001	-1.780683e-001
7581322563	-6.889840e-001	-6.493150e-002	2.429155e-001	-5.437411e-001	2.373064e-002	-3.321174e-002	-8.232720e-001	-1.791362e-001
7587572375	-6.901004e-001	-6.392620e-002	2.408168e-001	-5.436943e-001	2.338258e-002	-3.294773e-002	-8.242281e-001	-1.784011e-001
7593822188	-6.901432e-001	-6.316831e-002	2.381222e-001	-5.429324e-001	2.287804e-002	-3.335469e-002	-8.244832e-001	-1.767648e-001
7600072000	-6.918316e-001	-6.361378e-002	2.361061e-001	-5.420574e-001	2.345520e-002	-3.252108e-002	-8.259058e-001	-1.759051e-001
7606321813	-6.907535e-001	-6.409050e-002	2.353810e-001	-5.396868e-001	2.323052e-002	-3.288885e-002	-8.250363e-001	-1.754804e-001
7612571625	-6.918331e-001	-6.330261e-002	2.337266e-001	-5.407638e-001	2.294164e-002	-3.286194e-002	-8.256231e-001	-1.748081e-001
7618821438	-6.921396e-001	-6.391617e-002	2.318815e-001	-5.385915e-001	2.371264e-002	-3.264501e-002	-8.266548e-001	-1.740038e-001
7625071250	-6.915476e-001	-6.318068e-002	2.308603e-001	-5.373928e-001	2.356511e-002	-3.310200e-002	-8.266417e-001	-1.728746e-001
7631321063	-6.915495e-001	-6.338434e-002	2.295089e-001	-5.366946e-001	2.312457e-002	-3.250986e-002	-8.262436e-001	-1.717419e-001
7637570875	-6.932553e-001	-6.114389e-002	2.287608e-001	-5.366756e-001	2.305027e-002	-3.252992e-002	-8.264907e-001	-1.711716e-001
7643820688	-6.933281e-001	-6.278676e-002	2.264708e-001	-5.335571e-001	2.306110e-002	-3.242581e-002	-8.266115e-001	-1.711913e-001
7650070500	-6.929670e-001	-6.070407e-002	2.243965e-001	-5.339767e-001	2.335194e-002	-3.192664e-002	-8.279007e-001	-1.703879e-001
7656320313	-6.937057e-001	-6.093410e-002	2.247747e-001	-5.326606e-001	2.307779e-002	-3.255797e-002	-8.283655e-001	-1.695550e-001
7662570125	-6.930958e-001	-5.980074e-002	2.225818e-001	-5.325456e-001	2.277277e-002	-3.216456e-002	-8.283268e-001	-1.676829e-001
7668819938	-6.935644e-001	-5.927577e-002	2.201197e-001	-5.306158e-001	2.276846e-002	-3.212351e-002	-8.291788e-001	-1.675611e-001
7675069750	-6.931627e-001	-5.885079e-002	2.195142e-001	-5.296389e-001	2.267187e-002	-3.239072e-002	-8.282334e-001	-1.664657e-001
7681319563	-6.944340e-001	-5.754939e-002	2.172268e-001	-5.289100e-001	2.315231e-002	-3.235274e-002	-8.299312e-001	-1.658054e-001
7687569375	-6.951830e-001	-5.822765e-002	2.164894e-001	-5.279970e-001	2.287020e-002	-3.213864e-002	-8.291885e-001	-1.635155e-001
7693819188	-6.949265e-001	-5.792562e-002	2.150830e-001	-5.258829e-001	2.253457e-002	-3.217958e-002	-8.294030e-001	-1.623276e-001
7700069000	-6.951343e-001	-5.719413e-002	2.134714e-001	-5.256283e-001	2.286629e-002	-3.194117e-002	-8.301872e-001	-1.619549e-001
7706318813	-6.963432e-001	-5.538552e-002	2.118357e-001	-5.254099e-001	2.294450e-002	-3.204150e-002	-8.303354e-001	-1.607392e-001
7712568625	-6.965843e-001	-5.517097e-002	2.115192e-001	-5.240217e-001	2.278353e-002	-3.205641e-002	-8.310001e-001	-1.593817e-001
7718818438	-6.962770e-001	-5.533835e-002	2.099753e-001	-5.217186e-001	2.278828e-002	-3.197159e-002	-8.317091e-001	-1.593073e-001
7725068250	-6.982637e-001	-5.600006e-002	2.090135e-001	-5.215712e-001	2.280681e-002	-3.189648e-002	-8.315474e-001	-1.579188e-001
7731318063	-6.983256e-001	-5.575137e-002	2.077077e-001	-5.198932e-001	2.278976e-002	-3.208209e-002	-8.324881e-001	-1.572753e-001
7737567875	-6.989252e-001	-5.453252e-002	2.055900e-001	-5.191849e-001	2.211504e-002	-3.152400e-002	-8.318029e-001	-1.567102e-001
7743817688	-6.984545e-001	-5.492388e-002	2.046708e-001	-5.184762e-001	2.220441e-002	-3.169163e-002	-8.320011e-001	-1.557758e-001
7750067500	-6.989894e-001	-5.631103e-002	2.036347e-001	-5.166733e-001	2.242165e-002	-3.136991e-002	-8.334950e-001	-1.553007e-001
7756317313	-7.000843e-001	-5.368752e-002	2.019038e-001	-5.179784e-001	2.239897e-002	-3.167317e-002	-8.340151e-001	-1.541309e-001
7762567125	-7.011991e-001	-5.407864e-002	2.013634e-001	-5.154458e-001	2.196892e-002	-3.229118e-002	-8.344469e-001	-1.529799e-001
7768816938	-7.007060e-001	-5.521908e-002	2.007738e-001	-5.143038e-001	2.238849e-002	-3.145635e-002	-8.342238e-001	-1.532211e-001
7775066750	-7.018958e-001	-5.386534e-002	1.988118e-001	-5.128659e-001	2.186131e-002	-3.149997e-002	-8.348859e-001	-1.527420e-001
7781316563	-7.030801e-001	-5.394326e-002	1.985882e-001	-5.117806e-001	2.191504e-002	-3.174805e-002	-8.366371e-001	-1.520413e-001
7787566375	-7.015491e-001	-5.372036e-002	1.965455e-001	-5.123818e-001	2.200842e-002	-3.182271e-002	-8.353612e-001	-1.512001e-001
7793816188	-7.020663e-001	-5.281117e-002	1.947997e-001	-5.111171e-001	2.168564e-002	-3.140907e-002	-8.361000e-001	-1.499837e-001
7800066000	-7.042995e-001	-5.165381e-002	1.940468e-001	-5.098773e-001	2.172627e-002	-3.128031e-002	-8.367377e-001	-1.512650e-001
7806315813	-7.042877e-001	-5.249617e-002	1.928791e-001	-5.081575e-001	2.194262e-002	-3.128478e-002	-8.379749e-001	-1.501030e-001
7812565625	-7.035088e-001	-5.230998e-002	1.909355e-001	-5.075594e-001	2.171186e-002	-3.114290e-002	-8.380760e-001	-1.488737e-001
7818815438	-7.038867e-001	-5.157083e-002	1.902704e-001	-5.070661e-001	2.195002e-002	-3.160616e-002	-8.367089e-001	-1.472800e-001
7825065250	-7.040966e-001	-5.176432e-002	1.892661e-001	-5.057731e-001	2.147542e-002	-3.116710e-002	-8.377676e-001	-1.468623e-001
7831315063	-7.045866e-001	-4.986998e-002	1.876381e-001	-5.051371e-001	2.193247e-002	-3.137115e-002	-8.367345e-001	-1.453741e-001
7837564875	-7.047837e-001	-4.977512e-002	1.856957e-001	-5.033006e-001	2.147377e-002	-3.108675e-002	-8.369215e-001	-1.434148e-001
7843814688	-7.042872e-001	-4.980627e-002	1.847825e-001	-5.035156e-001	2.169046e-002	-3.065923e-002	-8.372823e-001	-1.434535e-001
7850064500	-7.052038e-001	-4.919742e-002	1.843136e-001	-5.019716e-001	2.168811e-002	-3.055987e-002	-8.373045e-001	-1.435294e-001
7856314313	-7.069860e-001	-4.840729e-002	1.825609e-001	-5.012021e-001	2.132813e-002	-3.067169e-002	-8.385811e-001	-1.429122e-001
7862564125	-7.066618e-001	-4.963945e-002	1.821944e-001	-4.999620e-001	2.176547e-002	-3.105998e-002	-8.388616e-001	-1.408632e-001
7868813938	-7.072635e-001	-4.945745e-002	1.804092e-001	-4.982154e-001	2.105147e-002	-3.115322e-002	-8.387688e-001	-1.391154e-001
7875063750	-7.072461e-001	-4.786908e-002	1.785622e-001	-4.984506e-001	2.135591e-002	-3.080188e-002	-8.380961e-001	-1.399652e-001
7881313563	-7.074734e-001	-4.690818e-002	1.787312e-001	-4.971225e-001	2.115851e-002	-3.091252e-002	-8.390250e-001	-1.388714e-001
7887563375	-7.080166e-001	-4.721977e-002	1.779039e-001	-4.964512e-001	2.166957e-002	-3.056941e-002	-8.387123e-001	-1.376788e-001
7893813188	-7.082723e-001	-4.728770e-002	1.756155e-001	-4.948467e-001	2.098815e-002	-3.068635e-002	-8.395443e-001	-1.366025e-001
7900063000	-7.090654e-001	-4.573746e-002	1.748661e-001	-4.948833e-001	2.123557e-002	-3.013974e-002	-8.403184e-001	-1.359889e-001
7906312813	-7.091828e-001	-4.705863e-002	1.753464e-001	-4.933841e-001	2.148914e-002	-3.063257e-002	-8.409907e-001	-1.347565e-001
7912562625	-7.101927e-001	-4.757483e-002	1.725527e-001	-4.922333e-001	2.134987e-002	-3.016115e-002	-8.410192e-001	-1.347819e-001
7918812438	-7.100115e-001	-4.736026e-002	1.727589e-001	-4.922087e-001	2.078670e-002	-3.044695e-002	-8.418629e-001	-1.340209e-001
7925062250	-7.116225e-001	-4.654878e-002	1.708900e-001	-4.898022e-001	2.103872e-002	-3.075881e-002	-8.419863e-001	-1.324490e-001
7931312063	-7.101312e-001	-4.616754e-002	1.694815e-001	-4.899379e-001	2.089714e-002	-3.054830e-002	-8.423823e-001	-1.326019e-001
7937561875	-7.110535e-001	-4.568763e-002	1.693751e-001	-4.880687e-001	2.104070e-002	-3.046718e-002	-8.418490e-001	-1.318102e-001
7943811688	-7.121416e-001	-4.679654e-002	1.684201e-001	-4.875228e-001	2.077921e-002	-3.018911e-002	-8.427012e-001	-1.314792e-001
7950061500	-7.129974e-001	-4.701182e-002	1.677975e-001	-4.866624e-001	2.108224e-002	-3.049576e-002	-8.432820e-001	-1.309773e-001
7956311313	-7.119299e-001	-4.522200e-002	1.656164e-001	-4.856112e-001	2.137973e-002	-2.974570e-002	-8.440577e-001	-1.300110e-001
7962561125	-7.127481e-001	-4.471049e-002	1.649233e-001	-4.839997e-001	2.040853e-002	-3.052926e-002	-8.438728e-001	-1.302640e-001
7968810938	-7.124804e-001	-4.385800e-002	1.637536e-001	-4.828724e-001	2.100929e-002	-3.029719e-002	-8.441303e-001	-1.296529e-001
7975060750	-7.133568e-001	-4.445481e-002	1.625049e-001	-4.828686e-001	2.004274e-002	-3.036703e-002	-8.446673e-001	-1.289273e-001
7981310563	-7.126873e-001	-4.446639e-002	1.615449e-001	-4.819020e-001	2.046184e-002	-3.000755e-002	-8.446232e-001	-1.282858e-001
7987560375	-7.120838e-001	-4.329688e-002	1.613447e-001	-4.810053e-001	1.973825e-002	-2.993480e-002	-8.429820e-001	-1.277584e-001
7993810188	-7.148800e-001	-4.431037e-002	1.588846e-001	-4.803487e-001	2.047122e-002	-3.013003e-002	-8.446533e-001	-1.273087e-001
8000060000	-7.138227e-001	-4.317511e-002	1.587551e-001	-4.791970e-001	2.039153e-002	-2.927264e-002	-8.441234e-001	-1.253588e-001
8006309813	-7.141786e-001	-4.249358e-002	1.568547e-001	-4.779012e-001	2.052600e-002	-3.008189e-002	-8.436916e-001	-1.248122e-001
8012559625	-7.152946e-001	-4.196950e-002	1.566594e-001	-4.768467e-001	2.044860e-002	-2.936710e-002	-8.443674e-001	-1.239768e-001
8018809438	-7.159008e-001	-4.212362e-002	1.547952e-001	-4.757301e-001	2.063917e-002	-2.921372e-002	-8.438427e-001	-1.240740e-001
8025059250	-7.175637e-001	-4.149939e-002	1.543788e-001	-4.746870e-001	2.034123e-002	-2.978263e-002	-8.445300e-001	-1.232625e-001
8031309063	-7.171508e-001	-4.176110e-002	1.529670e-001	-4.741509e-001	2.039418e-002	-2.971318e-002	-8.447555e-001	-1.223060e-001
8037558875	-7.166655e-001	-4.115033e-002	1.515209e-001	-4.735470e-001	2.045363e-002	-2.935499e-002	-8.440030e-001	-1.209083e-001
8043808688	-7.179586e-001	-4.078258e-002	1.505281e-001	-4.725808e-001	2.027838e-002	-2.924272e-002	-8.446534e-001	-1.207669e-001
8050058500	-7.181392e-001	-4.284067e-002	1.502009e-001	-4.717771e-001	2.027240e-002	-2.914215e-002	-8.447065e-001	-1.194453e-001
8056308313	-7.198270e-001	-4.090737e-002	1.492647e-001	-4.697285e-001	2.010721e-002	-2.943394e-002	-8.449944e-001	-1.189109e-001
8062558125	-7.190729e-001	-4.124617e-002	1.484889e-001	-4.708836e-001	2.030275e-002	-2.945087e-002	-8.454915e-001	-1.177225e-001
8068807938	-7.189998e-001	-4.056517e-002	1.469253e-001	-4.684403e-001	2.003317e-002	-2.901628e-002	-8.464646e-001	-1.171100e-001
8075057750	-7.194330e-001	-4.153877e-002	1.466946e-001	-4.670627e-001	1.955591e-002	-2.897479e-002	-8.470490e-001	-1.164024e-001
8081307563	-7.198820e-001	-4.046992e-002	1.456637e-001	-4.669337e-001	1.983846e-002	-2.915170e-002	-8.470833e-001	-1.158997e-001
8087557375	-7.223497e-001	-3.927723e-002	1.453580e-001	-4.662258e-001	2.017930e-002	-2.931373e-002	-8.470541e-001	-1.158136e-001
8093807188	-7.212268e-001	-4.154175e-002	1.443875e-001	-4.653766e-001	1.952143e-002	-2.895462e-002	-8.489706e-001	-1.145480e-001
8100057000	-7.216954e-001	-4.068013e-002	1.425647e-001	-4.639774e-001	1.979729e-002	-2.904984e-002	-8.488363e-001	-1.150127e-001
8106306813	-7.214405e-001	-4.045815e-002	1.426177e-001	-4.634345e-001	1.993012e-002	-2.898029e-002	-8.485109e-001	-1.143027e-001
8112556625	-7.219268e-001	-4.069838e-002	1.420011e-001	-4.621741e-001	2.003023e-002	-2.895171e-002	-8.494124e-001	-1.130667e-001
8118806438	-7.233007e-001	-3.911124e-002	1.408886e-001	-4.620841e-001	1.961565e-002	-2.873067e-002	-8.491756e-001	-1.130165e-001
8125056250	-7.223398e-001	-3.987770e-002	1.397851e-001	-4.600768e-001	1.948505e-002	-2.871317e-002	-8.494350e-001	-1.126281e-001
8131306063	-7.217904e-001	-3.932182e-002	1.384727e-001	-4.592323e-001	1.936671e-002	-2.856668e-002	-8.492259e-001	-1.125800e-001
8137555875	-7.235424e-001	-4.042961e-002	1.380278e-001	-4.591366e-001	1.960208e-002	-2.878328e-002	-8.498319e-001	-1.122561e-001
8143805688	-7.228606e-001	-3.859835e-002	1.371501e-001	-4.582001e-001	1.976141e-002	-2.826280e-002	-8.494090e-001	-1.113652e-001
8150055500	-7.242355e-001	-3.878260e-002	1.356113e-001	-4.561778e-001	1.956764e-002	-2.875225e-002	-8.505360e-001	-1.106280e-001
8156305313	-7.246458e-001	-3.906507e-002	1.350408e-001	-4.558223e-001	1.963602e-002	-2.803782e-002	-8.501663e-001	-1.104785e-001
8162555125	-7.245087e-001	-3.882479e-002	1.347975e-001	-4.547882e-001	1.940158e-002	-2.812002e-002	-8.501877e-001	-1.100665e-001
8168804938	-7.250235e-001	-3.775007e-002	1.342684e-001	-4.542831e-001	1.977352e-002	-2.841500e-002	-8.490823e-001	-1.084523e-001
8175054750	-7.242294e-001	-3.749361e-002	1.326131e-001	-4.530448e-001	1.964225e-002	-2.792413e-002	-8.492211e-001	-1.082592e-001
8181304563	-7.255813e-001	-3.682623e-002	1.327201e-001	-4.529964e-001	1.970223e-002	-2.787240e-002	-8.497343e-001	-1.077395e-001
8187554375	-7.261324e-001	-3.724342e-002	1.318560e-001	-4.507746e-001	1.902177e-002	-2.816142e-002	-8.490910e-001	-1.071995e-001
8193804188	-7.261658e-001	-3.832952e-002	1.300218e-001	-4.501046e-001	1.956141e-002	-2.810190e-002	-8.489005e-001	-1.070899e-001
8200054000	-7.269330e-001	-3.746167e-002	1.305840e-001	-4.480670e-001	1.936326e-002	-2.797726e-002	-8.492011e-001	-1.062449e-001
8206303813	-7.260829e-001	-3.822106e-002	1.292319e-001	-4.479245e-001	1.916196e-002	-2.779063e-002	-8.494976e-001	-1.050575e-001
8212553625	-7.296768e-001	-3.671156e-002	1.271102e-001	-4.470918e-001	1.980867e-002	-2.798148e-002	-8.495357e-001	-1.043828e-001
8218803438	-7.294263e-001	-3.673194e-002	1.265462e-001	-4.472018e-001	1.951678e-002	-2.785399e-002	-8.497341e-001	-1.040609e-001
8225053250	-7.300004e-001	-3.724825e-002	1.268492e-001	-4.457108e-001	1.916062e-002	-2.739821e-002	-8.500336e-001	-1.032869e-001
8231303063	-7.300948e-001	-3.779904e-002	1.256923e-001	-4.449252e-001	1.924059e-002	-2.759350e-002	-8.498686e-001	-1.023017e-001
8237552875	-7.296082e-001	-3.719565e-002	1.261140e-001	-4.439000e-001	1.917946e-002	-2.770173e-002	-8.500132e-001	-1.022449e-001
8243802688	-7.304887e-001	-3.715874e-002	1.244717e-001	-4.432570e-001	1.939525e-002	-2.819692e-002	-8.511083e-001	-1.010195e-001
8250052500	-7.314646e-001	-3.702509e-002	1.239266e-001	-4.425266e-001	1.941543e-002	-2.728812e-002	-8.513786e-001	-9.976931e-002
8256302313	-7.313731e-001	-3.705087e-002	1.221332e-001	-4.418243e-001	1.948328e-002	-2.725954e-002	-8.517374e-001	-9.933275e-002
8262552125	-7.316756e-001	-3.678582e-002	1.218526e-001	-4.407491e-001	1.939363e-002	-2.720131e-002	-8.524888e-001	-9.905624e-002
8268801938	-7.324075e-001	-3.773284e-002	1.216630e-001	-4.399907e-001	1.990183e-002	-2.738595e-002	-8.526651e-001	-9.855822e-002
8275051750	-7.322807e-001	-3.886095e-002	1.206422e-001	-4.384807e-001	1.905999e-002	-2.730120e-002	-8.528165e-001	-9.875472e-002
8281301563	-7.331593e-001	-3.795889e-002	1.201636e-001	-4.378549e-001	1.969321e-002	-2.711696e-002	-8.534772e-001	-9.740310e-002
8287551375	-7.330487e-001	-3.785765e-002	1.186921e-001	-4.367424e-001	1.925815e-002	-2.750024e-002	-8.527465e-001	-9.739430e-002
8293801188	-7.331302e-001	-3.902293e-002	1.191680e-001	-4.361219e-001	1.957035e-002	-2.690673e-002	-8.529956e-001	-9.582495e-002
8300051000	-7.337209e-001	-3.731562e-002	1.175788e-001	-4.346783e-001	1.964662e-002	-2.642903e-002	-8.539848e-001	-9.599647e-002
8306300813	-7.342264e-001	-3.741417e-002	1.177713e-001	-4.338140e-001	1.999641e-002	-2.686276e-002	-8.543831e-001	-9.642438e-002
8312550625	-7.336546e-001	-3.819690e-002	1.177506e-001	-4.327907e-001	1.943180e-002	-2.693790e-002	-8.549684e-001	-9.685059e-002
8318800438	-7.338731e-001	-3.711598e-002	1.165768e-001	-4.325668e-001	1.959358e-002	-2.717435e-002	-8.539794e-001	-9.536177e-002
8325050250	-7.344120e-001	-3.770259e-002	1.149653e-001	-4.325635e-001	1.920337e-002	-2.700855e-002	-8.542078e-001	-9.520492e-002
8331300063	-7.349909e-001	-3.743275e-002	1.149222e-001	-4.313539e-001	1.931415e-002	-2.666379e-002	-8.538711e-001	-9.554874e-002
8337549875	-7.331896e-001	-3.826915e-002	1.145967e-001	-4.297939e-001	1.944562e-002	-2.644201e-002	-8.529954e-001	-9.463076e-002
8343799688	-7.362760e-001	-3.734294e-002	1.134106e-001	-4.292790e-001	2.013040e-002	-2.639610e-002	-8.542777e-001	-9.467297e-002
8350049500	-7.346198e-001	-3.863723e-002	1.131504e-001	-4.287968e-001	1.948210e-002	-2.681655e-002	-8.538051e-001	-9.404415e-002
8356299313	-7.368258e-001	-3.870014e-002	1.124087e-001	-4.275978e-001	1.957669e-002	-2.666907e-002	-8.530862e-001	-9.364035e-002
8362549125	-7.354011e-001	-3.800891e-002	1.111687e-001	-4.274675e-001	1.941869e-002	-2.626546e-002	-8.527247e-001	-9.360983e-002
8368798938	-7.375011e-001	-3.599256e-002	1.105400e-001	-4.258294e-001	1.971252e-002	-2.647099e-002	-8.533435e-001	-9.327936e-002
8375048750	-7.380789e-001	-3.676129e-002	1.107545e-001	-4.257101e-001	1.988087e-002	-2.667307e-002	-8.526623e-001	-9.331107e-002
8381298563	-7.395612e-001	-3.753156e-002	1.091183e-001	-4.239471e-001	1.970165e-002	-2.636348e-002	-8.532840e-001	-9.187024e-002
8387548375	-7.387943e-001	-3.630780e-002	1.087643e-001	-4.228047e-001	1.916951e-002	-2.600415e-002	-8.538300e-001	-9.164497e-002
8393798188	-7.392951e-001	-3.656413e-002	1.081909e-001	-4.224988e-001	1.963687e-002	-2.651681e-002	-8.526286e-001	-9.030040e-002
8400048000	-7.399015e-001	-3.603323e-002	1.069965e-001	-4.225832e-001	1.949190e-002	-2.572416e-002	-8.536255e-001	-8.946791e-002
8406297813	-7.404820e-001	-3.684499e-002	1.069331e-001	-4.219669e-001	1.966675e-002	-2.662696e-002	-8.531780e-001	-8.858935e-002
8412547625	-7.404714e-001	-3.788077e-002	1.071804e-001	-4.196901e-001	1.976978e-002	-2.618615e-002	-8.531514e-001	-8.907443e-002
8418797438	-7.411986e-001	-3.729898e-002	1.063465e-001	-4.191451e-001	1.905774e-002	-2.683473e-002	-8.539367e-001	-8.827531e-002
8425047250	-7.412193e-001	-3.699090e-002	1.052993e-001	-4.188437e-001	1.964065e-002	-2.642704e-002	-8.542956e-001	-8.709222e-002
8431297063	-7.415653e-001	-3.701362e-002	1.053426e-001	-4.182815e-001	1.963542e-002	-2.568871e-002	-8.540099e-001	-8.704129e-002
8437546875	-7.414159e-001	-3.813222e-002	1.046102e-001	-4.172175e-001	1.912279e-002	-2.576737e-002	-8.528680e-001	-8.670431e-002
8443796688	-7.425785e-001	-3.804945e-002	1.034806e-001	-4.164967e-001	1.976948e-002	-2.552713e-002	-8.544846e-001	-8.563736e-002
8450046500	-7.421778e-001	-3.806933e-002	1.024804e-001	-4.155213e-001	2.032973e-002	-2.629063e-002	-8.550179e-001	-8.560289e-002
8456296313	-7.424570e-001	-3.697482e-002	1.019041e-001	-4.144822e-001	2.013074e-002	-2.589030e-002	-8.545825e-001	-8.468512e-002
8462546125	-7.423553e-001	-3.879368e-002	1.024806e-001	-4.139173e-001	1.969112e-002	-2.618704e-002	-8.534775e-001	-8.550165e-002
8468795938	-7.437508e-001	-3.894600e-002	1.017477e-001	-4.129614e-001	2.030640e-002	-2.597785e-002	-8.551716e-001	-8.501890e-002
8475045750	-7.432950e-001	-3.975836e-002	1.020538e-001	-4.127299e-001	2.000233e-002	-2.604469e-002	-8.546883e-001	-8.443987e-002
8481295563	-7.439563e-001	-3.856171e-002	1.018400e-001	-4.122145e-001	1.992749e-002	-2.545125e-002	-8.541210e-001	-8.419820e-002
8487545375	-7.443167e-001	-3.969703e-002	9.995615e-002	-4.107523e-001	2.039745e-002	-2.627260e-002	-8.542604e-001	-8.476464e-002
8493795188	-7.444680e-001	-3.909232e-002	9.910656e-002	-4.105730e-001	2.027626e-002	-2.537160e-002	-8.548511e-001	-8.432160e-002
8500045000	-7.458283e-001	-3.955961e-002	9.928722e-002	-4.104298e-001	1.951382e-002	-2.457729e-002	-8.557514e-001	-8.587693e-002
8506294813	-7.431440e-001	-3.752949e-002	1.000015e-001	-4.067952e-001	1.997694e-002	-2.454366e-002	-8.557757e-001	-8.355607e-002
8512544625	-7.480087e-001	-3.651008e-002	9.729827e-002	-4.095726e-001	2.029621e-002	-2.384918e-002	-8.561681e-001	-8.110463e-002
8518794438	-7.496174e-001	-3.684825e-002	1.004465e-001	-4.077335e-001	2.015917e-002	-2.550816e-002	-8.565717e-001	-8.318341e-002
8525044250	-7.454630e-001	-3.580005e-002	9.795390e-002	-4.087162e-001	1.971144e-002	-2.618305e-002	-8.563156e-001	-8.377206e-002
8531294063	-7.480266e-001	-3.463253e-002	9.743798e-002	-4.066930e-001	1.937473e-002	-2.544707e-002	-8.567769e-001	-8.026129e-002
8537543875	-7.470568e-001	-4.091129e-002	9.768823e-002	-4.076315e-001	1.877808e-002	-2.605820e-002	-8.538586e-001	-8.227070e-002
8543793688	-7.455166e-001	-3.790454e-002	9.481069e-002	-4.019160e-001	1.953174e-002	-2.630421e-002	-8.550879e-001	-8.469872e-002
8550043500	-7.498202e-001	-3.885223e-002	9.365532e-002	-4.030842e-001	2.122387e-002	-2.563484e-002	-8.550014e-001	-8.313865e-002
8556293313	-7.493255e-001	-3.627996e-002	9.281228e-002	-4.052502e-001	1.976693e-002	-2.691650e-002	-8.551834e-001	-8.320680e-002
8562543125	-7.514171e-001	-3.921790e-002	9.494909e-002	-4.011715e-001	1.934449e-002	-2.574289e-002	-8.562101e-001	-8.097670e-002
8568792938	-7.527487e-001	-3.785972e-002	9.229127e-002	-4.054478e-001	2.054586e-002	-2.369162e-002	-8.552512e-001	-8.068023e-002
8575042750	-7.472079e-001	-3.632733e-002	9.435078e-002	-4.002746e-001	1.901948e-002	-2.712807e-002	-8.537954e-001	-7.949754e-002
8581292563	-7.503163e-001	-3.856198e-002	9.405337e-002	-3.965463e-001	1.914727e-002	-2.499053e-002	-8.573937e-001	-8.075933e-002
8587542375	-7.478544e-001	-4.363938e-002	9.217926e-002	-4.000543e-001	2.082368e-002	-2.611209e-002	-8.554259e-001	-7.925002e-002
8593792188	-7.490396e-001	-4.006183e-002	9.125971e-002	-3.990957e-001	2.038864e-002	-2.499755e-002	-8.528238e-001	-7.997259e-002
8600042000	-7.524704e-001	-4.190216e-002	9.205550e-002	-3.988282e-001	1.953415e-002	-2.632888e-002	-8.535389e-001	-8.103883e-002
8606291813	-7.517160e-001	-3.522208e-002	9.087238e-002	-3.956771e-001	1.999217e-002	-2.563757e-002	-8.569646e-001	-7.988199e-002
8612541625	-7.547609e-001	-3.901098e-002	8.786852e-002	-3.967921e-001	2.077119e-002	-2.613658e-002	-8.543741e-001	-8.111159e-002
8618791438	-7.494956e-001	-4.000025e-002	9.323566e-002	-3.953882e-001	2.145098e-002	-2.445208e-002	-8.562222e-001	-7.895981e-002
8625041250	-7.510471e-001	-4.182975e-002	8.928134e-002	-3.948412e-001	1.961341e-002	-2.477643e-002	-8.553713e-001	-7.772474e-002
8631291063	-7.575898e-001	-4.253153e-002	9.055774e-002	-3.950208e-001	2.035279e-002	-2.718343e-002	-8.521009e-001	-7.884288e-002
8637540875	-7.532770e-001	-4.511093e-002	9.085124e-002	-3.953100e-001	1.873926e-002	-2.578271e-002	-8.559973e-001	-7.782541e-002
8643790688	-7.570460e-001	-4.077961e-002	8.741953e-002	-3.936244e-001	2.032098e-002	-2.538981e-002	-8.595394e-001	-7.940551e-002
8650040500	-7.513151e-001	-4.035216e-002	8.911971e-002	-3.930563e-001	2.095615e-002	-2.464092e-002	-8.582057e-001	-7.894520e-002
8656290313	-7.531423e-001	-3.936269e-002	8.747093e-002	-3.900942e-001	2.076209e-002	-2.573284e-002	-8.562650e-001	-7.958597e-002
8662540125	-7.578925e-001	-4.396690e-002	8.750932e-002	-3.936773e-001	2.011993e-002	-2.527992e-002	-8.559511e-001	-7.661474e-002
8668789938	-7.567841e-001	-4.063295e-002	8.792107e-002	-3.906751e-001	1.974601e-002	-2.526392e-002	-8.580041e-001	-8.057023e-002
8675039750	-7.573037e-001	-4.500874e-002	8.539765e-002	-3.897835e-001	1.941635e-002	-2.509082e-002	-8.599914e-001	-7.809853e-002
8681289563	-7.543297e-001	-4.349086e-002	8.514160e-002	-3.918194e-001	2.015043e-002	-2.414727e-002	-8.562316e-001	-7.765360e-002
8687539375	-7.555774e-001	-4.472782e-002	8.548718e-002	-3.893810e-001	1.947222e-002	-2.667119e-002	-8.546324e-001	-8.010341e-002
8693789188	-7.549424e-001	-3.521745e-002	8.335549e-002	-3.879134e-001	2.028979e-002	-2.704890e-002	-8.569057e-001	-7.840096e-002
8700039000	-7.579183e-001	-4.274711e-002	8.468085e-002	-3.890402e-001	2.054760e-002	-2.548921e-002	-8.542156e-001	-7.710815e-002
8706288813	-7.562018e-001	-4.274666e-002	8.428493e-002	-3.888745e-001	1.983591e-002	-2.665429e-002	-8.579019e-001	-7.848129e-002
8712538625	-7.573590e-001	-4.156900e-002	8.278514e-002	-3.883243e-001	1.932063e-002	-2.724992e-002	-8.576834e-001	-7.832728e-002
8718788438	-7.601805e-001	-4.721410e-002	8.137534e-002	-3.877802e-001	2.073693e-002	-2.588254e-002	-8.594888e-001	-7.579035e-002
8725038250	-7.585549e-001	-4.541496e-002	8.049185e-002	-3.881222e-001	2.015242e-002	-2.566631e-002	-8.563482e-001	-7.603381e-002
8731288063	-7.567120e-001	-4.293540e-002	8.207009e-002	-3.847533e-001	2.037492e-002	-2.518676e-002	-8.556804e-001	-7.669312e-002
8737537875	-7.637200e-001	-4.166315e-002	7.980247e-002	-3.845282e-001	1.975463e-002	-2.605450e-002	-8.573999e-001	-7.717498e-002
8743787688	-7.642846e-001	-4.313636e-002	8.103636e-002	-3.854152e-001	1.957104e-002	-2.695717e-002	-8.581286e-001	-7.370735e-002
8750037500	-7.606715e-001	-5.074367e-002	8.431040e-002	-3.830685e-001	1.928912e-002	-2.515604e-002	-8.591817e-001	-7.666682e-002
8756287313	-7.629672e-001	-4.763393e-002	8.148152e-002	-3.840416e-001	1.975140e-002	-2.547351e-002	-8.579498e-001	-7.865360e-002
8762537125	-7.598985e-001	-4.905008e-002	8.033805e-002	-3.829030e-001	2.158152e-002	-2.566393e-002	-8.535100e-001	-7.516328e-002
8768786938	-7.627057e-001	-4.608217e-002	7.948874e-002	-3.814072e-001	1.986794e-002	-2.631673e-002	-8.562419e-001	-7.651488e-002
8775036750	-7.676598e-001	-4.753610e-002	7.920382e-002	-3.808759e-001	2.017778e-002	-2.552808e-002	-8.589299e-001	-7.390745e-002
8781286563	-7.651203e-001	-5.143647e-002	7.857465e-002	-3.796080e-001	1.979511e-002	-2.649569e-002	-8.569548e-001	-7.527986e-002
8787536375	-7.637756e-001	-4.808822e-002	8.054576e-002	-3.783609e-001	1.969518e-002	-2.748382e-002	-8.600848e-001	-7.506723e-002
8793786188	-7.689370e-001	-4.933969e-002	7.814309e-002	-3.807306e-001	2.076564e-002	-2.527773e-002	-8.574386e-001	-7.373498e-002
8800036000	-7.647700e-001	-5.183358e-002	7.957313e-002	-3.778602e-001	1.893823e-002	-2.450611e-002	-8.615879e-001	-7.780044e-002
8806285813	-7.659077e-001	-5.186961e-002	8.184149e-002	-3.794523e-001	2.115280e-002	-2.663933e-002	-8.599824e-001	-7.863013e-002
8812535625	-7.637678e-001	-5.243562e-002	7.756728e-002	-3.770579e-001	2.101654e-002	-2.449454e-002	-8.590575e-001	-7.651027e-002
8818785438	-7.672373e-001	-5.076388e-002	7.724399e-002	-3.780678e-001	2.008095e-002	-2.512016e-002	-8.599176e-001	-7.552864e-002
8825035250	-7.674349e-001	-5.153980e-002	7.682831e-002	-3.776270e-001	2.007456e-002	-2.406958e-002	-8.639539e-001	-7.743785e-002
8831285063	-7.681444e-001	-5.259262e-002	7.713211e-002	-3.773385e-001	1.982023e-002	-2.520750e-002	-8.557278e-001	-8.226104e-002
8837534875	-7.624477e-001	-5.357042e-002	7.868089e-002	-3.756186e-001	2.015864e-002	-2.500466e-002	-8.582943e-001	-7.592430e-002
8843784688	-7.676871e-001	-5.426123e-002	7.612659e-002	-3.741567e-001	1.921752e-002	-2.560289e-002	-8.596992e-001	-7.359565e-002
8850034500	-7.679270e-001	-5.589167e-002	7.519326e-002	-3.765378e-001	1.868789e-002	-2.669950e-002	-8.598178e-001	-8.061824e-002
8856284313	-7.694451e-001	-5.100687e-002	7.248382e-002	-3.710413e-001	1.964937e-002	-2.456767e-002	-8.579382e-001	-7.573685e-002
8862534125	-7.734969e-001	-5.318798e-002	7.324606e-002	-3.744975e-001	1.900157e-002	-2.606246e-002	-8.590081e-001	-7.645933e-002
8868783938	-7.679665e-001	-5.340985e-002	7.443933e-002	-3.722306e-001	1.923969e-002	-2.549851e-002	-8.604514e-001	-7.709468e-002
8875033750	-7.682720e-001	-5.478090e-002	7.290505e-002	-3.739413e-001	1.932697e-002	-2.496843e-002	-8.615897e-001	-7.587107e-002
8881283563	-7.757855e-001	-5.567064e-002	7.513535e-002	-3.728504e-001	2.012114e-002	-2.557803e-002	-8.609345e-001	-7.505140e-002
8887533375	-7.718046e-001	-5.313485e-002	7.229332e-002	-3.715130e-001	1.978244e-002	-2.452779e-002	-8.567572e-001	-7.608006e-002
8893783188	-7.730445e-001	-5.608858e-002	7.258514e-002	-3.712432e-001	2.105168e-002	-2.592332e-002	-8.602538e-001	-7.645764e-002
8900033000	-7.711139e-001	-5.518689e-002	7.452570e-002	-3.718490e-001	1.864300e-002	-2.447923e-002	-8.541378e-001	-7.195533e-002
8906282813	-7.706003e-001	-5.698948e-002	7.168221e-002	-3.688616e-001	1.884370e-002	-2.544032e-002	-8.589154e-001	-7.796837e-002
8912532625	-7.774120e-001	-5.693427e-002	7.236973e-002	-3.687099e-001	1.859966e-002	-2.472770e-002	-8.588525e-001	-7.674950e-002
8918782438	-7.785895e-001	-5.621349e-002	7.263234e-002	-3.717186e-001	1.891220e-002	-2.335824e-002	-8.572386e-001	-7.476315e-002
8925032250	-7.721771e-001	-5.351809e-002	7.364589e-002	-3.664890e-001	1.932765e-002	-2.468139e-002	-8.583703e-001	-7.521972e-002
8931282063	-7.747934e-001	-5.670208e-002	7.070439e-002	-3.645992e-001	1.879138e-002	-2.545174e-002	-8.564863e-001	-7.417509e-002
8937531875	-7.809409e-001	-5.662808e-002	7.110886e-002	-3.679510e-001	1.943500e-002	-2.374931e-002	-8.599390e-001	-7.661186e-002
8943781688	-7.781592e-001	-5.784880e-002	6.875922e-002	-3.671456e-001	1.924183e-002	-2.418869e-002	-8.588038e-001	-7.421942e-002
8950031500	-7.779656e-001	-5.950136e-002	6.994415e-002	-3.657797e-001	2.079785e-002	-2.409949e-002	-8.550233e-001	-7.571025e-002
8956281313	-7.796891e-001	-5.754247e-002	6.977976e-002	-3.641099e-001	1.962430e-002	-2.461166e-002	-8.572475e-001	-7.755340e-002
8962531125	-7.749829e-001	-5.800062e-002	6.933971e-002	-3.649826e-001	1.854052e-002	-2.535795e-002	-8.592617e-001	-7.165739e-002
8968780938	-7.763482e-001	-5.799224e-002	6.700394e-002	-3.632332e-001	1.981379e-002	-2.511453e-002	-8.606527e-001	-7.776637e-002
8975030750	-7.757167e-001	-5.975724e-002	7.038336e-002	-3.640945e-001	2.034044e-002	-2.574074e-002	-8.613221e-001	-7.626968e-002
8981280563	-7.801627e-001	-5.557806e-002	6.567447e-002	-3.640081e-001	1.959953e-002	-2.558741e-002	-8.620280e-001	-7.189156e-002
8987530375	-7.772614e-001	-6.261810e-002	6.740297e-002	-3.625918e-001	2.019653e-002	-2.384699e-002	-8.612246e-001	-7.049119e-002
8993780188	-7.763548e-001	-6.213008e-002	6.878422e-002	-3.622016e-001	1.814740e-002	-2.439100e-002	-8.651998e-001	-7.744626e-002
9000030000	-7.831166e-001	-6.209997e-002	6.988667e-002	-3.635693e-001	1.950101e-002	-2.615147e-002	-8.600175e-001	-7.371061e-002
9006279813	-7.841413e-001	-5.741352e-002	6.339436e-002	-3.615823e-001	1.956931e-002	-2.404852e-002	-8.610951e-001	-7.509259e-002
9012529625	-7.816761e-001	-6.109670e-002	6.523154e-002	-3.583310e-001	1.893178e-002	-2.514819e-002	-8.613307e-001	-7.545337e-002
9018779438	-7.816755e-001	-5.927267e-002	6.588759e-002	-3.580815e-001	1.801531e-002	-2.417311e-002	-8.591592e-001	-7.586904e-002
9025029250	-7.854445e-001	-5.941028e-002	6.276247e-002	-3.625832e-001	1.710699e-002	-2.449002e-002	-8.604104e-001	-7.507772e-002
9031279063	-7.829431e-001	-6.228641e-002	6.398267e-002	-3.607088e-001	1.959572e-002	-2.577231e-002	-8.593164e-001	-7.393692e-002
9037528875	-7.832828e-001	-6.241311e-002	6.326641e-002	-3.567427e-001	1.847118e-002	-2.511725e-002	-8.604790e-001	-7.370016e-002
9043778688	-7.857726e-001	-6.367979e-002	6.469607e-002	-3.604239e-001	1.948734e-002	-2.549878e-002	-8.616638e-001	-7.485761e-002
9050028500	-7.872718e-001	-6.308735e-002	6.476800e-002	-3.598851e-001	1.836471e-002	-2.478294e-002	-8.596267e-001	-7.417334e-002
9056278313	-7.853777e-001	-6.452698e-002	6.536939e-002	-3.551486e-001	2.098232e-002	-2.416153e-002	-8.606411e-001	-7.779747e-002
9062528125	-7.841295e-001	-6.516059e-002	6.272198e-002	-3.566307e-001	1.857831e-002	-2.340460e-002	-8.607944e-001	-7.190485e-002
9068777938	-7.883916e-001	-6.405279e-002	6.331118e-002	-3.560460e-001	2.019742e-002	-2.481084e-002	-8.550735e-001	-7.514592e-002
9075027750	-7.910442e-001	-6.397996e-002	6.169779e-002	-3.580679e-001	1.842569e-002	-2.363829e-002	-8.599795e-001	-7.400730e-002
9081277563	-7.849667e-001	-6.194198e-002	6.197661e-002	-3.555286e-001	1.924336e-002	-2.353770e-002	-8.602186e-001	-7.253068e-002
9087527375	-7.865080e-001	-6.210279e-002	6.264219e-002	-3.530568e-001	2.019952e-002	-2.282886e-002	-8.593118e-001	-7.564022e-002
9093777188	-7.908590e-001	-7.000487e-002	6.340505e-002	-3.561333e-001	1.922263e-002	-2.565366e-002	-8.584182e-001	-7.251186e-002
9100027000	-7.894115e-001	-7.050235e-002	6.207180e-002	-3.577283e-001	1.854241e-002	-2.321183e-002	-8.592865e-001	-7.273127e-002
9106276813	-7.891079e-001	-6.705329e-002	6.353572e-002	-3.554462e-001	1.961607e-002	-2.334049e-002	-8.605231e-001	-7.336935e-002
9112526625	-7.938231e-001	-6.667277e-002	6.074696e-002	-3.546707e-001	1.886332e-002	-2.628500e-002	-8.606864e-001	-7.314503e-002
9118776438	-7.957240e-001	-6.407527e-002	6.194120e-002	-3.541439e-001	1.918240e-002	-2.543659e-002	-8.573116e-001	-7.382007e-002
9125026250	-7.921105e-001	-6.786926e-002	6.079053e-002	-3.536179e-001	2.039884e-002	-2.491520e-002	-8.606894e-001	-7.663259e-002
9131276063	-7.958278e-001	-7.267548e-002	6.120397e-002	-3.533916e-001	1.925960e-002	-2.472419e-002	-8.624588e-001	-7.614691e-002
9137525875	-7.950162e-001	-6.822634e-002	5.955856e-002	-3.536161e-001	1.816443e-002	-2.378054e-002	-8.612165e-001	-7.498714e-002
9143775688	-7.963410e-001	-7.110305e-002	6.135835e-002	-3.511779e-001	1.904380e-002	-2.427515e-002	-8.615553e-001	-7.620786e-002
9150025500	-7.951267e-001	-6.956291e-002	5.873033e-002	-3.519825e-001	1.809464e-002	-2.425330e-002	-8.616654e-001	-7.148050e-002
9156275313	-7.959507e-001	-7.044146e-002	5.808301e-002	-3.523640e-001	1.949548e-002	-2.376329e-002	-8.623756e-001	-7.390024e-002
9162525125	-7.925137e-001	-7.287667e-002	5.831080e-002	-3.520394e-001	1.860342e-002	-2.445205e-002	-8.615058e-001	-7.565214e-002
9168774938	-7.971216e-001	-6.945373e-002	5.951802e-002	-3.516670e-001	1.814971e-002	-2.381283e-002	-8.624844e-001	-7.514987e-002
9175024750	-7.959782e-001	-6.601331e-002	5.702508e-002	-3.495736e-001	1.865996e-002	-2.397397e-002	-8.596908e-001	-7.300184e-002
9181274563	-7.992908e-001	-7.136416e-002	5.810256e-002	-3.516686e-001	1.754165e-002	-2.268315e-002	-8.583934e-001	-7.643423e-002
9187524375	-7.997148e-001	-7.042421e-002	5.600702e-002	-3.485312e-001	2.023491e-002	-2.337511e-002	-8.560605e-001	-7.477344e-002
9193774188	-7.949869e-001	-6.975631e-002	5.675500e-002	-3.457603e-001	1.904753e-002	-2.329182e-002	-8.613911e-001	-7.637252e-002
9200024000	-7.974095e-001	-7.006162e-002	5.744340e-002	-3.480462e-001	1.869226e-002	-2.541407e-002	-8.607729e-001	-7.475621e-002
9206273813	-7.979477e-001	-7.395240e-002	5.859037e-002	-3.473590e-001	2.069704e-002	-2.475007e-002	-8.602168e-001	-7.491397e-002
9212523625	-8.027703e-001	-7.252071e-002	5.558384e-002	-3.468089e-001	2.009110e-002	-2.480642e-002	-8.671486e-001	-7.866246e-002
9218773438	-8.047538e-001	-7.720055e-002	5.530303e-002	-3.503457e-001	2.006198e-002	-2.465273e-002	-8.583715e-001	-7.318109e-002
9225023250	-8.033285e-001	-7.444834e-002	5.636085e-002	-3.480662e-001	1.913809e-002	-2.357792e-002	-8.578915e-001	-7.111645e-002
9231273063	-8.064063e-001	-7.410203e-002	5.512427e-002	-3.471351e-001	1.860808e-002	-2.264329e-002	-8.578937e-001	-7.316365e-002
9237522875	-8.055478e-001	-7.771640e-002	5.369948e-002	-3.446967e-001	1.960741e-002	-2.394794e-002	-8.572481e-001	-7.559277e-002
9243772688	-8.055951e-001	-7.835690e-002	5.533967e-002	-3.472818e-001	1.978088e-002	-2.477477e-002	-8.554433e-001	-7.544983e-002
9250022500	-8.052453e-001	-7.125092e-002	5.393269e-002	-3.469716e-001	2.047787e-002	-2.392063e-002	-8.588620e-001	-7.577591e-002
9256272313	-8.056152e-001	-7.763022e-002	5.651997e-002	-3.453134e-001	1.771808e-002	-2.520679e-002	-8.607371e-001	-7.853061e-002
9262522125	-8.062080e-001	-7.608750e-002	5.546948e-002	-3.457847e-001	2.113064e-002	-2.426662e-002	-8.561775e-001	-7.492369e-002
9268771938	-8.094422e-001	-7.848732e-002	5.311398e-002	-3.469937e-001	1.923343e-002	-2.528356e-002	-8.590586e-001	-7.178727e-002
9275021750	-8.079990e-001	-7.472790e-002	5.460307e-002	-3.451750e-001	1.998371e-002	-2.318902e-002	-8.586363e-001	-7.134393e-002
9281271563	-8.053390e-001	-7.657472e-002	5.429015e-002	-3.424672e-001	2.034068e-002	-2.453732e-002	-8.563377e-001	-7.805873e-002
9287521375	-8.058005e-001	-8.314457e-002	5.446921e-002	-3.440571e-001	1.986242e-002	-2.309028e-002	-8.560602e-001	-7.352295e-002
9293771188	-8.079218e-001	-8.130164e-002	5.273943e-002	-3.452606e-001	1.998314e-002	-2.376007e-002	-8.591404e-001	-7.385614e-002
9300021000	-8.082779e-001	-7.661046e-002	5.228725e-002	-3.442304e-001	1.962150e-002	-2.434122e-002	-8.617450e-001	-7.880720e-002
9306270813	-8.093592e-001	-8.010096e-002	5.352672e-002	-3.419039e-001	1.955060e-002	-2.377193e-002	-8.600059e-001	-7.852586e-002
9312520625	-8.083603e-001	-7.722153e-002	5.098064e-002	-3.421957e-001	1.800368e-002	-2.251375e-002	-8.582409e-001	-7.534322e-002
9318770438	-8.107011e-001	-7.927134e-002	5.238401e-002	-3.421278e-001	1.928451e-002	-2.417432e-002	-8.608987e-001	-7.791841e-002
9325020250	-8.119059e-001	-7.952610e-002	5.116382e-002	-3.452666e-001	2.077033e-002	-2.310080e-002	-8.572996e-001	-7.764341e-002
9331270063	-8.105132e-001	-8.283357e-002	5.306757e-002	-3.405270e-001	1.858271e-002	-2.392948e-002	-8.594285e-001	-7.747784e-002
9337519875	-8.090829e-001	-8.395536e-002	5.355660e-002	-3.391093e-001	2.012421e-002	-2.307746e-002	-8.621868e-001	-7.834807e-002
9343769688	-8.116844e-001	-7.749017e-002	5.021376e-002	-3.426621e-001	2.032807e-002	-2.364467e-002	-8.595678e-001	-7.958835e-002
9350019500	-8.140057e-001	-7.795570e-002	4.863928e-002	-3.413341e-001	1.964874e-002	-2.448147e-002	-8.563957e-001	-8.177271e-002
9356269313	-8.110527e-001	-8.082258e-002	4.913194e-002	-3.414329e-001	2.115126e-002	-2.364843e-002	-8.580162e-001	-7.847826e-002
9362519125	-8.137181e-001	-8.067042e-002	5.165964e-002	-3.403906e-001	2.029089e-002	-2.323988e-002	-8.577760e-001	-7.759277e-002
9368768938	-8.131237e-001	-8.130372e-002	5.099418e-002	-3.378193e-001	1.987734e-002	-2.172251e-002	-8.594171e-001	-7.838937e-002
9375018750	-8.201051e-001	-7.718269e-002	4.578874e-002	-3.416390e-001	2.005991e-002	-2.421111e-002	-8.578374e-001	-7.686058e-002
9381268563	-8.147469e-001	-8.015494e-002	4.829663e-002	-3.395609e-001	1.946603e-002	-2.303955e-002	-8.584249e-001	-8.000224e-002
9387518375	-8.185018e-001	-7.971839e-002	4.589191e-002	-3.400866e-001	1.947977e-002	-2.362435e-002	-8.579304e-001	-7.902072e-002
9393768188	-8.165881e-001	-8.216724e-002	5.018032e-002	-3.374493e-001	2.134414e-002	-2.387360e-002	-8.558039e-001	-7.795371e-002
9400018000	-8.179079e-001	-8.083380e-002	5.026162e-002	-3.386401e-001	1.999482e-002	-2.283128e-002	-8.576923e-001	-8.029277e-002
9406267813	-8.214396e-001	-8.397289e-002	4.888204e-002	-3.388288e-001	1.991963e-002	-2.402087e-002	-8.570298e-001	-7.586894e-002
9412517625	-8.226098e-001	-8.112397e-002	4.787913e-002	-3.366271e-001	1.926889e-002	-2.436505e-002	-8.552190e-001	-7.759185e-002
9418767438	-8.201855e-001	-8.015976e-002	4.731029e-002	-3.367811e-001	1.995122e-002	-2.493575e-002	-8.538413e-001	-8.161819e-002
9425017250	-8.231685e-001	-8.482521e-002	4.428502e-002	-3.408080e-001	2.103482e-002	-2.353688e-002	-8.585596e-001	-7.981886e-002
9431267063	-8.232825e-001	-8.387479e-002	4.737624e-002	-3.373078e-001	2.100104e-002	-2.392987e-002	-8.572896e-001	-7.935591e-002
9437516875	-8.255858e-001	-8.470149e-002	4.710961e-002	-3.375076e-001	1.983136e-002	-2.312053e-002	-8.579596e-001	-8.081167e-002
9443766688	-8.253829e-001	-8.467163e-002	4.468756e-002	-3.399086e-001	2.067038e-002	-2.412437e-002	-8.576066e-001	-8.081025e-002
9450016500	-8.262965e-001	-8.301725e-002	4.625302e-002	-3.392305e-001	2.061028e-002	-2.567083e-002	-8.569123e-001	-7.357796e-002
9456266313	-8.220906e-001	-8.850846e-002	4.626544e-002	-3.337900e-001	2.068262e-002	-2.419745e-002	-8.549744e-001	-7.847984e-002
9462516125	-8.235214e-001	-9.069511e-002	4.741865e-002	-3.383347e-001	1.903436e-002	-2.349172e-002	-8.623547e-001	-7.406647e-002
9468765938	-8.265016e-001	-8.570128e-002	4.623208e-002	-3.374653e-001	2.131741e-002	-2.279499e-002	-8.612078e-001	-7.887890e-002
9475015750	-8.243949e-001	-9.249040e-002	4.653152e-002	-3.359246e-001	2.059818e-002	-2.352438e-002	-8.583435e-001	-7.505754e-002
9481265563	-8.269598e-001	-8.636088e-002	4.454258e-002	-3.361941e-001	1.961483e-002	-2.493775e-002	-8.568523e-001	-7.813115e-002
9487515375	-8.258755e-001	-9.100683e-002	4.515411e-002	-3.376718e-001	2.005841e-002	-2.356563e-002	-8.607783e-001	-8.386596e-002
9493765188	-8.257510e-001	-9.120328e-002	4.548267e-002	-3.372061e-001	1.945306e-002	-2.459925e-002	-8.550093e-001	-8.024386e-002
9500015000	-8.298503e-001	-9.089601e-002	4.455375e-002	-3.349948e-001	2.112711e-002	-2.335988e-002	-8.573843e-001	-8.419399e-002
9506264813	-8.263935e-001	-8.654074e-002	4.186581e-002	-3.353316e-001	1.907590e-002	-2.507322e-002	-8.588673e-001	-8.029832e-002
9512514625	-8.334628e-001	-8.553572e-002	4.066667e-002	-3.376481e-001	2.075635e-002	-2.122047e-002	-8.613596e-001	-8.138762e-002
9518764438	-8.296264e-001	-8.969575e-002	4.332199e-002	-3.345050e-001	2.074842e-002	-2.357162e-002	-8.547699e-001	-8.014275e-002
9525014250	-8.313603e-001	-8.967508e-002	4.477991e-002	-3.341656e-001	2.052465e-002	-2.527350e-002	-8.597236e-001	-8.198755e-002
9531264063	-8.334902e-001	-8.793051e-002	4.182862e-002	-3.326439e-001	2.084921e-002	-2.323429e-002	-8.568543e-001	-8.268649e-002
9537513875	-8.331836e-001	-8.918536e-002	4.232698e-002	-3.357167e-001	2.012998e-002	-2.486159e-002	-8.580956e-001	-8.034215e-002
9543763688	-8.318062e-001	-8.966133e-002	4.526198e-002	-3.318953e-001	2.149310e-002	-2.483685e-002	-8.559538e-001	-8.254711e-002
9550013500	-8.360567e-001	-8.725880e-002	4.192251e-002	-3.333174e-001	2.032537e-002	-2.215531e-002	-8.531916e-001	-8.138878e-002
9556263313	-8.312205e-001	-8.466857e-002	3.968463e-002	-3.337106e-001	1.991126e-002	-2.435997e-002	-8.535666e-001	-8.602834e-002
9562513125	-8.412784e-001	-8.701886e-002	4.182287e-002	-3.352755e-001	2.154670e-002	-2.252460e-002	-8.551061e-001	-8.638644e-002
9568762938	-8.406659e-001	-9.366271e-002	4.099113e-002	-3.350859e-001	2.095475e-002	-2.351349e-002	-8.550362e-001	-8.123886e-002
9575012750	-8.418199e-001	-8.663225e-002	3.839720e-002	-3.338933e-001	1.988435e-002	-2.423989e-002	-8.593075e-001	-8.368874e-002
9581262563	-8.394870e-001	-8.649512e-002	3.874313e-002	-3.321610e-001	2.067374e-002	-2.318463e-002	-8.563519e-001	-8.383455e-002
9587512375	-8.406601e-001	-8.968808e-002	4.058400e-002	-3.345253e-001	2.079120e-002	-2.420752e-002	-8.539172e-001	-8.421906e-002
9593762188	-8.426668e-001	-8.715677e-002	3.747192e-002	-3.339329e-001	2.061767e-002	-2.297524e-002	-8.551353e-001	-8.633589e-002
9600012000	-8.391723e-001	-9.212892e-002	3.874779e-002	-3.334562e-001	1.961806e-002	-2.376755e-002	-8.551221e-001	-8.397721e-002
9606261813	-8.371941e-001	-8.972896e-002	3.882657e-002	-3.307880e-001	2.264743e-002	-2.256671e-002	-8.529514e-001	-8.449376e-002
9612511625	-8.433785e-001	-9.257533e-002	3.791859e-002	-3.328951e-001	2.128166e-002	-2.433407e-002	-8.559560e-001	-8.691992e-002
9618761438	-8.426661e-001	-8.986435e-002	3.916283e-002	-3.309130e-001	1.816382e-002	-2.454495e-002	-8.543688e-001	-8.660972e-002
9625011250	-8.415535e-001	-9.086386e-002	3.896604e-002	-3.298823e-001	1.935588e-002	-2.501620e-002	-8.550698e-001	-8.815218e-002
9631261063	-8.407255e-001	-9.196485e-002	3.976962e-002	-3.315469e-001	2.220919e-002	-2.380002e-002	-8.525744e-001	-8.249034e-002
9637510875	-8.450232e-001	-9.472928e-002	4.029529e-002	-3.308244e-001	2.018397e-002	-2.403711e-002	-8.577717e-001	-8.676433e-002
9643760688	-8.428721e-001	-9.074584e-002	3.690134e-002	-3.308941e-001	2.187025e-002	-2.466021e-002	-8.531301e-001	-8.563467e-002
9650010500	-8.414030e-001	-9.220424e-002	3.643883e-002	-3.327114e-001	1.988671e-002	-2.387116e-002	-8.526171e-001	-8.824580e-002
9656260313	-8.434225e-001	-8.980883e-002	3.615060e-002	-3.338798e-001	2.215853e-002	-2.370928e-002	-8.547666e-001	-9.042178e-002
9662510125	-8.401583e-001	-9.169851e-002	3.658267e-002	-3.288529e-001	2.035599e-002	-2.493718e-002	-8.559838e-001	-8.734249e-002
9668759938	-8.438246e-001	-9.001524e-002	3.737335e-002	-3.320254e-001	1.851383e-002	-2.617485e-002	-8.553947e-001	-8.803597e-002
9675009750	-8.401559e-001	-9.241921e-002	3.631988e-002	-3.294849e-001	2.299956e-002	-2.430553e-002	-8.573552e-001	-8.804737e-002
9681259563	-8.429227e-001	-8.977101e-002	3.619881e-002	-3.308606e-001	2.026572e-002	-2.373410e-002	-8.521233e-001	-8.383541e-002
9687509375	-8.427954e-001	-9.049135e-002	3.532068e-002	-3.305544e-001	2.097706e-002	-2.545394e-002	-8.500173e-001	-8.850343e-002
9693759188	-8.440204e-001	-8.694834e-002	3.423004e-002	-3.288524e-001	2.193728e-002	-2.328789e-002	-8.544586e-001	-8.895683e-002
9700009000	-8.447382e-001	-9.219776e-002	3.401032e-002	-3.306872e-001	2.229115e-002	-2.309765e-002	-8.524900e-001	-9.334130e-002
9706258813	-8.484124e-001	-8.581172e-002	3.317779e-002	-3.285610e-001	2.300340e-002	-2.350717e-002	-8.519204e-001	-9.448710e-002
9712508625	-8.480629e-001	-8.763390e-002	3.642419e-002	-3.315921e-001	2.078181e-002	-2.313062e-002	-8.536340e-001	-9.219919e-002
9718758438	-8.499617e-001	-8.917895e-002	3.835083e-002	-3.303192e-001	2.226068e-002	-2.429395e-002	-8.531173e-001	-9.109465e-002
9725008250	-8.474722e-001	-8.352104e-002	3.143775e-002	-3.297445e-001	2.123327e-002	-2.381104e-002	-8.529874e-001	-9.195494e-002
9731258063	-8.524871e-001	-8.648162e-002	3.104646e-002	-3.322643e-001	1.910190e-002	-2.413427e-002	-8.517753e-001	-9.295277e-002
9737507875	-8.528038e-001	-8.875977e-002	3.071311e-002	-3.300738e-001	2.170627e-002	-2.446259e-002	-8.520803e-001	-9.035735e-002
9743757688	-8.514543e-001	-9.009739e-002	3.059090e-002	-3.306470e-001	2.110065e-002	-2.326062e-002	-8.524976e-001	-9.333817e-002
9750007500	-8.537421e-001	-8.623178e-002	2.898913e-002	-3.299522e-001	2.103038e-002	-2.499899e-002	-8.524442e-001	-9.694701e-002
9756257313	-8.546301e-001	-8.506594e-002	3.246801e-002	-3.283560e-001	2.095420e-002	-2.355450e-002	-8.526623e-001	-9.646443e-002
9762507125	-8.574864e-001	-8.313377e-002	2.892907e-002	-3.287299e-001	2.121343e-002	-2.283415e-002	-8.465644e-001	-9.382093e-002
9768756938	-8.576229e-001	-8.599864e-002	2.971146e-002	-3.304152e-001	2.127943e-002	-2.426990e-002	-8.533562e-001	-9.355541e-002
9775006750	-8.588665e-001	-8.940968e-002	3.164919e-002	-3.306409e-001	2.026917e-002	-2.303807e-002	-8.508665e-001	-9.326704e-002
9781256563	-8.608369e-001	-8.707033e-002	3.084388e-002	-3.309354e-001	2.128979e-002	-2.343618e-002	-8.533400e-001	-9.421253e-002
9787506375	-8.574453e-001	-8.716847e-002	2.969789e-002	-3.274100e-001	2.202465e-002	-2.335157e-002	-8.512956e-001	-9.444999e-002
9793756188	-8.589815e-001	-8.956041e-002	3.029492e-002	-3.304300e-001	2.250396e-002	-2.393338e-002	-8.525854e-001	-9.471322e-002
9800006000	-8.562390e-001	-8.761727e-002	2.866084e-002	-3.277925e-001	2.159552e-002	-2.454008e-002	-8.496589e-001	-9.780952e-002
9806255813	-8.618399e-001	-8.717215e-002	3.127549e-002	-3.296922e-001	2.143251e-002	-2.401304e-002	-8.528003e-001	-9.773724e-002
9812505625	-8.562984e-001	-8.584468e-002	2.935476e-002	-3.275311e-001	2.068850e-002	-2.405744e-002	-8.538383e-001	-9.494849e-002
9818755438	-8.561653e-001	-8.734503e-002	2.732105e-002	-3.274035e-001	2.215638e-002	-2.457770e-002	-8.488339e-001	-1.012283e-001
9825005250	-8.568970e-001	-8.904102e-002	2.950912e-002	-3.279787e-001	2.286854e-002	-2.410944e-002	-8.531839e-001	-9.848173e-002
9831255063	-8.598062e-001	-8.557811e-002	2.909598e-002	-3.285625e-001	2.234605e-002	-2.374831e-002	-8.510002e-001	-9.976711e-002
9837504875	-8.570661e-001	-8.517218e-002	2.684176e-002	-3.268476e-001	2.100832e-002	-2.440574e-002	-8.499852e-001	-9.992037e-002
9843754688	-8.600391e-001	-8.729497e-002	2.807516e-002	-3.299266e-001	2.106805e-002	-2.459643e-002	-8.549159e-001	-9.855133e-002
9850004500	-8.575700e-001	-8.549317e-002	2.879066e-002	-3.270220e-001	2.070640e-002	-2.401345e-002	-8.516534e-001	-9.627908e-002
9856254313	-8.613825e-001	-8.261226e-002	2.307710e-002	-3.295711e-001	2.249603e-002	-2.513927e-002	-8.481648e-001	-9.824151e-002
9862504125	-8.580333e-001	-8.284695e-002	2.272362e-002	-3.270671e-001	2.227268e-002	-2.453375e-002	-8.507516e-001	-1.013940e-001
9868753938	-8.625274e-001	-7.746624e-002	2.074371e-002	-3.324723e-001	2.064735e-002	-2.248029e-002	-8.512513e-001	-1.022379e-001
9875003750	-8.571690e-001	-8.211316e-002	2.439173e-002	-3.280532e-001	2.035070e-002	-2.510890e-002	-8.470198e-001	-1.026430e-001
9881253563	-8.610853e-001	-8.178867e-002	2.501327e-002	-3.318748e-001	2.097272e-002	-2.358090e-002	-8.479304e-001	-1.044746e-001
9887503375	-8.609461e-001	-7.991081e-002	2.137534e-002	-3.302461e-001	2.083374e-002	-2.583324e-002	-8.493337e-001	-1.035981e-001
9893753188	-8.575410e-001	-8.253237e-002	2.443984e-002	-3.292454e-001	2.157509e-002	-2.421957e-002	-8.522784e-001	-1.043638e-001
9900003000	-8.597899e-001	-8.055432e-002	2.223345e-002	-3.278610e-001	2.082982e-002	-2.422001e-002	-8.500257e-001	-1.028057e-001
9906252813	-8.639928e-001	-8.311332e-002	2.342410e-002	-3.297987e-001	2.012296e-002	-2.454300e-002	-8.462637e-001	-1.032397e-001
9912502625	-8.664620e-001	-8.269385e-002	2.261409e-002	-3.296063e-001	2.210850e-002	-2.321337e-002	-8.464768e-001	-1.031622e-001
9918752438	-8.597916e-001	-7.794482e-002	2.137105e-002	-3.278649e-001	2.179404e-002	-2.400289e-002	-8.498845e-001	-9.871604e-002
9925002250	-8.655844e-001	-7.591623e-002	2.050513e-002	-3.257696e-001	2.166849e-002	-2.261971e-002	-8.446162e-001	-1.006017e-001
9931252063	-8.682114e-001	-7.651128e-002	1.834527e-002	-3.267241e-001	2.166147e-002	-2.568759e-002	-8.492778e-001	-1.067929e-001
9937501875	-8.661363e-001	-7.778483e-002	2.166629e-002	-3.290086e-001	2.135195e-002	-2.410252e-002	-8.486162e-001	-1.021182e-001
9943751688	-8.665166e-001	-7.316126e-002	1.823833e-002	-3.266911e-001	2.133222e-002	-2.520969e-002	-8.491497e-001	-1.018626e-001
9950001500	-8.651677e-001	-7.854053e-002	2.099766e-002	-3.269338e-001	2.106642e-002	-2.469178e-002	-8.431748e-001	-1.064202e-001
9956251313	-8.702937e-001	-7.716411e-002	1.901531e-002	-3.312107e-001	2.161407e-002	-2.520926e-002	-8.478187e-001	-1.003258e-001
9962501125	-8.657642e-001	-7.454822e-002	1.657391e-002	-3.233930e-001	2.179107e-002	-2.364344e-002	-8.456518e-001	-1.066590e-001
9968750938	-8.667170e-001	-7.810453e-002	1.527481e-002	-3.223059e-001	2.177874e-002	-2.530888e-002	-8.463777e-001	-1.070533e-001
9975000750	-8.683465e-001	-7.985119e-002	1.902265e-002	-3.261342e-001	1.963796e-002	-2.275532e-002	-8.445206e-001	-1.014396e-001
9981250563	-8.674682e-001	-7.703522e-002	1.643167e-002	-3.276047e-001	2.247923e-002	-2.439184e-002	-8.428857e-001	-1.089373e-001
9987500375	-8.701685e-001	-7.411973e-002	1.305074e-002	-3.299559e-001	2.236957e-002	-2.485944e-002	-8.527015e-001	-1.084206e-001
9993750188	-8.697712e-001	-7.468380e-002	1.621024e-002	-3.251897e-001	2.069617e-002	-2.460676e-002	-8.420551e-001	-1.104812e-001
10000000000	-8.662127e-001	-7.268705e-002	1.477351e-002	-3.248496e-001	2.081393e-002	-2.534811e-002	-8.457339e-001	-1.085193e-001

!Noise Parameters
!Freq  NFmin(dB)  Mag(GammaOpt)  Ang(GammaOpt)(deg)  rn(normalized by ref. impedance)
1.45e9       0.99611      0.42889      70.467       0.20105     
1.5e9        1.0093       0.43304      70.883       0.19952     
1.6e9        1.035        0.43099      74.789       0.19397     
1.7e9        1.0443       0.4114       77.973       0.19304     
1.8e9        1.0482       0.42593      82.622       0.19252     
1.85e9       1.0575       0.4084       84.87        0.18496     
1.9e9        1.0635       0.418        85.298       0.18388     
2e9          1.0852       0.42196      87.116       0.1813      
2.1e9        1.1015       0.43283      90.842       0.1736      
2.2e9        1.1251       0.42798      94.056       0.17395     
2.3e9        1.145        0.42066      96.281       0.17102     
2.4e9        1.1524       0.4202       98.595       0.17069     
2.5e9        1.1626       0.43653      101.4        0.16555     
2.6e9        1.1758       0.43504      103.35       0.16527     
2.7e9        1.2073       0.43653      107.17       0.1589      
2.75e9       1.2183       0.43879      107.64       0.15957     
