!Agilent Technologies,E5071C,MY46316587,B.13.01
!Date: Fri Dec 08 10:55:30 2017
!Data & Calibration Information:
!Freq	S11:SOLT2(ON)	S21:SOLT2(ON)	S12:SOLT2(ON)	S22:SOLT2(ON)
!PortZ  Port1:50+j0    Port2:50+j0
!Above PortZ is port z conversion or system Z0 setting when saving the data.
!When reading, reference impedance value at option line is always used.
# Hz S dB R 50
300000	-5.998701e-002	-3.902403e-001	-4.996207e+001	-9.352924e+001	-5.505657e+001	-1.439157e+002	-7.230708e-002	-1.458822e-001
10299700	-5.824743e-001	-2.426399e+000	-1.381741e+001	-1.007966e+002	-7.225187e+001	-9.344734e-001	-1.732967e-001	-2.484052e+000
20299400	-4.991385e-001	-3.222090e+000	-1.880552e+001	-1.102246e+002	-8.353463e+001	-2.193186e+001	-2.169369e-001	-4.157476e+000
30299100	-5.010303e-001	-4.616803e+000	-1.709541e+001	-1.093246e+002	-7.594439e+001	1.675317e+002	-2.347580e-001	-5.975544e+000
40298800	-5.057473e-001	-5.959155e+000	-1.555614e+001	-1.074057e+002	-7.153496e+001	9.607837e+001	-2.552453e-001	-7.738894e+000
50298500	-5.154627e-001	-7.375300e+000	-1.411575e+001	-1.050757e+002	-7.380086e+001	1.120256e+002	-2.758211e-001	-9.550557e+000
60298200	-5.229461e-001	-8.764032e+000	-1.273615e+001	-1.031615e+002	-7.322403e+001	8.148906e+001	-2.943258e-001	-1.134769e+001
70297900	-5.288679e-001	-1.014029e+001	-1.151351e+001	-1.013029e+002	-6.983145e+001	1.111753e+002	-3.190327e-001	-1.313272e+001
80297600	-5.355355e-001	-1.148379e+001	-1.034850e+001	-1.004137e+002	-6.491585e+001	1.328606e+002	-3.445988e-001	-1.489784e+001
90297300	-5.458053e-001	-1.287098e+001	-9.267995e+000	-1.001012e+002	-6.451120e+001	1.208450e+002	-3.695236e-001	-1.666453e+001
100297000	-5.507835e-001	-1.418817e+001	-8.274499e+000	-1.000336e+002	-6.605466e+001	1.286083e+002	-3.964472e-001	-1.844090e+001
110296700	-5.633942e-001	-1.555580e+001	-7.330727e+000	-1.003201e+002	-6.103498e+001	1.149752e+002	-4.272225e-001	-2.020788e+001
120296400	-5.649366e-001	-1.692535e+001	-6.437859e+000	-1.006885e+002	-6.186195e+001	1.514927e+002	-4.548984e-001	-2.195403e+001
130296100	-5.726848e-001	-1.831870e+001	-5.631986e+000	-1.012991e+002	-6.083053e+001	1.505050e+002	-4.832379e-001	-2.372925e+001
140295800	-5.833579e-001	-1.969031e+001	-4.867692e+000	-1.016970e+002	-5.751202e+001	1.352574e+002	-5.161536e-001	-2.549498e+001
150295500	-5.887381e-001	-2.104281e+001	-4.135441e+000	-1.022447e+002	-5.756297e+001	1.592068e+002	-5.493076e-001	-2.730039e+001
160295200	-6.003886e-001	-2.237893e+001	-3.440104e+000	-1.032113e+002	-5.752117e+001	1.527966e+002	-5.828545e-001	-2.905545e+001
170294900	-6.028539e-001	-2.373826e+001	-2.799936e+000	-1.042516e+002	-5.647285e+001	1.497411e+002	-6.210916e-001	-3.078153e+001
180294600	-6.144705e-001	-2.508013e+001	-2.212618e+000	-1.054791e+002	-5.554873e+001	1.550813e+002	-6.653950e-001	-3.254419e+001
190294300	-6.246213e-001	-2.640567e+001	-1.655733e+000	-1.066484e+002	-5.445179e+001	1.601717e+002	-7.096185e-001	-3.429619e+001
200294000	-6.354158e-001	-2.770717e+001	-1.120589e+000	-1.078573e+002	-5.290408e+001	1.539782e+002	-7.576593e-001	-3.603229e+001
210293700	-6.444120e-001	-2.910248e+001	-5.922204e-001	-1.092323e+002	-5.227836e+001	1.595328e+002	-8.014566e-001	-3.781304e+001
220293400	-6.646178e-001	-3.040840e+001	-9.656145e-002	-1.106327e+002	-5.123705e+001	1.635866e+002	-8.591713e-001	-3.955237e+001
230293100	-6.674216e-001	-3.171040e+001	3.951438e-001	-1.119068e+002	-5.015881e+001	1.559183e+002	-9.126533e-001	-4.131005e+001
240292800	-6.811079e-001	-3.309121e+001	8.422450e-001	-1.132411e+002	-4.914193e+001	1.607497e+002	-9.620951e-001	-4.306874e+001
250292500	-6.907552e-001	-3.436373e+001	1.308304e+000	-1.144144e+002	-4.870422e+001	1.622257e+002	-1.025523e+000	-4.476477e+001
260292200	-6.995688e-001	-3.573614e+001	1.762333e+000	-1.158737e+002	-4.861925e+001	1.615356e+002	-1.090078e+000	-4.649261e+001
270291900	-7.237768e-001	-3.707174e+001	2.184701e+000	-1.175092e+002	-4.675840e+001	1.605915e+002	-1.148784e+000	-4.815745e+001
280291600	-7.338190e-001	-3.837568e+001	2.563509e+000	-1.191639e+002	-4.634093e+001	1.596307e+002	-1.222019e+000	-4.991348e+001
290291300	-7.548256e-001	-3.969021e+001	2.916643e+000	-1.208471e+002	-4.541321e+001	1.617648e+002	-1.290505e+000	-5.169501e+001
300291000	-7.667433e-001	-4.091415e+001	3.272205e+000	-1.224048e+002	-4.478429e+001	1.612601e+002	-1.370976e+000	-5.336517e+001
310290700	-7.857939e-001	-4.219134e+001	3.608934e+000	-1.239938e+002	-4.420460e+001	1.606991e+002	-1.445315e+000	-5.504723e+001
320290400	-8.026802e-001	-4.347135e+001	3.940716e+000	-1.257101e+002	-4.344529e+001	1.588114e+002	-1.529645e+000	-5.678086e+001
330290100	-8.185156e-001	-4.474305e+001	4.266987e+000	-1.274333e+002	-4.312312e+001	1.591802e+002	-1.611176e+000	-5.844903e+001
340289800	-8.340771e-001	-4.598668e+001	4.571064e+000	-1.289677e+002	-4.219731e+001	1.602353e+002	-1.697497e+000	-6.011071e+001
350289500	-8.587074e-001	-4.726759e+001	4.872097e+000	-1.306855e+002	-4.162892e+001	1.571880e+002	-1.784744e+000	-6.181041e+001
360289200	-8.751209e-001	-4.850414e+001	5.153633e+000	-1.323928e+002	-4.112438e+001	1.559521e+002	-1.881816e+000	-6.346277e+001
370288900	-9.000966e-001	-4.981736e+001	5.423152e+000	-1.341499e+002	-4.034256e+001	1.562904e+002	-1.975027e+000	-6.505110e+001
380288600	-9.203850e-001	-5.104101e+001	5.672737e+000	-1.360442e+002	-3.979393e+001	1.554904e+002	-2.074093e+000	-6.677084e+001
390288300	-9.486245e-001	-5.223923e+001	5.909630e+000	-1.378049e+002	-3.939097e+001	1.548590e+002	-2.184390e+000	-6.839878e+001
400288000	-9.710864e-001	-5.348277e+001	6.137635e+000	-1.395989e+002	-3.888313e+001	1.538970e+002	-2.293773e+000	-7.000285e+001
410287700	-9.959584e-001	-5.472038e+001	6.364519e+000	-1.414541e+002	-3.828930e+001	1.526247e+002	-2.404945e+000	-7.162774e+001
420287400	-1.020406e+000	-5.595067e+001	6.596817e+000	-1.432093e+002	-3.789167e+001	1.523571e+002	-2.522986e+000	-7.320721e+001
430287100	-1.048255e+000	-5.708592e+001	6.807840e+000	-1.449719e+002	-3.729690e+001	1.506358e+002	-2.636456e+000	-7.481900e+001
440286800	-1.080077e+000	-5.825577e+001	7.012598e+000	-1.467209e+002	-3.678632e+001	1.513660e+002	-2.758561e+000	-7.632863e+001
450286500	-1.105547e+000	-5.945253e+001	7.199372e+000	-1.484764e+002	-3.637333e+001	1.493281e+002	-2.885805e+000	-7.792465e+001
460286200	-1.131270e+000	-6.064324e+001	7.372188e+000	-1.502486e+002	-3.602050e+001	1.490361e+002	-3.007035e+000	-7.942913e+001
470285900	-1.161865e+000	-6.181040e+001	7.543729e+000	-1.521011e+002	-3.552338e+001	1.476648e+002	-3.151253e+000	-8.100744e+001
480285600	-1.191761e+000	-6.294887e+001	7.702294e+000	-1.536696e+002	-3.524505e+001	1.460550e+002	-3.279344e+000	-8.258483e+001
490285300	-1.221547e+000	-6.408870e+001	7.870189e+000	-1.555222e+002	-3.475084e+001	1.464790e+002	-3.422342e+000	-8.405459e+001
500285000	-1.252980e+000	-6.524527e+001	8.004662e+000	-1.573196e+002	-3.436068e+001	1.449487e+002	-3.571567e+000	-8.554066e+001
510284700	-1.283987e+000	-6.634240e+001	8.164697e+000	-1.589798e+002	-3.393210e+001	1.433648e+002	-3.720542e+000	-8.699678e+001
520284400	-1.317606e+000	-6.749094e+001	8.308039e+000	-1.608134e+002	-3.362350e+001	1.430417e+002	-3.882821e+000	-8.849419e+001
530284100	-1.349614e+000	-6.854464e+001	8.443795e+000	-1.625441e+002	-3.322454e+001	1.416381e+002	-4.029457e+000	-8.990103e+001
540283800	-1.387561e+000	-6.967798e+001	8.561010e+000	-1.642231e+002	-3.294089e+001	1.409995e+002	-4.197112e+000	-9.130580e+001
550283500	-1.427996e+000	-7.070357e+001	8.680577e+000	-1.659602e+002	-3.255509e+001	1.398208e+002	-4.347806e+000	-9.270576e+001
560283200	-1.456006e+000	-7.179600e+001	8.797353e+000	-1.676112e+002	-3.222561e+001	1.389068e+002	-4.519292e+000	-9.411403e+001
570282900	-1.488867e+000	-7.288050e+001	8.907520e+000	-1.693371e+002	-3.193675e+001	1.373445e+002	-4.695985e+000	-9.545539e+001
580282600	-1.534729e+000	-7.391495e+001	9.001430e+000	-1.710739e+002	-3.161615e+001	1.364759e+002	-4.874068e+000	-9.684409e+001
590282300	-1.569657e+000	-7.494903e+001	9.092169e+000	-1.727329e+002	-3.119214e+001	1.351920e+002	-5.048700e+000	-9.818355e+001
600282000	-1.604720e+000	-7.595137e+001	9.179413e+000	-1.744029e+002	-3.100005e+001	1.348452e+002	-5.237903e+000	-9.951556e+001
610281700	-1.645279e+000	-7.696652e+001	9.274443e+000	-1.760229e+002	-3.068989e+001	1.337735e+002	-5.433752e+000	-1.008033e+002
620281400	-1.687777e+000	-7.798394e+001	9.363501e+000	-1.776877e+002	-3.040200e+001	1.327120e+002	-5.633470e+000	-1.020564e+002
630281100	-1.727639e+000	-7.898689e+001	9.441622e+000	-1.793267e+002	-3.011252e+001	1.315529e+002	-5.827137e+000	-1.033878e+002
640280800	-1.773222e+000	-7.994910e+001	9.512520e+000	1.791053e+002	-2.980503e+001	1.304103e+002	-6.042455e+000	-1.046194e+002
650280500	-1.809941e+000	-8.094230e+001	9.581465e+000	1.775233e+002	-2.949693e+001	1.295984e+002	-6.243397e+000	-1.058853e+002
660280200	-1.847597e+000	-8.190743e+001	9.644678e+000	1.759694e+002	-2.929926e+001	1.283537e+002	-6.456595e+000	-1.071098e+002
670279900	-1.887324e+000	-8.284863e+001	9.695837e+000	1.744385e+002	-2.900836e+001	1.274568e+002	-6.665644e+000	-1.083611e+002
680279600	-1.920665e+000	-8.381854e+001	9.755151e+000	1.731135e+002	-2.877983e+001	1.265339e+002	-6.881014e+000	-1.097512e+002
690279300	-1.968121e+000	-8.481099e+001	9.866301e+000	1.715812e+002	-2.843713e+001	1.253737e+002	-7.177501e+000	-1.111144e+002
700279000	-2.014998e+000	-8.572758e+001	9.916415e+000	1.699826e+002	-2.819323e+001	1.244457e+002	-7.425084e+000	-1.121913e+002
710278700	-2.062954e+000	-8.670632e+001	9.997053e+000	1.684561e+002	-2.797572e+001	1.233980e+002	-7.716188e+000	-1.134962e+002
720278400	-2.117912e+000	-8.755942e+001	1.004273e+001	1.668258e+002	-2.772244e+001	1.222508e+002	-7.983395e+000	-1.145043e+002
730278100	-2.165827e+000	-8.845205e+001	1.008834e+001	1.652794e+002	-2.747940e+001	1.212444e+002	-8.264844e+000	-1.155512e+002
740277800	-2.211678e+000	-8.936657e+001	1.012599e+001	1.638478e+002	-2.723297e+001	1.202591e+002	-8.544110e+000	-1.167090e+002
750277500	-2.261709e+000	-9.026527e+001	1.017744e+001	1.623972e+002	-2.702791e+001	1.188780e+002	-8.851427e+000	-1.178856e+002
760277200	-2.312795e+000	-9.117165e+001	1.022990e+001	1.608855e+002	-2.679436e+001	1.181410e+002	-9.177709e+000	-1.189612e+002
770276900	-2.362764e+000	-9.201452e+001	1.027266e+001	1.594153e+002	-2.657054e+001	1.167382e+002	-9.505948e+000	-1.199876e+002
780276600	-2.414558e+000	-9.288194e+001	1.031173e+001	1.579626e+002	-2.636382e+001	1.159393e+002	-9.852844e+000	-1.210721e+002
790276300	-2.465057e+000	-9.372061e+001	1.035948e+001	1.564826e+002	-2.611740e+001	1.147536e+002	-1.023079e+001	-1.220537e+002
800276000	-2.516602e+000	-9.455168e+001	1.039135e+001	1.550298e+002	-2.590605e+001	1.135632e+002	-1.061269e+001	-1.230200e+002
810275700	-2.576229e+000	-9.539573e+001	1.042799e+001	1.535936e+002	-2.571976e+001	1.125093e+002	-1.102524e+001	-1.239779e+002
820275400	-2.632223e+000	-9.620600e+001	1.046163e+001	1.521456e+002	-2.553346e+001	1.111838e+002	-1.146398e+001	-1.248595e+002
830275100	-2.691035e+000	-9.703724e+001	1.049696e+001	1.507232e+002	-2.530345e+001	1.100622e+002	-1.193581e+001	-1.257028e+002
840274800	-2.750127e+000	-9.784901e+001	1.053311e+001	1.493277e+002	-2.513092e+001	1.092543e+002	-1.243005e+001	-1.265974e+002
850274500	-2.810994e+000	-9.865105e+001	1.058347e+001	1.479967e+002	-2.494503e+001	1.079999e+002	-1.298485e+001	-1.275631e+002
860274200	-2.877482e+000	-9.944512e+001	1.063836e+001	1.463245e+002	-2.472485e+001	1.066343e+002	-1.365285e+001	-1.278621e+002
870273900	-2.944098e+000	-1.001970e+002	1.066036e+001	1.448510e+002	-2.453594e+001	1.054378e+002	-1.428700e+001	-1.278368e+002
880273600	-3.013576e+000	-1.009663e+002	1.069233e+001	1.434146e+002	-2.431402e+001	1.041767e+002	-1.498059e+001	-1.280393e+002
890273300	-3.092149e+000	-1.017209e+002	1.073177e+001	1.419634e+002	-2.412976e+001	1.031352e+002	-1.579722e+001	-1.278908e+002
900273000	-3.181953e+000	-1.023744e+002	1.076458e+001	1.402917e+002	-2.397128e+001	1.015502e+002	-1.669689e+001	-1.264029e+002
910272700	-3.256525e+000	-1.029770e+002	1.076723e+001	1.386652e+002	-2.384050e+001	1.003316e+002	-1.746842e+001	-1.244461e+002
920272400	-3.329004e+000	-1.036249e+002	1.077045e+001	1.371860e+002	-2.369677e+001	9.913070e+001	-1.831419e+001	-1.227566e+002
930272100	-3.404182e+000	-1.042756e+002	1.078472e+001	1.357386e+002	-2.354729e+001	9.780703e+001	-1.931058e+001	-1.202610e+002
940271800	-3.479783e+000	-1.048765e+002	1.080370e+001	1.342428e+002	-2.339814e+001	9.680141e+001	-2.039165e+001	-1.163779e+002
950271500	-3.558627e+000	-1.054932e+002	1.080600e+001	1.327127e+002	-2.326675e+001	9.544841e+001	-2.144331e+001	-1.110155e+002
960271200	-3.630750e+000	-1.060802e+002	1.080799e+001	1.312012e+002	-2.312174e+001	9.435215e+001	-2.251488e+001	-1.039562e+002
970270900	-3.718797e+000	-1.066626e+002	1.081519e+001	1.297114e+002	-2.296125e+001	9.305880e+001	-2.347031e+001	-9.447996e+001
980270600	-3.797526e+000	-1.072130e+002	1.081297e+001	1.282304e+002	-2.282621e+001	9.171461e+001	-2.411083e+001	-8.244432e+001
990270300	-3.885633e+000	-1.077199e+002	1.081470e+001	1.267295e+002	-2.272689e+001	9.028201e+001	-2.415954e+001	-6.911290e+001
1000270000	-3.972930e+000	-1.081424e+002	1.080985e+001	1.251767e+002	-2.264039e+001	8.920152e+001	-2.356335e+001	-5.689154e+001
1010269700	-4.052158e+000	-1.085562e+002	1.079287e+001	1.236241e+002	-2.251214e+001	8.788400e+001	-2.259076e+001	-4.730360e+001
1020269400	-4.135152e+000	-1.089895e+002	1.077229e+001	1.221105e+002	-2.242366e+001	8.665348e+001	-2.157340e+001	-4.050768e+001
1030269100	-4.220595e+000	-1.093821e+002	1.075061e+001	1.206524e+002	-2.227707e+001	8.549497e+001	-2.051465e+001	-3.489607e+001
1040268800	-4.302986e+000	-1.097476e+002	1.073298e+001	1.191836e+002	-2.222351e+001	8.423317e+001	-1.947364e+001	-3.106006e+001
1050268500	-4.385637e+000	-1.100593e+002	1.071053e+001	1.177166e+002	-2.211873e+001	8.266556e+001	-1.850229e+001	-2.823980e+001
1060268200	-4.473202e+000	-1.103540e+002	1.068331e+001	1.162215e+002	-2.203660e+001	8.172420e+001	-1.755138e+001	-2.620337e+001
1070267900	-4.554199e+000	-1.106471e+002	1.065619e+001	1.147337e+002	-2.197370e+001	8.028909e+001	-1.669753e+001	-2.485872e+001
1080267600	-4.642509e+000	-1.108562e+002	1.063080e+001	1.132499e+002	-2.188869e+001	7.916655e+001	-1.588636e+001	-2.422287e+001
1090267300	-4.722699e+000	-1.110037e+002	1.058904e+001	1.116778e+002	-2.184325e+001	7.782895e+001	-1.512587e+001	-2.424820e+001
1100267000	-4.783061e+000	-1.111129e+002	1.052274e+001	1.102405e+002	-2.181260e+001	7.692579e+001	-1.453978e+001	-2.493162e+001
1110266700	-4.843914e+000	-1.113488e+002	1.046496e+001	1.088989e+002	-2.174417e+001	7.591649e+001	-1.407077e+001	-2.489390e+001
1120266400	-4.917774e+000	-1.115228e+002	1.041821e+001	1.075493e+002	-2.167658e+001	7.484344e+001	-1.357300e+001	-2.491147e+001
1130266100	-4.984992e+000	-1.116970e+002	1.036595e+001	1.061849e+002	-2.161284e+001	7.361457e+001	-1.306762e+001	-2.522934e+001
1140265800	-5.051415e+000	-1.118592e+002	1.031925e+001	1.048341e+002	-2.155278e+001	7.272363e+001	-1.258877e+001	-2.547130e+001
1150265500	-5.116020e+000	-1.119072e+002	1.026247e+001	1.034680e+002	-2.153150e+001	7.149228e+001	-1.213435e+001	-2.615535e+001
1160265200	-5.175465e+000	-1.119710e+002	1.020410e+001	1.021298e+002	-2.149180e+001	7.050875e+001	-1.173279e+001	-2.687362e+001
1170264900	-5.234225e+000	-1.120551e+002	1.014512e+001	1.008444e+002	-2.143728e+001	6.932409e+001	-1.134869e+001	-2.762065e+001
1180264600	-5.284095e+000	-1.121177e+002	1.008542e+001	9.952357e+001	-2.140902e+001	6.838886e+001	-1.098970e+001	-2.836720e+001
1190264300	-5.339445e+000	-1.121791e+002	1.002345e+001	9.822711e+001	-2.134875e+001	6.741483e+001	-1.064325e+001	-2.922346e+001
1200264000	-5.387371e+000	-1.122210e+002	9.953534e+000	9.699529e+001	-2.130730e+001	6.625594e+001	-1.033258e+001	-2.995531e+001
1210263700	-5.427052e+000	-1.122152e+002	9.889810e+000	9.572425e+001	-2.130509e+001	6.539537e+001	-1.003767e+001	-3.080373e+001
1220263400	-5.475481e+000	-1.122047e+002	9.815907e+000	9.448940e+001	-2.127325e+001	6.419501e+001	-9.762141e+000	-3.171623e+001
1230263100	-5.510758e+000	-1.122177e+002	9.751920e+000	9.328825e+001	-2.126145e+001	6.350961e+001	-9.504273e+000	-3.258641e+001
1240262800	-5.545755e+000	-1.122177e+002	9.675710e+000	9.202652e+001	-2.123454e+001	6.262956e+001	-9.264470e+000	-3.340136e+001
1250262500	-5.582593e+000	-1.122445e+002	9.607812e+000	9.087458e+001	-2.122833e+001	6.177249e+001	-9.041970e+000	-3.428564e+001
1260262200	-5.611508e+000	-1.122477e+002	9.531499e+000	8.970531e+001	-2.120474e+001	6.095076e+001	-8.832154e+000	-3.508207e+001
1270261900	-5.643962e+000	-1.121861e+002	9.454562e+000	8.854069e+001	-2.117826e+001	5.993776e+001	-8.614632e+000	-3.596812e+001
1280261600	-5.670370e+000	-1.121595e+002	9.382107e+000	8.743088e+001	-2.116384e+001	5.911296e+001	-8.413744e+000	-3.684763e+001
1290261300	-5.690757e+000	-1.121414e+002	9.303599e+000	8.630060e+001	-2.117504e+001	5.848540e+001	-8.221966e+000	-3.769803e+001
1300261000	-5.709618e+000	-1.121189e+002	9.227608e+000	8.518191e+001	-2.116350e+001	5.762271e+001	-8.055494e+000	-3.857255e+001
1310260700	-5.731519e+000	-1.121189e+002	9.144761e+000	8.408977e+001	-2.113307e+001	5.673891e+001	-7.879138e+000	-3.944970e+001
1320260400	-5.752144e+000	-1.121084e+002	9.067463e+000	8.304611e+001	-2.112544e+001	5.610288e+001	-7.714307e+000	-4.024311e+001
1330260100	-5.764884e+000	-1.121192e+002	8.991666e+000	8.198634e+001	-2.108822e+001	5.527043e+001	-7.547788e+000	-4.105313e+001
1340259800	-5.782170e+000	-1.121025e+002	8.909988e+000	8.093268e+001	-2.107864e+001	5.440058e+001	-7.383118e+000	-4.183923e+001
1350259500	-5.795554e+000	-1.120685e+002	8.834827e+000	7.991347e+001	-2.107299e+001	5.383862e+001	-7.234829e+000	-4.264724e+001
1360259200	-5.808554e+000	-1.120164e+002	8.762591e+000	7.888034e+001	-2.105823e+001	5.300684e+001	-7.097990e+000	-4.346316e+001
1370258900	-5.812342e+000	-1.119845e+002	8.681461e+000	7.789624e+001	-2.106253e+001	5.225654e+001	-6.972241e+000	-4.426998e+001
1380258600	-5.825327e+000	-1.119511e+002	8.598250e+000	7.687274e+001	-2.105479e+001	5.174967e+001	-6.849446e+000	-4.503471e+001
1390258300	-5.832200e+000	-1.120095e+002	8.516237e+000	7.589384e+001	-2.102567e+001	5.089935e+001	-6.737247e+000	-4.578843e+001
1400258000	-5.834185e+000	-1.120101e+002	8.438696e+000	7.495080e+001	-2.104032e+001	5.023303e+001	-6.625944e+000	-4.650630e+001
1410257700	-5.838207e+000	-1.120243e+002	8.357371e+000	7.396340e+001	-2.102117e+001	4.955095e+001	-6.505665e+000	-4.728008e+001
1420257400	-5.840068e+000	-1.120181e+002	8.280890e+000	7.301130e+001	-2.104134e+001	4.888643e+001	-6.413192e+000	-4.796159e+001
1430257100	-5.837093e+000	-1.120402e+002	8.197711e+000	7.211999e+001	-2.103289e+001	4.811112e+001	-6.314371e+000	-4.868361e+001
1440256800	-5.826964e+000	-1.121066e+002	8.116498e+000	7.115569e+001	-2.103542e+001	4.761719e+001	-6.218895e+000	-4.941951e+001
1450256500	-5.830610e+000	-1.120926e+002	8.034323e+000	7.027240e+001	-2.102068e+001	4.698214e+001	-6.117734e+000	-5.016191e+001
1460256200	-5.826471e+000	-1.121099e+002	7.959423e+000	6.935185e+001	-2.103898e+001	4.636879e+001	-6.033639e+000	-5.086167e+001
1470255900	-5.817297e+000	-1.121579e+002	7.873678e+000	6.843916e+001	-2.103768e+001	4.597882e+001	-5.934324e+000	-5.161915e+001
1480255600	-5.813700e+000	-1.122223e+002	7.795213e+000	6.757578e+001	-2.100520e+001	4.514128e+001	-5.852900e+000	-5.225731e+001
1490255300	-5.803907e+000	-1.121887e+002	7.719066e+000	6.670858e+001	-2.103705e+001	4.470427e+001	-5.762656e+000	-5.297592e+001
1500255000	-5.800031e+000	-1.122818e+002	7.634373e+000	6.587419e+001	-2.101496e+001	4.402932e+001	-5.671351e+000	-5.362563e+001
1510254700	-5.789960e+000	-1.122654e+002	7.554383e+000	6.498078e+001	-2.099843e+001	4.367652e+001	-5.580433e+000	-5.423969e+001
1520254400	-5.779147e+000	-1.123356e+002	7.480755e+000	6.414632e+001	-2.098711e+001	4.309963e+001	-5.501352e+000	-5.488784e+001
1530254100	-5.766683e+000	-1.123779e+002	7.398063e+000	6.332735e+001	-2.100544e+001	4.239408e+001	-5.415749e+000	-5.553944e+001
1540253800	-5.757775e+000	-1.123963e+002	7.321327e+000	6.247817e+001	-2.099368e+001	4.197823e+001	-5.355436e+000	-5.614234e+001
1550253500	-5.750930e+000	-1.124446e+002	7.244951e+000	6.164643e+001	-2.101886e+001	4.137276e+001	-5.291890e+000	-5.680213e+001
1560253200	-5.733424e+000	-1.125530e+002	7.169388e+000	6.087474e+001	-2.100282e+001	4.091514e+001	-5.228702e+000	-5.746859e+001
1570252900	-5.730788e+000	-1.125881e+002	7.080564e+000	6.008087e+001	-2.099805e+001	4.025623e+001	-5.173516e+000	-5.806946e+001
1580252600	-5.720182e+000	-1.126478e+002	7.002237e+000	5.927620e+001	-2.101653e+001	3.981089e+001	-5.118088e+000	-5.863809e+001
1590252300	-5.703037e+000	-1.127585e+002	6.934503e+000	5.847927e+001	-2.101273e+001	3.934029e+001	-5.066584e+000	-5.926445e+001
1600252000	-5.687841e+000	-1.128116e+002	6.851554e+000	5.768505e+001	-2.098868e+001	3.884589e+001	-5.008138e+000	-5.987488e+001
1610251700	-5.673123e+000	-1.129072e+002	6.773714e+000	5.692072e+001	-2.100519e+001	3.829971e+001	-4.952921e+000	-6.047399e+001
1620251400	-5.664930e+000	-1.130558e+002	6.693922e+000	5.611418e+001	-2.100836e+001	3.771224e+001	-4.895732e+000	-6.103103e+001
1630251100	-5.650114e+000	-1.131757e+002	6.617953e+000	5.536400e+001	-2.101137e+001	3.724941e+001	-4.846312e+000	-6.162282e+001
1640250800	-5.630060e+000	-1.132165e+002	6.552715e+000	5.462910e+001	-2.102281e+001	3.677080e+001	-4.786245e+000	-6.220940e+001
1650250500	-5.621457e+000	-1.133614e+002	6.466634e+000	5.386961e+001	-2.101142e+001	3.640533e+001	-4.724697e+000	-6.275312e+001
1660250200	-5.606740e+000	-1.133911e+002	6.387221e+000	5.317110e+001	-2.099190e+001	3.591133e+001	-4.663316e+000	-6.327066e+001
1670249900	-5.592638e+000	-1.135245e+002	6.317499e+000	5.238848e+001	-2.098959e+001	3.548114e+001	-4.602051e+000	-6.379074e+001
1680249600	-5.574828e+000	-1.136435e+002	6.242973e+000	5.171405e+001	-2.099554e+001	3.495422e+001	-4.553864e+000	-6.444054e+001
1690249300	-5.560060e+000	-1.137366e+002	6.168974e+000	5.096297e+001	-2.099885e+001	3.453789e+001	-4.505919e+000	-6.497741e+001
1700249000	-5.549651e+000	-1.138533e+002	6.088519e+000	5.025266e+001	-2.098369e+001	3.405978e+001	-4.465600e+000	-6.552644e+001
1710248700	-5.526838e+000	-1.139619e+002	6.016145e+000	4.950428e+001	-2.098501e+001	3.366636e+001	-4.427508e+000	-6.604081e+001
1720248400	-5.512816e+000	-1.140464e+002	5.946343e+000	4.885793e+001	-2.099793e+001	3.313543e+001	-4.380450e+000	-6.654023e+001
1730248100	-5.502851e+000	-1.141906e+002	5.865808e+000	4.810659e+001	-2.101374e+001	3.291699e+001	-4.341124e+000	-6.708325e+001
1740247800	-5.480895e+000	-1.143194e+002	5.795337e+000	4.752536e+001	-2.100975e+001	3.233926e+001	-4.309631e+000	-6.756709e+001
1750247500	-5.465342e+000	-1.144423e+002	5.715927e+000	4.679321e+001	-2.101097e+001	3.196504e+001	-4.274236e+000	-6.813200e+001
1760247200	-5.450299e+000	-1.145526e+002	5.649680e+000	4.607175e+001	-2.102837e+001	3.151551e+001	-4.238852e+000	-6.866373e+001
1770246900	-5.434677e+000	-1.147084e+002	5.574102e+000	4.535244e+001	-2.103145e+001	3.093770e+001	-4.202562e+000	-6.918999e+001
1780246600	-5.423674e+000	-1.147918e+002	5.498220e+000	4.473265e+001	-2.100784e+001	3.064256e+001	-4.164483e+000	-6.971452e+001
1790246300	-5.401537e+000	-1.149375e+002	5.425173e+000	4.405892e+001	-2.102053e+001	3.022131e+001	-4.132250e+000	-7.019769e+001
1800246000	-5.384720e+000	-1.150639e+002	5.350688e+000	4.341332e+001	-2.103040e+001	2.989896e+001	-4.095075e+000	-7.071745e+001
1810245700	-5.359839e+000	-1.152300e+002	5.287765e+000	4.277869e+001	-2.103377e+001	2.937793e+001	-4.057838e+000	-7.119288e+001
1820245400	-5.340575e+000	-1.153704e+002	5.214704e+000	4.210734e+001	-2.102107e+001	2.909947e+001	-4.009174e+000	-7.167565e+001
1830245100	-5.333899e+000	-1.155480e+002	5.131397e+000	4.144225e+001	-2.100087e+001	2.876474e+001	-3.966008e+000	-7.216148e+001
1840244800	-5.320338e+000	-1.157229e+002	5.054428e+000	4.086186e+001	-2.096470e+001	2.827775e+001	-3.920110e+000	-7.259674e+001
1850244500	-5.303372e+000	-1.158643e+002	4.990040e+000	4.018615e+001	-2.100049e+001	2.766700e+001	-3.892077e+000	-7.308392e+001
1860244200	-5.284484e+000	-1.160311e+002	4.922379e+000	3.951307e+001	-2.099636e+001	2.749087e+001	-3.860621e+000	-7.350035e+001
1870243900	-5.275153e+000	-1.161616e+002	4.843795e+000	3.894409e+001	-2.102364e+001	2.707159e+001	-3.832778e+000	-7.396561e+001
1880243600	-5.257571e+000	-1.163515e+002	4.778913e+000	3.830633e+001	-2.103503e+001	2.673277e+001	-3.814047e+000	-7.444248e+001
1890243300	-5.242874e+000	-1.165278e+002	4.705278e+000	3.769006e+001	-2.103756e+001	2.649592e+001	-3.784116e+000	-7.487119e+001
1900243000	-5.218518e+000	-1.167295e+002	4.638833e+000	3.703947e+001	-2.102600e+001	2.614950e+001	-3.768349e+000	-7.536681e+001
1910242700	-5.205501e+000	-1.168673e+002	4.565248e+000	3.646668e+001	-2.105416e+001	2.569972e+001	-3.746319e+000	-7.579843e+001
1920242400	-5.185736e+000	-1.170488e+002	4.500865e+000	3.585096e+001	-2.105676e+001	2.529047e+001	-3.723113e+000	-7.629656e+001
1930242100	-5.171522e+000	-1.172171e+002	4.432225e+000	3.525659e+001	-2.107511e+001	2.485445e+001	-3.705672e+000	-7.675077e+001
1940241800	-5.143573e+000	-1.174008e+002	4.365940e+000	3.467090e+001	-2.107914e+001	2.447605e+001	-3.681508e+000	-7.720696e+001
1950241500	-5.133204e+000	-1.175421e+002	4.287324e+000	3.412829e+001	-2.107413e+001	2.429721e+001	-3.654156e+000	-7.768101e+001
1960241200	-5.116936e+000	-1.177043e+002	4.211197e+000	3.347779e+001	-2.108054e+001	2.372763e+001	-3.627853e+000	-7.817351e+001
1970240900	-5.099149e+000	-1.178595e+002	4.140539e+000	3.291264e+001	-2.108461e+001	2.339401e+001	-3.602012e+000	-7.866642e+001
1980240600	-5.082483e+000	-1.180582e+002	4.087923e+000	3.233938e+001	-2.103806e+001	2.291438e+001	-3.564918e+000	-7.915793e+001
1990240300	-5.063031e+000	-1.181479e+002	4.018103e+000	3.174029e+001	-2.104469e+001	2.289317e+001	-3.498190e+000	-7.959032e+001
2000240000	-5.047126e+000	-1.183548e+002	3.949522e+000	3.118600e+001	-2.105254e+001	2.257070e+001	-3.475535e+000	-7.993643e+001
2010239700	-5.033822e+000	-1.185485e+002	3.879850e+000	3.056552e+001	-2.103447e+001	2.230773e+001	-3.452278e+000	-8.031928e+001
2020239400	-5.017043e+000	-1.187020e+002	3.816479e+000	2.997466e+001	-2.104534e+001	2.198019e+001	-3.438907e+000	-8.072131e+001
2030239100	-5.004620e+000	-1.188828e+002	3.747705e+000	2.945170e+001	-2.104889e+001	2.152926e+001	-3.422338e+000	-8.105894e+001
2040238800	-4.989987e+000	-1.190113e+002	3.678374e+000	2.890810e+001	-2.105444e+001	2.108293e+001	-3.408026e+000	-8.147084e+001
2050238500	-4.976120e+000	-1.192906e+002	3.617313e+000	2.829948e+001	-2.106295e+001	2.085582e+001	-3.389365e+000	-8.193888e+001
2060238200	-4.964757e+000	-1.195070e+002	3.548697e+000	2.775175e+001	-2.108642e+001	2.050125e+001	-3.386647e+000	-8.231200e+001
2070237900	-4.948103e+000	-1.196835e+002	3.484073e+000	2.723550e+001	-2.107414e+001	2.023816e+001	-3.374532e+000	-8.263827e+001
2080237600	-4.932889e+000	-1.199285e+002	3.414487e+000	2.669376e+001	-2.105802e+001	1.997308e+001	-3.354499e+000	-8.310139e+001
2090237300	-4.917702e+000	-1.201410e+002	3.352256e+000	2.616372e+001	-2.111743e+001	1.956393e+001	-3.345714e+000	-8.351272e+001
2100237000	-4.899061e+000	-1.203343e+002	3.284259e+000	2.560014e+001	-2.109571e+001	1.919674e+001	-3.327532e+000	-8.395303e+001
2110236700	-4.879656e+000	-1.205915e+002	3.226156e+000	2.504503e+001	-2.113489e+001	1.907276e+001	-3.318952e+000	-8.437573e+001
2120236400	-4.869119e+000	-1.207413e+002	3.149106e+000	2.455441e+001	-2.116093e+001	1.863597e+001	-3.307236e+000	-8.484240e+001
2130236100	-4.849394e+000	-1.209561e+002	3.089731e+000	2.399561e+001	-2.114758e+001	1.843233e+001	-3.297922e+000	-8.524970e+001
2140235800	-4.825232e+000	-1.211546e+002	3.027175e+000	2.341092e+001	-2.115065e+001	1.808912e+001	-3.268565e+000	-8.566351e+001
2150235500	-4.819569e+000	-1.213841e+002	2.966167e+000	2.287701e+001	-2.109084e+001	1.787842e+001	-3.251484e+000	-8.611581e+001
2160235200	-4.799004e+000	-1.215309e+002	2.892038e+000	2.241157e+001	-2.108177e+001	1.728684e+001	-3.204632e+000	-8.651660e+001
2170234900	-4.787973e+000	-1.217104e+002	2.834194e+000	2.181521e+001	-2.107001e+001	1.711230e+001	-3.167174e+000	-8.683489e+001
2180234600	-4.765921e+000	-1.218840e+002	2.776858e+000	2.137852e+001	-2.107149e+001	1.678878e+001	-3.135791e+000	-8.720825e+001
2190234300	-4.751027e+000	-1.220830e+002	2.705996e+000	2.083957e+001	-2.109256e+001	1.649464e+001	-3.128604e+000	-8.754905e+001
2200234000	-4.738284e+000	-1.223600e+002	2.653082e+000	2.028133e+001	-2.113644e+001	1.620210e+001	-3.117437e+000	-8.790001e+001
2210233700	-4.729548e+000	-1.225198e+002	2.577275e+000	1.978820e+001	-2.111935e+001	1.610307e+001	-3.104231e+000	-8.823487e+001
2220233400	-4.712890e+000	-1.227237e+002	2.515059e+000	1.930342e+001	-2.110212e+001	1.581244e+001	-3.092807e+000	-8.861259e+001
2230233100	-4.708065e+000	-1.229866e+002	2.456810e+000	1.878377e+001	-2.113551e+001	1.567621e+001	-3.095833e+000	-8.903120e+001
2240232800	-4.687539e+000	-1.231383e+002	2.404650e+000	1.832246e+001	-2.111228e+001	1.551475e+001	-3.090210e+000	-8.940368e+001
2250232500	-4.678680e+000	-1.234039e+002	2.341123e+000	1.777992e+001	-2.107364e+001	1.486115e+001	-3.081277e+000	-8.977218e+001
2260232200	-4.660523e+000	-1.236354e+002	2.274474e+000	1.725393e+001	-2.110664e+001	1.448269e+001	-3.080260e+000	-9.008193e+001
2270231900	-4.644074e+000	-1.238063e+002	2.215887e+000	1.676915e+001	-2.111382e+001	1.395366e+001	-3.062316e+000	-9.050223e+001
2280231600	-4.627325e+000	-1.240358e+002	2.154785e+000	1.628331e+001	-2.116537e+001	1.387010e+001	-3.051884e+000	-9.080998e+001
2290231300	-4.608239e+000	-1.243311e+002	2.096800e+000	1.582097e+001	-2.119402e+001	1.350588e+001	-3.040045e+000	-9.129505e+001
2300231000	-4.603613e+000	-1.245457e+002	2.037139e+000	1.524189e+001	-2.117685e+001	1.332956e+001	-3.027704e+000	-9.167961e+001
2310230700	-4.590061e+000	-1.248183e+002	1.979981e+000	1.481322e+001	-2.120166e+001	1.298547e+001	-3.017757e+000	-9.205355e+001
2320230400	-4.576925e+000	-1.249874e+002	1.915550e+000	1.430081e+001	-2.119603e+001	1.294330e+001	-2.988982e+000	-9.242448e+001
2330230100	-4.559389e+000	-1.251926e+002	1.856540e+000	1.387326e+001	-2.118038e+001	1.273146e+001	-2.978570e+000	-9.280295e+001
2340229800	-4.547792e+000	-1.254332e+002	1.797443e+000	1.338200e+001	-2.118751e+001	1.268865e+001	-2.953794e+000	-9.318272e+001
2350229500	-4.544712e+000	-1.256244e+002	1.733378e+000	1.281393e+001	-2.111878e+001	1.230120e+001	-2.940780e+000	-9.358945e+001
2360229200	-4.536682e+000	-1.258310e+002	1.688890e+000	1.237161e+001	-2.108813e+001	1.202084e+001	-2.941159e+000	-9.392325e+001
2370228900	-4.528242e+000	-1.260619e+002	1.619113e+000	1.186657e+001	-2.106128e+001	1.156414e+001	-2.931258e+000	-9.422266e+001
2380228600	-4.507870e+000	-1.262586e+002	1.557363e+000	1.135810e+001	-2.107407e+001	1.115744e+001	-2.920558e+000	-9.453391e+001
2390228300	-4.493612e+000	-1.264847e+002	1.497826e+000	1.090089e+001	-2.109205e+001	1.041268e+001	-2.904980e+000	-9.482655e+001
2400228000	-4.477526e+000	-1.267208e+002	1.449512e+000	1.038607e+001	-2.112349e+001	1.023309e+001	-2.902736e+000	-9.523759e+001
2410227700	-4.463296e+000	-1.269674e+002	1.386859e+000	9.946975e+000	-2.115933e+001	1.006185e+001	-2.891556e+000	-9.557399e+001
2420227400	-4.442659e+000	-1.271977e+002	1.321982e+000	9.516184e+000	-2.119622e+001	9.649485e+000	-2.885252e+000	-9.598963e+001
2430227100	-4.421405e+000	-1.274675e+002	1.271805e+000	9.012551e+000	-2.119956e+001	9.517445e+000	-2.872850e+000	-9.633512e+001
2440226800	-4.413438e+000	-1.277323e+002	1.208615e+000	8.527892e+000	-2.122370e+001	9.171668e+000	-2.870099e+000	-9.672366e+001
2450226500	-4.397626e+000	-1.279542e+002	1.150579e+000	8.131283e+000	-2.119964e+001	9.185365e+000	-2.863779e+000	-9.709348e+001
2460226200	-4.387033e+000	-1.282136e+002	1.090710e+000	7.665066e+000	-2.123564e+001	8.956493e+000	-2.865209e+000	-9.747103e+001
2470225900	-4.375679e+000	-1.284739e+002	1.036606e+000	7.155202e+000	-2.118278e+001	8.678027e+000	-2.851738e+000	-9.776101e+001
2480225600	-4.363181e+000	-1.286853e+002	9.810055e-001	6.681689e+000	-2.117226e+001	8.436694e+000	-2.845374e+000	-9.810577e+001
2490225300	-4.350268e+000	-1.288326e+002	9.214171e-001	6.245450e+000	-2.117788e+001	7.804731e+000	-2.820581e+000	-9.838999e+001
2500225000	-4.333311e+000	-1.291644e+002	8.836199e-001	5.809837e+000	-2.118974e+001	7.484850e+000	-2.805304e+000	-9.876113e+001
2510224700	-4.334083e+000	-1.293950e+002	8.044488e-001	5.242122e+000	-2.124306e+001	7.400899e+000	-2.792798e+000	-9.916005e+001
2520224400	-4.323852e+000	-1.296464e+002	7.580691e-001	4.838912e+000	-2.123523e+001	7.247013e+000	-2.777353e+000	-9.950487e+001
2530224100	-4.318745e+000	-1.297907e+002	6.847739e-001	4.482103e+000	-2.126292e+001	7.275086e+000	-2.779036e+000	-9.988434e+001
2540223800	-4.316350e+000	-1.300813e+002	6.361629e-001	3.987329e+000	-2.125730e+001	7.058379e+000	-2.781646e+000	-1.002244e+002
2550223500	-4.308482e+000	-1.303465e+002	5.860790e-001	3.427984e+000	-2.122311e+001	7.080772e+000	-2.773926e+000	-1.005651e+002
2560223200	-4.293176e+000	-1.305649e+002	5.306578e-001	3.124031e+000	-2.120409e+001	6.562616e+000	-2.774535e+000	-1.009373e+002
2570222900	-4.283750e+000	-1.308205e+002	4.744685e-001	2.668777e+000	-2.118111e+001	6.503450e+000	-2.785067e+000	-1.012421e+002
2580222600	-4.277006e+000	-1.310877e+002	4.342921e-001	2.192810e+000	-2.113163e+001	6.142808e+000	-2.776069e+000	-1.015698e+002
2590222300	-4.260068e+000	-1.312804e+002	3.747585e-001	1.762053e+000	-2.111373e+001	5.520921e+000	-2.771313e+000	-1.018352e+002
2600222000	-4.244894e+000	-1.315816e+002	3.250980e-001	1.295748e+000	-2.112885e+001	4.984410e+000	-2.757590e+000	-1.021387e+002
2610221700	-4.235810e+000	-1.317382e+002	2.516337e-001	7.920995e-001	-2.114903e+001	4.454233e+000	-2.744508e+000	-1.024732e+002
2620221400	-4.209423e+000	-1.321120e+002	2.159864e-001	3.615898e-001	-2.116078e+001	4.024838e+000	-2.733044e+000	-1.028233e+002
2630221100	-4.194671e+000	-1.323264e+002	1.581501e-001	-1.342257e-001	-2.122866e+001	3.318246e+000	-2.725495e+000	-1.031834e+002
2640220800	-4.179185e+000	-1.325347e+002	9.995749e-002	-5.460007e-001	-2.125439e+001	3.289179e+000	-2.710512e+000	-1.035599e+002
2650220500	-4.181501e+000	-1.328086e+002	4.543248e-002	-1.088453e+000	-2.127475e+001	2.974042e+000	-2.699670e+000	-1.039439e+002
2660220200	-4.166680e+000	-1.329463e+002	-1.008322e-002	-1.465472e+000	-2.131036e+001	2.645398e+000	-2.695974e+000	-1.042528e+002
2670219900	-4.147168e+000	-1.331829e+002	-5.686029e-002	-1.832927e+000	-2.132795e+001	2.497238e+000	-2.678617e+000	-1.046362e+002
2680219600	-4.144012e+000	-1.334354e+002	-1.141350e-001	-2.329899e+000	-2.134996e+001	2.397756e+000	-2.668800e+000	-1.049491e+002
2690219300	-4.128975e+000	-1.336574e+002	-1.690139e-001	-2.756673e+000	-2.135538e+001	2.031496e+000	-2.668828e+000	-1.053107e+002
2700219000	-4.127317e+000	-1.339752e+002	-2.241466e-001	-3.237367e+000	-2.136436e+001	1.976451e+000	-2.663215e+000	-1.056354e+002
2710218700	-4.116797e+000	-1.342419e+002	-2.796497e-001	-3.655926e+000	-2.137590e+001	1.921981e+000	-2.664652e+000	-1.059252e+002
2720218400	-4.107813e+000	-1.344937e+002	-3.241565e-001	-4.054387e+000	-2.137076e+001	1.770218e+000	-2.664321e+000	-1.063072e+002
2730218100	-4.106756e+000	-1.348202e+002	-3.927470e-001	-4.534129e+000	-2.137628e+001	1.472367e+000	-2.656649e+000	-1.067139e+002
2740217800	-4.093200e+000	-1.351322e+002	-4.355162e-001	-4.926176e+000	-2.139890e+001	1.123789e+000	-2.659123e+000	-1.070593e+002
2750217500	-4.085458e+000	-1.354258e+002	-4.915508e-001	-5.426606e+000	-2.139102e+001	1.119476e+000	-2.656928e+000	-1.074378e+002
2760217200	-4.072988e+000	-1.357240e+002	-5.398463e-001	-5.798443e+000	-2.143787e+001	1.079909e+000	-2.660989e+000	-1.078312e+002
2770216900	-4.065325e+000	-1.360321e+002	-5.850440e-001	-6.202135e+000	-2.141462e+001	7.777899e-001	-2.658486e+000	-1.081944e+002
2780216600	-4.064253e+000	-1.363255e+002	-6.464692e-001	-6.723905e+000	-2.141036e+001	6.836278e-001	-2.655250e+000	-1.085918e+002
2790216300	-4.045990e+000	-1.365056e+002	-7.036193e-001	-6.992741e+000	-2.135384e+001	5.224864e-001	-2.654103e+000	-1.089700e+002
2800216000	-4.042713e+000	-1.367938e+002	-7.456405e-001	-7.511742e+000	-2.131552e+001	2.584255e-001	-2.665667e+000	-1.092404e+002
2810215700	-4.018400e+000	-1.370254e+002	-7.818500e-001	-7.871713e+000	-2.126877e+001	-2.551373e-001	-2.656276e+000	-1.095092e+002
2820215400	-4.020912e+000	-1.372325e+002	-8.362002e-001	-8.357175e+000	-2.128072e+001	-8.696523e-001	-2.653198e+000	-1.097321e+002
2830215100	-3.994731e+000	-1.374499e+002	-8.873297e-001	-8.737418e+000	-2.129489e+001	-1.500968e+000	-2.629783e+000	-1.100676e+002
2840214800	-3.978365e+000	-1.377447e+002	-9.376398e-001	-9.221707e+000	-2.132544e+001	-2.006848e+000	-2.621634e+000	-1.103284e+002
2850214500	-3.965169e+000	-1.380035e+002	-9.776632e-001	-9.668366e+000	-2.134911e+001	-2.409893e+000	-2.617715e+000	-1.106700e+002
2860214200	-3.965017e+000	-1.382449e+002	-1.040452e+000	-1.008708e+001	-2.136494e+001	-2.596989e+000	-2.602302e+000	-1.110263e+002
2870213900	-3.956516e+000	-1.385135e+002	-1.089965e+000	-1.059483e+001	-2.143313e+001	-2.896293e+000	-2.586746e+000	-1.113533e+002
2880213600	-3.951034e+000	-1.388451e+002	-1.135184e+000	-1.104571e+001	-2.145787e+001	-3.026111e+000	-2.585042e+000	-1.117055e+002
2890213300	-3.940886e+000	-1.391231e+002	-1.206620e+000	-1.142030e+001	-2.146526e+001	-3.415051e+000	-2.577706e+000	-1.121183e+002
2900213000	-3.939411e+000	-1.393830e+002	-1.258665e+000	-1.181289e+001	-2.150800e+001	-3.383266e+000	-2.574603e+000	-1.125512e+002
2910212700	-3.926459e+000	-1.396868e+002	-1.311368e+000	-1.229146e+001	-2.153403e+001	-3.776342e+000	-2.574517e+000	-1.129117e+002
2920212400	-3.916242e+000	-1.399649e+002	-1.361712e+000	-1.272273e+001	-2.154320e+001	-3.928063e+000	-2.578690e+000	-1.133652e+002
2930212100	-3.912778e+000	-1.403052e+002	-1.414625e+000	-1.319075e+001	-2.158356e+001	-4.292475e+000	-2.577127e+000	-1.137402e+002
2940211800	-3.893452e+000	-1.405392e+002	-1.472635e+000	-1.357075e+001	-2.161586e+001	-4.132886e+000	-2.576534e+000	-1.140937e+002
2950211500	-3.880664e+000	-1.408539e+002	-1.528146e+000	-1.392819e+001	-2.159049e+001	-4.370258e+000	-2.577135e+000	-1.144268e+002
2960211200	-3.865030e+000	-1.411231e+002	-1.572865e+000	-1.427043e+001	-2.159040e+001	-4.563581e+000	-2.572242e+000	-1.147876e+002
2970210900	-3.858780e+000	-1.413918e+002	-1.624097e+000	-1.474756e+001	-2.159789e+001	-4.883101e+000	-2.571327e+000	-1.151682e+002
2980210600	-3.843728e+000	-1.417533e+002	-1.659518e+000	-1.517599e+001	-2.160057e+001	-4.973836e+000	-2.559087e+000	-1.155314e+002
2990210300	-3.834753e+000	-1.419358e+002	-1.712327e+000	-1.556801e+001	-2.160964e+001	-5.030104e+000	-2.566151e+000	-1.158546e+002
3000210000	-3.827559e+000	-1.422579e+002	-1.764349e+000	-1.602140e+001	-2.159556e+001	-5.404123e+000	-2.562682e+000	-1.161691e+002
3010209700	-3.820543e+000	-1.424934e+002	-1.811791e+000	-1.642823e+001	-2.160893e+001	-5.542930e+000	-2.570961e+000	-1.164678e+002
3020209400	-3.809601e+000	-1.427785e+002	-1.856446e+000	-1.682645e+001	-2.156697e+001	-5.913727e+000	-2.565185e+000	-1.168270e+002
3030209100	-3.815324e+000	-1.430687e+002	-1.913046e+000	-1.725105e+001	-2.155571e+001	-5.954447e+000	-2.562433e+000	-1.170941e+002
3040208800	-3.803927e+000	-1.432575e+002	-1.964075e+000	-1.758606e+001	-2.150647e+001	-6.615058e+000	-2.564755e+000	-1.173682e+002
3050208500	-3.799838e+000	-1.434960e+002	-2.019423e+000	-1.799089e+001	-2.151432e+001	-7.152684e+000	-2.552949e+000	-1.176562e+002
3060208200	-3.793093e+000	-1.438701e+002	-2.059396e+000	-1.851640e+001	-2.154811e+001	-7.823075e+000	-2.543744e+000	-1.180283e+002
3070207900	-3.784505e+000	-1.442207e+002	-2.118709e+000	-1.900874e+001	-2.161842e+001	-7.960111e+000	-2.531578e+000	-1.183718e+002
3080207600	-3.769118e+000	-1.445373e+002	-2.168453e+000	-1.937355e+001	-2.169934e+001	-8.333182e+000	-2.529450e+000	-1.188209e+002
3090207300	-3.760704e+000	-1.448282e+002	-2.207390e+000	-1.979880e+001	-2.167014e+001	-8.572878e+000	-2.525772e+000	-1.191932e+002
3100207000	-3.751984e+000	-1.451117e+002	-2.277578e+000	-2.021568e+001	-2.174797e+001	-8.708891e+000	-2.531010e+000	-1.195664e+002
3110206700	-3.737530e+000	-1.453663e+002	-2.322118e+000	-2.065576e+001	-2.174619e+001	-8.865605e+000	-2.521437e+000	-1.199786e+002
3120206400	-3.728261e+000	-1.457144e+002	-2.380152e+000	-2.103655e+001	-2.177856e+001	-9.274982e+000	-2.522790e+000	-1.203809e+002
3130206100	-3.710027e+000	-1.459686e+002	-2.429048e+000	-2.141885e+001	-2.179300e+001	-9.237523e+000	-2.512329e+000	-1.207338e+002
3140205800	-3.699609e+000	-1.462575e+002	-2.472524e+000	-2.182390e+001	-2.180880e+001	-9.432993e+000	-2.517127e+000	-1.211273e+002
3150205500	-3.695574e+000	-1.464962e+002	-2.519965e+000	-2.230042e+001	-2.181585e+001	-9.528489e+000	-2.512408e+000	-1.215176e+002
3160205200	-3.686498e+000	-1.467450e+002	-2.571458e+000	-2.273870e+001	-2.181234e+001	-9.733999e+000	-2.510222e+000	-1.218337e+002
3170204900	-3.673043e+000	-1.469630e+002	-2.621846e+000	-2.309552e+001	-2.182067e+001	-1.022222e+001	-2.507271e+000	-1.222166e+002
3180204600	-3.658296e+000	-1.473030e+002	-2.667553e+000	-2.351975e+001	-2.183838e+001	-1.058917e+001	-2.507377e+000	-1.225765e+002
3190204300	-3.653692e+000	-1.475965e+002	-2.726926e+000	-2.395652e+001	-2.187483e+001	-1.074306e+001	-2.503727e+000	-1.228363e+002
3200204000	-3.644482e+000	-1.478094e+002	-2.782158e+000	-2.433008e+001	-2.189422e+001	-1.128913e+001	-2.501458e+000	-1.232142e+002
3210203700	-3.648404e+000	-1.481954e+002	-2.823687e+000	-2.479290e+001	-2.192629e+001	-1.129637e+001	-2.492082e+000	-1.236102e+002
3220203400	-3.635130e+000	-1.485009e+002	-2.871479e+000	-2.518035e+001	-2.193116e+001	-1.135708e+001	-2.491407e+000	-1.239563e+002
3230203100	-3.631501e+000	-1.488368e+002	-2.929435e+000	-2.561672e+001	-2.193734e+001	-1.151002e+001	-2.492618e+000	-1.243833e+002
3240202800	-3.620648e+000	-1.491666e+002	-2.983581e+000	-2.593438e+001	-2.197206e+001	-1.165650e+001	-2.500671e+000	-1.247572e+002
3250202500	-3.620705e+000	-1.494951e+002	-3.040751e+000	-2.638390e+001	-2.200879e+001	-1.189658e+001	-2.503137e+000	-1.251312e+002
3260202200	-3.603089e+000	-1.497909e+002	-3.095468e+000	-2.667819e+001	-2.197888e+001	-1.183228e+001	-2.513139e+000	-1.254734e+002
3270201900	-3.584084e+000	-1.501831e+002	-3.132896e+000	-2.701862e+001	-2.196812e+001	-1.196818e+001	-2.516037e+000	-1.258228e+002
3280201600	-3.587377e+000	-1.504685e+002	-3.178748e+000	-2.758440e+001	-2.195264e+001	-1.259470e+001	-2.514833e+000	-1.261584e+002
3290201300	-3.569369e+000	-1.507297e+002	-3.222176e+000	-2.797634e+001	-2.197419e+001	-1.290496e+001	-2.493924e+000	-1.264545e+002
3300201000	-3.563470e+000	-1.510500e+002	-3.279148e+000	-2.841648e+001	-2.204222e+001	-1.338809e+001	-2.485286e+000	-1.268551e+002
3310200700	-3.543284e+000	-1.513274e+002	-3.320120e+000	-2.883365e+001	-2.207977e+001	-1.355748e+001	-2.471991e+000	-1.272560e+002
3320200400	-3.535787e+000	-1.516037e+002	-3.377628e+000	-2.923754e+001	-2.208122e+001	-1.356543e+001	-2.468756e+000	-1.276450e+002
3330200100	-3.530301e+000	-1.518508e+002	-3.426555e+000	-2.964021e+001	-2.207573e+001	-1.391557e+001	-2.470559e+000	-1.279927e+002
3340199800	-3.512638e+000	-1.521502e+002	-3.471038e+000	-2.999360e+001	-2.208988e+001	-1.421027e+001	-2.473762e+000	-1.283324e+002
3350199500	-3.509764e+000	-1.523835e+002	-3.522824e+000	-3.042023e+001	-2.209407e+001	-1.454524e+001	-2.468411e+000	-1.287146e+002
3360199200	-3.500999e+000	-1.526515e+002	-3.579722e+000	-3.079125e+001	-2.211924e+001	-1.507604e+001	-2.464734e+000	-1.289899e+002
3370198900	-3.492985e+000	-1.528758e+002	-3.634277e+000	-3.122744e+001	-2.211266e+001	-1.505231e+001	-2.448415e+000	-1.293598e+002
3380198600	-3.487912e+000	-1.531786e+002	-3.687897e+000	-3.152889e+001	-2.216858e+001	-1.530797e+001	-2.450365e+000	-1.296855e+002
3390198300	-3.482346e+000	-1.534737e+002	-3.736191e+000	-3.202430e+001	-2.219320e+001	-1.544068e+001	-2.444403e+000	-1.300451e+002
3400198000	-3.478606e+000	-1.538377e+002	-3.781272e+000	-3.242800e+001	-2.220344e+001	-1.574481e+001	-2.439910e+000	-1.304853e+002
3410197700	-3.469663e+000	-1.540846e+002	-3.832508e+000	-3.286616e+001	-2.223567e+001	-1.579136e+001	-2.450828e+000	-1.308770e+002
3420197400	-3.448391e+000	-1.544735e+002	-3.874943e+000	-3.322999e+001	-2.225027e+001	-1.608880e+001	-2.455190e+000	-1.312865e+002
3430197100	-3.447929e+000	-1.548048e+002	-3.943116e+000	-3.373462e+001	-2.231963e+001	-1.636723e+001	-2.451333e+000	-1.316780e+002
3440196800	-3.434173e+000	-1.551707e+002	-3.988997e+000	-3.415687e+001	-2.235671e+001	-1.672767e+001	-2.458037e+000	-1.321233e+002
3450196500	-3.418190e+000	-1.554842e+002	-4.049515e+000	-3.459649e+001	-2.237601e+001	-1.672833e+001	-2.452608e+000	-1.325550e+002
3460196200	-3.411653e+000	-1.558261e+002	-4.110972e+000	-3.494072e+001	-2.244246e+001	-1.692282e+001	-2.452806e+000	-1.329439e+002
3470195900	-3.400444e+000	-1.561258e+002	-4.166334e+000	-3.532592e+001	-2.244862e+001	-1.716313e+001	-2.452421e+000	-1.333937e+002
3480195600	-3.385625e+000	-1.564164e+002	-4.215869e+000	-3.561068e+001	-2.244656e+001	-1.706434e+001	-2.463777e+000	-1.337806e+002
3490195300	-3.376544e+000	-1.567306e+002	-4.276815e+000	-3.600029e+001	-2.246319e+001	-1.730490e+001	-2.466118e+000	-1.341390e+002
3500195000	-3.370343e+000	-1.570025e+002	-4.315726e+000	-3.632216e+001	-2.245597e+001	-1.739666e+001	-2.466010e+000	-1.344740e+002
3510194700	-3.371496e+000	-1.573342e+002	-4.361867e+000	-3.672774e+001	-2.248497e+001	-1.745576e+001	-2.459196e+000	-1.347694e+002
3520194400	-3.355897e+000	-1.575326e+002	-4.421180e+000	-3.707321e+001	-2.239757e+001	-1.754167e+001	-2.439745e+000	-1.351328e+002
3530194100	-3.354935e+000	-1.577920e+002	-4.462795e+000	-3.743746e+001	-2.238730e+001	-1.755974e+001	-2.425840e+000	-1.354889e+002
3540193800	-3.355419e+000	-1.580210e+002	-4.512228e+000	-3.783887e+001	-2.235566e+001	-1.760466e+001	-2.420260e+000	-1.357787e+002
3550193500	-3.348151e+000	-1.583078e+002	-4.556128e+000	-3.817102e+001	-2.238271e+001	-1.837090e+001	-2.409333e+000	-1.360184e+002
3560193200	-3.340913e+000	-1.585871e+002	-4.600124e+000	-3.865920e+001	-2.235661e+001	-1.874180e+001	-2.424302e+000	-1.363687e+002
3570192900	-3.330427e+000	-1.589082e+002	-4.648580e+000	-3.910367e+001	-2.243386e+001	-1.952960e+001	-2.419014e+000	-1.367288e+002
3580192600	-3.316686e+000	-1.592484e+002	-4.698329e+000	-3.956597e+001	-2.246576e+001	-2.003235e+001	-2.413711e+000	-1.371201e+002
3590192300	-3.303559e+000	-1.596341e+002	-4.756640e+000	-4.001036e+001	-2.258392e+001	-2.022387e+001	-2.420615e+000	-1.374886e+002
3600192000	-3.280647e+000	-1.599233e+002	-4.808255e+000	-4.036742e+001	-2.262392e+001	-2.044350e+001	-2.409181e+000	-1.379586e+002
3610191700	-3.278243e+000	-1.602624e+002	-4.874016e+000	-4.085502e+001	-2.266893e+001	-2.076331e+001	-2.415791e+000	-1.383816e+002
3620191400	-3.260996e+000	-1.605746e+002	-4.933969e+000	-4.124137e+001	-2.272190e+001	-2.055300e+001	-2.415769e+000	-1.388422e+002
3630191100	-3.253778e+000	-1.608442e+002	-4.984665e+000	-4.162125e+001	-2.272393e+001	-2.122921e+001	-2.415236e+000	-1.393053e+002
3640190800	-3.236475e+000	-1.611548e+002	-5.032175e+000	-4.194485e+001	-2.276854e+001	-2.137325e+001	-2.413183e+000	-1.397103e+002
3650190500	-3.217071e+000	-1.614548e+002	-5.095714e+000	-4.231481e+001	-2.279554e+001	-2.141659e+001	-2.404093e+000	-1.401480e+002
3660190200	-3.212914e+000	-1.617106e+002	-5.151080e+000	-4.275677e+001	-2.284797e+001	-2.140054e+001	-2.406938e+000	-1.405049e+002
3670189900	-3.209514e+000	-1.620277e+002	-5.208153e+000	-4.313482e+001	-2.286615e+001	-2.151120e+001	-2.400898e+000	-1.408930e+002
3680189600	-3.196062e+000	-1.623089e+002	-5.262103e+000	-4.347598e+001	-2.284167e+001	-2.162522e+001	-2.390008e+000	-1.413030e+002
3690189300	-3.192653e+000	-1.626525e+002	-5.323320e+000	-4.381342e+001	-2.284921e+001	-2.162146e+001	-2.389910e+000	-1.417084e+002
3700189000	-3.187222e+000	-1.629293e+002	-5.387399e+000	-4.418650e+001	-2.288829e+001	-2.124522e+001	-2.374611e+000	-1.420122e+002
3710188700	-3.187519e+000	-1.633107e+002	-5.437733e+000	-4.454328e+001	-2.290820e+001	-2.137460e+001	-2.371295e+000	-1.423078e+002
3720188400	-3.181017e+000	-1.635993e+002	-5.486590e+000	-4.481560e+001	-2.293336e+001	-2.100046e+001	-2.371177e+000	-1.426218e+002
3730188100	-3.179484e+000	-1.639300e+002	-5.525099e+000	-4.518621e+001	-2.290057e+001	-2.126934e+001	-2.389070e+000	-1.430025e+002
3740187800	-3.178848e+000	-1.642482e+002	-5.581166e+000	-4.553503e+001	-2.290093e+001	-2.139225e+001	-2.396369e+000	-1.433528e+002
3750187500	-3.167277e+000	-1.645012e+002	-5.628865e+000	-4.576690e+001	-2.285265e+001	-2.163868e+001	-2.404652e+000	-1.437043e+002
3760187200	-3.169316e+000	-1.648085e+002	-5.682973e+000	-4.623467e+001	-2.284771e+001	-2.211988e+001	-2.412672e+000	-1.440820e+002
3770186900	-3.148746e+000	-1.650408e+002	-5.715808e+000	-4.665593e+001	-2.282773e+001	-2.254595e+001	-2.418238e+000	-1.443868e+002
3780186600	-3.136306e+000	-1.653432e+002	-5.763454e+000	-4.705764e+001	-2.283949e+001	-2.340079e+001	-2.416919e+000	-1.447833e+002
3790186300	-3.125174e+000	-1.655775e+002	-5.821794e+000	-4.758320e+001	-2.286887e+001	-2.400677e+001	-2.409028e+000	-1.451336e+002
3800186000	-3.101730e+000	-1.658432e+002	-5.869877e+000	-4.796356e+001	-2.294910e+001	-2.476901e+001	-2.397080e+000	-1.455500e+002
3810185700	-3.075825e+000	-1.661574e+002	-5.920006e+000	-4.847822e+001	-2.300406e+001	-2.537178e+001	-2.382223e+000	-1.459423e+002
3820185400	-3.062254e+000	-1.664196e+002	-5.985941e+000	-4.884549e+001	-2.308111e+001	-2.532344e+001	-2.362615e+000	-1.463206e+002
3830185100	-3.042916e+000	-1.667243e+002	-6.051499e+000	-4.920165e+001	-2.318978e+001	-2.575220e+001	-2.355054e+000	-1.467464e+002
3840184800	-3.030384e+000	-1.670536e+002	-6.108079e+000	-4.959576e+001	-2.319484e+001	-2.565144e+001	-2.332958e+000	-1.471663e+002
3850184500	-3.024714e+000	-1.673035e+002	-6.186295e+000	-4.999463e+001	-2.325856e+001	-2.566166e+001	-2.320765e+000	-1.475962e+002
3860184200	-3.017249e+000	-1.676242e+002	-6.242497e+000	-5.033096e+001	-2.330493e+001	-2.523260e+001	-2.301672e+000	-1.480001e+002
3870183900	-3.016985e+000	-1.679251e+002	-6.306406e+000	-5.073293e+001	-2.333304e+001	-2.528880e+001	-2.300842e+000	-1.483674e+002
3880183600	-3.017238e+000	-1.682317e+002	-6.363980e+000	-5.109414e+001	-2.338502e+001	-2.506916e+001	-2.296329e+000	-1.487190e+002
3890183300	-3.008275e+000	-1.685998e+002	-6.422405e+000	-5.136878e+001	-2.343888e+001	-2.517552e+001	-2.315030e+000	-1.490949e+002
3900183000	-3.007359e+000	-1.689440e+002	-6.491413e+000	-5.171974e+001	-2.348650e+001	-2.471900e+001	-2.328527e+000	-1.494364e+002
3910182700	-3.007769e+000	-1.692750e+002	-6.546563e+000	-5.200793e+001	-2.352139e+001	-2.487815e+001	-2.339613e+000	-1.498004e+002
3920182400	-3.002515e+000	-1.695624e+002	-6.598547e+000	-5.224183e+001	-2.350700e+001	-2.472739e+001	-2.353586e+000	-1.501646e+002
3930182100	-2.998340e+000	-1.698824e+002	-6.669165e+000	-5.262130e+001	-2.351333e+001	-2.442789e+001	-2.353739e+000	-1.505987e+002
3940181800	-2.988065e+000	-1.702190e+002	-6.714056e+000	-5.283648e+001	-2.348728e+001	-2.452509e+001	-2.355802e+000	-1.509681e+002
3950181500	-2.979693e+000	-1.705315e+002	-6.761035e+000	-5.320174e+001	-2.345350e+001	-2.437897e+001	-2.364438e+000	-1.513762e+002
3960181200	-2.972795e+000	-1.707301e+002	-6.807617e+000	-5.338070e+001	-2.332940e+001	-2.446590e+001	-2.364752e+000	-1.517455e+002
3970180900	-2.963287e+000	-1.709927e+002	-6.838508e+000	-5.369169e+001	-2.325866e+001	-2.486355e+001	-2.379169e+000	-1.520715e+002
3980180600	-2.953645e+000	-1.711612e+002	-6.873172e+000	-5.406227e+001	-2.317045e+001	-2.575745e+001	-2.363770e+000	-1.524009e+002
3990180300	-2.929049e+000	-1.713470e+002	-6.922489e+000	-5.448501e+001	-2.313355e+001	-2.659792e+001	-2.351666e+000	-1.526786e+002
4000180000	-2.916266e+000	-1.715665e+002	-6.965355e+000	-5.500158e+001	-2.313944e+001	-2.778157e+001	-2.340984e+000	-1.530015e+002
4010179700	-2.902238e+000	-1.717678e+002	-7.016815e+000	-5.547333e+001	-2.319402e+001	-2.851049e+001	-2.315946e+000	-1.533215e+002
4020179400	-2.883963e+000	-1.720009e+002	-7.068626e+000	-5.594019e+001	-2.326584e+001	-2.895272e+001	-2.290041e+000	-1.536558e+002
4030179100	-2.868214e+000	-1.722491e+002	-7.133713e+000	-5.637039e+001	-2.339525e+001	-2.953359e+001	-2.277242e+000	-1.539970e+002
4040178800	-2.855503e+000	-1.725630e+002	-7.203479e+000	-5.691001e+001	-2.350044e+001	-2.982975e+001	-2.260108e+000	-1.543238e+002
4050178500	-2.849496e+000	-1.728663e+002	-7.275904e+000	-5.730872e+001	-2.367938e+001	-2.994802e+001	-2.254324e+000	-1.546769e+002
4060178200	-2.830468e+000	-1.732215e+002	-7.344761e+000	-5.763542e+001	-2.375240e+001	-2.996660e+001	-2.247274e+000	-1.550529e+002
4070177900	-2.828518e+000	-1.735858e+002	-7.409926e+000	-5.806721e+001	-2.385369e+001	-3.016427e+001	-2.252810e+000	-1.554487e+002
4080177600	-2.816531e+000	-1.739196e+002	-7.494766e+000	-5.844242e+001	-2.398257e+001	-2.978947e+001	-2.259317e+000	-1.558303e+002
4090177300	-2.802127e+000	-1.742260e+002	-7.566729e+000	-5.873627e+001	-2.406084e+001	-2.948104e+001	-2.263266e+000	-1.562463e+002
4100177000	-2.799571e+000	-1.746016e+002	-7.634291e+000	-5.899894e+001	-2.416845e+001	-2.931911e+001	-2.263922e+000	-1.566976e+002
4110176700	-2.788868e+000	-1.749727e+002	-7.703008e+000	-5.937122e+001	-2.420805e+001	-2.874868e+001	-2.261767e+000	-1.571096e+002
4120176400	-2.784623e+000	-1.753298e+002	-7.767746e+000	-5.960394e+001	-2.421653e+001	-2.842719e+001	-2.268809e+000	-1.575343e+002
4130176100	-2.774181e+000	-1.756129e+002	-7.847700e+000	-5.981766e+001	-2.422047e+001	-2.796829e+001	-2.263731e+000	-1.579469e+002
4140175800	-2.765268e+000	-1.759251e+002	-7.903016e+000	-5.995858e+001	-2.422087e+001	-2.742433e+001	-2.261995e+000	-1.583780e+002
4150175500	-2.770548e+000	-1.762185e+002	-7.962111e+000	-6.017833e+001	-2.411998e+001	-2.688882e+001	-2.267896e+000	-1.587913e+002
4160175200	-2.770898e+000	-1.764364e+002	-8.019302e+000	-6.021983e+001	-2.398439e+001	-2.679603e+001	-2.272472e+000	-1.590963e+002
4170174900	-2.776108e+000	-1.766220e+002	-8.055883e+000	-6.049640e+001	-2.381762e+001	-2.649326e+001	-2.277144e+000	-1.594549e+002
4180174600	-2.775322e+000	-1.767671e+002	-8.073239e+000	-6.055156e+001	-2.360287e+001	-2.721685e+001	-2.280574e+000	-1.596929e+002
4190174300	-2.779705e+000	-1.768769e+002	-8.099913e+000	-6.092248e+001	-2.345722e+001	-2.797708e+001	-2.275113e+000	-1.598386e+002
4200174000	-2.763045e+000	-1.769919e+002	-8.113918e+000	-6.140445e+001	-2.342212e+001	-2.935906e+001	-2.263638e+000	-1.600123e+002
4210173700	-2.747912e+000	-1.771070e+002	-8.152356e+000	-6.198747e+001	-2.348300e+001	-3.084036e+001	-2.242806e+000	-1.601915e+002
4220173400	-2.721496e+000	-1.774098e+002	-8.195634e+000	-6.256115e+001	-2.361707e+001	-3.193569e+001	-2.230761e+000	-1.604918e+002
4230173100	-2.708488e+000	-1.776625e+002	-8.279954e+000	-6.301869e+001	-2.376268e+001	-3.265619e+001	-2.226607e+000	-1.607803e+002
4240172800	-2.688485e+000	-1.779635e+002	-8.330942e+000	-6.344514e+001	-2.387150e+001	-3.313931e+001	-2.222407e+000	-1.611617e+002
4250172500	-2.670402e+000	-1.782159e+002	-8.396797e+000	-6.392012e+001	-2.395559e+001	-3.371297e+001	-2.220235e+000	-1.614447e+002
4260172200	-2.644927e+000	-1.785660e+002	-8.450713e+000	-6.437818e+001	-2.411705e+001	-3.415649e+001	-2.217164e+000	-1.618606e+002
4270171900	-2.629082e+000	-1.788668e+002	-8.529419e+000	-6.491412e+001	-2.427534e+001	-3.452394e+001	-2.207420e+000	-1.622258e+002
4280171600	-2.608516e+000	-1.792196e+002	-8.595093e+000	-6.529907e+001	-2.439970e+001	-3.448723e+001	-2.194063e+000	-1.626295e+002
4290171300	-2.596757e+000	-1.795675e+002	-8.679602e+000	-6.565119e+001	-2.452302e+001	-3.468861e+001	-2.185474e+000	-1.629904e+002
4300171000	-2.579453e+000	-1.798652e+002	-8.755544e+000	-6.595843e+001	-2.465094e+001	-3.437447e+001	-2.169751e+000	-1.634295e+002
4310170700	-2.571593e+000	1.798247e+002	-8.846711e+000	-6.634618e+001	-2.473179e+001	-3.392679e+001	-2.147843e+000	-1.638424e+002
4320170400	-2.555355e+000	1.795139e+002	-8.937510e+000	-6.663613e+001	-2.483417e+001	-3.358838e+001	-2.143408e+000	-1.642804e+002
4330170100	-2.549629e+000	1.792540e+002	-9.030289e+000	-6.679535e+001	-2.484531e+001	-3.303483e+001	-2.123787e+000	-1.646740e+002
4340169800	-2.546314e+000	1.789160e+002	-9.115085e+000	-6.696837e+001	-2.489909e+001	-3.198573e+001	-2.110799e+000	-1.650825e+002
4350169500	-2.543493e+000	1.786502e+002	-9.181310e+000	-6.720558e+001	-2.487572e+001	-3.083518e+001	-2.109678e+000	-1.654128e+002
4360169200	-2.554435e+000	1.783651e+002	-9.264571e+000	-6.724324e+001	-2.482149e+001	-2.991790e+001	-2.112019e+000	-1.657214e+002
4370168900	-2.566267e+000	1.781101e+002	-9.330982e+000	-6.724594e+001	-2.471535e+001	-2.881944e+001	-2.133991e+000	-1.660068e+002
4380168600	-2.587307e+000	1.779437e+002	-9.363390e+000	-6.722821e+001	-2.448872e+001	-2.875788e+001	-2.159943e+000	-1.662899e+002
4390168300	-2.598864e+000	1.777492e+002	-9.365774e+000	-6.725353e+001	-2.423160e+001	-2.915249e+001	-2.182417e+000	-1.664995e+002
4400168000	-2.593774e+000	1.777103e+002	-9.362241e+000	-6.754866e+001	-2.402225e+001	-3.068955e+001	-2.198792e+000	-1.665830e+002
4410167700	-2.577290e+000	1.775630e+002	-9.350898e+000	-6.798730e+001	-2.398243e+001	-3.274935e+001	-2.196954e+000	-1.667095e+002
4420167400	-2.551490e+000	1.773867e+002	-9.372648e+000	-6.865578e+001	-2.406712e+001	-3.466393e+001	-2.177850e+000	-1.669668e+002
4430167100	-2.518761e+000	1.771556e+002	-9.429990e+000	-6.934748e+001	-2.426067e+001	-3.633364e+001	-2.160600e+000	-1.672920e+002
4440166800	-2.492881e+000	1.768537e+002	-9.512478e+000	-6.989330e+001	-2.445324e+001	-3.695890e+001	-2.138788e+000	-1.676213e+002
4450166500	-2.472908e+000	1.765601e+002	-9.596995e+000	-7.038007e+001	-2.461068e+001	-3.733300e+001	-2.124611e+000	-1.680988e+002
4460166200	-2.454314e+000	1.762654e+002	-9.681842e+000	-7.083922e+001	-2.471668e+001	-3.740946e+001	-2.108546e+000	-1.684789e+002
4470165900	-2.436790e+000	1.760389e+002	-9.754939e+000	-7.105855e+001	-2.482002e+001	-3.736886e+001	-2.101894e+000	-1.688069e+002
4480165600	-2.419507e+000	1.758043e+002	-9.825146e+000	-7.149673e+001	-2.485875e+001	-3.771759e+001	-2.087434e+000	-1.691466e+002
4490165300	-2.398150e+000	1.755483e+002	-9.894754e+000	-7.194245e+001	-2.494921e+001	-3.767391e+001	-2.062694e+000	-1.694043e+002
4500165000	-2.380046e+000	1.752942e+002	-9.968679e+000	-7.238720e+001	-2.505268e+001	-3.792061e+001	-2.038002e+000	-1.696940e+002
4510164700	-2.371492e+000	1.750213e+002	-1.006066e+001	-7.271710e+001	-2.521894e+001	-3.764419e+001	-2.016589e+000	-1.700042e+002
4520164400	-2.359372e+000	1.747448e+002	-1.015370e+001	-7.306346e+001	-2.534932e+001	-3.744404e+001	-2.011666e+000	-1.702985e+002
4530164100	-2.353112e+000	1.744813e+002	-1.024325e+001	-7.337479e+001	-2.552095e+001	-3.706720e+001	-2.007426e+000	-1.705619e+002
4540163800	-2.349384e+000	1.742022e+002	-1.033698e+001	-7.353579e+001	-2.566906e+001	-3.640427e+001	-2.006907e+000	-1.709213e+002
4550163500	-2.339385e+000	1.739546e+002	-1.044490e+001	-7.369648e+001	-2.573133e+001	-3.546065e+001	-2.009119e+000	-1.712766e+002
4560163200	-2.347742e+000	1.735628e+002	-1.052583e+001	-7.388619e+001	-2.571801e+001	-3.428270e+001	-2.016531e+000	-1.716474e+002
4570162900	-2.353531e+000	1.732948e+002	-1.061903e+001	-7.384813e+001	-2.569893e+001	-3.304397e+001	-2.028707e+000	-1.720302e+002
4580162600	-2.368858e+000	1.730280e+002	-1.068326e+001	-7.373063e+001	-2.555276e+001	-3.196882e+001	-2.053297e+000	-1.724167e+002
4590162300	-2.379983e+000	1.727513e+002	-1.071528e+001	-7.354711e+001	-2.531234e+001	-3.137229e+001	-2.075681e+000	-1.727000e+002
4600162000	-2.385479e+000	1.726555e+002	-1.070770e+001	-7.346393e+001	-2.502918e+001	-3.221976e+001	-2.093715e+000	-1.729188e+002
4610161700	-2.374611e+000	1.725372e+002	-1.068958e+001	-7.380883e+001	-2.484882e+001	-3.400189e+001	-2.103752e+000	-1.731183e+002
4620161400	-2.359855e+000	1.724210e+002	-1.068326e+001	-7.435572e+001	-2.475060e+001	-3.586972e+001	-2.090236e+000	-1.732424e+002
4630161100	-2.334982e+000	1.723035e+002	-1.072481e+001	-7.481182e+001	-2.485203e+001	-3.760966e+001	-2.056000e+000	-1.734074e+002
4640160800	-2.306865e+000	1.721340e+002	-1.077152e+001	-7.555089e+001	-2.495316e+001	-3.897192e+001	-2.017778e+000	-1.735499e+002
4650160500	-2.282833e+000	1.719246e+002	-1.085891e+001	-7.622690e+001	-2.513923e+001	-3.991520e+001	-1.984806e+000	-1.738376e+002
4660160200	-2.257080e+000	1.717184e+002	-1.093455e+001	-7.677517e+001	-2.541270e+001	-4.003621e+001	-1.963315e+000	-1.741088e+002
4670159900	-2.235744e+000	1.714929e+002	-1.102489e+001	-7.709472e+001	-2.557494e+001	-3.993616e+001	-1.940993e+000	-1.744189e+002
4680159600	-2.223849e+000	1.712419e+002	-1.111366e+001	-7.752980e+001	-2.571281e+001	-3.974672e+001	-1.930462e+000	-1.747393e+002
4690159300	-2.215829e+000	1.710131e+002	-1.122165e+001	-7.771363e+001	-2.581450e+001	-3.939888e+001	-1.933209e+000	-1.750439e+002
4700159000	-2.202468e+000	1.707844e+002	-1.128730e+001	-7.791288e+001	-2.588998e+001	-3.922819e+001	-1.935608e+000	-1.753106e+002
4710158700	-2.199277e+000	1.705691e+002	-1.135192e+001	-7.824896e+001	-2.587738e+001	-3.933884e+001	-1.936806e+000	-1.756206e+002
4720158400	-2.187371e+000	1.703319e+002	-1.141355e+001	-7.866013e+001	-2.601658e+001	-3.996660e+001	-1.934790e+000	-1.758329e+002
4730158100	-2.178944e+000	1.700823e+002	-1.150421e+001	-7.891975e+001	-2.616028e+001	-3.999386e+001	-1.929755e+000	-1.761532e+002
4740157800	-2.162042e+000	1.697820e+002	-1.159044e+001	-7.932986e+001	-2.631550e+001	-3.988947e+001	-1.923972e+000	-1.764874e+002
4750157500	-2.157385e+000	1.695265e+002	-1.169879e+001	-7.951782e+001	-2.640543e+001	-3.907884e+001	-1.925341e+000	-1.768068e+002
4760157200	-2.150755e+000	1.692504e+002	-1.178090e+001	-7.974703e+001	-2.648179e+001	-3.834850e+001	-1.932925e+000	-1.771271e+002
4770156900	-2.149882e+000	1.689456e+002	-1.188339e+001	-7.988231e+001	-2.652671e+001	-3.789295e+001	-1.930774e+000	-1.774722e+002
4780156600	-2.149063e+000	1.686503e+002	-1.198099e+001	-7.993773e+001	-2.652518e+001	-3.652850e+001	-1.920563e+000	-1.777497e+002
4790156300	-2.144303e+000	1.684378e+002	-1.206721e+001	-7.980268e+001	-2.651954e+001	-3.549872e+001	-1.917150e+000	-1.780276e+002
4800156000	-2.154034e+000	1.682477e+002	-1.213931e+001	-7.962642e+001	-2.633079e+001	-3.415187e+001	-1.916616e+000	-1.782536e+002
4810155700	-2.160621e+000	1.681078e+002	-1.216414e+001	-7.935790e+001	-2.603869e+001	-3.365889e+001	-1.922265e+000	-1.783671e+002
4820155400	-2.150819e+000	1.680205e+002	-1.212274e+001	-7.960329e+001	-2.582244e+001	-3.555353e+001	-1.922023e+000	-1.784180e+002
4830155100	-2.135788e+000	1.679951e+002	-1.213438e+001	-8.012217e+001	-2.581521e+001	-3.726221e+001	-1.909332e+000	-1.785901e+002
4840154800	-2.113242e+000	1.678503e+002	-1.219243e+001	-8.067459e+001	-2.600675e+001	-3.875394e+001	-1.889398e+000	-1.787860e+002
4850154500	-2.104861e+000	1.676301e+002	-1.226948e+001	-8.115713e+001	-2.607269e+001	-3.904374e+001	-1.881739e+000	-1.790512e+002
4860154200	-2.092362e+000	1.674876e+002	-1.232750e+001	-8.137115e+001	-2.614784e+001	-3.921222e+001	-1.879266e+000	-1.792801e+002
4870153900	-2.079332e+000	1.673461e+002	-1.235071e+001	-8.174341e+001	-2.609785e+001	-4.043339e+001	-1.874244e+000	-1.794284e+002
4880153600	-2.066227e+000	1.671608e+002	-1.241936e+001	-8.241906e+001	-2.629281e+001	-4.153632e+001	-1.858636e+000	-1.795807e+002
4890153300	-2.044827e+000	1.669354e+002	-1.249371e+001	-8.294020e+001	-2.656970e+001	-4.195173e+001	-1.838437e+000	-1.798270e+002
4900153000	-2.033090e+000	1.666469e+002	-1.261320e+001	-8.332060e+001	-2.677416e+001	-4.198738e+001	-1.818281e+000	1.798015e+002
4910152700	-2.027443e+000	1.664556e+002	-1.272425e+001	-8.363783e+001	-2.697678e+001	-4.146479e+001	-1.816132e+000	1.794829e+002
4920152400	-2.012235e+000	1.661964e+002	-1.280140e+001	-8.380012e+001	-2.704420e+001	-4.077680e+001	-1.806258e+000	1.791302e+002
4930152100	-2.004518e+000	1.659615e+002	-1.290828e+001	-8.392946e+001	-2.709196e+001	-3.986978e+001	-1.803950e+000	1.788398e+002
4940151800	-2.001728e+000	1.657006e+002	-1.297811e+001	-8.413562e+001	-2.714269e+001	-3.973673e+001	-1.796459e+000	1.785599e+002
4950151500	-1.989268e+000	1.655500e+002	-1.306692e+001	-8.434548e+001	-2.713937e+001	-3.935247e+001	-1.792305e+000	1.783384e+002
4960151200	-1.973767e+000	1.652920e+002	-1.315350e+001	-8.462159e+001	-2.722453e+001	-3.840402e+001	-1.795012e+000	1.781718e+002
4970150900	-1.961964e+000	1.650854e+002	-1.324303e+001	-8.460061e+001	-2.730554e+001	-3.790548e+001	-1.794770e+000	1.779539e+002
4980150600	-1.955795e+000	1.649034e+002	-1.331526e+001	-8.470478e+001	-2.722550e+001	-3.735795e+001	-1.803363e+000	1.777664e+002
4990150300	-1.945816e+000	1.647257e+002	-1.339001e+001	-8.478241e+001	-2.725736e+001	-3.769449e+001	-1.803053e+000	1.776199e+002
5000150000	-1.939234e+000	1.645201e+002	-1.344712e+001	-8.502552e+001	-2.729441e+001	-3.738626e+001	-1.789894e+000	1.775341e+002
5010149700	-1.937797e+000	1.643452e+002	-1.353318e+001	-8.521561e+001	-2.737466e+001	-3.712128e+001	-1.778926e+000	1.773497e+002
5020149400	-1.941008e+000	1.641598e+002	-1.362027e+001	-8.516730e+001	-2.733232e+001	-3.662531e+001	-1.773461e+000	1.771333e+002
5030149100	-1.950393e+000	1.640881e+002	-1.368299e+001	-8.494646e+001	-2.718873e+001	-3.605727e+001	-1.780499e+000	1.768948e+002
5040148800	-1.951538e+000	1.639770e+002	-1.368168e+001	-8.495218e+001	-2.698313e+001	-3.669301e+001	-1.794715e+000	1.767712e+002
5050148500	-1.948939e+000	1.639190e+002	-1.367582e+001	-8.539104e+001	-2.694650e+001	-3.889451e+001	-1.781630e+000	1.766681e+002
5060148200	-1.932013e+000	1.637821e+002	-1.372152e+001	-8.612313e+001	-2.713981e+001	-4.006371e+001	-1.751057e+000	1.764569e+002
5070147900	-1.913243e+000	1.636055e+002	-1.381367e+001	-8.655477e+001	-2.745559e+001	-4.061682e+001	-1.736442e+000	1.761691e+002
5080147600	-1.900030e+000	1.633272e+002	-1.391549e+001	-8.707000e+001	-2.759960e+001	-4.021297e+001	-1.724525e+000	1.759385e+002
5090147300	-1.891078e+000	1.631441e+002	-1.401814e+001	-8.725133e+001	-2.768172e+001	-3.988207e+001	-1.709761e+000	1.756628e+002
5100147000	-1.885334e+000	1.628922e+002	-1.408167e+001	-8.745004e+001	-2.772093e+001	-3.938813e+001	-1.697427e+000	1.754180e+002
5110146700	-1.870934e+000	1.627838e+002	-1.416696e+001	-8.758677e+001	-2.780032e+001	-3.905141e+001	-1.700719e+000	1.752159e+002
5120146400	-1.858712e+000	1.625992e+002	-1.424757e+001	-8.773409e+001	-2.787814e+001	-3.855953e+001	-1.684255e+000	1.750960e+002
5130146100	-1.849220e+000	1.623789e+002	-1.432784e+001	-8.817989e+001	-2.793305e+001	-3.854424e+001	-1.677224e+000	1.749451e+002
5140145800	-1.835680e+000	1.622255e+002	-1.442248e+001	-8.847804e+001	-2.810958e+001	-3.840334e+001	-1.668269e+000	1.748318e+002
5150145500	-1.815631e+000	1.620154e+002	-1.453935e+001	-8.878177e+001	-2.831809e+001	-3.789142e+001	-1.653239e+000	1.745672e+002
5160145200	-1.807850e+000	1.617839e+002	-1.466072e+001	-8.888249e+001	-2.841499e+001	-3.667205e+001	-1.649625e+000	1.742530e+002
5170144900	-1.804233e+000	1.616707e+002	-1.476821e+001	-8.878838e+001	-2.843081e+001	-3.522522e+001	-1.643828e+000	1.740153e+002
5180144600	-1.801420e+000	1.614475e+002	-1.487276e+001	-8.872646e+001	-2.840285e+001	-3.397454e+001	-1.658876e+000	1.736961e+002
5190144300	-1.796488e+000	1.613220e+002	-1.495109e+001	-8.845179e+001	-2.823544e+001	-3.267605e+001	-1.685076e+000	1.734621e+002
5200144000	-1.808313e+000	1.612358e+002	-1.499960e+001	-8.816037e+001	-2.798978e+001	-3.248400e+001	-1.715313e+000	1.733512e+002
5210143700	-1.801996e+000	1.611343e+002	-1.495162e+001	-8.815867e+001	-2.773238e+001	-3.420692e+001	-1.724752e+000	1.734350e+002
5220143400	-1.794223e+000	1.609675e+002	-1.499251e+001	-8.877182e+001	-2.792942e+001	-3.628488e+001	-1.699061e+000	1.734410e+002
5230143100	-1.780138e+000	1.608026e+002	-1.506638e+001	-8.935500e+001	-2.815399e+001	-3.680413e+001	-1.676012e+000	1.732805e+002
5240142800	-1.782578e+000	1.605724e+002	-1.519797e+001	-8.964932e+001	-2.838501e+001	-3.602894e+001	-1.642399e+000	1.730593e+002
5250142500	-1.768980e+000	1.604007e+002	-1.530986e+001	-8.961056e+001	-2.845056e+001	-3.458313e+001	-1.627720e+000	1.727887e+002
5260142200	-1.774714e+000	1.602314e+002	-1.539218e+001	-8.938054e+001	-2.836338e+001	-3.303856e+001	-1.633959e+000	1.725830e+002
5270141900	-1.789828e+000	1.600779e+002	-1.542828e+001	-8.929396e+001	-2.814883e+001	-3.313897e+001	-1.629144e+000	1.724380e+002
5280141600	-1.780783e+000	1.600437e+002	-1.542722e+001	-8.939996e+001	-2.801267e+001	-3.415851e+001	-1.624163e+000	1.724256e+002
5290141300	-1.760210e+000	1.599413e+002	-1.544342e+001	-8.997900e+001	-2.812495e+001	-3.596127e+001	-1.607288e+000	1.723664e+002
5300141000	-1.734520e+000	1.598053e+002	-1.552510e+001	-9.071720e+001	-2.839801e+001	-3.626977e+001	-1.583622e+000	1.723032e+002
5310140700	-1.718323e+000	1.596269e+002	-1.563223e+001	-9.107910e+001	-2.871508e+001	-3.562653e+001	-1.573940e+000	1.720884e+002
5320140400	-1.709675e+000	1.593896e+002	-1.578686e+001	-9.136972e+001	-2.889113e+001	-3.474002e+001	-1.561698e+000	1.718461e+002
5330140100	-1.702599e+000	1.592956e+002	-1.590869e+001	-9.121870e+001	-2.896694e+001	-3.396286e+001	-1.571258e+000	1.715551e+002
5340139800	-1.690438e+000	1.591505e+002	-1.598796e+001	-9.130933e+001	-2.893736e+001	-3.298066e+001	-1.565811e+000	1.713656e+002
5350139500	-1.692682e+000	1.590377e+002	-1.608041e+001	-9.150576e+001	-2.909732e+001	-3.277969e+001	-1.566350e+000	1.712188e+002
5360139200	-1.678470e+000	1.588380e+002	-1.622111e+001	-9.169954e+001	-2.914614e+001	-3.175348e+001	-1.559095e+000	1.709933e+002
5370138900	-1.674568e+000	1.586965e+002	-1.633071e+001	-9.178600e+001	-2.926599e+001	-3.006145e+001	-1.564741e+000	1.707878e+002
5380138600	-1.671725e+000	1.585299e+002	-1.646695e+001	-9.160586e+001	-2.921832e+001	-2.882358e+001	-1.568932e+000	1.705155e+002
5390138300	-1.668189e+000	1.583859e+002	-1.656067e+001	-9.129173e+001	-2.917330e+001	-2.776820e+001	-1.578200e+000	1.703443e+002
5400138000	-1.670290e+000	1.582148e+002	-1.664337e+001	-9.122739e+001	-2.912638e+001	-2.692649e+001	-1.577028e+000	1.701046e+002
5410137700	-1.666513e+000	1.580359e+002	-1.676874e+001	-9.117360e+001	-2.905802e+001	-2.583513e+001	-1.567893e+000	1.699410e+002
5420137400	-1.672848e+000	1.578405e+002	-1.685597e+001	-9.074134e+001	-2.893344e+001	-2.411963e+001	-1.571763e+000	1.697831e+002
5430137100	-1.676300e+000	1.577180e+002	-1.692949e+001	-9.008361e+001	-2.855757e+001	-2.297385e+001	-1.590007e+000	1.696166e+002
5440136800	-1.682336e+000	1.575462e+002	-1.693083e+001	-8.936315e+001	-2.818060e+001	-2.299073e+001	-1.612159e+000	1.695467e+002
5450136500	-1.691854e+000	1.575491e+002	-1.683734e+001	-8.899061e+001	-2.775264e+001	-2.483465e+001	-1.643032e+000	1.697463e+002
5460136200	-1.679488e+000	1.575250e+002	-1.674501e+001	-8.975972e+001	-2.783498e+001	-2.862762e+001	-1.633726e+000	1.700553e+002
5470135900	-1.655942e+000	1.574323e+002	-1.680565e+001	-9.098462e+001	-2.826705e+001	-3.032354e+001	-1.589455e+000	1.701647e+002
5480135600	-1.640856e+000	1.572217e+002	-1.695859e+001	-9.167860e+001	-2.867856e+001	-2.913924e+001	-1.552794e+000	1.698882e+002
5490135300	-1.639957e+000	1.570518e+002	-1.713592e+001	-9.163978e+001	-2.882408e+001	-2.747324e+001	-1.543559e+000	1.696657e+002
5500135000	-1.638835e+000	1.569096e+002	-1.727243e+001	-9.133413e+001	-2.874242e+001	-2.521414e+001	-1.544646e+000	1.693779e+002
5510134700	-1.647187e+000	1.568584e+002	-1.732438e+001	-9.084556e+001	-2.853651e+001	-2.479031e+001	-1.552193e+000	1.692085e+002
5520134400	-1.644535e+000	1.568155e+002	-1.732897e+001	-9.065547e+001	-2.837737e+001	-2.601104e+001	-1.563075e+000	1.691349e+002
5530134100	-1.628198e+000	1.567899e+002	-1.733881e+001	-9.116900e+001	-2.846605e+001	-2.734697e+001	-1.562777e+000	1.691020e+002
5540133800	-1.611687e+000	1.566647e+002	-1.743359e+001	-9.186383e+001	-2.869868e+001	-2.743624e+001	-1.544208e+000	1.689534e+002
5550133500	-1.607156e+000	1.565221e+002	-1.759658e+001	-9.215316e+001	-2.892543e+001	-2.582568e+001	-1.523589e+000	1.687552e+002
5560133200	-1.594729e+000	1.563047e+002	-1.775298e+001	-9.211691e+001	-2.907350e+001	-2.397833e+001	-1.513803e+000	1.684565e+002
5570132900	-1.601304e+000	1.561220e+002	-1.789292e+001	-9.168601e+001	-2.899730e+001	-2.224414e+001	-1.518535e+000	1.681867e+002
5580132600	-1.602281e+000	1.559772e+002	-1.797327e+001	-9.140786e+001	-2.879581e+001	-2.137592e+001	-1.524392e+000	1.680831e+002
5590132300	-1.599037e+000	1.558682e+002	-1.810006e+001	-9.128755e+001	-2.880089e+001	-2.041451e+001	-1.509257e+000	1.679003e+002
5600132000	-1.590848e+000	1.556459e+002	-1.821517e+001	-9.114881e+001	-2.875982e+001	-1.861968e+001	-1.509612e+000	1.677699e+002
5610131700	-1.593878e+000	1.554470e+002	-1.839022e+001	-9.045632e+001	-2.863204e+001	-1.623573e+001	-1.514220e+000	1.675843e+002
5620131400	-1.596956e+000	1.553109e+002	-1.853328e+001	-8.953187e+001	-2.827783e+001	-1.435993e+001	-1.543006e+000	1.674580e+002
5630131100	-1.605555e+000	1.551326e+002	-1.859416e+001	-8.826102e+001	-2.781686e+001	-1.342926e+001	-1.569398e+000	1.673746e+002
5640130800	-1.623851e+000	1.550353e+002	-1.856456e+001	-8.690840e+001	-2.731725e+001	-1.391407e+001	-1.612670e+000	1.673209e+002
5650130500	-1.634965e+000	1.550412e+002	-1.842346e+001	-8.621847e+001	-2.691492e+001	-1.579527e+001	-1.642744e+000	1.673820e+002
5660130200	-1.631352e+000	1.551172e+002	-1.835423e+001	-8.617203e+001	-2.676982e+001	-1.807531e+001	-1.662294e+000	1.674139e+002
5670129900	-1.626752e+000	1.550373e+002	-1.834960e+001	-8.629772e+001	-2.675483e+001	-1.871398e+001	-1.655379e+000	1.673577e+002
5680129600	-1.637753e+000	1.549785e+002	-1.833188e+001	-8.560023e+001	-2.650168e+001	-1.915357e+001	-1.676511e+000	1.672963e+002
5690129300	-1.644749e+000	1.549654e+002	-1.818762e+001	-8.522019e+001	-2.619155e+001	-2.114987e+001	-1.707644e+000	1.673848e+002
5700129000	-1.638364e+000	1.551477e+002	-1.797257e+001	-8.575768e+001	-2.607183e+001	-2.526556e+001	-1.721312e+000	1.676908e+002
5710128700	-1.611765e+000	1.551633e+002	-1.789581e+001	-8.776820e+001	-2.645076e+001	-2.889530e+001	-1.675385e+000	1.679312e+002
5720128400	-1.584936e+000	1.550044e+002	-1.807692e+001	-8.946295e+001	-2.707884e+001	-2.978757e+001	-1.608633e+000	1.678564e+002
5730128100	-1.577585e+000	1.547699e+002	-1.836210e+001	-8.995035e+001	-2.752936e+001	-2.732152e+001	-1.565674e+000	1.675694e+002
5740127800	-1.581606e+000	1.545402e+002	-1.858794e+001	-8.940093e+001	-2.749602e+001	-2.437566e+001	-1.550798e+000	1.672832e+002
5750127500	-1.598256e+000	1.544628e+002	-1.867977e+001	-8.841332e+001	-2.724865e+001	-2.261776e+001	-1.554709e+000	1.670407e+002
5760127200	-1.604518e+000	1.543952e+002	-1.868671e+001	-8.771221e+001	-2.701188e+001	-2.251552e+001	-1.561822e+000	1.670145e+002
5770126900	-1.596255e+000	1.543651e+002	-1.867924e+001	-8.766630e+001	-2.692961e+001	-2.325297e+001	-1.573978e+000	1.670688e+002
5780126600	-1.586152e+000	1.543033e+002	-1.872253e+001	-8.764552e+001	-2.689709e+001	-2.303025e+001	-1.586176e+000	1.670783e+002
5790126300	-1.581450e+000	1.541656e+002	-1.882136e+001	-8.759767e+001	-2.693664e+001	-2.249777e+001	-1.585873e+000	1.669951e+002
5800126000	-1.578757e+000	1.540058e+002	-1.894553e+001	-8.694421e+001	-2.678073e+001	-2.119159e+001	-1.598781e+000	1.668332e+002
5810125700	-1.594560e+000	1.539527e+002	-1.896637e+001	-8.568274e+001	-2.647733e+001	-2.066530e+001	-1.627783e+000	1.667009e+002
5820125400	-1.595116e+000	1.539460e+002	-1.890256e+001	-8.515134e+001	-2.619103e+001	-2.174037e+001	-1.654328e+000	1.666032e+002
5830125100	-1.594007e+000	1.538845e+002	-1.887345e+001	-8.486040e+001	-2.609891e+001	-2.199830e+001	-1.658418e+000	1.665749e+002
5840124800	-1.602204e+000	1.537691e+002	-1.892134e+001	-8.411655e+001	-2.586477e+001	-2.141988e+001	-1.676196e+000	1.664691e+002
5850124500	-1.614941e+000	1.537799e+002	-1.882550e+001	-8.280699e+001	-2.541705e+001	-2.186571e+001	-1.720220e+000	1.663503e+002
5860124200	-1.636619e+000	1.538689e+002	-1.857831e+001	-8.186145e+001	-2.482486e+001	-2.409271e+001	-1.766277e+000	1.664584e+002
5870123900	-1.640519e+000	1.540388e+002	-1.824877e+001	-8.207309e+001	-2.454408e+001	-2.740529e+001	-1.794785e+000	1.668008e+002
5880123600	-1.636733e+000	1.542301e+002	-1.798404e+001	-8.341195e+001	-2.443830e+001	-3.195739e+001	-1.789571e+000	1.671780e+002
5890123300	-1.610501e+000	1.543449e+002	-1.781150e+001	-8.516120e+001	-2.455797e+001	-3.591867e+001	-1.750587e+000	1.675055e+002
5900123000	-1.571570e+000	1.543938e+002	-1.781712e+001	-8.723005e+001	-2.487681e+001	-3.906529e+001	-1.703947e+000	1.676889e+002
5910122700	-1.545885e+000	1.543363e+002	-1.792495e+001	-8.869359e+001	-2.527143e+001	-4.070692e+001	-1.650069e+000	1.677838e+002
5920122400	-1.531955e+000	1.542236e+002	-1.804232e+001	-8.954329e+001	-2.560137e+001	-4.116024e+001	-1.613838e+000	1.678181e+002
5930122100	-1.520010e+000	1.541176e+002	-1.811333e+001	-9.016560e+001	-2.575269e+001	-4.167129e+001	-1.608416e+000	1.679112e+002
5940121800	-1.504665e+000	1.540826e+002	-1.818156e+001	-9.085634e+001	-2.599100e+001	-4.259958e+001	-1.587423e+000	1.679591e+002
5950121500	-1.487138e+000	1.540131e+002	-1.828659e+001	-9.171469e+001	-2.623227e+001	-4.346337e+001	-1.567534e+000	1.679900e+002
5960121200	-1.468360e+000	1.538512e+002	-1.843425e+001	-9.266779e+001	-2.657432e+001	-4.383937e+001	-1.545374e+000	1.679674e+002
5970120900	-1.468692e+000	1.536885e+002	-1.866415e+001	-9.308359e+001	-2.699282e+001	-4.267820e+001	-1.517543e+000	1.677070e+002
5980120600	-1.461382e+000	1.535130e+002	-1.890050e+001	-9.246198e+001	-2.711315e+001	-3.999594e+001	-1.511437e+000	1.674351e+002
5990120300	-1.473849e+000	1.534054e+002	-1.899315e+001	-9.156052e+001	-2.689822e+001	-3.799217e+001	-1.522762e+000	1.671678e+002
6000120000	-1.477342e+000	1.534561e+002	-1.893718e+001	-9.083572e+001	-2.663245e+001	-3.784250e+001	-1.540780e+000	1.670893e+002
6010119700	-1.479863e+000	1.535067e+002	-1.886599e+001	-9.061021e+001	-2.638085e+001	-3.908804e+001	-1.557585e+000	1.670985e+002
6020119400	-1.461302e+000	1.535218e+002	-1.881099e+001	-9.071411e+001	-2.626412e+001	-4.032094e+001	-1.567715e+000	1.671775e+002
6030119100	-1.450523e+000	1.535029e+002	-1.877928e+001	-9.124475e+001	-2.627061e+001	-4.165309e+001	-1.553576e+000	1.672350e+002
6040118800	-1.440896e+000	1.534711e+002	-1.880033e+001	-9.187086e+001	-2.636683e+001	-4.236177e+001	-1.540805e+000	1.672184e+002
6050118500	-1.443325e+000	1.534737e+002	-1.882191e+001	-9.180620e+001	-2.630870e+001	-4.298711e+001	-1.539467e+000	1.672175e+002
6060118200	-1.434183e+000	1.533821e+002	-1.880485e+001	-9.209630e+001	-2.625173e+001	-4.388869e+001	-1.523902e+000	1.672441e+002
6070117900	-1.427578e+000	1.533717e+002	-1.880544e+001	-9.256609e+001	-2.629474e+001	-4.472886e+001	-1.503643e+000	1.673399e+002
6080117600	-1.415777e+000	1.533590e+002	-1.878454e+001	-9.281165e+001	-2.626841e+001	-4.571849e+001	-1.505754e+000	1.674953e+002
6090117300	-1.414542e+000	1.534191e+002	-1.870121e+001	-9.324539e+001	-2.620303e+001	-4.736423e+001	-1.508069e+000	1.677378e+002
6100117000	-1.387982e+000	1.534371e+002	-1.866299e+001	-9.419508e+001	-2.630227e+001	-5.007711e+001	-1.498801e+000	1.679712e+002
6110116700	-1.373634e+000	1.533731e+002	-1.867590e+001	-9.551214e+001	-2.648287e+001	-5.221306e+001	-1.469200e+000	1.680843e+002
6120116400	-1.347686e+000	1.533147e+002	-1.877920e+001	-9.663342e+001	-2.677719e+001	-5.365956e+001	-1.448704e+000	1.680725e+002
6130116100	-1.327576e+000	1.532569e+002	-1.886435e+001	-9.761769e+001	-2.708985e+001	-5.502411e+001	-1.430105e+000	1.680500e+002
6140115800	-1.309786e+000	1.531384e+002	-1.900038e+001	-9.833571e+001	-2.734792e+001	-5.530978e+001	-1.407531e+000	1.678969e+002
6150115500	-1.300068e+000	1.530066e+002	-1.915612e+001	-9.909989e+001	-2.763293e+001	-5.562919e+001	-1.392724e+000	1.677514e+002
6160115200	-1.288361e+000	1.529391e+002	-1.928896e+001	-9.948405e+001	-2.793289e+001	-5.592884e+001	-1.377716e+000	1.676745e+002
6170114900	-1.275532e+000	1.528060e+002	-1.939031e+001	-1.001057e+002	-2.822428e+001	-5.608723e+001	-1.368523e+000	1.676266e+002
6180114600	-1.266024e+000	1.527038e+002	-1.951316e+001	-1.004663e+002	-2.847004e+001	-5.629633e+001	-1.349558e+000	1.675286e+002
6190114300	-1.263036e+000	1.526026e+002	-1.969634e+001	-1.008514e+002	-2.875817e+001	-5.614997e+001	-1.337730e+000	1.674038e+002
6200114000	-1.251943e+000	1.524739e+002	-1.985665e+001	-1.009973e+002	-2.899768e+001	-5.519495e+001	-1.320333e+000	1.673100e+002
6210113700	-1.259206e+000	1.522965e+002	-2.000237e+001	-1.011519e+002	-2.922395e+001	-5.429819e+001	-1.311789e+000	1.671447e+002
6220113400	-1.257870e+000	1.522197e+002	-2.017034e+001	-1.009659e+002	-2.943345e+001	-5.216879e+001	-1.301635e+000	1.670655e+002
6230113100	-1.264648e+000	1.520991e+002	-2.032357e+001	-1.004914e+002	-2.947472e+001	-4.982666e+001	-1.280208e+000	1.670130e+002
6240112800	-1.273092e+000	1.521091e+002	-2.041250e+001	-9.972163e+001	-2.938278e+001	-4.778277e+001	-1.287994e+000	1.670381e+002
6250112500	-1.282634e+000	1.520893e+002	-2.041914e+001	-9.885917e+001	-2.901962e+001	-4.707745e+001	-1.302156e+000	1.671311e+002
6260112200	-1.279618e+000	1.521559e+002	-2.030879e+001	-9.855914e+001	-2.881191e+001	-4.779632e+001	-1.323192e+000	1.672412e+002
6270111900	-1.263242e+000	1.521780e+002	-2.027663e+001	-9.890011e+001	-2.870843e+001	-4.989699e+001	-1.325224e+000	1.673334e+002
6280111600	-1.244336e+000	1.521313e+002	-2.026192e+001	-9.939694e+001	-2.880524e+001	-5.069463e+001	-1.316385e+000	1.674089e+002
6290111300	-1.238338e+000	1.520990e+002	-2.029495e+001	-9.992458e+001	-2.880882e+001	-5.192015e+001	-1.312233e+000	1.673947e+002
6300111000	-1.223908e+000	1.521208e+002	-2.037512e+001	-1.004804e+002	-2.888274e+001	-5.279932e+001	-1.312624e+000	1.673776e+002
6310110700	-1.216343e+000	1.520295e+002	-2.042734e+001	-1.008814e+002	-2.901557e+001	-5.309335e+001	-1.305375e+000	1.673025e+002
6320110400	-1.205232e+000	1.519671e+002	-2.047483e+001	-1.010147e+002	-2.915133e+001	-5.390384e+001	-1.293445e+000	1.673250e+002
6330110100	-1.204693e+000	1.519348e+002	-2.051025e+001	-1.017041e+002	-2.923772e+001	-5.408252e+001	-1.289736e+000	1.672883e+002
6340109800	-1.187312e+000	1.518973e+002	-2.058989e+001	-1.022851e+002	-2.940888e+001	-5.508698e+001	-1.283883e+000	1.673175e+002
6350109500	-1.178777e+000	1.518480e+002	-2.066094e+001	-1.027607e+002	-2.954941e+001	-5.618962e+001	-1.269800e+000	1.672467e+002
6360109200	-1.169346e+000	1.517634e+002	-2.075442e+001	-1.032899e+002	-2.978354e+001	-5.698938e+001	-1.258120e+000	1.672314e+002
6370108900	-1.167127e+000	1.516725e+002	-2.087670e+001	-1.038202e+002	-3.006718e+001	-5.690375e+001	-1.241809e+000	1.671991e+002
6380108600	-1.163564e+000	1.516361e+002	-2.098841e+001	-1.041235e+002	-3.028814e+001	-5.668959e+001	-1.237217e+000	1.671803e+002
6390108300	-1.156183e+000	1.515182e+002	-2.110037e+001	-1.044470e+002	-3.052597e+001	-5.674364e+001	-1.215401e+000	1.672436e+002
6400108000	-1.151653e+000	1.514229e+002	-2.120822e+001	-1.046393e+002	-3.074356e+001	-5.691906e+001	-1.206143e+000	1.672786e+002
6410107700	-1.151022e+000	1.513107e+002	-2.133353e+001	-1.049703e+002	-3.105490e+001	-5.649371e+001	-1.200718e+000	1.673277e+002
6420107400	-1.149782e+000	1.512443e+002	-2.147352e+001	-1.052204e+002	-3.123878e+001	-5.578821e+001	-1.199928e+000	1.673133e+002
6430107100	-1.142974e+000	1.511551e+002	-2.159309e+001	-1.053486e+002	-3.149440e+001	-5.471809e+001	-1.190111e+000	1.673254e+002
6440106800	-1.143654e+000	1.510511e+002	-2.170705e+001	-1.053377e+002	-3.173478e+001	-5.334489e+001	-1.186135e+000	1.672641e+002
6450106500	-1.150597e+000	1.509934e+002	-2.186850e+001	-1.051611e+002	-3.186610e+001	-5.162231e+001	-1.181513e+000	1.672157e+002
6460106200	-1.147548e+000	1.510058e+002	-2.200615e+001	-1.048170e+002	-3.195277e+001	-4.970298e+001	-1.180197e+000	1.671433e+002
6470105900	-1.155477e+000	1.509700e+002	-2.213429e+001	-1.046288e+002	-3.197301e+001	-4.796681e+001	-1.183493e+000	1.670683e+002
6480105600	-1.152401e+000	1.509327e+002	-2.223621e+001	-1.039322e+002	-3.185006e+001	-4.603254e+001	-1.180031e+000	1.670096e+002
6490105300	-1.153846e+000	1.509052e+002	-2.230069e+001	-1.034373e+002	-3.167314e+001	-4.513020e+001	-1.189244e+000	1.669741e+002
6500105000	-1.151299e+000	1.509708e+002	-2.233344e+001	-1.029967e+002	-3.141444e+001	-4.497545e+001	-1.196640e+000	1.669528e+002
6510104700	-1.155947e+000	1.509334e+002	-2.229178e+001	-1.026715e+002	-3.118132e+001	-4.534422e+001	-1.207777e+000	1.669759e+002
6520104400	-1.149122e+000	1.509706e+002	-2.223302e+001	-1.027428e+002	-3.104294e+001	-4.619586e+001	-1.207831e+000	1.669854e+002
6530104100	-1.140882e+000	1.509653e+002	-2.224817e+001	-1.031859e+002	-3.110949e+001	-4.713977e+001	-1.198746e+000	1.670428e+002
6540103800	-1.128231e+000	1.509155e+002	-2.226916e+001	-1.036923e+002	-3.120363e+001	-4.897708e+001	-1.192801e+000	1.670609e+002
6550103500	-1.119553e+000	1.508577e+002	-2.230921e+001	-1.041988e+002	-3.135511e+001	-5.003298e+001	-1.179295e+000	1.671571e+002
6560103200	-1.110822e+000	1.508402e+002	-2.234768e+001	-1.043923e+002	-3.152048e+001	-5.067883e+001	-1.179946e+000	1.672668e+002
6570102900	-1.106003e+000	1.507537e+002	-2.241215e+001	-1.049514e+002	-3.171713e+001	-5.114566e+001	-1.173634e+000	1.673239e+002
6580102600	-1.098488e+000	1.506928e+002	-2.248707e+001	-1.054118e+002	-3.184157e+001	-5.160246e+001	-1.167638e+000	1.673812e+002
6590102300	-1.101461e+000	1.506036e+002	-2.260011e+001	-1.057377e+002	-3.215088e+001	-5.171139e+001	-1.161650e+000	1.673609e+002
6600102000	-1.097238e+000	1.505118e+002	-2.272614e+001	-1.061520e+002	-3.241352e+001	-5.086736e+001	-1.156673e+000	1.673685e+002
6610101700	-1.096522e+000	1.505023e+002	-2.285388e+001	-1.062076e+002	-3.265675e+001	-5.079224e+001	-1.150178e+000	1.673168e+002
6620101400	-1.099214e+000	1.504151e+002	-2.296793e+001	-1.063735e+002	-3.285189e+001	-4.945925e+001	-1.142382e+000	1.673325e+002
6630101100	-1.103516e+000	1.503713e+002	-2.309031e+001	-1.063195e+002	-3.309848e+001	-4.807712e+001	-1.141545e+000	1.672912e+002
6640100800	-1.108531e+000	1.503511e+002	-2.324409e+001	-1.062298e+002	-3.316529e+001	-4.670584e+001	-1.139823e+000	1.672646e+002
6650100500	-1.111245e+000	1.503854e+002	-2.330599e+001	-1.058869e+002	-3.320928e+001	-4.508884e+001	-1.137779e+000	1.672381e+002
6660100200	-1.117848e+000	1.504223e+002	-2.341474e+001	-1.057216e+002	-3.308087e+001	-4.357494e+001	-1.130680e+000	1.672532e+002
6670099900	-1.111206e+000	1.504692e+002	-2.344792e+001	-1.054274e+002	-3.305336e+001	-4.300824e+001	-1.133557e+000	1.672383e+002
6680099600	-1.112066e+000	1.505051e+002	-2.355085e+001	-1.052910e+002	-3.295047e+001	-4.230454e+001	-1.136380e+000	1.672644e+002
6690099300	-1.100504e+000	1.505092e+002	-2.357348e+001	-1.053087e+002	-3.292360e+001	-4.204745e+001	-1.131696e+000	1.672629e+002
6700099000	-1.096531e+000	1.504425e+002	-2.364910e+001	-1.055072e+002	-3.293449e+001	-4.217723e+001	-1.125904e+000	1.672791e+002
6710098700	-1.088192e+000	1.504218e+002	-2.369917e+001	-1.054334e+002	-3.299609e+001	-4.190496e+001	-1.132009e+000	1.673661e+002
6720098400	-1.079961e+000	1.503513e+002	-2.373912e+001	-1.055187e+002	-3.306494e+001	-4.222395e+001	-1.125973e+000	1.674193e+002
6730098100	-1.076763e+000	1.502721e+002	-2.383772e+001	-1.057115e+002	-3.315049e+001	-4.172597e+001	-1.128732e+000	1.674718e+002
6740097800	-1.070647e+000	1.502120e+002	-2.393322e+001	-1.060509e+002	-3.316939e+001	-4.115423e+001	-1.126952e+000	1.674599e+002
6750097500	-1.072653e+000	1.501349e+002	-2.401617e+001	-1.056327e+002	-3.315313e+001	-4.016644e+001	-1.124922e+000	1.674538e+002
6760097200	-1.076644e+000	1.501193e+002	-2.408674e+001	-1.051478e+002	-3.309525e+001	-3.935383e+001	-1.128844e+000	1.674440e+002
6770096900	-1.081232e+000	1.501283e+002	-2.410272e+001	-1.049413e+002	-3.298792e+001	-3.944750e+001	-1.128089e+000	1.674317e+002
6780096600	-1.071764e+000	1.501480e+002	-2.408055e+001	-1.045847e+002	-3.282275e+001	-4.014700e+001	-1.134224e+000	1.674579e+002
6790096300	-1.066298e+000	1.501712e+002	-2.403244e+001	-1.050676e+002	-3.283196e+001	-4.115646e+001	-1.135729e+000	1.674972e+002
6800096000	-1.053665e+000	1.501823e+002	-2.411108e+001	-1.056305e+002	-3.304146e+001	-4.235950e+001	-1.132835e+000	1.675317e+002
6810095700	-1.042548e+000	1.501898e+002	-2.417661e+001	-1.061381e+002	-3.321386e+001	-4.345288e+001	-1.125961e+000	1.675940e+002
6820095400	-1.042226e+000	1.501457e+002	-2.425836e+001	-1.066742e+002	-3.350234e+001	-4.283364e+001	-1.122311e+000	1.676461e+002
6830095100	-1.042540e+000	1.501302e+002	-2.434570e+001	-1.067967e+002	-3.363085e+001	-4.247974e+001	-1.118941e+000	1.676479e+002
6840094800	-1.043610e+000	1.501409e+002	-2.449706e+001	-1.069847e+002	-3.377600e+001	-4.063337e+001	-1.116189e+000	1.676634e+002
6850094500	-1.042572e+000	1.501720e+002	-2.452453e+001	-1.069424e+002	-3.386099e+001	-4.034405e+001	-1.111061e+000	1.677065e+002
6860094200	-1.042380e+000	1.501517e+002	-2.460673e+001	-1.068102e+002	-3.393823e+001	-3.943302e+001	-1.104728e+000	1.677528e+002
6870093900	-1.035428e+000	1.501566e+002	-2.468689e+001	-1.070779e+002	-3.393235e+001	-3.909649e+001	-1.103842e+000	1.677914e+002
6880093600	-1.032049e+000	1.501246e+002	-2.472940e+001	-1.072953e+002	-3.398081e+001	-3.867853e+001	-1.105377e+000	1.678268e+002
6890093300	-1.030010e+000	1.501139e+002	-2.484156e+001	-1.073416e+002	-3.407939e+001	-3.854450e+001	-1.104177e+000	1.678773e+002
6900093000	-1.025057e+000	1.500353e+002	-2.489303e+001	-1.076552e+002	-3.419516e+001	-3.838365e+001	-1.099727e+000	1.678993e+002
6910092700	-1.020319e+000	1.499799e+002	-2.499025e+001	-1.076704e+002	-3.435133e+001	-3.747043e+001	-1.100374e+000	1.679039e+002
6920092400	-1.019870e+000	1.499497e+002	-2.506265e+001	-1.077341e+002	-3.428932e+001	-3.721114e+001	-1.098978e+000	1.679151e+002
6930092100	-1.007958e+000	1.499148e+002	-2.516022e+001	-1.080412e+002	-3.438525e+001	-3.664563e+001	-1.098085e+000	1.679313e+002
6940091800	-1.008458e+000	1.498852e+002	-2.529662e+001	-1.081731e+002	-3.450303e+001	-3.593420e+001	-1.099467e+000	1.679268e+002
6950091500	-1.002507e+000	1.498510e+002	-2.540903e+001	-1.081715e+002	-3.454681e+001	-3.533486e+001	-1.100929e+000	1.679292e+002
6960091200	-9.979073e-001	1.498169e+002	-2.546983e+001	-1.081505e+002	-3.458801e+001	-3.451989e+001	-1.093522e+000	1.679462e+002
6970090900	-9.961052e-001	1.497881e+002	-2.557760e+001	-1.076771e+002	-3.455925e+001	-3.462062e+001	-1.096671e+000	1.679703e+002
6980090600	-9.916774e-001	1.497537e+002	-2.561655e+001	-1.076799e+002	-3.458740e+001	-3.298362e+001	-1.097615e+000	1.679847e+002
6990090300	-9.920939e-001	1.497778e+002	-2.575774e+001	-1.074865e+002	-3.443751e+001	-3.276427e+001	-1.097053e+000	1.680237e+002
7000090000	-9.889744e-001	1.497442e+002	-2.578560e+001	-1.072393e+002	-3.441304e+001	-3.237573e+001	-1.095882e+000	1.680795e+002
7010089700	-9.903385e-001	1.497728e+002	-2.582826e+001	-1.073626e+002	-3.444070e+001	-3.275497e+001	-1.095755e+000	1.681229e+002
7020089400	-9.882410e-001	1.497874e+002	-2.583346e+001	-1.071478e+002	-3.458813e+001	-3.186826e+001	-1.095712e+000	1.681807e+002
7030089100	-9.864323e-001	1.497658e+002	-2.585717e+001	-1.074904e+002	-3.447431e+001	-3.329825e+001	-1.096827e+000	1.682015e+002
7040088800	-9.874119e-001	1.497659e+002	-2.589095e+001	-1.078144e+002	-3.461141e+001	-3.435780e+001	-1.095890e+000	1.682613e+002
7050088500	-9.846726e-001	1.497881e+002	-2.594020e+001	-1.080676e+002	-3.484565e+001	-3.503367e+001	-1.097214e+000	1.683163e+002
7060088200	-9.828455e-001	1.497353e+002	-2.606989e+001	-1.087143e+002	-3.504910e+001	-3.410741e+001	-1.093458e+000	1.683521e+002
7070087900	-9.786204e-001	1.497189e+002	-2.610397e+001	-1.090402e+002	-3.522617e+001	-3.325401e+001	-1.092789e+000	1.683716e+002
7080087600	-9.761025e-001	1.496795e+002	-2.627019e+001	-1.092555e+002	-3.525528e+001	-3.186776e+001	-1.094399e+000	1.684176e+002
7090087300	-9.761575e-001	1.496469e+002	-2.639676e+001	-1.092204e+002	-3.538908e+001	-3.108284e+001	-1.089976e+000	1.684480e+002
7100087000	-9.713273e-001	1.496531e+002	-2.647476e+001	-1.094219e+002	-3.539000e+001	-2.999609e+001	-1.093524e+000	1.684677e+002
7110086700	-9.705197e-001	1.496219e+002	-2.656091e+001	-1.093231e+002	-3.550148e+001	-2.891587e+001	-1.091146e+000	1.684896e+002
7120086400	-9.616617e-001	1.495985e+002	-2.666629e+001	-1.096828e+002	-3.550637e+001	-2.817839e+001	-1.086489e+000	1.685151e+002
7130086100	-9.609775e-001	1.496151e+002	-2.673702e+001	-1.094318e+002	-3.550707e+001	-2.771395e+001	-1.085953e+000	1.685518e+002
7140085800	-9.550047e-001	1.495869e+002	-2.680388e+001	-1.095718e+002	-3.554609e+001	-2.709274e+001	-1.088333e+000	1.685824e+002
7150085500	-9.493749e-001	1.495909e+002	-2.693222e+001	-1.095824e+002	-3.557619e+001	-2.704613e+001	-1.082268e+000	1.686345e+002
7160085200	-9.497759e-001	1.495793e+002	-2.704199e+001	-1.099093e+002	-3.566612e+001	-2.596604e+001	-1.079867e+000	1.686692e+002
7170084900	-9.442136e-001	1.495372e+002	-2.718042e+001	-1.096654e+002	-3.569133e+001	-2.618160e+001	-1.081714e+000	1.687423e+002
7180084600	-9.477225e-001	1.495041e+002	-2.725535e+001	-1.097099e+002	-3.576714e+001	-2.499484e+001	-1.083564e+000	1.687723e+002
7190084300	-9.494351e-001	1.494931e+002	-2.734458e+001	-1.100086e+002	-3.575463e+001	-2.425833e+001	-1.083966e+000	1.687672e+002
7200084000	-9.499930e-001	1.494706e+002	-2.741781e+001	-1.096488e+002	-3.580251e+001	-2.326929e+001	-1.080814e+000	1.687750e+002
7210083700	-9.512512e-001	1.494111e+002	-2.749260e+001	-1.095895e+002	-3.580500e+001	-2.277698e+001	-1.079224e+000	1.687825e+002
7220083400	-9.530090e-001	1.494214e+002	-2.751137e+001	-1.096115e+002	-3.578681e+001	-2.258038e+001	-1.081168e+000	1.687904e+002
7230083100	-9.528007e-001	1.493954e+002	-2.760853e+001	-1.094612e+002	-3.583042e+001	-2.188202e+001	-1.086329e+000	1.688364e+002
7240082800	-9.496133e-001	1.493919e+002	-2.770596e+001	-1.094644e+002	-3.594049e+001	-2.255747e+001	-1.086348e+000	1.688573e+002
7250082500	-9.502813e-001	1.493855e+002	-2.774809e+001	-1.096725e+002	-3.600011e+001	-2.144389e+001	-1.092756e+000	1.689092e+002
7260082200	-9.502477e-001	1.493753e+002	-2.788778e+001	-1.100765e+002	-3.610054e+001	-2.099096e+001	-1.092742e+000	1.689254e+002
7270081900	-9.471584e-001	1.493671e+002	-2.800657e+001	-1.101532e+002	-3.630126e+001	-1.992840e+001	-1.094087e+000	1.689925e+002
7280081600	-9.427212e-001	1.493209e+002	-2.810912e+001	-1.100751e+002	-3.616012e+001	-1.835025e+001	-1.090839e+000	1.690525e+002
7290081300	-9.403541e-001	1.493785e+002	-2.817316e+001	-1.101017e+002	-3.621251e+001	-1.863548e+001	-1.091470e+000	1.691072e+002
7300081000	-9.369633e-001	1.493507e+002	-2.832450e+001	-1.102877e+002	-3.625458e+001	-1.627221e+001	-1.089247e+000	1.691690e+002
7310080700	-9.374246e-001	1.493882e+002	-2.843187e+001	-1.106017e+002	-3.614646e+001	-1.641826e+001	-1.086815e+000	1.692225e+002
7320080400	-9.371319e-001	1.493861e+002	-2.849245e+001	-1.103603e+002	-3.618685e+001	-1.479612e+001	-1.087272e+000	1.693087e+002
7330080100	-9.307528e-001	1.494119e+002	-2.856394e+001	-1.102901e+002	-3.612365e+001	-1.463397e+001	-1.091711e+000	1.693353e+002
7340079800	-9.294535e-001	1.494050e+002	-2.865562e+001	-1.102831e+002	-3.615251e+001	-1.348166e+001	-1.093698e+000	1.693969e+002
7350079500	-9.289785e-001	1.493731e+002	-2.871297e+001	-1.102161e+002	-3.610345e+001	-1.426019e+001	-1.097679e+000	1.694482e+002
7360079200	-9.286743e-001	1.493490e+002	-2.885175e+001	-1.102430e+002	-3.608775e+001	-1.415116e+001	-1.094663e+000	1.694136e+002
7370078900	-9.314556e-001	1.492917e+002	-2.894173e+001	-1.108011e+002	-3.626172e+001	-1.377998e+001	-1.090203e+000	1.693663e+002
7380078600	-9.303831e-001	1.492930e+002	-2.900444e+001	-1.107382e+002	-3.647496e+001	-1.233671e+001	-1.094407e+000	1.693607e+002
7390078300	-9.288137e-001	1.492338e+002	-2.911637e+001	-1.115851e+002	-3.641396e+001	-1.187908e+001	-1.091997e+000	1.693916e+002
7400078000	-9.279246e-001	1.491917e+002	-2.920242e+001	-1.108409e+002	-3.652494e+001	-1.034939e+001	-1.093611e+000	1.694106e+002
7410077700	-9.337850e-001	1.491802e+002	-2.937756e+001	-1.111739e+002	-3.654157e+001	-9.919352e+000	-1.099837e+000	1.694772e+002
7420077400	-9.283561e-001	1.491556e+002	-2.946294e+001	-1.110426e+002	-3.646673e+001	-8.867224e+000	-1.093353e+000	1.695297e+002
7430077100	-9.255240e-001	1.491415e+002	-2.964868e+001	-1.113480e+002	-3.656216e+001	-7.715528e+000	-1.098589e+000	1.695768e+002
7440076800	-9.195933e-001	1.491031e+002	-2.973777e+001	-1.111750e+002	-3.647109e+001	-6.481668e+000	-1.098674e+000	1.696238e+002
7450076500	-9.172221e-001	1.490860e+002	-2.982998e+001	-1.112576e+002	-3.658396e+001	-5.615918e+000	-1.097044e+000	1.696704e+002
7460076200	-9.168513e-001	1.490693e+002	-2.997649e+001	-1.113733e+002	-3.660934e+001	-5.020043e+000	-1.098073e+000	1.697533e+002
7470075900	-9.168900e-001	1.490589e+002	-3.009470e+001	-1.113384e+002	-3.642989e+001	-4.086981e+000	-1.097538e+000	1.697948e+002
7480075600	-9.131474e-001	1.490952e+002	-3.024575e+001	-1.114393e+002	-3.639640e+001	-2.081622e+000	-1.093742e+000	1.698762e+002
7490075300	-9.143319e-001	1.490928e+002	-3.036776e+001	-1.109101e+002	-3.644973e+001	-7.483212e-001	-1.100813e+000	1.699683e+002
7500075000	-9.177312e-001	1.490993e+002	-3.055591e+001	-1.115664e+002	-3.629456e+001	-2.354322e-002	-1.108341e+000	1.699863e+002
7510074700	-9.150339e-001	1.491461e+002	-3.065625e+001	-1.112936e+002	-3.633089e+001	8.813903e-001	-1.113754e+000	1.700338e+002
7520074400	-9.212127e-001	1.491286e+002	-3.069018e+001	-1.112549e+002	-3.612284e+001	1.347238e+000	-1.111046e+000	1.699791e+002
7530074100	-9.162042e-001	1.491171e+002	-3.093222e+001	-1.109555e+002	-3.616117e+001	2.448116e+000	-1.102843e+000	1.699140e+002
7540073800	-9.178248e-001	1.491231e+002	-3.100754e+001	-1.110673e+002	-3.602588e+001	1.901268e+000	-1.109681e+000	1.699005e+002
7550073500	-9.223401e-001	1.491073e+002	-3.113466e+001	-1.107081e+002	-3.602577e+001	2.327823e+000	-1.113835e+000	1.699327e+002
7560073200	-9.215287e-001	1.490862e+002	-3.120279e+001	-1.105228e+002	-3.599607e+001	2.991144e+000	-1.117047e+000	1.700039e+002
7570072900	-9.219876e-001	1.490547e+002	-3.135041e+001	-1.102803e+002	-3.583808e+001	3.945571e+000	-1.112665e+000	1.700650e+002
7580072600	-9.174112e-001	1.490307e+002	-3.152578e+001	-1.105234e+002	-3.587673e+001	4.516551e+000	-1.118630e+000	1.701093e+002
7590072300	-9.162061e-001	1.490248e+002	-3.156892e+001	-1.100595e+002	-3.576732e+001	5.171985e+000	-1.118678e+000	1.701826e+002
7600072000	-9.132547e-001	1.489733e+002	-3.172618e+001	-1.106163e+002	-3.563718e+001	4.424124e+000	-1.119465e+000	1.702363e+002
7610071700	-9.110430e-001	1.489869e+002	-3.175161e+001	-1.097040e+002	-3.569687e+001	5.925940e+000	-1.114293e+000	1.702828e+002
7620071400	-9.066539e-001	1.489315e+002	-3.191546e+001	-1.106538e+002	-3.561894e+001	5.797970e+000	-1.115544e+000	1.703528e+002
7630071100	-9.030558e-001	1.489416e+002	-3.205220e+001	-1.100363e+002	-3.573609e+001	7.163909e+000	-1.113340e+000	1.704087e+002
7640070800	-8.981765e-001	1.489239e+002	-3.220932e+001	-1.104120e+002	-3.579933e+001	8.022065e+000	-1.111837e+000	1.704839e+002
7650070500	-9.027028e-001	1.489412e+002	-3.245180e+001	-1.112258e+002	-3.571036e+001	7.916575e+000	-1.117436e+000	1.705478e+002
7660070200	-9.042907e-001	1.489471e+002	-3.256482e+001	-1.107941e+002	-3.578656e+001	9.483383e+000	-1.123349e+000	1.705987e+002
7670069900	-9.060150e-001	1.489827e+002	-3.270639e+001	-1.105138e+002	-3.560058e+001	1.010167e+001	-1.135543e+000	1.705711e+002
7680069600	-9.092233e-001	1.489489e+002	-3.290255e+001	-1.110557e+002	-3.566958e+001	1.174567e+001	-1.135293e+000	1.705298e+002
7690069300	-9.086280e-001	1.489481e+002	-3.320165e+001	-1.112286e+002	-3.560153e+001	1.253120e+001	-1.131855e+000	1.704860e+002
7700069000	-9.113897e-001	1.489557e+002	-3.339884e+001	-1.105719e+002	-3.546456e+001	1.447601e+001	-1.131324e+000	1.705004e+002
7710068700	-9.115361e-001	1.489278e+002	-3.363242e+001	-1.109181e+002	-3.517370e+001	1.604249e+001	-1.138722e+000	1.705430e+002
7720068400	-9.175126e-001	1.488766e+002	-3.374918e+001	-1.099863e+002	-3.507417e+001	1.568911e+001	-1.146785e+000	1.706402e+002
7730068100	-9.188603e-001	1.488520e+002	-3.404175e+001	-1.090818e+002	-3.498172e+001	1.640227e+001	-1.148832e+000	1.706759e+002
7740067800	-9.268294e-001	1.488297e+002	-3.423760e+001	-1.081990e+002	-3.472751e+001	1.725911e+001	-1.146595e+000	1.707533e+002
7750067500	-9.241104e-001	1.488303e+002	-3.441788e+001	-1.077969e+002	-3.461424e+001	1.784908e+001	-1.153766e+000	1.707610e+002
7760067200	-9.266718e-001	1.488216e+002	-3.457218e+001	-1.068212e+002	-3.437177e+001	1.756576e+001	-1.149584e+000	1.708113e+002
7770066900	-9.221571e-001	1.487814e+002	-3.474210e+001	-1.063377e+002	-3.429830e+001	1.809777e+001	-1.146063e+000	1.708504e+002
7780066600	-9.182051e-001	1.488161e+002	-3.485745e+001	-1.057718e+002	-3.413824e+001	1.835388e+001	-1.145368e+000	1.708720e+002
7790066300	-9.108446e-001	1.487884e+002	-3.504150e+001	-1.041826e+002	-3.409089e+001	1.789005e+001	-1.148517e+000	1.708662e+002
7800066000	-9.048910e-001	1.488429e+002	-3.519742e+001	-1.045003e+002	-3.411313e+001	1.793131e+001	-1.148967e+000	1.709379e+002
7810065700	-9.018318e-001	1.488370e+002	-3.535534e+001	-1.040946e+002	-3.395687e+001	1.851771e+001	-1.153977e+000	1.709419e+002
7820065400	-9.033055e-001	1.488719e+002	-3.559049e+001	-1.031980e+002	-3.399594e+001	1.871487e+001	-1.171082e+000	1.709838e+002
7830065100	-9.031496e-001	1.488575e+002	-3.584194e+001	-1.037024e+002	-3.376660e+001	1.879604e+001	-1.178262e+000	1.709611e+002
7840064800	-9.009935e-001	1.488488e+002	-3.595956e+001	-1.021070e+002	-3.360508e+001	1.989442e+001	-1.173286e+000	1.708998e+002
7850064500	-8.986157e-001	1.488707e+002	-3.608190e+001	-1.008676e+002	-3.356334e+001	1.988820e+001	-1.174563e+000	1.708145e+002
7860064200	-9.062286e-001	1.488633e+002	-3.647421e+001	-9.979399e+001	-3.349033e+001	2.008159e+001	-1.179115e+000	1.708929e+002
7870063900	-9.118028e-001	1.487952e+002	-3.652849e+001	-9.978036e+001	-3.342985e+001	2.062476e+001	-1.187851e+000	1.709472e+002
7880063600	-9.130770e-001	1.487642e+002	-3.666759e+001	-9.922252e+001	-3.327985e+001	2.052149e+001	-1.192822e+000	1.710255e+002
7890063300	-9.143221e-001	1.487051e+002	-3.688055e+001	-9.921687e+001	-3.327771e+001	2.125963e+001	-1.197871e+000	1.711067e+002
7900063000	-9.155234e-001	1.486429e+002	-3.707530e+001	-9.669000e+001	-3.309317e+001	2.138380e+001	-1.206678e+000	1.711607e+002
7910062700	-9.251287e-001	1.485982e+002	-3.729038e+001	-9.602023e+001	-3.309846e+001	2.185600e+001	-1.209432e+000	1.712191e+002
7920062400	-9.240666e-001	1.485445e+002	-3.774731e+001	-9.539363e+001	-3.301011e+001	2.169791e+001	-1.213637e+000	1.712421e+002
7930062100	-9.233269e-001	1.484522e+002	-3.800534e+001	-9.267641e+001	-3.279840e+001	2.342267e+001	-1.215958e+000	1.712776e+002
7940061800	-9.244928e-001	1.484267e+002	-3.850210e+001	-9.135052e+001	-3.258985e+001	2.367756e+001	-1.216624e+000	1.712594e+002
7950061500	-9.312467e-001	1.483653e+002	-3.870062e+001	-8.841736e+001	-3.236231e+001	2.400272e+001	-1.218864e+000	1.712606e+002
7960061200	-9.303163e-001	1.483650e+002	-3.887039e+001	-8.601368e+001	-3.219254e+001	2.377124e+001	-1.221266e+000	1.712782e+002
7970060900	-9.276206e-001	1.483630e+002	-3.878609e+001	-8.117253e+001	-3.198457e+001	2.372462e+001	-1.228740e+000	1.713229e+002
7980060600	-9.329048e-001	1.484229e+002	-3.876192e+001	-7.956797e+001	-3.187141e+001	2.317373e+001	-1.245476e+000	1.713773e+002
7990060300	-9.342409e-001	1.484931e+002	-3.853440e+001	-7.827304e+001	-3.183906e+001	2.235077e+001	-1.253656e+000	1.713553e+002
8000060000	-9.346899e-001	1.485477e+002	-3.873790e+001	-7.648923e+001	-3.177037e+001	2.252876e+001	-1.248332e+000	1.712856e+002
8010059700	-9.285401e-001	1.485822e+002	-3.894128e+001	-7.544767e+001	-3.168558e+001	2.272912e+001	-1.244364e+000	1.711506e+002
8020059400	-9.306781e-001	1.485751e+002	-3.899814e+001	-7.260072e+001	-3.148776e+001	2.296266e+001	-1.246385e+000	1.711613e+002
8030059100	-9.380401e-001	1.485663e+002	-3.946810e+001	-6.974143e+001	-3.132604e+001	2.316769e+001	-1.250849e+000	1.712052e+002
8040058800	-9.495254e-001	1.484867e+002	-3.925027e+001	-6.705849e+001	-3.123548e+001	2.305190e+001	-1.260003e+000	1.712229e+002
8050058500	-9.601610e-001	1.484521e+002	-3.926159e+001	-6.349318e+001	-3.109980e+001	2.292730e+001	-1.273139e+000	1.712139e+002
8060058200	-9.723371e-001	1.484355e+002	-3.925521e+001	-5.952306e+001	-3.092163e+001	2.305991e+001	-1.282056e+000	1.712708e+002
8070057900	-9.808279e-001	1.483887e+002	-3.892912e+001	-5.384811e+001	-3.059896e+001	2.277662e+001	-1.299211e+000	1.712481e+002
8080057600	-9.882160e-001	1.483258e+002	-3.830537e+001	-5.036731e+001	-3.031998e+001	2.208843e+001	-1.317862e+000	1.712538e+002
8090057300	-1.001253e+000	1.482832e+002	-3.788829e+001	-4.865231e+001	-3.014411e+001	2.057226e+001	-1.334900e+000	1.713008e+002
8100057000	-1.010102e+000	1.482446e+002	-3.713199e+001	-4.666516e+001	-2.998751e+001	1.956831e+001	-1.350027e+000	1.713304e+002
8110056700	-1.013373e+000	1.482214e+002	-3.653263e+001	-4.749570e+001	-2.996049e+001	1.812064e+001	-1.371179e+000	1.714194e+002
8120056400	-1.017570e+000	1.482246e+002	-3.633772e+001	-4.728546e+001	-2.989094e+001	1.719613e+001	-1.375795e+000	1.714942e+002
8130056100	-1.021605e+000	1.481958e+002	-3.602742e+001	-4.693732e+001	-2.985822e+001	1.636687e+001	-1.381036e+000	1.716034e+002
8140055800	-1.029211e+000	1.482536e+002	-3.559396e+001	-4.671597e+001	-2.971602e+001	1.546400e+001	-1.389943e+000	1.717063e+002
8150055500	-1.033317e+000	1.483065e+002	-3.513898e+001	-4.747802e+001	-2.971518e+001	1.355398e+001	-1.400479e+000	1.717387e+002
8160055200	-1.032588e+000	1.483745e+002	-3.484252e+001	-4.943822e+001	-2.972869e+001	1.286704e+001	-1.411260e+000	1.718291e+002
8170054900	-1.033045e+000	1.484215e+002	-3.483792e+001	-5.063372e+001	-2.977483e+001	1.189183e+001	-1.396531e+000	1.717894e+002
8180054600	-1.046198e+000	1.484505e+002	-3.494023e+001	-5.092369e+001	-2.986347e+001	1.254212e+001	-1.385677e+000	1.716861e+002
8190054300	-1.053372e+000	1.484955e+002	-3.486471e+001	-4.969339e+001	-2.966606e+001	1.235004e+001	-1.381165e+000	1.717693e+002
8200054000	-1.071446e+000	1.484938e+002	-3.454045e+001	-4.816683e+001	-2.957180e+001	1.199298e+001	-1.391397e+000	1.718125e+002
8210053700	-1.084885e+000	1.486109e+002	-3.409035e+001	-4.853569e+001	-2.935148e+001	1.040788e+001	-1.406849e+000	1.718890e+002
8220053400	-1.096574e+000	1.486918e+002	-3.385205e+001	-4.949236e+001	-2.934092e+001	8.434022e+000	-1.423424e+000	1.720001e+002
8230053100	-1.098074e+000	1.487753e+002	-3.358272e+001	-5.154465e+001	-2.938734e+001	7.610298e+000	-1.424215e+000	1.721170e+002
8240052800	-1.101285e+000	1.488075e+002	-3.369385e+001	-5.204152e+001	-2.939086e+001	6.388089e+000	-1.441337e+000	1.721139e+002
8250052500	-1.111523e+000	1.488061e+002	-3.335481e+001	-5.197250e+001	-2.931904e+001	5.988877e+000	-1.449194e+000	1.721830e+002
8260052200	-1.114049e+000	1.488532e+002	-3.307213e+001	-5.218104e+001	-2.926483e+001	4.253139e+000	-1.467150e+000	1.722218e+002
8270051900	-1.107582e+000	1.488387e+002	-3.280665e+001	-5.379405e+001	-2.922815e+001	2.647883e+000	-1.475428e+000	1.722949e+002
8280051600	-1.109763e+000	1.489104e+002	-3.247644e+001	-5.517830e+001	-2.928649e+001	1.390849e+000	-1.488060e+000	1.723758e+002
8290051300	-1.106626e+000	1.489233e+002	-3.224968e+001	-5.683137e+001	-2.933961e+001	-5.458546e-001	-1.494652e+000	1.724929e+002
8300051000	-1.104356e+000	1.489238e+002	-3.204696e+001	-5.951019e+001	-2.956675e+001	-2.395253e+000	-1.489879e+000	1.726461e+002
8310050700	-1.089983e+000	1.490283e+002	-3.204163e+001	-6.200038e+001	-2.977085e+001	-4.830024e+000	-1.492480e+000	1.727573e+002
8320050400	-1.086970e+000	1.491068e+002	-3.196784e+001	-6.554729e+001	-3.008415e+001	-5.607288e+000	-1.487865e+000	1.728226e+002
8330050100	-1.072961e+000	1.491618e+002	-3.201664e+001	-6.827060e+001	-3.029999e+001	-6.629413e+000	-1.470235e+000	1.728243e+002
8340049800	-1.070813e+000	1.491993e+002	-3.224583e+001	-7.124149e+001	-3.061738e+001	-7.146103e+000	-1.443401e+000	1.727480e+002
8350049500	-1.062938e+000	1.492707e+002	-3.235647e+001	-7.263557e+001	-3.094013e+001	-7.348507e+000	-1.428194e+000	1.727479e+002
8360049200	-1.065569e+000	1.493760e+002	-3.260872e+001	-7.425599e+001	-3.115284e+001	-7.276326e+000	-1.414395e+000	1.728337e+002
8370048900	-1.057333e+000	1.493625e+002	-3.285721e+001	-7.567034e+001	-3.130764e+001	-7.201942e+000	-1.405537e+000	1.728828e+002
8380048600	-1.056817e+000	1.494269e+002	-3.301552e+001	-7.728299e+001	-3.160362e+001	-7.443911e+000	-1.415511e+000	1.728961e+002
8390048300	-1.058180e+000	1.494643e+002	-3.321664e+001	-7.900987e+001	-3.185841e+001	-7.742977e+000	-1.430389e+000	1.729832e+002
8400048000	-1.054032e+000	1.494011e+002	-3.349621e+001	-8.103021e+001	-3.212415e+001	-7.356115e+000	-1.426318e+000	1.730364e+002
8410047700	-1.049454e+000	1.493597e+002	-3.380588e+001	-8.228047e+001	-3.244413e+001	-6.289591e+000	-1.436382e+000	1.730657e+002
8420047400	-1.044750e+000	1.493045e+002	-3.411569e+001	-8.328924e+001	-3.264963e+001	-4.920839e+000	-1.434584e+000	1.730523e+002
8430047100	-1.046828e+000	1.492299e+002	-3.461093e+001	-8.353929e+001	-3.268724e+001	-2.553056e+000	-1.440375e+000	1.730287e+002
8440046800	-1.038609e+000	1.492040e+002	-3.497426e+001	-8.353179e+001	-3.282626e+001	-1.053707e+000	-1.444360e+000	1.730245e+002
8450046500	-1.040730e+000	1.491858e+002	-3.530755e+001	-8.234217e+001	-3.278791e+001	-2.330645e-002	-1.450292e+000	1.729767e+002
8460046200	-1.040276e+000	1.491536e+002	-3.530997e+001	-8.187654e+001	-3.287651e+001	4.504111e-001	-1.452798e+000	1.729493e+002
8470045900	-1.025023e+000	1.491519e+002	-3.534448e+001	-8.231661e+001	-3.282322e+001	7.770381e-002	-1.453464e+000	1.729292e+002
8480045600	-1.025117e+000	1.491639e+002	-3.549445e+001	-8.299945e+001	-3.291395e+001	-1.466405e-001	-1.452210e+000	1.729056e+002
8490045300	-1.015363e+000	1.491526e+002	-3.548768e+001	-8.379083e+001	-3.314211e+001	-2.968585e-001	-1.453453e+000	1.728607e+002
8500045000	-1.024278e+000	1.492592e+002	-3.564838e+001	-8.557303e+001	-3.333879e+001	2.878051e-001	-1.411714e+000	1.726984e+002
8510044700	-1.026517e+000	1.493271e+002	-3.581708e+001	-8.712822e+001	-3.370588e+001	5.674786e-001	-1.415010e+000	1.726414e+002
8520044400	-1.011590e+000	1.494137e+002	-3.636115e+001	-8.808916e+001	-3.366432e+001	2.579781e+000	-1.397250e+000	1.727511e+002
8530044100	-1.025340e+000	1.493490e+002	-3.642133e+001	-8.899748e+001	-3.401343e+001	2.777932e+000	-1.387783e+000	1.727147e+002
8540043800	-1.035056e+000	1.494139e+002	-3.711909e+001	-9.017316e+001	-3.365448e+001	7.204906e+000	-1.392994e+000	1.727666e+002
8550043500	-1.030475e+000	1.493688e+002	-3.739793e+001	-9.235453e+001	-3.412963e+001	7.494708e+000	-1.403753e+000	1.728730e+002
8560043200	-1.021172e+000	1.493485e+002	-3.764382e+001	-8.957835e+001	-3.375592e+001	8.687467e+000	-1.409028e+000	1.729843e+002
8570042900	-1.037416e+000	1.492632e+002	-3.794005e+001	-9.090570e+001	-3.389438e+001	9.247957e+000	-1.423138e+000	1.729872e+002
8580042600	-1.044273e+000	1.493197e+002	-3.884896e+001	-9.198078e+001	-3.409139e+001	1.284581e+001	-1.416535e+000	1.730627e+002
8590042300	-1.037234e+000	1.491966e+002	-3.881052e+001	-9.129474e+001	-3.377421e+001	1.371563e+001	-1.456494e+000	1.732549e+002
8600042000	-1.023605e+000	1.491469e+002	-3.997812e+001	-9.094156e+001	-3.409017e+001	1.143916e+001	-1.462919e+000	1.731693e+002
8610041700	-1.033598e+000	1.491454e+002	-3.943952e+001	-9.299322e+001	-3.409069e+001	1.504462e+001	-1.465263e+000	1.731591e+002
8620041400	-1.025304e+000	1.490859e+002	-4.084669e+001	-8.745261e+001	-3.390374e+001	1.647596e+001	-1.478265e+000	1.731882e+002
8630041100	-1.009002e+000	1.489543e+002	-4.093219e+001	-8.833045e+001	-3.395689e+001	1.657888e+001	-1.483776e+000	1.732151e+002
8640040800	-1.030815e+000	1.489561e+002	-4.136255e+001	-9.038362e+001	-3.379424e+001	1.895203e+001	-1.488959e+000	1.730323e+002
8650040500	-1.007434e+000	1.488315e+002	-4.268923e+001	-8.368659e+001	-3.393658e+001	2.267329e+001	-1.472445e+000	1.728664e+002
8660040200	-9.965702e-001	1.490082e+002	-4.317476e+001	-8.594198e+001	-3.352912e+001	2.271200e+001	-1.450412e+000	1.727309e+002
8670039900	-9.917783e-001	1.488968e+002	-4.474229e+001	-8.677073e+001	-3.366997e+001	2.139394e+001	-1.448348e+000	1.725801e+002
8680039600	-9.889140e-001	1.489131e+002	-4.503033e+001	-8.355473e+001	-3.345983e+001	2.377948e+001	-1.434765e+000	1.723997e+002
8690039300	-9.858969e-001	1.489113e+002	-4.533156e+001	-7.762455e+001	-3.291298e+001	2.467323e+001	-1.456446e+000	1.726383e+002
8700039000	-9.941803e-001	1.490201e+002	-4.609991e+001	-7.134452e+001	-3.328840e+001	2.480962e+001	-1.457007e+000	1.724305e+002
8710038700	-9.920719e-001	1.489925e+002	-4.522624e+001	-6.451008e+001	-3.295065e+001	2.521634e+001	-1.451946e+000	1.724853e+002
8720038400	-1.000054e+000	1.488720e+002	-4.625114e+001	-6.921711e+001	-3.287281e+001	2.607299e+001	-1.467747e+000	1.725679e+002
8730038100	-9.944587e-001	1.489930e+002	-4.661060e+001	-5.906367e+001	-3.269740e+001	2.446882e+001	-1.494495e+000	1.726757e+002
8740037800	-9.989310e-001	1.490031e+002	-4.770843e+001	-6.608626e+001	-3.289766e+001	2.623534e+001	-1.515447e+000	1.727678e+002
8750037500	-1.014110e+000	1.488603e+002	-4.696899e+001	-5.715935e+001	-3.268135e+001	2.695793e+001	-1.524289e+000	1.728400e+002
8760037200	-1.013052e+000	1.487435e+002	-4.849785e+001	-5.069765e+001	-3.265597e+001	2.920970e+001	-1.556584e+000	1.728515e+002
8770036900	-1.007441e+000	1.486932e+002	-4.770440e+001	-4.302575e+001	-3.237680e+001	2.953024e+001	-1.556192e+000	1.728556e+002
8780036600	-1.015898e+000	1.486553e+002	-4.996020e+001	-3.325224e+001	-3.241624e+001	3.017507e+001	-1.568407e+000	1.728517e+002
8790036300	-1.038603e+000	1.485301e+002	-4.963527e+001	-1.341043e+001	-3.220395e+001	2.822922e+001	-1.585236e+000	1.726369e+002
8800036000	-1.018334e+000	1.485547e+002	-5.017511e+001	-1.351982e+001	-3.198411e+001	2.899969e+001	-1.575240e+000	1.726106e+002
8810035700	-1.009052e+000	1.484682e+002	-4.941210e+001	1.751921e+000	-3.199927e+001	3.039825e+001	-1.568483e+000	1.724622e+002
8820035400	-1.003616e+000	1.483623e+002	-4.757563e+001	-5.224180e+000	-3.184783e+001	3.308531e+001	-1.552102e+000	1.723755e+002
8830035100	-1.010982e+000	1.484253e+002	-4.673368e+001	1.784959e+001	-3.158453e+001	3.173250e+001	-1.563862e+000	1.722238e+002
8840034800	-1.000631e+000	1.482668e+002	-4.652141e+001	7.441173e+000	-3.155744e+001	3.285165e+001	-1.540807e+000	1.721359e+002
8850034500	-9.927546e-001	1.482771e+002	-4.576419e+001	1.800038e+001	-3.146842e+001	3.420082e+001	-1.570834e+000	1.719261e+002
8860034200	-9.944878e-001	1.483599e+002	-4.428928e+001	1.658857e+001	-3.124370e+001	3.227496e+001	-1.550049e+000	1.719707e+002
8870033900	-9.986096e-001	1.483070e+002	-4.527037e+001	1.518363e+001	-3.144741e+001	3.508933e+001	-1.563319e+000	1.720375e+002
8880033600	-1.000639e+000	1.481775e+002	-4.332261e+001	2.439593e+001	-3.107400e+001	3.558871e+001	-1.557151e+000	1.720715e+002
8890033300	-1.018195e+000	1.482784e+002	-4.267150e+001	2.777582e+001	-3.093347e+001	3.545222e+001	-1.583987e+000	1.720349e+002
8900033000	-1.027954e+000	1.481766e+002	-4.240450e+001	2.593682e+001	-3.068891e+001	3.523172e+001	-1.610192e+000	1.721430e+002
8910032700	-1.017458e+000	1.480833e+002	-4.207243e+001	2.975533e+001	-3.061029e+001	3.645324e+001	-1.613927e+000	1.721216e+002
8920032400	-1.033683e+000	1.480395e+002	-4.094247e+001	3.124002e+001	-3.053073e+001	3.495382e+001	-1.648661e+000	1.722376e+002
8930032100	-1.035692e+000	1.479556e+002	-4.028399e+001	3.027481e+001	-3.051289e+001	3.682864e+001	-1.678799e+000	1.722582e+002
8940031800	-1.026913e+000	1.480127e+002	-3.999812e+001	2.985650e+001	-3.017334e+001	3.532452e+001	-1.675289e+000	1.721884e+002
8950031500	-1.040326e+000	1.477941e+002	-3.943766e+001	2.993071e+001	-3.011617e+001	3.573717e+001	-1.707822e+000	1.720633e+002
8960031200	-1.030662e+000	1.478090e+002	-3.945834e+001	2.895270e+001	-3.004113e+001	3.499333e+001	-1.716320e+000	1.719871e+002
8970030900	-1.045457e+000	1.476576e+002	-3.897334e+001	3.244052e+001	-2.964616e+001	3.657175e+001	-1.723821e+000	1.718942e+002
8980030600	-1.015285e+000	1.476263e+002	-3.818614e+001	3.216291e+001	-2.953943e+001	3.421213e+001	-1.717614e+000	1.716150e+002
8990030300	-1.037527e+000	1.476112e+002	-3.810272e+001	2.955698e+001	-2.953049e+001	3.495105e+001	-1.728488e+000	1.715157e+002
9000030000	-1.030208e+000	1.475678e+002	-3.732832e+001	2.926862e+001	-2.906899e+001	3.573762e+001	-1.717840e+000	1.714940e+002
9010029700	-1.041171e+000	1.475895e+002	-3.667879e+001	2.929505e+001	-2.913427e+001	3.622620e+001	-1.730245e+000	1.712078e+002
9020029400	-1.025947e+000	1.475279e+002	-3.662373e+001	2.953334e+001	-2.903866e+001	3.484124e+001	-1.754045e+000	1.710292e+002
9030029100	-1.034972e+000	1.476326e+002	-3.652165e+001	2.735003e+001	-2.891531e+001	3.479088e+001	-1.748456e+000	1.710395e+002
9040028800	-1.047551e+000	1.474625e+002	-3.630613e+001	3.080323e+001	-2.874929e+001	3.441153e+001	-1.757671e+000	1.710492e+002
9050028500	-1.059017e+000	1.474254e+002	-3.561697e+001	2.972507e+001	-2.862118e+001	3.424523e+001	-1.758098e+000	1.710419e+002
9060028200	-1.072520e+000	1.473595e+002	-3.529628e+001	2.765176e+001	-2.843281e+001	3.417032e+001	-1.773443e+000	1.709753e+002
9070027900	-1.077288e+000	1.474628e+002	-3.509271e+001	2.602778e+001	-2.841565e+001	3.413016e+001	-1.797991e+000	1.710010e+002
9080027600	-1.092104e+000	1.474188e+002	-3.463342e+001	2.536948e+001	-2.820984e+001	3.377935e+001	-1.830284e+000	1.710021e+002
9090027300	-1.110680e+000	1.472759e+002	-3.461823e+001	2.547934e+001	-2.812686e+001	3.279603e+001	-1.858219e+000	1.711435e+002
9100027000	-1.092692e+000	1.472843e+002	-3.401620e+001	2.392402e+001	-2.797717e+001	3.231733e+001	-1.899942e+000	1.711115e+002
9110026700	-1.123212e+000	1.470850e+002	-3.349251e+001	2.333173e+001	-2.773376e+001	3.111351e+001	-1.922651e+000	1.710569e+002
9120026400	-1.107866e+000	1.470675e+002	-3.356019e+001	2.176444e+001	-2.780947e+001	3.032706e+001	-1.936253e+000	1.710234e+002
9130026100	-1.119082e+000	1.469715e+002	-3.346576e+001	2.069114e+001	-2.753378e+001	2.973033e+001	-1.944040e+000	1.709661e+002
9140025800	-1.141232e+000	1.468867e+002	-3.307797e+001	1.967439e+001	-2.740906e+001	2.820033e+001	-1.970016e+000	1.708315e+002
9150025500	-1.129864e+000	1.468096e+002	-3.270794e+001	1.992801e+001	-2.746310e+001	2.817220e+001	-1.985595e+000	1.706076e+002
9160025200	-1.124934e+000	1.468507e+002	-3.253295e+001	1.856172e+001	-2.731832e+001	2.652534e+001	-2.002192e+000	1.704678e+002
9170024900	-1.119258e+000	1.468725e+002	-3.244768e+001	1.472277e+001	-2.721190e+001	2.538956e+001	-2.017612e+000	1.702168e+002
9180024600	-1.123347e+000	1.468862e+002	-3.230228e+001	1.308956e+001	-2.723020e+001	2.485357e+001	-2.027666e+000	1.702848e+002
9190024300	-1.086778e+000	1.468588e+002	-3.217731e+001	1.031843e+001	-2.711739e+001	2.417942e+001	-2.030582e+000	1.701331e+002
9200024000	-1.134912e+000	1.468852e+002	-3.206005e+001	9.980584e+000	-2.720637e+001	2.369917e+001	-2.045289e+000	1.702453e+002
9210023700	-1.126533e+000	1.469315e+002	-3.214898e+001	8.605873e+000	-2.731946e+001	2.210412e+001	-2.077705e+000	1.703481e+002
9220023400	-1.136940e+000	1.468180e+002	-3.210645e+001	5.979836e+000	-2.708621e+001	2.188018e+001	-2.091760e+000	1.703519e+002
9230023100	-1.157878e+000	1.468294e+002	-3.207435e+001	5.283304e+000	-2.726126e+001	1.998985e+001	-2.098067e+000	1.705638e+002
9240022800	-1.154402e+000	1.468891e+002	-3.220502e+001	2.552616e+000	-2.727574e+001	1.912407e+001	-2.126616e+000	1.706638e+002
9250022500	-1.165000e+000	1.468300e+002	-3.235746e+001	1.913574e+000	-2.744582e+001	1.826151e+001	-2.124091e+000	1.708547e+002
9260022200	-1.171374e+000	1.468682e+002	-3.241195e+001	1.556202e+000	-2.772687e+001	1.688942e+001	-2.147199e+000	1.709309e+002
9270021900	-1.166271e+000	1.466802e+002	-3.282716e+001	-1.649715e-001	-2.792267e+001	1.684488e+001	-2.153082e+000	1.710466e+002
9280021600	-1.167864e+000	1.466952e+002	-3.269581e+001	-3.614724e-001	-2.788294e+001	1.766087e+001	-2.147675e+000	1.712720e+002
9290021300	-1.162601e+000	1.465454e+002	-3.329607e+001	-1.374848e+000	-2.813036e+001	1.686250e+001	-2.159658e+000	1.713240e+002
9300021000	-1.173386e+000	1.464998e+002	-3.321993e+001	-1.186871e+000	-2.819237e+001	1.721006e+001	-2.164011e+000	1.713857e+002
9310020700	-1.119735e+000	1.463269e+002	-3.330142e+001	-2.380942e+000	-2.837478e+001	1.784160e+001	-2.170051e+000	1.712358e+002
9320020400	-1.138125e+000	1.461943e+002	-3.358877e+001	-1.633613e-001	-2.843457e+001	1.764919e+001	-2.188169e+000	1.712625e+002
9330020100	-1.135043e+000	1.461543e+002	-3.352853e+001	-1.349034e+000	-2.847900e+001	1.969529e+001	-2.171845e+000	1.708805e+002
9340019800	-1.125165e+000	1.461238e+002	-3.381294e+001	8.704077e-001	-2.877180e+001	1.998289e+001	-2.172099e+000	1.708124e+002
9350019500	-1.120775e+000	1.459614e+002	-3.403846e+001	3.034796e+000	-2.844043e+001	2.009130e+001	-2.161193e+000	1.706032e+002
9360019200	-1.121287e+000	1.458502e+002	-3.385188e+001	3.393643e+000	-2.833197e+001	2.207600e+001	-2.181105e+000	1.705573e+002
9370018900	-1.122240e+000	1.458142e+002	-3.390538e+001	5.909839e+000	-2.855453e+001	2.217992e+001	-2.162460e+000	1.705284e+002
9380018600	-1.134423e+000	1.458024e+002	-3.403006e+001	4.554439e+000	-2.858339e+001	2.248753e+001	-2.166733e+000	1.704799e+002
9390018300	-1.130571e+000	1.456060e+002	-3.378690e+001	7.858595e+000	-2.862448e+001	2.424743e+001	-2.151812e+000	1.703187e+002
9400018000	-1.144125e+000	1.454687e+002	-3.372893e+001	9.696529e+000	-2.841768e+001	2.489952e+001	-2.177356e+000	1.704754e+002
9410017700	-1.161661e+000	1.454753e+002	-3.387162e+001	1.231894e+001	-2.838078e+001	2.516465e+001	-2.178168e+000	1.704257e+002
9420017400	-1.164479e+000	1.453960e+002	-3.343074e+001	1.188917e+001	-2.834787e+001	2.575047e+001	-2.180975e+000	1.703653e+002
9430017100	-1.167515e+000	1.452534e+002	-3.333428e+001	1.090106e+001	-2.825485e+001	2.570103e+001	-2.196344e+000	1.704969e+002
9440016800	-1.186694e+000	1.450972e+002	-3.322631e+001	1.223861e+001	-2.819850e+001	2.626205e+001	-2.196408e+000	1.705931e+002
9450016500	-1.196000e+000	1.451001e+002	-3.334524e+001	1.382854e+001	-2.807429e+001	2.687857e+001	-2.211963e+000	1.705289e+002
9460016200	-1.193287e+000	1.450562e+002	-3.296943e+001	1.318624e+001	-2.797920e+001	2.662998e+001	-2.216316e+000	1.706152e+002
9470015900	-1.194969e+000	1.448533e+002	-3.269396e+001	1.345462e+001	-2.787984e+001	2.697213e+001	-2.236520e+000	1.703774e+002
9480015600	-1.209508e+000	1.446281e+002	-3.277185e+001	1.540806e+001	-2.788546e+001	2.679379e+001	-2.253591e+000	1.703284e+002
9490015300	-1.211260e+000	1.444595e+002	-3.254982e+001	1.600287e+001	-2.770188e+001	2.792716e+001	-2.257896e+000	1.701679e+002
9500015000	-1.217165e+000	1.444215e+002	-3.237536e+001	1.491572e+001	-2.767580e+001	2.818887e+001	-2.295623e+000	1.700226e+002
9510014700	-1.214475e+000	1.442534e+002	-3.221517e+001	1.488147e+001	-2.751609e+001	2.809260e+001	-2.311765e+000	1.697003e+002
9520014400	-1.228589e+000	1.442624e+002	-3.221693e+001	1.588115e+001	-2.731993e+001	2.784503e+001	-2.316656e+000	1.694982e+002
9530014100	-1.235778e+000	1.441954e+002	-3.204397e+001	1.513090e+001	-2.725935e+001	2.799558e+001	-2.326250e+000	1.694031e+002
9540013800	-1.247371e+000	1.440264e+002	-3.185331e+001	1.479016e+001	-2.721272e+001	2.867161e+001	-2.323057e+000	1.693526e+002
9550013500	-1.220945e+000	1.439766e+002	-3.166017e+001	1.529489e+001	-2.713598e+001	2.807899e+001	-2.328153e+000	1.690521e+002
9560013200	-1.258915e+000	1.440055e+002	-3.169026e+001	1.594694e+001	-2.696475e+001	2.835667e+001	-2.343703e+000	1.691337e+002
9570012900	-1.247282e+000	1.439472e+002	-3.150538e+001	1.486666e+001	-2.688556e+001	2.862458e+001	-2.340003e+000	1.691579e+002
9580012600	-1.277465e+000	1.437167e+002	-3.141029e+001	1.645602e+001	-2.686509e+001	2.734271e+001	-2.364909e+000	1.691087e+002
9590012300	-1.291565e+000	1.436735e+002	-3.112458e+001	1.571268e+001	-2.707172e+001	2.812431e+001	-2.367082e+000	1.691375e+002
9600012000	-1.307525e+000	1.433985e+002	-3.124181e+001	1.612218e+001	-2.674202e+001	2.849311e+001	-2.359817e+000	1.691929e+002
9610011700	-1.317587e+000	1.434832e+002	-3.117537e+001	1.589761e+001	-2.657935e+001	2.780994e+001	-2.383565e+000	1.693273e+002
9620011400	-1.317926e+000	1.431970e+002	-3.095388e+001	1.526340e+001	-2.662996e+001	2.801306e+001	-2.405161e+000	1.694398e+002
9630011100	-1.320508e+000	1.431449e+002	-3.095441e+001	1.538491e+001	-2.651869e+001	2.846017e+001	-2.389428e+000	1.693930e+002
9640010800	-1.341905e+000	1.430183e+002	-3.069292e+001	1.549926e+001	-2.644281e+001	2.757704e+001	-2.429031e+000	1.691836e+002
9650010500	-1.338220e+000	1.427475e+002	-3.058045e+001	1.549765e+001	-2.630573e+001	2.904947e+001	-2.444487e+000	1.693058e+002
9660010200	-1.351912e+000	1.427344e+002	-3.058908e+001	1.492514e+001	-2.636667e+001	2.818215e+001	-2.472645e+000	1.689265e+002
9670009900	-1.358474e+000	1.424424e+002	-3.059921e+001	1.476597e+001	-2.617764e+001	2.764339e+001	-2.484453e+000	1.689355e+002
9680009600	-1.403241e+000	1.423871e+002	-3.021837e+001	1.449030e+001	-2.610765e+001	2.820750e+001	-2.514959e+000	1.686270e+002
9690009300	-1.368620e+000	1.422418e+002	-3.026819e+001	1.523483e+001	-2.598013e+001	2.809018e+001	-2.521924e+000	1.685720e+002
9700009000	-1.393493e+000	1.422022e+002	-3.015676e+001	1.396622e+001	-2.594470e+001	2.840414e+001	-2.530992e+000	1.684270e+002
9710008700	-1.414419e+000	1.419604e+002	-2.994368e+001	1.329112e+001	-2.585825e+001	2.766095e+001	-2.539700e+000	1.683450e+002
9720008400	-1.421359e+000	1.420692e+002	-3.001551e+001	1.451876e+001	-2.580298e+001	2.639050e+001	-2.533245e+000	1.682225e+002
9730008100	-1.422680e+000	1.419123e+002	-2.982266e+001	1.390628e+001	-2.573705e+001	2.697637e+001	-2.544257e+000	1.681515e+002
9740007800	-1.463553e+000	1.419559e+002	-2.974950e+001	1.439833e+001	-2.570982e+001	2.628247e+001	-2.538120e+000	1.681717e+002
9750007500	-1.466848e+000	1.416977e+002	-2.979508e+001	1.380443e+001	-2.554393e+001	2.606837e+001	-2.539472e+000	1.682391e+002
9760007200	-1.473352e+000	1.415029e+002	-2.949267e+001	1.430569e+001	-2.550306e+001	2.655749e+001	-2.545063e+000	1.680886e+002
9770006900	-1.469328e+000	1.413638e+002	-2.950103e+001	1.407688e+001	-2.543045e+001	2.631974e+001	-2.545380e+000	1.682467e+002
9780006600	-1.498695e+000	1.411866e+002	-2.945248e+001	1.362603e+001	-2.528576e+001	2.603536e+001	-2.527406e+000	1.681274e+002
9790006300	-1.532967e+000	1.412160e+002	-2.931066e+001	1.584527e+001	-2.527064e+001	2.623112e+001	-2.536555e+000	1.682183e+002
9800006000	-1.540347e+000	1.411061e+002	-2.932687e+001	1.456289e+001	-2.524948e+001	2.711363e+001	-2.535274e+000	1.680742e+002
9810005700	-1.549373e+000	1.410609e+002	-2.926882e+001	1.405768e+001	-2.509882e+001	2.633041e+001	-2.546728e+000	1.679159e+002
9820005400	-1.553291e+000	1.406965e+002	-2.888966e+001	1.381988e+001	-2.497032e+001	2.555378e+001	-2.588275e+000	1.677632e+002
9830005100	-1.572507e+000	1.405137e+002	-2.877246e+001	1.479552e+001	-2.481976e+001	2.619037e+001	-2.604795e+000	1.675164e+002
9840004800	-1.598058e+000	1.403455e+002	-2.866262e+001	1.467531e+001	-2.476363e+001	2.536291e+001	-2.636177e+000	1.672685e+002
9850004500	-1.592061e+000	1.404667e+002	-2.855872e+001	1.392918e+001	-2.465673e+001	2.594440e+001	-2.634226e+000	1.671399e+002
9860004200	-1.603113e+000	1.404291e+002	-2.831464e+001	1.379870e+001	-2.457806e+001	2.509386e+001	-2.652430e+000	1.669116e+002
9870003900	-1.618333e+000	1.401540e+002	-2.825729e+001	1.376276e+001	-2.440618e+001	2.493885e+001	-2.639455e+000	1.666584e+002
9880003600	-1.637518e+000	1.400821e+002	-2.806522e+001	1.339642e+001	-2.422767e+001	2.414364e+001	-2.677533e+000	1.664811e+002
9890003300	-1.673341e+000	1.400322e+002	-2.799735e+001	1.274371e+001	-2.416225e+001	2.301926e+001	-2.690586e+000	1.664880e+002
9900003000	-1.674186e+000	1.399630e+002	-2.778714e+001	1.272751e+001	-2.414642e+001	2.292708e+001	-2.672486e+000	1.663825e+002
9910002700	-1.687547e+000	1.399321e+002	-2.767396e+001	1.209457e+001	-2.397035e+001	2.185002e+001	-2.696852e+000	1.664357e+002
9920002400	-1.696793e+000	1.396632e+002	-2.735077e+001	1.138791e+001	-2.394062e+001	2.164658e+001	-2.699146e+000	1.663173e+002
9930002100	-1.755940e+000	1.394859e+002	-2.734535e+001	9.757245e+000	-2.385279e+001	2.205341e+001	-2.702424e+000	1.661852e+002
9940001800	-1.763083e+000	1.394648e+002	-2.728722e+001	9.032086e+000	-2.374547e+001	2.042351e+001	-2.693520e+000	1.661859e+002
9950001500	-1.776791e+000	1.392885e+002	-2.711417e+001	8.862061e+000	-2.363332e+001	1.967200e+001	-2.691620e+000	1.660120e+002
9960001200	-1.789708e+000	1.392869e+002	-2.721903e+001	6.918393e+000	-2.373272e+001	1.825469e+001	-2.724364e+000	1.657757e+002
9970000900	-1.828647e+000	1.390761e+002	-2.706731e+001	7.043754e+000	-2.360702e+001	1.825560e+001	-2.745196e+000	1.656495e+002
9980000600	-1.832517e+000	1.391678e+002	-2.696364e+001	5.848727e+000	-2.356125e+001	1.679325e+001	-2.763799e+000	1.655367e+002
9990000300	-1.871759e+000	1.388853e+002	-2.681662e+001	5.462213e+000	-2.355894e+001	1.680568e+001	-2.776574e+000	1.654540e+002
10000000000	-1.874133e+000	1.389308e+002	-2.684562e+001	4.422979e+000	-2.350079e+001	1.621497e+001	-2.822665e+000	1.651738e+002


!Noise Parameters
!Freq  NFmin(dB)  Mag(GammaOpt)  Ang(GammaOpt)(deg)  rn(normalized)
6.5e+008 1.1562 0.55362 67.361 0.32504
7e+008   1.0912 0.52853 72.435 0.22653
7.5e+008 1.0768 0.50394 75.624 0.21983
8e+008   1.096  0.52004 77.237 0.22401
8.5e+008 1.1016 0.50012 79.442 0.21397
9e+008   1.1353 0.49695 81.005 0.20672
9.5e+008 1.1482 0.47895 85.264 0.21007
1e+009   1.1773 0.44893 88.809 0.19036