!Agilent Technologies,E5071C,MY46316587,B.13.01
!Date: Wed Dec 06 10:56:42 2017
!Data & Calibration Information:
!Freq	S11:SOLT2(ON)	S21:SOLT2(ON)	S12:SOLT2(ON)	S22:SOLT2(ON)
!PortZ  Port1:50+j0    Port2:50+j0
!Above PortZ is port z conversion or system Z0 setting when saving the data.
!When reading, reference impedance value at option line is always used.
# Hz S RI R 50
300000	9.522393e-001	-2.744509e-003	1.438498e-003	3.252494e-003	-8.712849e-004	1.688457e-003	9.910813e-001	-2.261578e-003
10299700	9.420031e-001	-6.648686e-002	3.689119e-003	4.832837e-002	4.343099e-003	4.918714e-002	9.883813e-001	-5.369587e-002
20299400	9.267585e-001	-1.223226e-001	1.489563e-002	9.415494e-002	1.513374e-002	9.540396e-002	9.783269e-001	-1.038882e-001
30299100	9.066148e-001	-1.751318e-001	3.195701e-002	1.374809e-001	3.221478e-002	1.384742e-001	9.625998e-001	-1.514047e-001
40298800	8.798859e-001	-2.233581e-001	5.494486e-002	1.765264e-001	5.521080e-002	1.775983e-001	9.409687e-001	-1.964570e-001
50298500	8.507740e-001	-2.666585e-001	8.209024e-002	2.111025e-001	8.225091e-002	2.120921e-001	9.165843e-001	-2.354471e-001
60298200	8.174530e-001	-3.044443e-001	1.121433e-001	2.399478e-001	1.123481e-001	2.410236e-001	8.882759e-001	-2.701839e-001
70297900	7.819880e-001	-3.359456e-001	1.444876e-001	2.642054e-001	1.444107e-001	2.643186e-001	8.573143e-001	-3.002497e-001
80297600	7.464668e-001	-3.618430e-001	1.769570e-001	2.832322e-001	1.776933e-001	2.833114e-001	8.262035e-001	-3.252754e-001
90297300	7.092311e-001	-3.841786e-001	2.112273e-001	2.969676e-001	2.109588e-001	2.968224e-001	7.956879e-001	-3.460813e-001
100297000	6.741976e-001	-4.006916e-001	2.436508e-001	3.065503e-001	2.434410e-001	3.064431e-001	7.645764e-001	-3.625065e-001
110296700	6.392770e-001	-4.142538e-001	2.751842e-001	3.117295e-001	2.749476e-001	3.118276e-001	7.347970e-001	-3.754726e-001
120296400	6.074233e-001	-4.229439e-001	3.046239e-001	3.144886e-001	3.045325e-001	3.142420e-001	7.063741e-001	-3.854543e-001
130296100	5.768370e-001	-4.282568e-001	3.325821e-001	3.143614e-001	3.323835e-001	3.139442e-001	6.793999e-001	-3.919960e-001
140295800	5.469441e-001	-4.325978e-001	3.589559e-001	3.117398e-001	3.596681e-001	3.119168e-001	6.534530e-001	-3.978567e-001
150295500	5.197726e-001	-4.355772e-001	3.831701e-001	3.077849e-001	3.834031e-001	3.078148e-001	6.291344e-001	-4.019838e-001
160295200	4.949225e-001	-4.355242e-001	4.056642e-001	3.016904e-001	4.058414e-001	3.021984e-001	6.071444e-001	-4.035533e-001
170294900	4.716797e-001	-4.345419e-001	4.273762e-001	2.937745e-001	4.271007e-001	2.948514e-001	5.867190e-001	-4.051994e-001
180294600	4.507565e-001	-4.319729e-001	4.460257e-001	2.869684e-001	4.460665e-001	2.864846e-001	5.681927e-001	-4.049252e-001
190294300	4.303400e-001	-4.296873e-001	4.638923e-001	2.779007e-001	4.635952e-001	2.779322e-001	5.507024e-001	-4.050464e-001
200294000	4.126529e-001	-4.251438e-001	4.798326e-001	2.696855e-001	4.793873e-001	2.690305e-001	5.350392e-001	-4.041608e-001
210293700	3.946244e-001	-4.231356e-001	4.942268e-001	2.595216e-001	4.945962e-001	2.591364e-001	5.198408e-001	-4.033181e-001
220293400	3.800361e-001	-4.178539e-001	5.074939e-001	2.509964e-001	5.076158e-001	2.505728e-001	5.063955e-001	-4.010017e-001
230293100	3.651189e-001	-4.146115e-001	5.202355e-001	2.402659e-001	5.205930e-001	2.398984e-001	4.930941e-001	-3.995058e-001
240292800	3.515188e-001	-4.106212e-001	5.313865e-001	2.297042e-001	5.320071e-001	2.300390e-001	4.809339e-001	-3.975267e-001
250292500	3.400221e-001	-4.063493e-001	5.415271e-001	2.203965e-001	5.422051e-001	2.203881e-001	4.694059e-001	-3.952367e-001
260292200	3.282161e-001	-4.025029e-001	5.507591e-001	2.103626e-001	5.515364e-001	2.101869e-001	4.592190e-001	-3.935570e-001
270291900	3.181867e-001	-3.984897e-001	5.598082e-001	2.007334e-001	5.600827e-001	2.005315e-001	4.499708e-001	-3.922655e-001
280291600	3.081786e-001	-3.946133e-001	5.679226e-001	1.905200e-001	5.674992e-001	1.906812e-001	4.410401e-001	-3.906727e-001
290291300	2.990796e-001	-3.910617e-001	5.750097e-001	1.805094e-001	5.750679e-001	1.806591e-001	4.325885e-001	-3.888746e-001
300291000	2.906297e-001	-3.874551e-001	5.813944e-001	1.710663e-001	5.813048e-001	1.712630e-001	4.244796e-001	-3.870101e-001
310290700	2.830078e-001	-3.825467e-001	5.872279e-001	1.631571e-001	5.873591e-001	1.629159e-001	4.172687e-001	-3.855237e-001
320290400	2.761185e-001	-3.792062e-001	5.925999e-001	1.543562e-001	5.928323e-001	1.535305e-001	4.102509e-001	-3.843198e-001
330290100	2.701620e-001	-3.758446e-001	5.975830e-001	1.457222e-001	5.978692e-001	1.451009e-001	4.034947e-001	-3.825771e-001
340289800	2.639662e-001	-3.729607e-001	6.021403e-001	1.373303e-001	6.021531e-001	1.368943e-001	3.971154e-001	-3.814218e-001
350289500	2.569521e-001	-3.702514e-001	6.064577e-001	1.277801e-001	6.066181e-001	1.275184e-001	3.908647e-001	-3.807322e-001
360289200	2.507704e-001	-3.683935e-001	6.101605e-001	1.185192e-001	6.100981e-001	1.185260e-001	3.848247e-001	-3.803591e-001
370288900	2.453401e-001	-3.657371e-001	6.131932e-001	1.104288e-001	6.140865e-001	1.102594e-001	3.795428e-001	-3.794161e-001
380288600	2.392191e-001	-3.638041e-001	6.161261e-001	1.011931e-001	6.165926e-001	1.016652e-001	3.739608e-001	-3.796348e-001
390288300	2.354817e-001	-3.608017e-001	6.187694e-001	9.556433e-002	6.189633e-001	9.483536e-002	3.697034e-001	-3.795844e-001
400288000	2.310506e-001	-3.586583e-001	6.213110e-001	8.708180e-002	6.217574e-001	8.720880e-002	3.653001e-001	-3.794210e-001
410287700	2.254344e-001	-3.578349e-001	6.235407e-001	7.844684e-002	6.242838e-001	7.851898e-002	3.601435e-001	-3.796274e-001
420287400	2.212850e-001	-3.555218e-001	6.255913e-001	7.072628e-002	6.265252e-001	7.095193e-002	3.567452e-001	-3.788846e-001
430287100	2.169688e-001	-3.540372e-001	6.273742e-001	6.302700e-002	6.283644e-001	6.318386e-002	3.525689e-001	-3.788847e-001
440286800	2.144624e-001	-3.511930e-001	6.290230e-001	5.743324e-002	6.303194e-001	5.722221e-002	3.492567e-001	-3.780127e-001
450286500	2.110856e-001	-3.503227e-001	6.311078e-001	5.013702e-002	6.316455e-001	5.055919e-002	3.454647e-001	-3.787046e-001
460286200	2.070951e-001	-3.495748e-001	6.319355e-001	4.275056e-002	6.329471e-001	4.304229e-002	3.410813e-001	-3.791881e-001
470285900	2.031634e-001	-3.482603e-001	6.328407e-001	3.552217e-002	6.338724e-001	3.605295e-002	3.376087e-001	-3.792207e-001
480285600	1.999750e-001	-3.469095e-001	6.342757e-001	2.952623e-002	6.350790e-001	2.963149e-002	3.340699e-001	-3.797310e-001
490285300	1.977173e-001	-3.455426e-001	6.347634e-001	2.341061e-002	6.358454e-001	2.352278e-002	3.308803e-001	-3.808611e-001
500285000	1.942301e-001	-3.443389e-001	6.355439e-001	1.683618e-002	6.364043e-001	1.701546e-002	3.267882e-001	-3.812948e-001
510284700	1.913718e-001	-3.440854e-001	6.358529e-001	1.053253e-002	6.366912e-001	1.073097e-002	3.237169e-001	-3.822628e-001
520284400	1.881185e-001	-3.430563e-001	6.366917e-001	3.963931e-003	6.374824e-001	3.915588e-003	3.199511e-001	-3.828258e-001
530284100	1.865170e-001	-3.428432e-001	6.368131e-001	-1.826985e-003	6.379411e-001	-1.585029e-003	3.162862e-001	-3.833941e-001
540283800	1.827167e-001	-3.428637e-001	6.369166e-001	-8.066976e-003	6.374772e-001	-8.035563e-003	3.134602e-001	-3.845463e-001
550283500	1.803398e-001	-3.423486e-001	6.366118e-001	-1.407013e-002	6.378149e-001	-1.368617e-002	3.096932e-001	-3.857527e-001
560283200	1.772182e-001	-3.417978e-001	6.364307e-001	-1.963235e-002	6.377751e-001	-1.967519e-002	3.067458e-001	-3.872859e-001
570282900	1.743956e-001	-3.416381e-001	6.360823e-001	-2.514322e-002	6.376296e-001	-2.543118e-002	3.042794e-001	-3.887108e-001
580282600	1.720216e-001	-3.417849e-001	6.356218e-001	-3.088194e-002	6.371453e-001	-3.089490e-002	3.016240e-001	-3.899758e-001
590282300	1.697635e-001	-3.412047e-001	6.352817e-001	-3.580102e-002	6.368595e-001	-3.641260e-002	2.990879e-001	-3.914276e-001
600282000	1.669390e-001	-3.415285e-001	6.345944e-001	-4.094277e-002	6.361979e-001	-4.172283e-002	2.966320e-001	-3.931283e-001
610281700	1.654104e-001	-3.407812e-001	6.346088e-001	-4.612018e-002	6.357845e-001	-4.707470e-002	2.942530e-001	-3.945698e-001
620281400	1.628180e-001	-3.409674e-001	6.338462e-001	-5.128238e-002	6.349695e-001	-5.191626e-002	2.918738e-001	-3.957644e-001
630281100	1.607879e-001	-3.405964e-001	6.333834e-001	-5.668165e-002	6.348213e-001	-5.706594e-002	2.893732e-001	-3.963329e-001
640280800	1.585021e-001	-3.405442e-001	6.325300e-001	-6.215070e-002	6.338243e-001	-6.239187e-002	2.866773e-001	-3.980166e-001
650280500	1.562827e-001	-3.405347e-001	6.318210e-001	-6.738218e-002	6.332557e-001	-6.783465e-002	2.838913e-001	-3.991379e-001
660280200	1.540234e-001	-3.405913e-001	6.310177e-001	-7.204318e-002	6.324138e-001	-7.254329e-002	2.811763e-001	-4.003490e-001
670279900	1.523588e-001	-3.409032e-001	6.298474e-001	-7.675740e-002	6.315537e-001	-7.717473e-002	2.786223e-001	-4.022351e-001
680279600	1.511571e-001	-3.400154e-001	6.287060e-001	-8.121608e-002	6.306501e-001	-8.199476e-002	2.757742e-001	-4.040523e-001
690279300	1.489245e-001	-3.398241e-001	6.275631e-001	-8.612165e-002	6.291382e-001	-8.649058e-002	2.732390e-001	-4.063735e-001
700279000	1.474109e-001	-3.404948e-001	6.262288e-001	-9.118172e-002	6.280878e-001	-9.127429e-002	2.703341e-001	-4.084773e-001
710278700	1.453887e-001	-3.407467e-001	6.250031e-001	-9.584169e-002	6.267895e-001	-9.567979e-002	2.674248e-001	-4.097155e-001
720278400	1.439501e-001	-3.408348e-001	6.239971e-001	-9.932488e-002	6.255730e-001	-1.000949e-001	2.643332e-001	-4.114829e-001
730278100	1.430739e-001	-3.410740e-001	6.227592e-001	-1.034539e-001	6.240589e-001	-1.036205e-001	2.611158e-001	-4.131113e-001
740277800	1.410978e-001	-3.416250e-001	6.216443e-001	-1.074716e-001	6.229079e-001	-1.080845e-001	2.575225e-001	-4.147931e-001
750277500	1.397102e-001	-3.427714e-001	6.204366e-001	-1.114050e-001	6.217376e-001	-1.116895e-001	2.541617e-001	-4.165909e-001
760277200	1.378524e-001	-3.436997e-001	6.189781e-001	-1.152407e-001	6.204208e-001	-1.156738e-001	2.515420e-001	-4.191206e-001
770276900	1.363714e-001	-3.444648e-001	6.177395e-001	-1.190580e-001	6.192027e-001	-1.195233e-001	2.483468e-001	-4.210396e-001
780276600	1.347521e-001	-3.455816e-001	6.162510e-001	-1.232566e-001	6.181065e-001	-1.234847e-001	2.460321e-001	-4.232678e-001
790276300	1.328431e-001	-3.467921e-001	6.150275e-001	-1.269580e-001	6.166940e-001	-1.276905e-001	2.441975e-001	-4.245737e-001
800276000	1.308418e-001	-3.477289e-001	6.139083e-001	-1.303085e-001	6.152727e-001	-1.311169e-001	2.409601e-001	-4.267044e-001
810275700	1.290232e-001	-3.481483e-001	6.125346e-001	-1.341256e-001	6.142669e-001	-1.352980e-001	2.389226e-001	-4.282232e-001
820275400	1.279420e-001	-3.490671e-001	6.117806e-001	-1.377711e-001	6.129616e-001	-1.388390e-001	2.362662e-001	-4.296929e-001
830275100	1.256726e-001	-3.498904e-001	6.103817e-001	-1.417200e-001	6.121216e-001	-1.422515e-001	2.336305e-001	-4.301871e-001
840274800	1.240173e-001	-3.505180e-001	6.091298e-001	-1.456189e-001	6.106118e-001	-1.462936e-001	2.306993e-001	-4.316608e-001
850274500	1.223784e-001	-3.520338e-001	6.074641e-001	-1.494902e-001	6.092976e-001	-1.499742e-001	2.286475e-001	-4.332379e-001
860274200	1.203783e-001	-3.530051e-001	6.066768e-001	-1.533972e-001	6.082426e-001	-1.536804e-001	2.254005e-001	-4.348324e-001
870273900	1.179882e-001	-3.534445e-001	6.050383e-001	-1.569946e-001	6.067882e-001	-1.573693e-001	2.233969e-001	-4.360841e-001
880273600	1.162864e-001	-3.546308e-001	6.031240e-001	-1.603202e-001	6.053601e-001	-1.616328e-001	2.204742e-001	-4.380903e-001
890273300	1.152164e-001	-3.556025e-001	6.019632e-001	-1.641188e-001	6.035654e-001	-1.646057e-001	2.171420e-001	-4.398339e-001
900273000	1.136225e-001	-3.562193e-001	6.003708e-001	-1.673156e-001	6.018609e-001	-1.685604e-001	2.153277e-001	-4.414808e-001
910272700	1.121016e-001	-3.567684e-001	5.991530e-001	-1.705221e-001	6.003815e-001	-1.718912e-001	2.121273e-001	-4.428939e-001
920272400	1.102531e-001	-3.578227e-001	5.972103e-001	-1.741302e-001	5.986898e-001	-1.756286e-001	2.097187e-001	-4.441987e-001
930272100	1.082933e-001	-3.591795e-001	5.957770e-001	-1.781595e-001	5.968929e-001	-1.793077e-001	2.063956e-001	-4.460113e-001
940271800	1.062422e-001	-3.602651e-001	5.936976e-001	-1.810243e-001	5.952064e-001	-1.821492e-001	2.035681e-001	-4.476939e-001
950271500	1.045636e-001	-3.605229e-001	5.922175e-001	-1.847803e-001	5.938174e-001	-1.854010e-001	2.013121e-001	-4.496075e-001
960271200	1.024412e-001	-3.619768e-001	5.904989e-001	-1.879592e-001	5.917667e-001	-1.887193e-001	1.984018e-001	-4.514796e-001
970270900	1.007002e-001	-3.625656e-001	5.888599e-001	-1.906372e-001	5.895147e-001	-1.917897e-001	1.956687e-001	-4.535124e-001
980270600	9.836754e-002	-3.627544e-001	5.865698e-001	-1.934951e-001	5.877396e-001	-1.950253e-001	1.937207e-001	-4.556110e-001
990270300	9.665078e-002	-3.644254e-001	5.847976e-001	-1.966921e-001	5.862355e-001	-1.978823e-001	1.917643e-001	-4.572134e-001
1000270000	9.479470e-002	-3.649539e-001	5.829557e-001	-1.996045e-001	5.843011e-001	-2.013607e-001	1.891135e-001	-4.597682e-001
1010269700	9.298178e-002	-3.659665e-001	5.811029e-001	-2.029188e-001	5.825320e-001	-2.042026e-001	1.869683e-001	-4.608211e-001
1020269400	9.104967e-002	-3.667916e-001	5.793267e-001	-2.057810e-001	5.805879e-001	-2.068990e-001	1.837515e-001	-4.628542e-001
1030269100	8.908602e-002	-3.681515e-001	5.777408e-001	-2.091468e-001	5.788129e-001	-2.098415e-001	1.823043e-001	-4.640264e-001
1040268800	8.754135e-002	-3.687575e-001	5.760337e-001	-2.117528e-001	5.768536e-001	-2.135285e-001	1.788394e-001	-4.656292e-001
1050268500	8.555995e-002	-3.695885e-001	5.738701e-001	-2.149595e-001	5.747338e-001	-2.160443e-001	1.762496e-001	-4.665179e-001
1060268200	8.430739e-002	-3.710479e-001	5.719255e-001	-2.179781e-001	5.732416e-001	-2.188829e-001	1.743807e-001	-4.690318e-001
1070267900	8.293126e-002	-3.715191e-001	5.702657e-001	-2.206033e-001	5.717441e-001	-2.215569e-001	1.720353e-001	-4.696725e-001
1080267600	8.097764e-002	-3.728859e-001	5.679801e-001	-2.232893e-001	5.696804e-001	-2.244699e-001	1.691540e-001	-4.711964e-001
1090267300	7.952151e-002	-3.733247e-001	5.661765e-001	-2.257981e-001	5.673474e-001	-2.270458e-001	1.662691e-001	-4.727253e-001
1100267000	7.746267e-002	-3.741675e-001	5.637301e-001	-2.286636e-001	5.655777e-001	-2.303552e-001	1.632712e-001	-4.743433e-001
1110266700	7.627452e-002	-3.751109e-001	5.620247e-001	-2.314029e-001	5.632157e-001	-2.327381e-001	1.602768e-001	-4.758461e-001
1120266400	7.463813e-002	-3.758614e-001	5.596950e-001	-2.341139e-001	5.615335e-001	-2.354943e-001	1.574467e-001	-4.776639e-001
1130266100	7.256686e-002	-3.773877e-001	5.571771e-001	-2.373338e-001	5.590865e-001	-2.379952e-001	1.547597e-001	-4.791318e-001
1140265800	7.082813e-002	-3.771233e-001	5.558112e-001	-2.397249e-001	5.573077e-001	-2.406046e-001	1.518224e-001	-4.802776e-001
1150265500	6.874001e-002	-3.788699e-001	5.536622e-001	-2.423671e-001	5.553744e-001	-2.430520e-001	1.493559e-001	-4.821735e-001
1160265200	6.688921e-002	-3.787565e-001	5.515283e-001	-2.441923e-001	5.531995e-001	-2.455253e-001	1.461116e-001	-4.836803e-001
1170264900	6.515251e-002	-3.799812e-001	5.493351e-001	-2.470013e-001	5.513046e-001	-2.480721e-001	1.435683e-001	-4.861194e-001
1180264600	6.345950e-002	-3.806681e-001	5.472336e-001	-2.492145e-001	5.491797e-001	-2.504225e-001	1.415180e-001	-4.878012e-001
1190264300	6.136445e-002	-3.817613e-001	5.451702e-001	-2.519645e-001	5.473040e-001	-2.528406e-001	1.388408e-001	-4.892474e-001
1200264000	5.977122e-002	-3.822806e-001	5.434413e-001	-2.541624e-001	5.451117e-001	-2.551614e-001	1.368392e-001	-4.908088e-001
1210263700	5.835048e-002	-3.829190e-001	5.413307e-001	-2.564741e-001	5.429765e-001	-2.572630e-001	1.340062e-001	-4.922715e-001
1220263400	5.705464e-002	-3.836963e-001	5.396392e-001	-2.584783e-001	5.410123e-001	-2.599039e-001	1.319584e-001	-4.933597e-001
1230263100	5.554308e-002	-3.844326e-001	5.375270e-001	-2.609572e-001	5.391857e-001	-2.623951e-001	1.298618e-001	-4.949059e-001
1240262800	5.388720e-002	-3.853804e-001	5.356550e-001	-2.631250e-001	5.370883e-001	-2.648965e-001	1.272232e-001	-4.960618e-001
1250262500	5.150511e-002	-3.863366e-001	5.331279e-001	-2.650587e-001	5.346101e-001	-2.669684e-001	1.243278e-001	-4.977159e-001
1260262200	5.018057e-002	-3.867934e-001	5.314446e-001	-2.673001e-001	5.329120e-001	-2.691866e-001	1.222864e-001	-4.986713e-001
1270261900	4.860991e-002	-3.884734e-001	5.294728e-001	-2.697742e-001	5.308995e-001	-2.716768e-001	1.190155e-001	-4.997723e-001
1280261600	4.727721e-002	-3.888018e-001	5.269281e-001	-2.718949e-001	5.290866e-001	-2.735528e-001	1.164303e-001	-5.015442e-001
1290261300	4.557530e-002	-3.902133e-001	5.247626e-001	-2.739921e-001	5.266687e-001	-2.759902e-001	1.134923e-001	-5.032502e-001
1300261000	4.389716e-002	-3.906563e-001	5.228766e-001	-2.760300e-001	5.244209e-001	-2.782074e-001	1.108000e-001	-5.042596e-001
1310260700	4.270354e-002	-3.912318e-001	5.207210e-001	-2.781995e-001	5.216055e-001	-2.801613e-001	1.075487e-001	-5.054777e-001
1320260400	4.071168e-002	-3.921339e-001	5.180121e-001	-2.802902e-001	5.195512e-001	-2.820759e-001	1.048254e-001	-5.063401e-001
1330260100	3.900855e-002	-3.929088e-001	5.161431e-001	-2.826195e-001	5.174036e-001	-2.844206e-001	1.020975e-001	-5.076433e-001
1340259800	3.700404e-002	-3.937556e-001	5.139219e-001	-2.843748e-001	5.146877e-001	-2.862306e-001	9.914857e-002	-5.099332e-001
1350259500	3.586416e-002	-3.940385e-001	5.123468e-001	-2.864285e-001	5.126208e-001	-2.880121e-001	9.609630e-002	-5.108484e-001
1360259200	3.303858e-002	-3.946435e-001	5.094543e-001	-2.884575e-001	5.103545e-001	-2.899314e-001	9.368512e-002	-5.121736e-001
1370258900	3.131565e-002	-3.945681e-001	5.072202e-001	-2.897519e-001	5.084741e-001	-2.918759e-001	9.150204e-002	-5.139461e-001
1380258600	3.021251e-002	-3.956670e-001	5.051805e-001	-2.919288e-001	5.063202e-001	-2.930321e-001	8.869714e-002	-5.154951e-001
1390258300	2.826033e-002	-3.966728e-001	5.029559e-001	-2.936192e-001	5.042021e-001	-2.951395e-001	8.654860e-002	-5.165580e-001
1400258000	2.634787e-002	-3.964903e-001	5.006892e-001	-2.954408e-001	5.020885e-001	-2.971051e-001	8.412696e-002	-5.178730e-001
1410257700	2.474573e-002	-3.969044e-001	4.991936e-001	-2.965606e-001	5.002643e-001	-2.987165e-001	8.239627e-002	-5.187905e-001
1420257400	2.406185e-002	-3.984774e-001	4.970171e-001	-2.991660e-001	4.979433e-001	-3.005843e-001	7.936552e-002	-5.196426e-001
1430257100	2.228208e-002	-3.989483e-001	4.946249e-001	-3.010461e-001	4.959341e-001	-3.024984e-001	7.695009e-002	-5.206452e-001
1440256800	2.001096e-002	-3.996369e-001	4.921901e-001	-3.023923e-001	4.932179e-001	-3.041050e-001	7.447890e-002	-5.217813e-001
1450256500	1.908179e-002	-4.000374e-001	4.904443e-001	-3.043086e-001	4.912946e-001	-3.058166e-001	7.108265e-002	-5.223193e-001
1460256200	1.736581e-002	-4.007008e-001	4.881243e-001	-3.060238e-001	4.888763e-001	-3.075541e-001	6.906986e-002	-5.231706e-001
1470255900	1.553585e-002	-4.013602e-001	4.857876e-001	-3.078806e-001	4.872051e-001	-3.092169e-001	6.633699e-002	-5.241627e-001
1480255600	1.477075e-002	-4.025050e-001	4.839755e-001	-3.097833e-001	4.849911e-001	-3.113295e-001	6.333453e-002	-5.256051e-001
1490255300	1.281562e-002	-4.030385e-001	4.811116e-001	-3.113508e-001	4.826749e-001	-3.125031e-001	6.011088e-002	-5.267611e-001
1500255000	1.087884e-002	-4.033023e-001	4.791009e-001	-3.131269e-001	4.803812e-001	-3.147411e-001	5.752804e-002	-5.277641e-001
1510254700	8.919360e-003	-4.043354e-001	4.765238e-001	-3.144918e-001	4.778393e-001	-3.160911e-001	5.349828e-002	-5.287334e-001
1520254400	7.967919e-003	-4.047595e-001	4.745319e-001	-3.163747e-001	4.754943e-001	-3.177458e-001	5.072904e-002	-5.296683e-001
1530254100	5.582360e-003	-4.057284e-001	4.723295e-001	-3.181554e-001	4.733252e-001	-3.194385e-001	4.812693e-002	-5.315908e-001
1540253800	3.399365e-003	-4.056445e-001	4.697769e-001	-3.191377e-001	4.706848e-001	-3.211112e-001	4.501693e-002	-5.337167e-001
1550253500	1.844378e-003	-4.064799e-001	4.676491e-001	-3.206720e-001	4.684018e-001	-3.223870e-001	4.261699e-002	-5.346899e-001
1560253200	7.508265e-004	-4.066793e-001	4.660143e-001	-3.218260e-001	4.663827e-001	-3.236133e-001	4.049889e-002	-5.354474e-001
1570252900	-1.118718e-003	-4.070753e-001	4.635851e-001	-3.233287e-001	4.639576e-001	-3.249115e-001	3.801593e-002	-5.366575e-001
1580252600	-2.508199e-003	-4.073643e-001	4.612347e-001	-3.247118e-001	4.624398e-001	-3.261180e-001	3.690699e-002	-5.374949e-001
1590252300	-4.366963e-003	-4.077004e-001	4.589217e-001	-3.259542e-001	4.599235e-001	-3.281526e-001	3.447463e-002	-5.389057e-001
1600252000	-6.084060e-003	-4.082440e-001	4.567946e-001	-3.271400e-001	4.573764e-001	-3.293603e-001	3.208761e-002	-5.395986e-001
1610251700	-7.761272e-003	-4.078590e-001	4.544847e-001	-3.284119e-001	4.561237e-001	-3.308084e-001	3.082737e-002	-5.403113e-001
1620251400	-9.727922e-003	-4.083272e-001	4.518948e-001	-3.297651e-001	4.533739e-001	-3.325258e-001	2.785704e-002	-5.413412e-001
1630251100	-1.108435e-002	-4.086229e-001	4.503349e-001	-3.311889e-001	4.508419e-001	-3.334127e-001	2.547647e-002	-5.417987e-001
1640250800	-1.270248e-002	-4.089908e-001	4.481440e-001	-3.325684e-001	4.483970e-001	-3.348176e-001	2.219277e-002	-5.419355e-001
1650250500	-1.444090e-002	-4.095413e-001	4.456377e-001	-3.345181e-001	4.464051e-001	-3.368817e-001	2.036104e-002	-5.429780e-001
1660250200	-1.576713e-002	-4.103939e-001	4.435719e-001	-3.362079e-001	4.439354e-001	-3.377867e-001	1.684127e-002	-5.431210e-001
1670249900	-1.784016e-002	-4.109325e-001	4.410242e-001	-3.374874e-001	4.413994e-001	-3.396402e-001	1.292539e-002	-5.439144e-001
1680249600	-1.946559e-002	-4.107509e-001	4.386051e-001	-3.387815e-001	4.389718e-001	-3.404344e-001	1.009470e-002	-5.440275e-001
1690249300	-2.149742e-002	-4.117775e-001	4.360636e-001	-3.401574e-001	4.375695e-001	-3.418658e-001	7.603725e-003	-5.451491e-001
1700249000	-2.371386e-002	-4.118263e-001	4.333331e-001	-3.412051e-001	4.350135e-001	-3.433599e-001	3.665675e-003	-5.460420e-001
1710248700	-2.488026e-002	-4.127279e-001	4.309976e-001	-3.422959e-001	4.324323e-001	-3.443712e-001	4.786538e-004	-5.467394e-001
1720248400	-2.615984e-002	-4.133007e-001	4.290288e-001	-3.435171e-001	4.294467e-001	-3.448636e-001	-2.711172e-003	-5.473673e-001
1730248100	-2.771336e-002	-4.127872e-001	4.268896e-001	-3.442583e-001	4.269581e-001	-3.467745e-001	-5.848344e-003	-5.491830e-001
1740247800	-3.016359e-002	-4.137652e-001	4.240727e-001	-3.453223e-001	4.244497e-001	-3.472293e-001	-8.298707e-003	-5.496830e-001
1750247500	-3.136707e-002	-4.134879e-001	4.215948e-001	-3.461555e-001	4.216886e-001	-3.482491e-001	-1.131006e-002	-5.505582e-001
1760247200	-3.354826e-002	-4.140712e-001	4.194587e-001	-3.471079e-001	4.197158e-001	-3.486228e-001	-1.352575e-002	-5.515915e-001
1770246900	-3.508766e-002	-4.142817e-001	4.167600e-001	-3.479878e-001	4.181508e-001	-3.502827e-001	-1.458721e-002	-5.530433e-001
1780246600	-3.643103e-002	-4.142416e-001	4.147249e-001	-3.491260e-001	4.154685e-001	-3.511844e-001	-1.706885e-002	-5.534546e-001
1790246300	-3.800419e-002	-4.140315e-001	4.127232e-001	-3.497684e-001	4.132036e-001	-3.522619e-001	-1.926254e-002	-5.542529e-001
1800246000	-3.999267e-002	-4.135933e-001	4.099422e-001	-3.505801e-001	4.107325e-001	-3.532299e-001	-2.223704e-002	-5.549692e-001
1810245700	-4.147002e-002	-4.135648e-001	4.079593e-001	-3.512991e-001	4.086577e-001	-3.543387e-001	-2.413627e-002	-5.549456e-001
1820245400	-4.298372e-002	-4.138682e-001	4.055505e-001	-3.523575e-001	4.060335e-001	-3.549514e-001	-2.646093e-002	-5.552374e-001
1830245100	-4.449031e-002	-4.143142e-001	4.034265e-001	-3.541547e-001	4.033932e-001	-3.559466e-001	-2.957136e-002	-5.555426e-001
1840244800	-4.668609e-002	-4.139593e-001	4.008429e-001	-3.548086e-001	4.009670e-001	-3.574426e-001	-3.257119e-002	-5.558566e-001
1850244500	-4.820287e-002	-4.138908e-001	3.990030e-001	-3.552822e-001	3.988872e-001	-3.583831e-001	-3.536922e-002	-5.557866e-001
1860244200	-4.998422e-002	-4.140659e-001	3.959721e-001	-3.568663e-001	3.967230e-001	-3.595216e-001	-3.864185e-002	-5.558538e-001
1870243900	-5.212281e-002	-4.147309e-001	3.934102e-001	-3.584043e-001	3.940759e-001	-3.600616e-001	-4.221413e-002	-5.553657e-001
1880243600	-5.384802e-002	-4.146186e-001	3.913943e-001	-3.585720e-001	3.915302e-001	-3.610491e-001	-4.562128e-002	-5.554111e-001
1890243300	-5.582700e-002	-4.150196e-001	3.881297e-001	-3.593165e-001	3.893608e-001	-3.615221e-001	-4.881876e-002	-5.555649e-001
1900243000	-5.699308e-002	-4.153524e-001	3.857195e-001	-3.603896e-001	3.871953e-001	-3.619757e-001	-5.205130e-002	-5.556181e-001
1910242700	-5.907243e-002	-4.147384e-001	3.826672e-001	-3.605541e-001	3.840344e-001	-3.630337e-001	-5.594605e-002	-5.555382e-001
1920242400	-6.052621e-002	-4.151695e-001	3.803421e-001	-3.610989e-001	3.812157e-001	-3.635508e-001	-5.948575e-002	-5.564327e-001
1930242100	-6.258491e-002	-4.152163e-001	3.777484e-001	-3.613414e-001	3.783189e-001	-3.642087e-001	-6.248891e-002	-5.568984e-001
1940241800	-6.449428e-002	-4.147969e-001	3.749446e-001	-3.622258e-001	3.754507e-001	-3.644763e-001	-6.584862e-002	-5.579274e-001
1950241500	-6.642450e-002	-4.148775e-001	3.723982e-001	-3.628321e-001	3.725528e-001	-3.648051e-001	-6.862138e-002	-5.581112e-001
1960241200	-6.776359e-002	-4.144413e-001	3.699627e-001	-3.635242e-001	3.704024e-001	-3.649846e-001	-7.086972e-002	-5.582005e-001
1970240900	-6.945088e-002	-4.140650e-001	3.673971e-001	-3.636428e-001	3.679366e-001	-3.662058e-001	-7.358077e-002	-5.590671e-001
1980240600	-7.117185e-002	-4.132148e-001	3.650016e-001	-3.637832e-001	3.652031e-001	-3.658003e-001	-7.622974e-002	-5.581414e-001
1990240300	-7.280197e-002	-4.125443e-001	3.625246e-001	-3.638927e-001	3.631868e-001	-3.665031e-001	-7.859476e-002	-5.584357e-001
2000240000	-7.462421e-002	-4.120413e-001	3.597521e-001	-3.643192e-001	3.611448e-001	-3.664362e-001	-8.061599e-002	-5.582973e-001
2010239700	-7.620329e-002	-4.112293e-001	3.575726e-001	-3.641684e-001	3.584699e-001	-3.665257e-001	-8.336527e-002	-5.574405e-001
2020239400	-7.794249e-002	-4.106844e-001	3.549854e-001	-3.641011e-001	3.558905e-001	-3.669229e-001	-8.641793e-002	-5.569777e-001
2030239100	-7.960633e-002	-4.105677e-001	3.525778e-001	-3.647212e-001	3.533573e-001	-3.668113e-001	-8.949110e-002	-5.557609e-001
2040238800	-8.128166e-002	-4.101464e-001	3.500963e-001	-3.650437e-001	3.499869e-001	-3.675279e-001	-9.330717e-002	-5.550813e-001
2050238500	-8.316661e-002	-4.093819e-001	3.472033e-001	-3.651763e-001	3.479252e-001	-3.671172e-001	-9.644570e-002	-5.540797e-001
2060238200	-8.437574e-002	-4.085987e-001	3.445709e-001	-3.647816e-001	3.456461e-001	-3.673490e-001	-1.000693e-001	-5.528938e-001
2070237900	-8.617310e-002	-4.084988e-001	3.421549e-001	-3.652026e-001	3.427124e-001	-3.673072e-001	-1.039865e-001	-5.510714e-001
2080237600	-8.814962e-002	-4.077280e-001	3.386638e-001	-3.648207e-001	3.404939e-001	-3.669038e-001	-1.077030e-001	-5.501321e-001
2090237300	-8.949070e-002	-4.074815e-001	3.361160e-001	-3.651661e-001	3.380332e-001	-3.663428e-001	-1.112310e-001	-5.483671e-001
2100237000	-9.135214e-002	-4.065200e-001	3.333369e-001	-3.642972e-001	3.354242e-001	-3.661173e-001	-1.149484e-001	-5.467930e-001
2110236700	-9.280079e-002	-4.058252e-001	3.311553e-001	-3.635605e-001	3.325071e-001	-3.654897e-001	-1.182785e-001	-5.454711e-001
2120236400	-9.495875e-002	-4.046575e-001	3.280524e-001	-3.635025e-001	3.297111e-001	-3.647825e-001	-1.223640e-001	-5.449738e-001
2130236100	-9.594301e-002	-4.036094e-001	3.259558e-001	-3.626720e-001	3.270702e-001	-3.644442e-001	-1.262326e-001	-5.440056e-001
2140235800	-9.757714e-002	-4.019248e-001	3.233441e-001	-3.616840e-001	3.246094e-001	-3.638987e-001	-1.291833e-001	-5.436884e-001
2150235500	-9.912062e-002	-4.013271e-001	3.215053e-001	-3.609283e-001	3.224108e-001	-3.629436e-001	-1.321412e-001	-5.427464e-001
2160235200	-1.007216e-001	-3.995055e-001	3.184507e-001	-3.596664e-001	3.200480e-001	-3.618988e-001	-1.346783e-001	-5.410400e-001
2170234900	-1.025133e-001	-3.984528e-001	3.166192e-001	-3.585738e-001	3.177036e-001	-3.605161e-001	-1.376070e-001	-5.393731e-001
2180234600	-1.034468e-001	-3.969620e-001	3.149048e-001	-3.574988e-001	3.156921e-001	-3.591342e-001	-1.400442e-001	-5.373384e-001
2190234300	-1.051804e-001	-3.951670e-001	3.118316e-001	-3.562618e-001	3.135452e-001	-3.574018e-001	-1.424889e-001	-5.350277e-001
2200234000	-1.065283e-001	-3.936940e-001	3.095921e-001	-3.543788e-001	3.117684e-001	-3.563594e-001	-1.447429e-001	-5.327463e-001
2210233700	-1.069773e-001	-3.915392e-001	3.083050e-001	-3.530177e-001	3.098782e-001	-3.546069e-001	-1.468563e-001	-5.297943e-001
2220233400	-1.078862e-001	-3.905943e-001	3.067479e-001	-3.517804e-001	3.075147e-001	-3.532176e-001	-1.488761e-001	-5.262009e-001
2230233100	-1.089047e-001	-3.888654e-001	3.046497e-001	-3.498748e-001	3.060032e-001	-3.514957e-001	-1.510742e-001	-5.235398e-001
2240232800	-1.096874e-001	-3.871581e-001	3.030161e-001	-3.483957e-001	3.041666e-001	-3.498806e-001	-1.533408e-001	-5.195188e-001
2250232500	-1.104190e-001	-3.851890e-001	3.016617e-001	-3.467268e-001	3.029448e-001	-3.479099e-001	-1.555188e-001	-5.153528e-001
2260232200	-1.098919e-001	-3.834596e-001	3.010434e-001	-3.441958e-001	3.019596e-001	-3.457248e-001	-1.572595e-001	-5.109942e-001
2270231900	-1.106741e-001	-3.812654e-001	2.997933e-001	-3.423979e-001	3.004986e-001	-3.443334e-001	-1.602076e-001	-5.063976e-001
2280231600	-1.109655e-001	-3.792103e-001	2.990639e-001	-3.401188e-001	3.002086e-001	-3.417858e-001	-1.612007e-001	-5.020707e-001
2290231300	-1.101555e-001	-3.774573e-001	2.987928e-001	-3.378254e-001	3.003198e-001	-3.399925e-001	-1.625336e-001	-4.984011e-001
2300231000	-1.103543e-001	-3.756838e-001	2.986029e-001	-3.358484e-001	3.000245e-001	-3.376017e-001	-1.635641e-001	-4.945083e-001
2310230700	-1.104475e-001	-3.739386e-001	2.981175e-001	-3.342032e-001	2.999820e-001	-3.355421e-001	-1.642959e-001	-4.903476e-001
2320230400	-1.097667e-001	-3.725557e-001	2.976813e-001	-3.325933e-001	3.004950e-001	-3.333836e-001	-1.642398e-001	-4.875060e-001
2330230100	-1.087021e-001	-3.708949e-001	2.987317e-001	-3.304108e-001	3.002043e-001	-3.316677e-001	-1.634986e-001	-4.840428e-001
2340229800	-1.080245e-001	-3.695662e-001	2.994849e-001	-3.287984e-001	3.009750e-001	-3.299395e-001	-1.631030e-001	-4.814280e-001
2350229500	-1.071199e-001	-3.682314e-001	3.000141e-001	-3.273967e-001	3.018584e-001	-3.285437e-001	-1.615224e-001	-4.783816e-001
2360229200	-1.060067e-001	-3.668709e-001	3.016930e-001	-3.256892e-001	3.032826e-001	-3.269608e-001	-1.590184e-001	-4.759258e-001
2370228900	-1.051825e-001	-3.657863e-001	3.033518e-001	-3.247471e-001	3.049352e-001	-3.257771e-001	-1.568929e-001	-4.731842e-001
2380228600	-1.032441e-001	-3.653415e-001	3.050536e-001	-3.240420e-001	3.065832e-001	-3.258877e-001	-1.541167e-001	-4.711196e-001
2390228300	-1.021394e-001	-3.646015e-001	3.072683e-001	-3.235264e-001	3.088878e-001	-3.250905e-001	-1.509676e-001	-4.689425e-001
2400228000	-1.005905e-001	-3.645554e-001	3.091255e-001	-3.237992e-001	3.109210e-001	-3.245832e-001	-1.473583e-001	-4.671213e-001
2410227700	-9.935014e-002	-3.645367e-001	3.108105e-001	-3.236579e-001	3.121806e-001	-3.253269e-001	-1.442491e-001	-4.654158e-001
2420227400	-9.822108e-002	-3.648950e-001	3.123268e-001	-3.247764e-001	3.141823e-001	-3.256726e-001	-1.406737e-001	-4.643349e-001
2430227100	-9.646470e-002	-3.656100e-001	3.138237e-001	-3.253515e-001	3.156819e-001	-3.270657e-001	-1.376887e-001	-4.636732e-001
2440226800	-9.530640e-002	-3.662454e-001	3.158546e-001	-3.262260e-001	3.170294e-001	-3.282439e-001	-1.343714e-001	-4.631751e-001
2450226500	-9.413945e-002	-3.668344e-001	3.169640e-001	-3.281615e-001	3.183331e-001	-3.299137e-001	-1.324818e-001	-4.625041e-001
2460226200	-9.280224e-002	-3.678295e-001	3.185220e-001	-3.296160e-001	3.196629e-001	-3.321381e-001	-1.300855e-001	-4.623283e-001
2470225900	-9.216126e-002	-3.689594e-001	3.195918e-001	-3.314906e-001	3.206948e-001	-3.332237e-001	-1.281202e-001	-4.628095e-001
2480225600	-9.132104e-002	-3.698037e-001	3.206734e-001	-3.334269e-001	3.217662e-001	-3.353569e-001	-1.266933e-001	-4.632112e-001
2490225300	-9.108799e-002	-3.712680e-001	3.210995e-001	-3.358902e-001	3.224568e-001	-3.369739e-001	-1.258853e-001	-4.642398e-001
2500225000	-9.082863e-002	-3.726935e-001	3.218979e-001	-3.380338e-001	3.230787e-001	-3.395492e-001	-1.246134e-001	-4.660798e-001
2510224700	-9.060986e-002	-3.741407e-001	3.222638e-001	-3.403555e-001	3.230183e-001	-3.416736e-001	-1.241241e-001	-4.676430e-001
2520224400	-9.047617e-002	-3.752635e-001	3.220926e-001	-3.423214e-001	3.232172e-001	-3.444195e-001	-1.235027e-001	-4.701270e-001
2530224100	-9.093531e-002	-3.765597e-001	3.220319e-001	-3.450827e-001	3.230199e-001	-3.466237e-001	-1.224925e-001	-4.730668e-001
2540223800	-9.119055e-002	-3.776874e-001	3.216392e-001	-3.469817e-001	3.235006e-001	-3.489937e-001	-1.210685e-001	-4.756054e-001
2550223500	-9.187456e-002	-3.789902e-001	3.218004e-001	-3.489544e-001	3.225314e-001	-3.515107e-001	-1.210932e-001	-4.786552e-001
2560223200	-9.307064e-002	-3.802774e-001	3.213053e-001	-3.518495e-001	3.220158e-001	-3.537756e-001	-1.200530e-001	-4.814025e-001
2570222900	-9.347405e-002	-3.813956e-001	3.204198e-001	-3.540557e-001	3.216337e-001	-3.554623e-001	-1.193476e-001	-4.834974e-001
2580222600	-9.380845e-002	-3.821511e-001	3.199861e-001	-3.558874e-001	3.211443e-001	-3.574592e-001	-1.191422e-001	-4.855567e-001
2590222300	-9.445184e-002	-3.826220e-001	3.188353e-001	-3.580211e-001	3.201901e-001	-3.598203e-001	-1.186538e-001	-4.877267e-001
2600222000	-9.581260e-002	-3.840732e-001	3.176202e-001	-3.607213e-001	3.191849e-001	-3.621445e-001	-1.187865e-001	-4.898375e-001
2610221700	-9.675417e-002	-3.846210e-001	3.167963e-001	-3.631480e-001	3.188198e-001	-3.643838e-001	-1.178103e-001	-4.915295e-001
2620221400	-9.701764e-002	-3.857107e-001	3.157955e-001	-3.645038e-001	3.174207e-001	-3.670857e-001	-1.188285e-001	-4.927314e-001
2630221100	-9.836539e-002	-3.866930e-001	3.146748e-001	-3.671838e-001	3.164613e-001	-3.691590e-001	-1.193876e-001	-4.939312e-001
2640220800	-9.900458e-002	-3.881503e-001	3.130321e-001	-3.688094e-001	3.152232e-001	-3.710049e-001	-1.200273e-001	-4.956587e-001
2650220500	-1.004349e-001	-3.887155e-001	3.118969e-001	-3.710413e-001	3.133201e-001	-3.734923e-001	-1.210411e-001	-4.967961e-001
2660220200	-1.022663e-001	-3.892744e-001	3.102008e-001	-3.730778e-001	3.119098e-001	-3.750272e-001	-1.232159e-001	-4.977952e-001
2670219900	-1.034581e-001	-3.904849e-001	3.090020e-001	-3.746898e-001	3.099398e-001	-3.767968e-001	-1.254664e-001	-4.989778e-001
2680219600	-1.048104e-001	-3.911457e-001	3.074742e-001	-3.765791e-001	3.080209e-001	-3.785381e-001	-1.279037e-001	-5.000839e-001
2690219300	-1.063889e-001	-3.926010e-001	3.052407e-001	-3.785751e-001	3.058507e-001	-3.807134e-001	-1.309425e-001	-5.019099e-001
2700219000	-1.076878e-001	-3.927879e-001	3.033065e-001	-3.799858e-001	3.042788e-001	-3.813944e-001	-1.329635e-001	-5.036334e-001
2710218700	-1.091828e-001	-3.936054e-001	3.015570e-001	-3.811974e-001	3.022243e-001	-3.833195e-001	-1.348041e-001	-5.054665e-001
2720218400	-1.102513e-001	-3.939567e-001	3.000950e-001	-3.830982e-001	3.005951e-001	-3.848766e-001	-1.370331e-001	-5.075476e-001
2730218100	-1.119383e-001	-3.946321e-001	2.978675e-001	-3.850674e-001	2.986044e-001	-3.860027e-001	-1.384009e-001	-5.095677e-001
2740217800	-1.130220e-001	-3.949304e-001	2.955780e-001	-3.861537e-001	2.970161e-001	-3.875358e-001	-1.398363e-001	-5.108643e-001
2750217500	-1.144170e-001	-3.950130e-001	2.937567e-001	-3.870606e-001	2.957423e-001	-3.892290e-001	-1.404119e-001	-5.127041e-001
2760217200	-1.154493e-001	-3.954658e-001	2.924435e-001	-3.881548e-001	2.940052e-001	-3.895093e-001	-1.414648e-001	-5.139146e-001
2770216900	-1.170119e-001	-3.948245e-001	2.914304e-001	-3.894731e-001	2.926067e-001	-3.906847e-001	-1.424992e-001	-5.152992e-001
2780216600	-1.183814e-001	-3.947298e-001	2.891371e-001	-3.915485e-001	2.905257e-001	-3.909981e-001	-1.431456e-001	-5.158041e-001
2790216300	-1.197963e-001	-3.944536e-001	2.875613e-001	-3.927488e-001	2.890267e-001	-3.925816e-001	-1.445525e-001	-5.170230e-001
2800216000	-1.216015e-001	-3.945078e-001	2.855816e-001	-3.939142e-001	2.874021e-001	-3.939976e-001	-1.457225e-001	-5.172577e-001
2810215700	-1.229360e-001	-3.948378e-001	2.833730e-001	-3.955574e-001	2.851262e-001	-3.950388e-001	-1.470886e-001	-5.179533e-001
2820215400	-1.246231e-001	-3.946928e-001	2.819881e-001	-3.969277e-001	2.833922e-001	-3.961114e-001	-1.491303e-001	-5.180861e-001
2830215100	-1.263947e-001	-3.949129e-001	2.795696e-001	-3.979728e-001	2.814154e-001	-3.979102e-001	-1.513628e-001	-5.182819e-001
2840214800	-1.288642e-001	-3.951957e-001	2.775303e-001	-3.996922e-001	2.789701e-001	-3.995757e-001	-1.535547e-001	-5.180404e-001
2850214500	-1.304180e-001	-3.956965e-001	2.752368e-001	-4.009281e-001	2.776996e-001	-4.012313e-001	-1.567975e-001	-5.179531e-001
2860214200	-1.319839e-001	-3.960427e-001	2.729921e-001	-4.011880e-001	2.757148e-001	-4.012727e-001	-1.597681e-001	-5.177126e-001
2870213900	-1.339040e-001	-3.963626e-001	2.710050e-001	-4.029227e-001	2.725390e-001	-4.025837e-001	-1.630681e-001	-5.177617e-001
2880213600	-1.351405e-001	-3.967345e-001	2.690116e-001	-4.038968e-001	2.698717e-001	-4.037917e-001	-1.661571e-001	-5.181742e-001
2890213300	-1.373530e-001	-3.969889e-001	2.666319e-001	-4.048708e-001	2.687158e-001	-4.046079e-001	-1.690635e-001	-5.187674e-001
2900213000	-1.384175e-001	-3.969663e-001	2.651142e-001	-4.055431e-001	2.663446e-001	-4.051382e-001	-1.714247e-001	-5.196262e-001
2910212700	-1.405187e-001	-3.970992e-001	2.625581e-001	-4.063400e-001	2.639316e-001	-4.066122e-001	-1.743989e-001	-5.201345e-001
2920212400	-1.415095e-001	-3.968537e-001	2.608396e-001	-4.069533e-001	2.615352e-001	-4.069036e-001	-1.763135e-001	-5.207934e-001
2930212100	-1.431359e-001	-3.967951e-001	2.585522e-001	-4.075739e-001	2.599716e-001	-4.087122e-001	-1.784962e-001	-5.219701e-001
2940211800	-1.447609e-001	-3.958430e-001	2.561702e-001	-4.075798e-001	2.579600e-001	-4.090962e-001	-1.799706e-001	-5.228429e-001
2950211500	-1.461652e-001	-3.954380e-001	2.548411e-001	-4.088095e-001	2.559908e-001	-4.100823e-001	-1.810321e-001	-5.232284e-001
2960211200	-1.474989e-001	-3.945631e-001	2.531088e-001	-4.097725e-001	2.537613e-001	-4.109286e-001	-1.826284e-001	-5.236152e-001
2970210900	-1.495955e-001	-3.937102e-001	2.509894e-001	-4.103624e-001	2.520431e-001	-4.113085e-001	-1.840833e-001	-5.240201e-001
2980210600	-1.516294e-001	-3.930446e-001	2.490583e-001	-4.107196e-001	2.496039e-001	-4.122814e-001	-1.854689e-001	-5.236099e-001
2990210300	-1.530870e-001	-3.920826e-001	2.477849e-001	-4.117700e-001	2.476035e-001	-4.120397e-001	-1.873566e-001	-5.232217e-001
3000210000	-1.549932e-001	-3.919126e-001	2.457277e-001	-4.128051e-001	2.451503e-001	-4.135036e-001	-1.888683e-001	-5.227176e-001
3010209700	-1.566670e-001	-3.912959e-001	2.437078e-001	-4.133869e-001	2.430622e-001	-4.143735e-001	-1.911794e-001	-5.222296e-001
3020209400	-1.583646e-001	-3.911854e-001	2.414202e-001	-4.136345e-001	2.411980e-001	-4.159747e-001	-1.928542e-001	-5.217047e-001
3030209100	-1.601637e-001	-3.910550e-001	2.395550e-001	-4.148354e-001	2.387932e-001	-4.173325e-001	-1.953549e-001	-5.213789e-001
3040208800	-1.618184e-001	-3.909853e-001	2.371297e-001	-4.151639e-001	2.363397e-001	-4.173792e-001	-1.973462e-001	-5.200743e-001
3050208500	-1.636906e-001	-3.909184e-001	2.349759e-001	-4.161996e-001	2.335232e-001	-4.186041e-001	-2.004889e-001	-5.185640e-001
3060208200	-1.651222e-001	-3.909949e-001	2.336784e-001	-4.166263e-001	2.317513e-001	-4.195606e-001	-2.034320e-001	-5.180629e-001
3070207900	-1.670540e-001	-3.909867e-001	2.307486e-001	-4.169203e-001	2.290004e-001	-4.192128e-001	-2.067835e-001	-5.171823e-001
3080207600	-1.689698e-001	-3.900260e-001	2.294045e-001	-4.176110e-001	2.266519e-001	-4.200437e-001	-2.103563e-001	-5.171516e-001
3090207300	-1.705294e-001	-3.901574e-001	2.262336e-001	-4.173159e-001	2.245205e-001	-4.208591e-001	-2.131730e-001	-5.162630e-001
3100207000	-1.721045e-001	-3.892086e-001	2.243977e-001	-4.190063e-001	2.218033e-001	-4.214611e-001	-2.168383e-001	-5.164718e-001
3110206700	-1.735211e-001	-3.882598e-001	2.226376e-001	-4.181578e-001	2.195395e-001	-4.215041e-001	-2.188541e-001	-5.161817e-001
3120206400	-1.750930e-001	-3.875574e-001	2.205180e-001	-4.194568e-001	2.177345e-001	-4.219894e-001	-2.214183e-001	-5.164334e-001
3130206100	-1.766628e-001	-3.866147e-001	2.180427e-001	-4.193497e-001	2.162044e-001	-4.221509e-001	-2.236121e-001	-5.158873e-001
3140205800	-1.781759e-001	-3.857739e-001	2.159082e-001	-4.198576e-001	2.138033e-001	-4.226294e-001	-2.252393e-001	-5.162597e-001
3150205500	-1.798532e-001	-3.842280e-001	2.138179e-001	-4.197196e-001	2.115868e-001	-4.224083e-001	-2.269285e-001	-5.160656e-001
3160205200	-1.813396e-001	-3.833384e-001	2.118735e-001	-4.199953e-001	2.096997e-001	-4.225456e-001	-2.287552e-001	-5.157435e-001
3170204900	-1.834362e-001	-3.822220e-001	2.097834e-001	-4.204149e-001	2.080713e-001	-4.223324e-001	-2.300349e-001	-5.157363e-001
3180204600	-1.852013e-001	-3.809442e-001	2.077639e-001	-4.209460e-001	2.059943e-001	-4.224668e-001	-2.317628e-001	-5.150962e-001
3190204300	-1.873837e-001	-3.800496e-001	2.053141e-001	-4.207605e-001	2.040290e-001	-4.225703e-001	-2.330394e-001	-5.145351e-001
3200204000	-1.893524e-001	-3.788251e-001	2.031932e-001	-4.207290e-001	2.012382e-001	-4.232577e-001	-2.354191e-001	-5.136201e-001
3210203700	-1.909163e-001	-3.787187e-001	2.017463e-001	-4.222881e-001	1.996504e-001	-4.242167e-001	-2.374381e-001	-5.125912e-001
3220203400	-1.925086e-001	-3.778381e-001	1.996091e-001	-4.220357e-001	1.977298e-001	-4.244198e-001	-2.396035e-001	-5.112478e-001
3230203100	-1.943871e-001	-3.775495e-001	1.967976e-001	-4.221489e-001	1.954179e-001	-4.252140e-001	-2.421998e-001	-5.094591e-001
3240202800	-1.960481e-001	-3.767941e-001	1.946641e-001	-4.224099e-001	1.933400e-001	-4.251294e-001	-2.445690e-001	-5.075232e-001
3250202500	-1.976120e-001	-3.757945e-001	1.923040e-001	-4.234145e-001	1.910619e-001	-4.245913e-001	-2.477061e-001	-5.059450e-001
3260202200	-1.990562e-001	-3.752875e-001	1.895052e-001	-4.227805e-001	1.889665e-001	-4.251008e-001	-2.505943e-001	-5.041120e-001
3270201900	-2.009299e-001	-3.745896e-001	1.873720e-001	-4.231239e-001	1.873693e-001	-4.243803e-001	-2.538466e-001	-5.027517e-001
3280201600	-2.029046e-001	-3.738328e-001	1.857923e-001	-4.227164e-001	1.842730e-001	-4.250796e-001	-2.571269e-001	-5.015504e-001
3290201300	-2.045041e-001	-3.725434e-001	1.824832e-001	-4.233348e-001	1.820231e-001	-4.244200e-001	-2.603684e-001	-5.001901e-001
3300201000	-2.064452e-001	-3.711681e-001	1.805051e-001	-4.229044e-001	1.799175e-001	-4.239933e-001	-2.631684e-001	-4.993493e-001
3310200700	-2.080380e-001	-3.700310e-001	1.785390e-001	-4.228284e-001	1.776695e-001	-4.241566e-001	-2.656870e-001	-4.982003e-001
3320200400	-2.099380e-001	-3.685179e-001	1.762960e-001	-4.226114e-001	1.764845e-001	-4.237694e-001	-2.681920e-001	-4.978624e-001
3330200100	-2.120196e-001	-3.672271e-001	1.740717e-001	-4.216372e-001	1.742258e-001	-4.234497e-001	-2.700153e-001	-4.968839e-001
3340199800	-2.138768e-001	-3.657361e-001	1.721415e-001	-4.220725e-001	1.723978e-001	-4.230681e-001	-2.720705e-001	-4.962439e-001
3350199500	-2.156094e-001	-3.641381e-001	1.701387e-001	-4.213982e-001	1.703679e-001	-4.226950e-001	-2.735878e-001	-4.956619e-001
3360199200	-2.175651e-001	-3.629760e-001	1.680869e-001	-4.208415e-001	1.683016e-001	-4.219696e-001	-2.750761e-001	-4.945905e-001
3370198900	-2.194957e-001	-3.614979e-001	1.658760e-001	-4.203838e-001	1.660637e-001	-4.216292e-001	-2.767018e-001	-4.938701e-001
3380198600	-2.210169e-001	-3.597841e-001	1.639284e-001	-4.195672e-001	1.644412e-001	-4.215422e-001	-2.780317e-001	-4.924476e-001
3390198300	-2.225935e-001	-3.585725e-001	1.615558e-001	-4.194247e-001	1.622454e-001	-4.213502e-001	-2.794109e-001	-4.914365e-001
3400198000	-2.239998e-001	-3.571689e-001	1.607585e-001	-4.189610e-001	1.603465e-001	-4.202852e-001	-2.807584e-001	-4.895679e-001
3410197700	-2.250953e-001	-3.557236e-001	1.584166e-001	-4.184799e-001	1.587336e-001	-4.200946e-001	-2.820068e-001	-4.871452e-001
3420197400	-2.261860e-001	-3.543189e-001	1.569857e-001	-4.182596e-001	1.571396e-001	-4.191554e-001	-2.830112e-001	-4.843511e-001
3430197100	-2.272804e-001	-3.525846e-001	1.554415e-001	-4.177522e-001	1.559943e-001	-4.188811e-001	-2.849925e-001	-4.820023e-001
3440196800	-2.280704e-001	-3.506183e-001	1.529601e-001	-4.172514e-001	1.540816e-001	-4.186492e-001	-2.865883e-001	-4.784519e-001
3450196500	-2.290024e-001	-3.491802e-001	1.515755e-001	-4.161836e-001	1.519548e-001	-4.172850e-001	-2.888034e-001	-4.755327e-001
3460196200	-2.300484e-001	-3.473109e-001	1.502745e-001	-4.153092e-001	1.510125e-001	-4.168331e-001	-2.912395e-001	-4.724008e-001
3470195900	-2.309623e-001	-3.457774e-001	1.479913e-001	-4.141024e-001	1.489311e-001	-4.159758e-001	-2.930866e-001	-4.692071e-001
3480195600	-2.319592e-001	-3.437669e-001	1.473697e-001	-4.133698e-001	1.475134e-001	-4.150484e-001	-2.956142e-001	-4.662541e-001
3490195300	-2.330577e-001	-3.422525e-001	1.453096e-001	-4.120312e-001	1.457255e-001	-4.141634e-001	-2.978169e-001	-4.640314e-001
3500195000	-2.337673e-001	-3.407759e-001	1.448475e-001	-4.112289e-001	1.443041e-001	-4.127726e-001	-2.993928e-001	-4.624058e-001
3510194700	-2.342576e-001	-3.394361e-001	1.436472e-001	-4.107092e-001	1.436842e-001	-4.120492e-001	-3.004016e-001	-4.604183e-001
3520194400	-2.349376e-001	-3.383039e-001	1.432193e-001	-4.096289e-001	1.430163e-001	-4.109254e-001	-3.006545e-001	-4.589483e-001
3530194100	-2.355953e-001	-3.373857e-001	1.429716e-001	-4.088228e-001	1.424200e-001	-4.103745e-001	-3.002272e-001	-4.578206e-001
3540193800	-2.366023e-001	-3.367021e-001	1.419881e-001	-4.082802e-001	1.430198e-001	-4.100472e-001	-2.997977e-001	-4.571688e-001
3550193500	-2.375254e-001	-3.362773e-001	1.421820e-001	-4.074214e-001	1.419312e-001	-4.087287e-001	-2.983465e-001	-4.568759e-001
3560193200	-2.381028e-001	-3.357602e-001	1.420815e-001	-4.070382e-001	1.417636e-001	-4.084567e-001	-2.966593e-001	-4.568327e-001
3570192900	-2.390689e-001	-3.349436e-001	1.420096e-001	-4.065975e-001	1.419280e-001	-4.085655e-001	-2.952984e-001	-4.574554e-001
3580192600	-2.399618e-001	-3.339011e-001	1.421666e-001	-4.060703e-001	1.426185e-001	-4.082636e-001	-2.931534e-001	-4.579805e-001
3590192300	-2.405174e-001	-3.333590e-001	1.429733e-001	-4.061496e-001	1.419857e-001	-4.082032e-001	-2.921244e-001	-4.588958e-001
3600192000	-2.410633e-001	-3.327514e-001	1.434348e-001	-4.073603e-001	1.432830e-001	-4.095327e-001	-2.916095e-001	-4.595976e-001
3610191700	-2.410093e-001	-3.319086e-001	1.439057e-001	-4.081767e-001	1.433454e-001	-4.103110e-001	-2.910260e-001	-4.605048e-001
3620191400	-2.417527e-001	-3.313793e-001	1.438676e-001	-4.104141e-001	1.430774e-001	-4.118763e-001	-2.922582e-001	-4.608135e-001
3630191100	-2.421495e-001	-3.309212e-001	1.434199e-001	-4.121768e-001	1.434793e-001	-4.138770e-001	-2.934421e-001	-4.610804e-001
3640190800	-2.425670e-001	-3.305014e-001	1.428194e-001	-4.139577e-001	1.434315e-001	-4.158672e-001	-2.952996e-001	-4.610996e-001
3650190500	-2.435276e-001	-3.304771e-001	1.415083e-001	-4.156251e-001	1.426228e-001	-4.176347e-001	-2.982851e-001	-4.607060e-001
3660190200	-2.446207e-001	-3.301561e-001	1.407466e-001	-4.172962e-001	1.404762e-001	-4.194326e-001	-3.018286e-001	-4.605977e-001
3670189900	-2.457708e-001	-3.295710e-001	1.392970e-001	-4.191527e-001	1.389369e-001	-4.206684e-001	-3.055464e-001	-4.610075e-001
3680189600	-2.468851e-001	-3.298058e-001	1.374109e-001	-4.213134e-001	1.374437e-001	-4.225642e-001	-3.088483e-001	-4.614672e-001
3690189300	-2.487363e-001	-3.290375e-001	1.359199e-001	-4.228259e-001	1.357259e-001	-4.240221e-001	-3.129214e-001	-4.617652e-001
3700189000	-2.500292e-001	-3.289396e-001	1.348972e-001	-4.247406e-001	1.338152e-001	-4.258172e-001	-3.160756e-001	-4.631200e-001
3710188700	-2.517655e-001	-3.290907e-001	1.327046e-001	-4.258219e-001	1.324996e-001	-4.278778e-001	-3.192283e-001	-4.642064e-001
3720188400	-2.527618e-001	-3.292880e-001	1.308446e-001	-4.277381e-001	1.304120e-001	-4.291038e-001	-3.222306e-001	-4.657550e-001
3730188100	-2.551581e-001	-3.293355e-001	1.289107e-001	-4.289286e-001	1.284563e-001	-4.310119e-001	-3.257672e-001	-4.671094e-001
3740187800	-2.558506e-001	-3.290897e-001	1.264104e-001	-4.309314e-001	1.265328e-001	-4.323383e-001	-3.285110e-001	-4.681424e-001
3750187500	-2.573743e-001	-3.291920e-001	1.242001e-001	-4.322938e-001	1.241512e-001	-4.338780e-001	-3.311176e-001	-4.687268e-001
3760187200	-2.586774e-001	-3.300373e-001	1.212577e-001	-4.338685e-001	1.215088e-001	-4.357544e-001	-3.333496e-001	-4.696179e-001
3770186900	-2.596901e-001	-3.299428e-001	1.187268e-001	-4.348433e-001	1.186210e-001	-4.369405e-001	-3.357773e-001	-4.697102e-001
3780186600	-2.614150e-001	-3.307287e-001	1.152617e-001	-4.365166e-001	1.162213e-001	-4.381098e-001	-3.381177e-001	-4.689715e-001
3790186300	-2.635412e-001	-3.315016e-001	1.125362e-001	-4.380427e-001	1.124168e-001	-4.394463e-001	-3.407837e-001	-4.676354e-001
3800186000	-2.659236e-001	-3.313375e-001	1.092740e-001	-4.387357e-001	1.087500e-001	-4.402931e-001	-3.433452e-001	-4.659813e-001
3810185700	-2.682309e-001	-3.310824e-001	1.063204e-001	-4.398142e-001	1.055680e-001	-4.410383e-001	-3.460895e-001	-4.639082e-001
3820185400	-2.710202e-001	-3.308386e-001	1.029056e-001	-4.404628e-001	1.026467e-001	-4.416832e-001	-3.494045e-001	-4.610533e-001
3830185100	-2.739055e-001	-3.307409e-001	9.978552e-002	-4.410315e-001	9.953296e-002	-4.414743e-001	-3.532878e-001	-4.579090e-001
3840184800	-2.773904e-001	-3.303970e-001	9.612021e-002	-4.407586e-001	9.639256e-002	-4.423811e-001	-3.567428e-001	-4.550834e-001
3850184500	-2.801899e-001	-3.293971e-001	9.320205e-002	-4.411438e-001	9.311007e-002	-4.420981e-001	-3.606574e-001	-4.529206e-001
3860184200	-2.831985e-001	-3.286507e-001	9.072512e-002	-4.411383e-001	8.992801e-002	-4.424183e-001	-3.649838e-001	-4.505146e-001
3870183900	-2.867099e-001	-3.281953e-001	8.795930e-002	-4.405678e-001	8.720026e-002	-4.415553e-001	-3.690964e-001	-4.491224e-001
3880183600	-2.901569e-001	-3.271256e-001	8.425339e-002	-4.397660e-001	8.386448e-002	-4.418989e-001	-3.731261e-001	-4.480781e-001
3890183300	-2.936881e-001	-3.263642e-001	8.140162e-002	-4.391698e-001	8.121281e-002	-4.410584e-001	-3.771881e-001	-4.473590e-001
3900183000	-2.960840e-001	-3.258185e-001	7.927464e-002	-4.393146e-001	7.838464e-002	-4.403998e-001	-3.805591e-001	-4.471372e-001
3910182700	-2.992458e-001	-3.246951e-001	7.598631e-002	-4.389731e-001	7.580797e-002	-4.403021e-001	-3.837105e-001	-4.469158e-001
3920182400	-3.021747e-001	-3.239124e-001	7.326168e-002	-4.387940e-001	7.344248e-002	-4.398558e-001	-3.870553e-001	-4.464000e-001
3930182100	-3.042844e-001	-3.227645e-001	7.066454e-002	-4.385044e-001	7.092309e-002	-4.399244e-001	-3.899328e-001	-4.461787e-001
3940181800	-3.067950e-001	-3.210248e-001	6.868479e-002	-4.375161e-001	6.802270e-002	-4.391875e-001	-3.917584e-001	-4.448247e-001
3950181500	-3.088466e-001	-3.201895e-001	6.603863e-002	-4.379713e-001	6.626387e-002	-4.389918e-001	-3.937770e-001	-4.444521e-001
3960181200	-3.107358e-001	-3.190638e-001	6.428578e-002	-4.373709e-001	6.385078e-002	-4.386007e-001	-3.954061e-001	-4.432766e-001
3970180900	-3.130320e-001	-3.168898e-001	6.152465e-002	-4.369183e-001	6.100869e-002	-4.383074e-001	-3.969461e-001	-4.416637e-001
3980180600	-3.153416e-001	-3.156317e-001	5.859849e-002	-4.367105e-001	5.805653e-002	-4.384850e-001	-3.983950e-001	-4.397906e-001
3990180300	-3.172505e-001	-3.140732e-001	5.633666e-002	-4.366258e-001	5.538531e-002	-4.380015e-001	-4.010131e-001	-4.367358e-001
4000180000	-3.198196e-001	-3.122496e-001	5.368385e-002	-4.357691e-001	5.205604e-002	-4.379969e-001	-4.031522e-001	-4.339146e-001
4010179700	-3.223542e-001	-3.104760e-001	5.114538e-002	-4.354136e-001	5.014459e-002	-4.369401e-001	-4.056810e-001	-4.302630e-001
4020179400	-3.252267e-001	-3.096648e-001	4.736723e-002	-4.358773e-001	4.748857e-002	-4.362478e-001	-4.093771e-001	-4.261165e-001
4030179100	-3.278760e-001	-3.073354e-001	4.566032e-002	-4.349678e-001	4.521951e-002	-4.359816e-001	-4.125034e-001	-4.229654e-001
4040178800	-3.308886e-001	-3.063633e-001	4.252447e-002	-4.345015e-001	4.270302e-002	-4.354598e-001	-4.164700e-001	-4.195231e-001
4050178500	-3.339151e-001	-3.047353e-001	3.965200e-002	-4.331123e-001	3.968608e-002	-4.342730e-001	-4.204275e-001	-4.171979e-001
4060178200	-3.364793e-001	-3.030851e-001	3.758677e-002	-4.325292e-001	3.753636e-002	-4.337167e-001	-4.243423e-001	-4.145116e-001
4070177900	-3.394679e-001	-3.023698e-001	3.543474e-002	-4.317273e-001	3.463115e-002	-4.325459e-001	-4.286769e-001	-4.127874e-001
4080177600	-3.424547e-001	-3.012501e-001	3.210661e-002	-4.307298e-001	3.174573e-002	-4.322445e-001	-4.324758e-001	-4.112320e-001
4090177300	-3.450825e-001	-2.994962e-001	2.972373e-002	-4.297630e-001	2.973391e-002	-4.314675e-001	-4.361457e-001	-4.100600e-001
4100177000	-3.472483e-001	-2.978944e-001	2.788416e-002	-4.286361e-001	2.730536e-002	-4.307378e-001	-4.390590e-001	-4.090192e-001
4110176700	-3.497294e-001	-2.963252e-001	2.585980e-002	-4.282582e-001	2.503640e-002	-4.292119e-001	-4.414506e-001	-4.081171e-001
4120176400	-3.519029e-001	-2.946114e-001	2.363851e-002	-4.271637e-001	2.335873e-002	-4.284928e-001	-4.436208e-001	-4.068632e-001
4130176100	-3.539508e-001	-2.930017e-001	2.137047e-002	-4.269652e-001	2.096460e-002	-4.282961e-001	-4.456297e-001	-4.061741e-001
4140175800	-3.561597e-001	-2.910367e-001	1.962115e-002	-4.258916e-001	1.885255e-002	-4.265334e-001	-4.472530e-001	-4.050733e-001
4150175500	-3.581661e-001	-2.893746e-001	1.713638e-002	-4.248014e-001	1.679528e-002	-4.264729e-001	-4.487960e-001	-4.032843e-001
4160175200	-3.600649e-001	-2.881667e-001	1.447788e-002	-4.244692e-001	1.454585e-002	-4.257669e-001	-4.502820e-001	-4.014610e-001
4170174900	-3.623650e-001	-2.858832e-001	1.233438e-002	-4.234773e-001	1.188507e-002	-4.251034e-001	-4.513205e-001	-3.987099e-001
4180174600	-3.645458e-001	-2.845276e-001	1.026140e-002	-4.232196e-001	9.305861e-003	-4.243116e-001	-4.531123e-001	-3.955123e-001
4190174300	-3.668217e-001	-2.820617e-001	7.998979e-003	-4.222660e-001	7.416778e-003	-4.240396e-001	-4.548503e-001	-3.925465e-001
4200174000	-3.699637e-001	-2.809883e-001	4.611370e-003	-4.216070e-001	4.819975e-003	-4.235436e-001	-4.572151e-001	-3.889990e-001
4210173700	-3.726457e-001	-2.788127e-001	2.760879e-003	-4.206360e-001	2.173590e-003	-4.224322e-001	-4.600432e-001	-3.850895e-001
4220173400	-3.752661e-001	-2.772165e-001	4.592743e-004	-4.197402e-001	2.827701e-004	-4.212729e-001	-4.628212e-001	-3.813394e-001
4230173100	-3.781303e-001	-2.753311e-001	-2.155870e-003	-4.187741e-001	-2.261241e-003	-4.204162e-001	-4.666813e-001	-3.772847e-001
4240172800	-3.809186e-001	-2.733851e-001	-4.562942e-003	-4.174961e-001	-4.450531e-003	-4.189917e-001	-4.707317e-001	-3.737092e-001
4250172500	-3.836387e-001	-2.722637e-001	-6.653744e-003	-4.165848e-001	-6.591780e-003	-4.177118e-001	-4.744303e-001	-3.704352e-001
4260172200	-3.861576e-001	-2.706694e-001	-8.559152e-003	-4.153045e-001	-8.965621e-003	-4.164646e-001	-4.786531e-001	-3.679339e-001
4270171900	-3.890424e-001	-2.693860e-001	-1.135619e-002	-4.140498e-001	-1.169606e-002	-4.156467e-001	-4.821761e-001	-3.658045e-001
4280171600	-3.915400e-001	-2.672275e-001	-1.333961e-002	-4.125035e-001	-1.444773e-002	-4.144998e-001	-4.859372e-001	-3.640374e-001
4290171300	-3.931513e-001	-2.654034e-001	-1.531749e-002	-4.117760e-001	-1.688591e-002	-4.131865e-001	-4.884219e-001	-3.624649e-001
4300171000	-3.958587e-001	-2.636358e-001	-1.773848e-002	-4.105495e-001	-1.894588e-002	-4.122858e-001	-4.913810e-001	-3.608526e-001
4310170700	-3.981216e-001	-2.616620e-001	-1.937775e-002	-4.090754e-001	-2.018974e-002	-4.111843e-001	-4.935102e-001	-3.592905e-001
4320170400	-4.002663e-001	-2.598527e-001	-2.134567e-002	-4.078352e-001	-2.228865e-002	-4.095243e-001	-4.952919e-001	-3.580011e-001
4330170100	-4.022170e-001	-2.574595e-001	-2.357196e-002	-4.069843e-001	-2.444860e-002	-4.085051e-001	-4.970692e-001	-3.565636e-001
4340169800	-4.044825e-001	-2.557622e-001	-2.563027e-002	-4.060224e-001	-2.578635e-002	-4.073538e-001	-4.989377e-001	-3.544326e-001
4350169500	-4.069654e-001	-2.529328e-001	-2.771010e-002	-4.050091e-001	-2.770102e-002	-4.064389e-001	-5.002576e-001	-3.529183e-001
4360169200	-4.088967e-001	-2.508572e-001	-2.946197e-002	-4.036000e-001	-2.950105e-002	-4.054375e-001	-5.015313e-001	-3.506072e-001
4370168900	-4.113166e-001	-2.489772e-001	-3.207543e-002	-4.029531e-001	-3.240453e-002	-4.047647e-001	-5.032807e-001	-3.481213e-001
4380168600	-4.137871e-001	-2.470690e-001	-3.363749e-002	-4.022398e-001	-3.486172e-002	-4.036949e-001	-5.050460e-001	-3.452330e-001
4390168300	-4.168156e-001	-2.447688e-001	-3.615276e-002	-4.005590e-001	-3.653316e-002	-4.023207e-001	-5.068399e-001	-3.415297e-001
4400168000	-4.192424e-001	-2.430611e-001	-3.823735e-002	-3.995319e-001	-3.931192e-002	-4.018239e-001	-5.094991e-001	-3.384871e-001
4410167700	-4.217450e-001	-2.407314e-001	-4.071697e-002	-3.982335e-001	-4.131552e-002	-4.001841e-001	-5.123536e-001	-3.340378e-001
4420167400	-4.245754e-001	-2.394228e-001	-4.271277e-002	-3.973236e-001	-4.405194e-002	-3.989779e-001	-5.154354e-001	-3.299473e-001
4430167100	-4.269788e-001	-2.376198e-001	-4.448510e-002	-3.957929e-001	-4.541434e-002	-3.973362e-001	-5.186956e-001	-3.258228e-001
4440166800	-4.297164e-001	-2.358015e-001	-4.700836e-002	-3.947342e-001	-4.813132e-002	-3.955858e-001	-5.225032e-001	-3.218259e-001
4450166500	-4.319492e-001	-2.340364e-001	-4.946867e-002	-3.929652e-001	-4.958389e-002	-3.942590e-001	-5.255551e-001	-3.186846e-001
4460166200	-4.348926e-001	-2.321914e-001	-5.143264e-002	-3.914786e-001	-5.245953e-002	-3.927558e-001	-5.287921e-001	-3.153541e-001
4470165900	-4.372014e-001	-2.296843e-001	-5.313592e-002	-3.897662e-001	-5.404038e-002	-3.910475e-001	-5.321219e-001	-3.131163e-001
4480165600	-4.392918e-001	-2.280293e-001	-5.526839e-002	-3.886046e-001	-5.658772e-002	-3.895381e-001	-5.350357e-001	-3.104906e-001
4490165300	-4.416043e-001	-2.256296e-001	-5.675900e-002	-3.865183e-001	-5.814093e-002	-3.881515e-001	-5.375860e-001	-3.088319e-001
4500165000	-4.438154e-001	-2.234360e-001	-5.857780e-002	-3.852588e-001	-6.006408e-002	-3.865315e-001	-5.398078e-001	-3.069584e-001
4510164700	-4.461635e-001	-2.211436e-001	-6.023196e-002	-3.834493e-001	-6.138814e-002	-3.849701e-001	-5.418672e-001	-3.049825e-001
4520164400	-4.484039e-001	-2.189154e-001	-6.205274e-002	-3.820294e-001	-6.363771e-002	-3.834389e-001	-5.440188e-001	-3.036140e-001
4530164100	-4.505273e-001	-2.163441e-001	-6.401699e-002	-3.806144e-001	-6.468112e-002	-3.815729e-001	-5.457812e-001	-3.015483e-001
4540163800	-4.527390e-001	-2.136222e-001	-6.573468e-002	-3.790101e-001	-6.654250e-002	-3.807914e-001	-5.477555e-001	-2.999582e-001
4550163500	-4.553297e-001	-2.114412e-001	-6.775360e-002	-3.779152e-001	-6.837284e-002	-3.790921e-001	-5.493198e-001	-2.973771e-001
4560163200	-4.572514e-001	-2.093414e-001	-6.964773e-002	-3.768035e-001	-7.018024e-002	-3.778539e-001	-5.508135e-001	-2.945205e-001
4570162900	-4.597232e-001	-2.073911e-001	-7.138430e-002	-3.757779e-001	-7.231367e-002	-3.765871e-001	-5.525159e-001	-2.920842e-001
4580162600	-4.621769e-001	-2.053699e-001	-7.340520e-002	-3.738913e-001	-7.424328e-002	-3.750256e-001	-5.545421e-001	-2.891110e-001
4590162300	-4.644667e-001	-2.030704e-001	-7.547783e-002	-3.726634e-001	-7.608903e-002	-3.742237e-001	-5.561664e-001	-2.854418e-001
4600162000	-4.666094e-001	-2.012040e-001	-7.718504e-002	-3.711803e-001	-7.841096e-002	-3.725563e-001	-5.582014e-001	-2.812136e-001
4610161700	-4.693590e-001	-1.991357e-001	-7.998658e-002	-3.695453e-001	-8.013247e-002	-3.704111e-001	-5.604872e-001	-2.772674e-001
4620161400	-4.718962e-001	-1.968584e-001	-8.140754e-002	-3.677692e-001	-8.191909e-002	-3.689710e-001	-5.632901e-001	-2.729874e-001
4630161100	-4.738107e-001	-1.945888e-001	-8.278596e-002	-3.659944e-001	-8.389500e-002	-3.668666e-001	-5.660267e-001	-2.687551e-001
4640160800	-4.762535e-001	-1.923033e-001	-8.502301e-002	-3.640389e-001	-8.564260e-002	-3.644682e-001	-5.686070e-001	-2.648919e-001
4650160500	-4.787671e-001	-1.895327e-001	-8.699011e-002	-3.618131e-001	-8.740719e-002	-3.626942e-001	-5.715305e-001	-2.608460e-001
4660160200	-4.806810e-001	-1.872424e-001	-8.887460e-002	-3.596774e-001	-8.882418e-002	-3.613472e-001	-5.742832e-001	-2.575823e-001
4670159900	-4.832517e-001	-1.851260e-001	-9.000510e-002	-3.582171e-001	-9.062804e-002	-3.591410e-001	-5.767616e-001	-2.549411e-001
4680159600	-4.852817e-001	-1.824803e-001	-9.160828e-002	-3.559076e-001	-9.195452e-002	-3.579850e-001	-5.791852e-001	-2.526034e-001
4690159300	-4.871835e-001	-1.800972e-001	-9.271058e-002	-3.543570e-001	-9.374846e-002	-3.563606e-001	-5.814829e-001	-2.502286e-001
4700159000	-4.894099e-001	-1.772991e-001	-9.416766e-002	-3.523019e-001	-9.510504e-002	-3.546583e-001	-5.840047e-001	-2.485849e-001
4710158700	-4.915734e-001	-1.750365e-001	-9.549749e-002	-3.511257e-001	-9.608780e-002	-3.526533e-001	-5.859170e-001	-2.470416e-001
4720158400	-4.939146e-001	-1.720907e-001	-9.732227e-002	-3.494907e-001	-9.782217e-002	-3.507092e-001	-5.875454e-001	-2.454661e-001
4730158100	-4.955096e-001	-1.702326e-001	-9.841224e-002	-3.477990e-001	-9.938088e-002	-3.490509e-001	-5.892856e-001	-2.438961e-001
4740157800	-4.979404e-001	-1.676582e-001	-9.985220e-002	-3.460057e-001	-1.004283e-001	-3.474298e-001	-5.908792e-001	-2.415995e-001
4750157500	-5.002619e-001	-1.652974e-001	-1.015802e-001	-3.448646e-001	-1.015279e-001	-3.451873e-001	-5.921888e-001	-2.395694e-001
4760157200	-5.023412e-001	-1.630837e-001	-1.030115e-001	-3.431327e-001	-1.040519e-001	-3.443707e-001	-5.937547e-001	-2.367047e-001
4770156900	-5.042498e-001	-1.610310e-001	-1.048437e-001	-3.412316e-001	-1.052040e-001	-3.428070e-001	-5.943203e-001	-2.339265e-001
4780156600	-5.066630e-001	-1.587191e-001	-1.062985e-001	-3.394739e-001	-1.064547e-001	-3.411088e-001	-5.959443e-001	-2.302631e-001
4790156300	-5.087649e-001	-1.568308e-001	-1.076907e-001	-3.376386e-001	-1.083774e-001	-3.397290e-001	-5.970691e-001	-2.263233e-001
4800156000	-5.109487e-001	-1.550470e-001	-1.096935e-001	-3.359943e-001	-1.099122e-001	-3.377670e-001	-5.990062e-001	-2.214495e-001
4810155700	-5.129986e-001	-1.526223e-001	-1.110472e-001	-3.336161e-001	-1.112394e-001	-3.359042e-001	-6.004173e-001	-2.172911e-001
4820155400	-5.151151e-001	-1.500332e-001	-1.124860e-001	-3.322215e-001	-1.132341e-001	-3.337939e-001	-6.028276e-001	-2.125387e-001
4830155100	-5.173689e-001	-1.476765e-001	-1.141453e-001	-3.302284e-001	-1.146275e-001	-3.313365e-001	-6.047546e-001	-2.080640e-001
4840154800	-5.191948e-001	-1.453342e-001	-1.154174e-001	-3.277826e-001	-1.168208e-001	-3.294666e-001	-6.074016e-001	-2.042377e-001
4850154500	-5.213426e-001	-1.429650e-001	-1.167538e-001	-3.257966e-001	-1.172020e-001	-3.268574e-001	-6.091737e-001	-2.005668e-001
4860154200	-5.237598e-001	-1.400773e-001	-1.180472e-001	-3.239508e-001	-1.190464e-001	-3.249872e-001	-6.123609e-001	-1.971578e-001
4870153900	-5.256231e-001	-1.379927e-001	-1.188313e-001	-3.221533e-001	-1.199098e-001	-3.235098e-001	-6.147088e-001	-1.947562e-001
4880153600	-5.273964e-001	-1.352243e-001	-1.197589e-001	-3.199803e-001	-1.208892e-001	-3.213893e-001	-6.169023e-001	-1.922744e-001
4890153300	-5.294880e-001	-1.329720e-001	-1.207577e-001	-3.178793e-001	-1.218986e-001	-3.200388e-001	-6.197386e-001	-1.902271e-001
4900153000	-5.314085e-001	-1.305814e-001	-1.217643e-001	-3.158791e-001	-1.232168e-001	-3.178281e-001	-6.216633e-001	-1.883005e-001
4910152700	-5.333134e-001	-1.279348e-001	-1.228353e-001	-3.140922e-001	-1.244565e-001	-3.157104e-001	-6.238056e-001	-1.871597e-001
4920152400	-5.355114e-001	-1.251867e-001	-1.243379e-001	-3.124093e-001	-1.257635e-001	-3.138211e-001	-6.254883e-001	-1.853630e-001
4930152100	-5.372209e-001	-1.232580e-001	-1.251140e-001	-3.108804e-001	-1.264366e-001	-3.119512e-001	-6.265872e-001	-1.840022e-001
4940151800	-5.392942e-001	-1.210231e-001	-1.260054e-001	-3.091759e-001	-1.278973e-001	-3.101436e-001	-6.277581e-001	-1.814536e-001
4950151500	-5.408077e-001	-1.190871e-001	-1.271594e-001	-3.071064e-001	-1.285368e-001	-3.080492e-001	-6.282177e-001	-1.791014e-001
4960151200	-5.429280e-001	-1.165590e-001	-1.288105e-001	-3.054781e-001	-1.298808e-001	-3.061596e-001	-6.291833e-001	-1.765227e-001
4970150900	-5.452250e-001	-1.138740e-001	-1.302397e-001	-3.032161e-001	-1.312106e-001	-3.046869e-001	-6.297388e-001	-1.732578e-001
4980150600	-5.470957e-001	-1.121968e-001	-1.313346e-001	-3.014564e-001	-1.325182e-001	-3.031645e-001	-6.304049e-001	-1.692273e-001
4990150300	-5.492051e-001	-1.097456e-001	-1.322539e-001	-2.995725e-001	-1.334813e-001	-3.011942e-001	-6.312403e-001	-1.648944e-001
5000150000	-5.509619e-001	-1.077602e-001	-1.336614e-001	-2.975789e-001	-1.348586e-001	-2.990582e-001	-6.318816e-001	-1.601078e-001
5010149700	-5.531239e-001	-1.052704e-001	-1.347188e-001	-2.955539e-001	-1.360149e-001	-2.971065e-001	-6.334725e-001	-1.559245e-001
5020149400	-5.550080e-001	-1.031274e-001	-1.353918e-001	-2.934178e-001	-1.369806e-001	-2.945526e-001	-6.349588e-001	-1.514215e-001
5030149100	-5.570296e-001	-1.004628e-001	-1.367510e-001	-2.910986e-001	-1.382090e-001	-2.922241e-001	-6.371701e-001	-1.466982e-001
5040148800	-5.591181e-001	-9.772019e-002	-1.379293e-001	-2.888131e-001	-1.396582e-001	-2.900130e-001	-6.390281e-001	-1.426536e-001
5050148500	-5.608347e-001	-9.569729e-002	-1.384859e-001	-2.867253e-001	-1.404931e-001	-2.876290e-001	-6.416442e-001	-1.387461e-001
5060148200	-5.626807e-001	-9.322903e-002	-1.394832e-001	-2.845892e-001	-1.415482e-001	-2.855667e-001	-6.438138e-001	-1.352016e-001
5070147900	-5.644771e-001	-9.082688e-002	-1.408855e-001	-2.823966e-001	-1.419781e-001	-2.839813e-001	-6.466223e-001	-1.325939e-001
5080147600	-5.663320e-001	-8.837334e-002	-1.414349e-001	-2.806768e-001	-1.425865e-001	-2.813425e-001	-6.488095e-001	-1.299762e-001
5090147300	-5.679453e-001	-8.587869e-002	-1.420282e-001	-2.780496e-001	-1.434909e-001	-2.798575e-001	-6.504453e-001	-1.279141e-001
5100147000	-5.694736e-001	-8.381236e-002	-1.426777e-001	-2.765202e-001	-1.439858e-001	-2.778044e-001	-6.522376e-001	-1.264574e-001
5110146700	-5.709059e-001	-8.144004e-002	-1.433046e-001	-2.742029e-001	-1.444952e-001	-2.756456e-001	-6.536114e-001	-1.249093e-001
5120146400	-5.727919e-001	-7.896562e-002	-1.439940e-001	-2.724915e-001	-1.450359e-001	-2.735210e-001	-6.548315e-001	-1.238082e-001
5130146100	-5.743116e-001	-7.612574e-002	-1.446039e-001	-2.705731e-001	-1.457046e-001	-2.711880e-001	-6.558243e-001	-1.217841e-001
5140145800	-5.757970e-001	-7.345270e-002	-1.456689e-001	-2.682464e-001	-1.465668e-001	-2.696472e-001	-6.561056e-001	-1.202630e-001
5150145500	-5.769720e-001	-7.117658e-002	-1.461763e-001	-2.660086e-001	-1.473746e-001	-2.672518e-001	-6.562632e-001	-1.179072e-001
5160145200	-5.787500e-001	-6.891730e-002	-1.472189e-001	-2.644179e-001	-1.482074e-001	-2.652689e-001	-6.565667e-001	-1.150548e-001
5170144900	-5.805526e-001	-6.639644e-002	-1.473650e-001	-2.625862e-001	-1.487036e-001	-2.638152e-001	-6.567463e-001	-1.113360e-001
5180144600	-5.826727e-001	-6.369590e-002	-1.485246e-001	-2.600524e-001	-1.494823e-001	-2.617539e-001	-6.571189e-001	-1.083368e-001
5190144300	-5.840945e-001	-6.177501e-002	-1.491483e-001	-2.573975e-001	-1.502037e-001	-2.604323e-001	-6.584303e-001	-1.038555e-001
5200144000	-5.863284e-001	-5.979613e-002	-1.497522e-001	-2.559059e-001	-1.511103e-001	-2.577526e-001	-6.587566e-001	-9.912634e-002
5210143700	-5.880791e-001	-5.733769e-002	-1.504804e-001	-2.537773e-001	-1.516684e-001	-2.552491e-001	-6.592127e-001	-9.525355e-002
5220143400	-5.898144e-001	-5.478769e-002	-1.514859e-001	-2.514434e-001	-1.525319e-001	-2.530365e-001	-6.605668e-001	-9.012845e-002
5230143100	-5.911086e-001	-5.271625e-002	-1.519584e-001	-2.494769e-001	-1.530254e-001	-2.504465e-001	-6.627032e-001	-8.649661e-002
5240142800	-5.933403e-001	-5.113205e-002	-1.524929e-001	-2.473973e-001	-1.536764e-001	-2.482154e-001	-6.641274e-001	-8.198252e-002
5250142500	-5.947215e-001	-4.863380e-002	-1.528305e-001	-2.450377e-001	-1.538482e-001	-2.459777e-001	-6.661387e-001	-7.871658e-002
5260142200	-5.963585e-001	-4.650869e-002	-1.528222e-001	-2.429889e-001	-1.541679e-001	-2.439264e-001	-6.676340e-001	-7.546276e-002
5270141900	-5.978685e-001	-4.407308e-002	-1.536002e-001	-2.407692e-001	-1.546575e-001	-2.417038e-001	-6.692647e-001	-7.292351e-002
5280141600	-5.991042e-001	-4.208564e-002	-1.534954e-001	-2.381761e-001	-1.546942e-001	-2.398618e-001	-6.708970e-001	-7.122071e-002
5290141300	-5.997659e-001	-4.016143e-002	-1.533051e-001	-2.363000e-001	-1.549517e-001	-2.379474e-001	-6.719892e-001	-6.902167e-002
5300141000	-6.013605e-001	-3.761650e-002	-1.533928e-001	-2.345969e-001	-1.552233e-001	-2.356973e-001	-6.724841e-001	-6.804675e-002
5310140700	-6.029656e-001	-3.535290e-002	-1.541479e-001	-2.322614e-001	-1.552636e-001	-2.338969e-001	-6.731717e-001	-6.625985e-002
5320140400	-6.041767e-001	-3.279358e-002	-1.540115e-001	-2.302423e-001	-1.553550e-001	-2.320469e-001	-6.743399e-001	-6.538911e-002
5330140100	-6.046823e-001	-3.053674e-002	-1.544607e-001	-2.280005e-001	-1.561616e-001	-2.297449e-001	-6.740642e-001	-6.345709e-002
5340139800	-6.067706e-001	-2.841240e-002	-1.548891e-001	-2.264454e-001	-1.561431e-001	-2.273910e-001	-6.745811e-001	-6.237342e-002
5350139500	-6.073591e-001	-2.561779e-002	-1.550741e-001	-2.245286e-001	-1.563886e-001	-2.257053e-001	-6.739848e-001	-6.013030e-002
5360139200	-6.093505e-001	-2.339521e-002	-1.552861e-001	-2.225106e-001	-1.566145e-001	-2.238900e-001	-6.743357e-001	-5.689256e-002
5370138900	-6.104509e-001	-2.114688e-002	-1.552360e-001	-2.211571e-001	-1.566340e-001	-2.216501e-001	-6.739455e-001	-5.411318e-002
5380138600	-6.122392e-001	-1.907145e-002	-1.552529e-001	-2.187351e-001	-1.570420e-001	-2.202149e-001	-6.739965e-001	-5.043725e-002
5390138300	-6.138652e-001	-1.650545e-002	-1.555849e-001	-2.165623e-001	-1.571581e-001	-2.183163e-001	-6.735576e-001	-4.710072e-002
5400138000	-6.153737e-001	-1.452741e-002	-1.553644e-001	-2.146205e-001	-1.570433e-001	-2.160106e-001	-6.738266e-001	-4.328903e-002
5410137700	-6.170905e-001	-1.287564e-002	-1.560757e-001	-2.122730e-001	-1.573878e-001	-2.141683e-001	-6.738275e-001	-3.931464e-002
5420137400	-6.182940e-001	-1.107244e-002	-1.559064e-001	-2.102360e-001	-1.577122e-001	-2.118365e-001	-6.745026e-001	-3.619041e-002
5430137100	-6.200462e-001	-8.824088e-003	-1.561164e-001	-2.083981e-001	-1.577407e-001	-2.093810e-001	-6.754130e-001	-3.242836e-002
5440136800	-6.216982e-001	-7.165433e-003	-1.558272e-001	-2.065171e-001	-1.574242e-001	-2.070527e-001	-6.764631e-001	-2.935380e-002
5450136500	-6.223145e-001	-5.524724e-003	-1.555020e-001	-2.043034e-001	-1.576893e-001	-2.049741e-001	-6.772915e-001	-2.656394e-002
5460136200	-6.236116e-001	-3.733298e-003	-1.556277e-001	-2.026565e-001	-1.573082e-001	-2.033241e-001	-6.778444e-001	-2.428091e-002
5470135900	-6.245964e-001	-1.374924e-003	-1.554424e-001	-2.004568e-001	-1.569063e-001	-2.017268e-001	-6.787936e-001	-2.233854e-002
5480135600	-6.251214e-001	-3.146798e-004	-1.546591e-001	-1.983192e-001	-1.563195e-001	-2.000120e-001	-6.796746e-001	-2.076680e-002
5490135300	-6.262765e-001	1.883951e-003	-1.546088e-001	-1.968455e-001	-1.559169e-001	-1.983935e-001	-6.799226e-001	-1.967004e-002
5500135000	-6.270198e-001	3.772455e-003	-1.548316e-001	-1.951084e-001	-1.555620e-001	-1.963317e-001	-6.804280e-001	-1.883131e-002
5510134700	-6.285539e-001	5.785933e-003	-1.541278e-001	-1.934539e-001	-1.554007e-001	-1.947824e-001	-6.808899e-001	-1.897903e-002
5520134400	-6.293631e-001	7.287698e-003	-1.541049e-001	-1.919514e-001	-1.552772e-001	-1.930436e-001	-6.815878e-001	-1.834679e-002
5530134100	-6.308801e-001	9.681805e-003	-1.537408e-001	-1.905441e-001	-1.555484e-001	-1.917615e-001	-6.814859e-001	-1.760925e-002
5540133800	-6.316604e-001	1.149751e-002	-1.539672e-001	-1.886185e-001	-1.556646e-001	-1.899763e-001	-6.810553e-001	-1.630261e-002
5550133500	-6.326561e-001	1.379987e-002	-1.536116e-001	-1.874781e-001	-1.555036e-001	-1.882635e-001	-6.813346e-001	-1.519741e-002
5560133200	-6.341998e-001	1.570983e-002	-1.534242e-001	-1.854886e-001	-1.553913e-001	-1.867417e-001	-6.805399e-001	-1.316836e-002
5570132900	-6.351351e-001	1.732138e-002	-1.531747e-001	-1.840448e-001	-1.550153e-001	-1.852521e-001	-6.804457e-001	-1.049745e-002
5580132600	-6.358457e-001	1.975302e-002	-1.530914e-001	-1.823749e-001	-1.546862e-001	-1.837289e-001	-6.799838e-001	-8.461159e-003
5590132300	-6.374458e-001	2.148401e-002	-1.530730e-001	-1.803532e-001	-1.546175e-001	-1.819779e-001	-6.787074e-001	-5.082459e-003
5600132000	-6.387839e-001	2.266051e-002	-1.527742e-001	-1.789342e-001	-1.542531e-001	-1.803565e-001	-6.794745e-001	-2.167068e-003
5610131700	-6.399389e-001	2.472672e-002	-1.526888e-001	-1.771168e-001	-1.539619e-001	-1.783489e-001	-6.795411e-001	4.032171e-004
5620131400	-6.410133e-001	2.583393e-002	-1.520621e-001	-1.752815e-001	-1.538726e-001	-1.767624e-001	-6.792717e-001	3.707379e-003
5630131100	-6.424235e-001	2.789338e-002	-1.523730e-001	-1.739338e-001	-1.534949e-001	-1.749866e-001	-6.796492e-001	5.644431e-003
5640130800	-6.431214e-001	2.916148e-002	-1.516147e-001	-1.721385e-001	-1.532421e-001	-1.736819e-001	-6.803872e-001	7.949102e-003
5650130500	-6.443104e-001	3.046935e-002	-1.512437e-001	-1.710986e-001	-1.529267e-001	-1.723859e-001	-6.815334e-001	9.484140e-003
5660130200	-6.451425e-001	3.222123e-002	-1.507264e-001	-1.693799e-001	-1.521485e-001	-1.708536e-001	-6.824631e-001	1.042241e-002
5670129900	-6.462150e-001	3.428839e-002	-1.503607e-001	-1.680224e-001	-1.521062e-001	-1.696139e-001	-6.834656e-001	1.107802e-002
5680129600	-6.476039e-001	3.566006e-002	-1.494850e-001	-1.663060e-001	-1.517911e-001	-1.683091e-001	-6.840411e-001	1.155269e-002
5690129300	-6.483849e-001	3.733769e-002	-1.496210e-001	-1.653353e-001	-1.511362e-001	-1.669497e-001	-6.852330e-001	1.169251e-002
5700129000	-6.492989e-001	3.906697e-002	-1.489285e-001	-1.643954e-001	-1.507948e-001	-1.657993e-001	-6.857302e-001	1.125428e-002
5710128700	-6.501426e-001	4.009012e-002	-1.490328e-001	-1.629928e-001	-1.507908e-001	-1.646597e-001	-6.870686e-001	1.056234e-002
5720128400	-6.504757e-001	4.156312e-002	-1.487552e-001	-1.615875e-001	-1.503364e-001	-1.630581e-001	-6.872280e-001	9.577158e-003
5730128100	-6.522754e-001	4.314082e-002	-1.484323e-001	-1.606587e-001	-1.504592e-001	-1.618782e-001	-6.878670e-001	1.030318e-002
5740127800	-6.530478e-001	4.458763e-002	-1.486933e-001	-1.596064e-001	-1.503421e-001	-1.612043e-001	-6.881883e-001	9.934157e-003
5750127500	-6.542529e-001	4.562500e-002	-1.484194e-001	-1.583130e-001	-1.504696e-001	-1.600657e-001	-6.879551e-001	1.051573e-002
5760127200	-6.552710e-001	4.700152e-002	-1.486449e-001	-1.574921e-001	-1.503407e-001	-1.591499e-001	-6.874430e-001	1.139194e-002
5770126900	-6.562164e-001	4.832213e-002	-1.484102e-001	-1.565373e-001	-1.502050e-001	-1.576249e-001	-6.876917e-001	1.274273e-002
5780126600	-6.573459e-001	4.941223e-002	-1.482572e-001	-1.551550e-001	-1.498147e-001	-1.562778e-001	-6.873626e-001	1.446862e-002
5790126300	-6.587840e-001	5.081767e-002	-1.482278e-001	-1.543608e-001	-1.497992e-001	-1.554143e-001	-6.881316e-001	1.667608e-002
5800126000	-6.597618e-001	5.219584e-002	-1.481600e-001	-1.524900e-001	-1.496445e-001	-1.540115e-001	-6.875494e-001	1.916992e-002
5810125700	-6.610632e-001	5.310578e-002	-1.477113e-001	-1.511727e-001	-1.500056e-001	-1.530251e-001	-6.885773e-001	2.167649e-002
5820125400	-6.629053e-001	5.461361e-002	-1.480938e-001	-1.501686e-001	-1.501488e-001	-1.513656e-001	-6.894414e-001	2.374159e-002
5830125100	-6.637506e-001	5.579036e-002	-1.482683e-001	-1.488439e-001	-1.505357e-001	-1.501955e-001	-6.912185e-001	2.566404e-002
5840124800	-6.658754e-001	5.701765e-002	-1.491539e-001	-1.478562e-001	-1.507849e-001	-1.489282e-001	-6.931277e-001	2.732896e-002
5850124500	-6.672423e-001	5.830895e-002	-1.488498e-001	-1.460062e-001	-1.508489e-001	-1.474480e-001	-6.947849e-001	2.841593e-002
5860124200	-6.683260e-001	5.940291e-002	-1.489318e-001	-1.447501e-001	-1.508412e-001	-1.458720e-001	-6.970872e-001	2.943330e-002
5870123900	-6.690876e-001	6.103356e-002	-1.487719e-001	-1.435613e-001	-1.508537e-001	-1.443177e-001	-6.991406e-001	2.930986e-002
5880123600	-6.704529e-001	6.198840e-002	-1.490899e-001	-1.424329e-001	-1.503909e-001	-1.428472e-001	-7.014808e-001	2.974345e-002
5890123300	-6.717341e-001	6.249638e-002	-1.490446e-001	-1.414034e-001	-1.506675e-001	-1.420287e-001	-7.034607e-001	2.907323e-002
5900123000	-6.731583e-001	6.408335e-002	-1.493066e-001	-1.398812e-001	-1.507820e-001	-1.404314e-001	-7.052916e-001	2.923131e-002
5910122700	-6.744777e-001	6.489304e-002	-1.498004e-001	-1.384126e-001	-1.509694e-001	-1.389234e-001	-7.070440e-001	2.828772e-002
5920122400	-6.754070e-001	6.626234e-002	-1.496929e-001	-1.369274e-001	-1.512172e-001	-1.376326e-001	-7.082076e-001	2.786113e-002
5930122100	-6.766777e-001	6.710822e-002	-1.501403e-001	-1.356666e-001	-1.514807e-001	-1.359474e-001	-7.086976e-001	2.790980e-002
5940121800	-6.779533e-001	6.871845e-002	-1.503875e-001	-1.338079e-001	-1.515036e-001	-1.343413e-001	-7.088013e-001	2.809104e-002
5950121500	-6.785538e-001	7.049292e-002	-1.505898e-001	-1.321841e-001	-1.516846e-001	-1.329137e-001	-7.089256e-001	2.971326e-002
5960121200	-6.798223e-001	7.267355e-002	-1.507482e-001	-1.307409e-001	-1.514765e-001	-1.312994e-001	-7.081652e-001	3.085885e-002
5970120900	-6.806708e-001	7.381225e-002	-1.504232e-001	-1.289451e-001	-1.515774e-001	-1.294218e-001	-7.075425e-001	3.336874e-002
5980120600	-6.822219e-001	7.560697e-002	-1.501749e-001	-1.267983e-001	-1.517256e-001	-1.279392e-001	-7.073380e-001	3.615981e-002
5990120300	-6.825409e-001	7.740138e-002	-1.499653e-001	-1.250913e-001	-1.513268e-001	-1.258532e-001	-7.068162e-001	3.937519e-002
6000120000	-6.834530e-001	7.887944e-002	-1.496923e-001	-1.231372e-001	-1.508402e-001	-1.240910e-001	-7.066033e-001	4.239823e-002
6010119700	-6.848869e-001	8.081118e-002	-1.494069e-001	-1.216136e-001	-1.508181e-001	-1.224729e-001	-7.069746e-001	4.540263e-002
6020119400	-6.855828e-001	8.162657e-002	-1.487603e-001	-1.198574e-001	-1.507175e-001	-1.205587e-001	-7.074860e-001	4.852752e-002
6030119100	-6.867981e-001	8.314861e-002	-1.486281e-001	-1.181350e-001	-1.507298e-001	-1.191818e-001	-7.088519e-001	5.124845e-002
6040118800	-6.876998e-001	8.453154e-002	-1.484450e-001	-1.167596e-001	-1.505159e-001	-1.172959e-001	-7.105534e-001	5.317495e-002
6050118500	-6.887709e-001	8.546061e-002	-1.479790e-001	-1.150351e-001	-1.502767e-001	-1.155007e-001	-7.122346e-001	5.464560e-002
6060118200	-6.895112e-001	8.710463e-002	-1.472875e-001	-1.133433e-001	-1.496319e-001	-1.138914e-001	-7.141083e-001	5.581644e-002
6070117900	-6.904815e-001	8.789697e-002	-1.471173e-001	-1.117317e-001	-1.492680e-001	-1.125450e-001	-7.166033e-001	5.656624e-002
6080117600	-6.917070e-001	8.909201e-002	-1.468862e-001	-1.102967e-001	-1.488768e-001	-1.108159e-001	-7.184238e-001	5.588521e-002
6090117300	-6.925605e-001	9.012780e-002	-1.466592e-001	-1.087138e-001	-1.485460e-001	-1.091611e-001	-7.197944e-001	5.517546e-002
6100117000	-6.936903e-001	9.111072e-002	-1.461371e-001	-1.073689e-001	-1.479944e-001	-1.077053e-001	-7.216036e-001	5.468750e-002
6110116700	-6.945076e-001	9.236260e-002	-1.459630e-001	-1.057139e-001	-1.477204e-001	-1.061960e-001	-7.220089e-001	5.385970e-002
6120116400	-6.955815e-001	9.341907e-002	-1.456820e-001	-1.040166e-001	-1.473513e-001	-1.045832e-001	-7.227651e-001	5.265346e-002
6130116100	-6.955870e-001	9.484506e-002	-1.454276e-001	-1.024778e-001	-1.470754e-001	-1.032072e-001	-7.226723e-001	5.286368e-002
6140115800	-6.965354e-001	9.553889e-002	-1.448598e-001	-1.010076e-001	-1.470427e-001	-1.016434e-001	-7.218906e-001	5.286112e-002
6150115500	-6.970050e-001	9.704857e-002	-1.444073e-001	-9.978643e-002	-1.467246e-001	-1.000667e-001	-7.217798e-001	5.350909e-002
6160115200	-6.968063e-001	9.824643e-002	-1.439592e-001	-9.828074e-002	-1.460619e-001	-9.824449e-002	-7.203911e-001	5.494632e-002
6170114900	-6.973435e-001	9.942504e-002	-1.434094e-001	-9.623991e-002	-1.459841e-001	-9.677224e-002	-7.192843e-001	5.693144e-002
6180114600	-6.981059e-001	1.007491e-001	-1.430198e-001	-9.479785e-002	-1.455552e-001	-9.499803e-002	-7.186666e-001	5.968352e-002
6190114300	-6.992105e-001	1.021984e-001	-1.421760e-001	-9.297021e-002	-1.448500e-001	-9.322387e-002	-7.176521e-001	6.245935e-002
6200114000	-6.999788e-001	1.036403e-001	-1.421186e-001	-9.113801e-002	-1.446265e-001	-9.108468e-002	-7.174903e-001	6.546756e-002
6210113700	-7.007332e-001	1.047454e-001	-1.415748e-001	-8.949254e-002	-1.439266e-001	-8.949687e-002	-7.175550e-001	6.857237e-002
6220113400	-7.017979e-001	1.054496e-001	-1.410389e-001	-8.762075e-002	-1.436597e-001	-8.786671e-002	-7.180504e-001	7.217545e-002
6230113100	-7.026614e-001	1.070626e-001	-1.404429e-001	-8.580103e-002	-1.429708e-001	-8.608515e-002	-7.189676e-001	7.526149e-002
6240112800	-7.041604e-001	1.081182e-001	-1.398596e-001	-8.431240e-002	-1.422561e-001	-8.424388e-002	-7.201374e-001	7.720997e-002
6250112500	-7.050296e-001	1.085711e-001	-1.388696e-001	-8.248847e-002	-1.415392e-001	-8.276274e-002	-7.220406e-001	7.814644e-002
6260112200	-7.050698e-001	1.099718e-001	-1.384370e-001	-8.097916e-002	-1.406496e-001	-8.098345e-002	-7.237042e-001	7.900225e-002
6270111900	-7.053951e-001	1.109887e-001	-1.373873e-001	-7.920985e-002	-1.400572e-001	-7.942098e-002	-7.247657e-001	7.962813e-002
6280111600	-7.054413e-001	1.120330e-001	-1.367046e-001	-7.754708e-002	-1.392404e-001	-7.748998e-002	-7.268183e-001	7.909237e-002
6290111300	-7.057785e-001	1.133024e-001	-1.357520e-001	-7.619270e-002	-1.383185e-001	-7.590218e-002	-7.274588e-001	7.835647e-002
6300111000	-7.063855e-001	1.141711e-001	-1.345420e-001	-7.454004e-002	-1.375932e-001	-7.444177e-002	-7.275306e-001	7.728678e-002
6310110700	-7.065801e-001	1.145119e-001	-1.341004e-001	-7.302642e-002	-1.365873e-001	-7.302520e-002	-7.282053e-001	7.612864e-002
6320110400	-7.063172e-001	1.158273e-001	-1.334441e-001	-7.142624e-002	-1.360903e-001	-7.142727e-002	-7.272693e-001	7.503918e-002
6330110100	-7.064169e-001	1.170204e-001	-1.326535e-001	-7.002429e-002	-1.349592e-001	-7.033235e-002	-7.264373e-001	7.412831e-002
6340109800	-7.071793e-001	1.181938e-001	-1.317744e-001	-6.858278e-002	-1.342895e-001	-6.839224e-002	-7.256874e-001	7.457447e-002
6350109500	-7.072248e-001	1.194538e-001	-1.313415e-001	-6.714235e-002	-1.337632e-001	-6.704436e-002	-7.240870e-001	7.446494e-002
6360109200	-7.077958e-001	1.202237e-001	-1.306026e-001	-6.550780e-002	-1.330363e-001	-6.563205e-002	-7.238508e-001	7.604308e-002
6370108900	-7.086186e-001	1.215131e-001	-1.300989e-001	-6.416221e-002	-1.323701e-001	-6.379458e-002	-7.220667e-001	7.794234e-002
6380108600	-7.086593e-001	1.228674e-001	-1.292471e-001	-6.228798e-002	-1.318538e-001	-6.210548e-002	-7.204148e-001	8.001088e-002
6390108300	-7.097739e-001	1.244806e-001	-1.284241e-001	-6.039196e-002	-1.310345e-001	-6.014957e-002	-7.192948e-001	8.335320e-002
6400108000	-7.106294e-001	1.250376e-001	-1.273468e-001	-5.861337e-002	-1.299266e-001	-5.825759e-002	-7.187163e-001	8.692094e-002
6410107700	-7.113232e-001	1.263405e-001	-1.262291e-001	-5.674486e-002	-1.285111e-001	-5.629784e-002	-7.181516e-001	8.962088e-002
6420107400	-7.112553e-001	1.270558e-001	-1.253472e-001	-5.492135e-002	-1.275057e-001	-5.461931e-002	-7.181682e-001	9.241913e-002
6430107100	-7.119407e-001	1.283042e-001	-1.238336e-001	-5.345058e-002	-1.263188e-001	-5.290243e-002	-7.182148e-001	9.510811e-002
6440106800	-7.116792e-001	1.289320e-001	-1.227302e-001	-5.163922e-002	-1.252411e-001	-5.110704e-002	-7.185735e-001	9.700502e-002
6450106500	-7.114681e-001	1.296789e-001	-1.216516e-001	-5.014030e-002	-1.236724e-001	-4.932314e-002	-7.192942e-001	9.813316e-002
6460106200	-7.112399e-001	1.303682e-001	-1.200160e-001	-4.832399e-002	-1.220593e-001	-4.800613e-002	-7.197716e-001	9.825182e-002
6470105900	-7.115278e-001	1.313988e-001	-1.186956e-001	-4.682227e-002	-1.207349e-001	-4.641871e-002	-7.198368e-001	9.844625e-002
6480105600	-7.107856e-001	1.321147e-001	-1.169981e-001	-4.537600e-002	-1.191179e-001	-4.472085e-002	-7.206794e-001	9.767151e-002
6490105300	-7.102672e-001	1.327013e-001	-1.157306e-001	-4.398636e-002	-1.175645e-001	-4.336315e-002	-7.200258e-001	9.622322e-002
6500105000	-7.100128e-001	1.342025e-001	-1.140269e-001	-4.234384e-002	-1.160994e-001	-4.209950e-002	-7.195924e-001	9.443759e-002
6510104700	-7.094721e-001	1.349583e-001	-1.124032e-001	-4.115030e-002	-1.143304e-001	-4.088144e-002	-7.188400e-001	9.302828e-002
6520104400	-7.090493e-001	1.360402e-001	-1.109439e-001	-3.989223e-002	-1.127306e-001	-3.972027e-002	-7.176308e-001	9.120305e-002
6530104100	-7.088706e-001	1.371733e-001	-1.095955e-001	-3.836750e-002	-1.111241e-001	-3.820186e-002	-7.165410e-001	9.058178e-002
6540103800	-7.088825e-001	1.381471e-001	-1.079542e-001	-3.726736e-002	-1.094085e-001	-3.710909e-002	-7.144253e-001	8.971677e-002
6550103500	-7.086708e-001	1.388733e-001	-1.066318e-001	-3.588272e-002	-1.078370e-001	-3.600882e-002	-7.120905e-001	9.017629e-002
6560103200	-7.084168e-001	1.394463e-001	-1.050277e-001	-3.441691e-002	-1.062575e-001	-3.455832e-002	-7.103012e-001	9.088427e-002
6570102900	-7.079290e-001	1.405734e-001	-1.034570e-001	-3.308639e-002	-1.046952e-001	-3.309715e-002	-7.083531e-001	9.247891e-002
6580102600	-7.075244e-001	1.410814e-001	-1.014746e-001	-3.186216e-002	-1.028061e-001	-3.192524e-002	-7.067977e-001	9.409687e-002
6590102300	-7.066936e-001	1.416821e-001	-9.928618e-002	-3.072997e-002	-1.007385e-001	-3.036799e-002	-7.047970e-001	9.645431e-002
6600102000	-7.061323e-001	1.419415e-001	-9.765589e-002	-2.953517e-002	-9.904635e-002	-2.914438e-002	-7.028727e-001	9.865202e-002
6610101700	-7.051640e-001	1.422816e-001	-9.557061e-002	-2.837051e-002	-9.700749e-002	-2.795513e-002	-7.015386e-001	1.007303e-001
6620101400	-7.044248e-001	1.415655e-001	-9.322177e-002	-2.694445e-002	-9.487372e-002	-2.688209e-002	-7.003620e-001	1.030217e-001
6630101100	-7.037519e-001	1.417267e-001	-9.133529e-002	-2.635233e-002	-9.295671e-002	-2.586913e-002	-6.996058e-001	1.041241e-001
6640100800	-7.029818e-001	1.421555e-001	-8.942218e-002	-2.519283e-002	-9.063963e-002	-2.489502e-002	-6.990258e-001	1.050337e-001
6650100500	-7.015775e-001	1.421392e-001	-8.727767e-002	-2.433181e-002	-8.838111e-002	-2.390320e-002	-6.987969e-001	1.044470e-001
6660100200	-7.012645e-001	1.421024e-001	-8.483772e-002	-2.336116e-002	-8.617097e-002	-2.309072e-002	-6.986684e-001	1.034039e-001
6670099900	-6.994034e-001	1.426529e-001	-8.267971e-002	-2.266224e-002	-8.387916e-002	-2.212261e-002	-6.989821e-001	1.020018e-001
6680099600	-6.983768e-001	1.427304e-001	-8.027280e-002	-2.196809e-002	-8.186310e-002	-2.146507e-002	-6.983247e-001	9.981427e-002
6690099300	-6.970028e-001	1.427630e-001	-7.774407e-002	-2.137264e-002	-7.955019e-002	-2.082947e-002	-6.978590e-001	9.763581e-002
6700099000	-6.952920e-001	1.430147e-001	-7.564409e-002	-2.077331e-002	-7.701082e-002	-2.036129e-002	-6.964658e-001	9.479581e-002
6710098700	-6.944059e-001	1.429817e-001	-7.317759e-002	-2.032414e-002	-7.484064e-002	-1.962059e-002	-6.947643e-001	9.221192e-002
6720098400	-6.927387e-001	1.432441e-001	-7.049016e-002	-1.977360e-002	-7.214270e-002	-1.936778e-002	-6.927648e-001	9.026879e-002
6730098100	-6.913311e-001	1.430534e-001	-6.843398e-002	-1.924135e-002	-6.932612e-002	-1.886213e-002	-6.897473e-001	8.816704e-002
6740097800	-6.902808e-001	1.430798e-001	-6.609252e-002	-1.902647e-002	-6.672718e-002	-1.861945e-002	-6.867559e-001	8.660912e-002
6750097500	-6.889049e-001	1.427191e-001	-6.349084e-002	-1.839755e-002	-6.394038e-002	-1.809169e-002	-6.834730e-001	8.602411e-002
6760097200	-6.874202e-001	1.424137e-001	-6.094370e-002	-1.834031e-002	-6.158988e-002	-1.807964e-002	-6.802625e-001	8.565427e-002
6770096900	-6.861781e-001	1.412675e-001	-5.810453e-002	-1.842332e-002	-5.841521e-002	-1.790309e-002	-6.764877e-001	8.603377e-002
6780096600	-6.840683e-001	1.404090e-001	-5.512801e-002	-1.853832e-002	-5.555739e-002	-1.810230e-002	-6.730422e-001	8.640067e-002
6790096300	-6.827159e-001	1.392010e-001	-5.189257e-002	-1.902162e-002	-5.255032e-002	-1.842020e-002	-6.698275e-001	8.688128e-002
6800096000	-6.808153e-001	1.375845e-001	-4.922732e-002	-1.955812e-002	-4.956237e-002	-1.908436e-002	-6.666607e-001	8.684314e-002
6810095700	-6.790080e-001	1.356896e-001	-4.623429e-002	-2.031851e-002	-4.633959e-002	-1.993529e-002	-6.640982e-001	8.692762e-002
6820095400	-6.769027e-001	1.342648e-001	-4.311261e-002	-2.084002e-002	-4.291130e-002	-2.118335e-002	-6.619114e-001	8.650045e-002
6830095100	-6.751034e-001	1.324527e-001	-3.991441e-002	-2.173226e-002	-3.963220e-002	-2.257417e-002	-6.603123e-001	8.468895e-002
6840094800	-6.733773e-001	1.304968e-001	-3.676394e-002	-2.300848e-002	-3.678291e-002	-2.411988e-002	-6.590003e-001	8.219986e-002
6850094500	-6.717968e-001	1.285821e-001	-3.432733e-002	-2.427242e-002	-3.384353e-002	-2.585978e-002	-6.585133e-001	7.912725e-002
6860094200	-6.696522e-001	1.260502e-001	-3.153535e-002	-2.592649e-002	-3.114678e-002	-2.770762e-002	-6.579795e-001	7.564525e-002
6870093900	-6.678609e-001	1.236864e-001	-2.857147e-002	-2.773234e-002	-2.858451e-002	-2.962991e-002	-6.573954e-001	7.073256e-002
6880093600	-6.660320e-001	1.210942e-001	-2.592558e-002	-2.989362e-002	-2.626809e-002	-3.214455e-002	-6.568171e-001	6.558269e-002
6890093300	-6.640778e-001	1.178751e-001	-2.324915e-002	-3.240302e-002	-2.400370e-002	-3.483551e-002	-6.561272e-001	5.995182e-002
6900093000	-6.627964e-001	1.144539e-001	-2.049560e-002	-3.546995e-002	-2.166825e-002	-3.764154e-002	-6.548685e-001	5.342155e-002
6910092700	-6.610549e-001	1.104659e-001	-1.837575e-002	-3.829373e-002	-1.965447e-002	-4.143148e-002	-6.533830e-001	4.669065e-002
6920092400	-6.603824e-001	1.065316e-001	-1.633992e-002	-4.170833e-002	-1.839664e-002	-4.497593e-002	-6.523686e-001	3.995321e-002
6930092100	-6.600781e-001	1.031154e-001	-1.525435e-002	-4.465551e-002	-1.741604e-002	-4.894359e-002	-6.508869e-001	3.362347e-002
6940091800	-6.611302e-001	9.921420e-002	-1.494077e-002	-4.764309e-002	-1.703134e-002	-5.256957e-002	-6.500132e-001	2.798122e-002
6950091500	-6.627238e-001	9.551628e-002	-1.551589e-002	-5.051823e-002	-1.689878e-002	-5.607201e-002	-6.490503e-001	2.268112e-002
6960091200	-6.662184e-001	9.291528e-002	-1.740152e-002	-5.253131e-002	-1.700630e-002	-5.955060e-002	-6.482691e-001	1.881847e-002
6970090900	-6.673282e-001	8.908949e-002	-1.793568e-002	-5.560598e-002	-1.728214e-002	-6.306148e-002	-6.479682e-001	1.478547e-002
6980090600	-6.683666e-001	8.388250e-002	-1.760208e-002	-5.987749e-002	-1.784290e-002	-6.659179e-002	-6.479494e-001	1.171422e-002
6990090300	-6.694163e-001	7.911781e-002	-1.795991e-002	-6.385884e-002	-1.894753e-002	-6.995746e-002	-6.485613e-001	8.497186e-003
7000090000	-6.723075e-001	7.456066e-002	-1.987134e-002	-6.769719e-002	-1.999328e-002	-7.377266e-002	-6.499443e-001	5.767430e-003
7010089700	-6.756184e-001	7.084637e-002	-2.206515e-002	-7.062006e-002	-2.150658e-002	-7.732289e-002	-6.524087e-001	2.641407e-003
7020089400	-6.790843e-001	6.679790e-002	-2.437503e-002	-7.411344e-002	-2.373482e-002	-8.054683e-002	-6.554453e-001	-7.127509e-004
7030089100	-6.816640e-001	6.303215e-002	-2.592854e-002	-7.669829e-002	-2.583084e-002	-8.363686e-002	-6.598054e-001	-4.038231e-003
7040088800	-6.844393e-001	5.943770e-002	-2.833068e-002	-7.964822e-002	-2.849922e-002	-8.615030e-002	-6.640706e-001	-7.301934e-003
7050088500	-6.876439e-001	5.620669e-002	-3.050603e-002	-8.220375e-002	-3.115625e-002	-8.848618e-002	-6.689913e-001	-1.164700e-002
7060088200	-6.908026e-001	5.318405e-002	-3.287229e-002	-8.444815e-002	-3.404166e-002	-9.068448e-002	-6.741418e-001	-1.556866e-002
7070087900	-6.946370e-001	5.050177e-002	-3.549836e-002	-8.634217e-002	-3.694915e-002	-9.226847e-002	-6.783521e-001	-2.010509e-002
7080087600	-6.982355e-001	4.828578e-002	-3.853381e-002	-8.801217e-002	-3.993408e-002	-9.364311e-002	-6.827333e-001	-2.483025e-002
7090087300	-7.024574e-001	4.649021e-002	-4.150316e-002	-8.937245e-002	-4.323702e-002	-9.485522e-002	-6.873688e-001	-2.949410e-002
7100087000	-7.062473e-001	4.478401e-002	-4.462188e-002	-9.012842e-002	-4.659214e-002	-9.559003e-002	-6.912890e-001	-3.400184e-002
7110086700	-7.104941e-001	4.376873e-002	-4.792570e-002	-9.125842e-002	-4.960350e-002	-9.597403e-002	-6.944141e-001	-3.850929e-002
7120086400	-7.146634e-001	4.361919e-002	-5.099447e-002	-9.166014e-002	-5.335088e-002	-9.629754e-002	-6.976170e-001	-4.166270e-002
7130086100	-7.184009e-001	4.273399e-002	-5.411905e-002	-9.186429e-002	-5.671870e-002	-9.561137e-002	-7.002847e-001	-4.379958e-002
7140085800	-7.224709e-001	4.283618e-002	-5.705532e-002	-9.196246e-002	-6.023842e-002	-9.524897e-002	-7.026939e-001	-4.569538e-002
7150085500	-7.258010e-001	4.264455e-002	-6.048226e-002	-9.148818e-002	-6.313638e-002	-9.440034e-002	-7.047140e-001	-4.611625e-002
7160085200	-7.296451e-001	4.335048e-002	-6.342632e-002	-9.132488e-002	-6.617761e-002	-9.356942e-002	-7.065166e-001	-4.586995e-002
7170084900	-7.334380e-001	4.389903e-002	-6.608916e-002	-8.980158e-002	-6.889556e-002	-9.224550e-002	-7.082495e-001	-4.459356e-002
7180084600	-7.363187e-001	4.592578e-002	-6.839504e-002	-8.811490e-002	-7.156192e-002	-9.081462e-002	-7.105439e-001	-4.275923e-002
7190084300	-7.396081e-001	4.721439e-002	-7.092418e-002	-8.618017e-002	-7.420171e-002	-8.925538e-002	-7.132583e-001	-4.062202e-002
7200084000	-7.427799e-001	4.864128e-002	-7.323083e-002	-8.424453e-002	-7.634614e-002	-8.722978e-002	-7.153489e-001	-3.783321e-002
7210083700	-7.455216e-001	5.010396e-002	-7.540036e-002	-8.217095e-002	-7.838154e-002	-8.511529e-002	-7.182695e-001	-3.540599e-002
7220083400	-7.480206e-001	5.166612e-002	-7.754062e-002	-8.028420e-002	-8.044746e-002	-8.277212e-002	-7.211893e-001	-3.283394e-002
7230083100	-7.501019e-001	5.363795e-002	-7.919626e-002	-7.829176e-002	-8.216643e-002	-8.011295e-002	-7.246123e-001	-3.073973e-002
7240082800	-7.518735e-001	5.486410e-002	-8.080805e-002	-7.633267e-002	-8.339321e-002	-7.796646e-002	-7.276377e-001	-2.982069e-002
7250082500	-7.537778e-001	5.675136e-002	-8.210764e-002	-7.426183e-002	-8.476785e-002	-7.527610e-002	-7.303726e-001	-2.957349e-002
7260082200	-7.548372e-001	5.836964e-002	-8.303137e-002	-7.219066e-002	-8.587707e-002	-7.299892e-002	-7.332241e-001	-3.009978e-002
7270081900	-7.556018e-001	6.080649e-002	-8.412080e-002	-6.984891e-002	-8.642604e-002	-7.082819e-002	-7.353774e-001	-3.096472e-002
7280081600	-7.564258e-001	6.256164e-002	-8.503455e-002	-6.770909e-002	-8.746241e-002	-6.843523e-002	-7.376760e-001	-3.264668e-002
7290081300	-7.572888e-001	6.509909e-002	-8.609192e-002	-6.553162e-002	-8.811025e-002	-6.603872e-002	-7.389862e-001	-3.405394e-002
7300081000	-7.572699e-001	6.731391e-002	-8.668904e-002	-6.328878e-002	-8.855660e-002	-6.364837e-002	-7.397396e-001	-3.605834e-002
7310080700	-7.564570e-001	7.008283e-002	-8.700093e-002	-6.041809e-002	-8.924445e-002	-6.126410e-002	-7.404134e-001	-3.747508e-002
7320080400	-7.561384e-001	7.268229e-002	-8.754129e-002	-5.774268e-002	-8.982878e-002	-5.847985e-002	-7.398858e-001	-3.769660e-002
7330080100	-7.552111e-001	7.532495e-002	-8.677240e-002	-5.467558e-002	-8.991121e-002	-5.564604e-002	-7.393064e-001	-3.793317e-002
7340079800	-7.543114e-001	7.751424e-002	-8.757893e-002	-5.248321e-002	-8.998917e-002	-5.295246e-002	-7.382827e-001	-3.775443e-002
7350079500	-7.534117e-001	7.869916e-002	-8.748147e-002	-5.018996e-002	-9.019523e-002	-5.028485e-002	-7.367352e-001	-3.670180e-002
7360079200	-7.518666e-001	7.992528e-002	-8.711114e-002	-4.734380e-002	-8.980369e-002	-4.735048e-002	-7.358935e-001	-3.495308e-002
7370078900	-7.496159e-001	8.079939e-002	-8.655008e-002	-4.458222e-002	-8.918234e-002	-4.481968e-002	-7.349806e-001	-3.259430e-002
7380078600	-7.480463e-001	8.192689e-002	-8.600533e-002	-4.192891e-002	-8.857573e-002	-4.196936e-002	-7.340011e-001	-2.993797e-002
7390078300	-7.463549e-001	8.128461e-002	-8.547232e-002	-3.967957e-002	-8.761502e-002	-3.909025e-002	-7.331906e-001	-2.667705e-002
7400078000	-7.438613e-001	8.241041e-002	-8.330827e-002	-3.576061e-002	-8.629771e-002	-3.652795e-002	-7.328939e-001	-2.399728e-002
7410077700	-7.414150e-001	8.342306e-002	-8.084263e-002	-3.180427e-002	-8.522850e-002	-3.391871e-002	-7.327195e-001	-2.138592e-002
7420077400	-7.393689e-001	8.173968e-002	-7.966916e-002	-2.961714e-002	-8.337296e-002	-3.141520e-002	-7.329541e-001	-1.951356e-002
7430077100	-7.374572e-001	8.059335e-002	-7.763378e-002	-2.701420e-002	-8.177220e-002	-2.896779e-002	-7.330388e-001	-1.824904e-002
7440076800	-7.360454e-001	7.948242e-002	-7.566602e-002	-2.487669e-002	-7.965883e-002	-2.658554e-002	-7.335978e-001	-1.796938e-002
7450076500	-7.338064e-001	7.878057e-002	-7.312676e-002	-2.218495e-002	-7.739941e-002	-2.410593e-002	-7.331714e-001	-1.813045e-002
7460076200	-7.325838e-001	7.781518e-002	-7.068643e-002	-2.019647e-002	-7.485905e-002	-2.203761e-002	-7.328474e-001	-1.986148e-002
7470075900	-7.309321e-001	7.651545e-002	-6.770573e-002	-1.859218e-002	-7.222001e-002	-2.038248e-002	-7.322101e-001	-2.181145e-002
7480075600	-7.301721e-001	7.618200e-002	-6.444786e-002	-1.701116e-002	-6.948645e-002	-1.878926e-002	-7.306012e-001	-2.488910e-002
7490075300	-7.287396e-001	7.563871e-002	-6.131592e-002	-1.560626e-002	-6.634182e-002	-1.714518e-002	-7.285978e-001	-2.837770e-002
7500075000	-7.281808e-001	7.539923e-002	-5.811590e-002	-1.443540e-002	-6.286738e-002	-1.605979e-002	-7.262658e-001	-3.201718e-002
7510074700	-7.267450e-001	7.520363e-002	-5.456190e-002	-1.386805e-002	-5.924073e-002	-1.539205e-002	-7.233582e-001	-3.582838e-002
7520074400	-7.257636e-001	7.425046e-002	-5.141659e-002	-1.417556e-002	-5.573247e-002	-1.496446e-002	-7.199193e-001	-3.936159e-002
7530074100	-7.246468e-001	7.300753e-002	-4.871709e-002	-1.439683e-002	-5.190050e-002	-1.484932e-002	-7.168369e-001	-4.293504e-002
7540073800	-7.231688e-001	7.238789e-002	-4.516358e-002	-1.495646e-002	-4.793449e-002	-1.510066e-002	-7.132766e-001	-4.555149e-002
7550073500	-7.200032e-001	7.157427e-002	-4.086095e-002	-1.578485e-002	-4.362296e-002	-1.611074e-002	-7.097856e-001	-4.774776e-002
7560073200	-7.144742e-001	7.137270e-002	-3.510273e-002	-1.717948e-002	-3.952857e-002	-1.791772e-002	-7.070252e-001	-4.941853e-002
7570072900	-7.132313e-001	6.744947e-002	-3.281353e-002	-1.988683e-002	-3.583651e-002	-2.031157e-002	-7.042866e-001	-5.129870e-002
7580072600	-7.112026e-001	6.281315e-002	-3.062086e-002	-2.310796e-002	-3.201169e-002	-2.334251e-002	-7.021856e-001	-5.362810e-002
7590072300	-7.085042e-001	5.861784e-002	-2.790664e-002	-2.696200e-002	-2.913124e-002	-2.722471e-002	-7.010452e-001	-5.589405e-002
7600072000	-7.051742e-001	5.343004e-002	-2.525562e-002	-3.120566e-002	-2.616205e-002	-3.177871e-002	-7.012982e-001	-5.813112e-002
7610071700	-7.020074e-001	4.735715e-002	-2.367423e-002	-3.623835e-002	-2.472292e-002	-3.684601e-002	-7.022673e-001	-6.156986e-002
7620071400	-7.002962e-001	4.032976e-002	-2.282899e-002	-4.102618e-002	-2.408004e-002	-4.209651e-002	-7.043445e-001	-6.461760e-002
7630071100	-6.991420e-001	3.306525e-002	-2.316925e-002	-4.660378e-002	-2.400657e-002	-4.725781e-002	-7.080072e-001	-6.848517e-002
7640070800	-6.993377e-001	2.613581e-002	-2.474375e-002	-5.167571e-002	-2.569774e-002	-5.236355e-002	-7.123663e-001	-7.310147e-002
7650070500	-7.011319e-001	1.847440e-002	-2.704452e-002	-5.631535e-002	-2.780079e-002	-5.740681e-002	-7.175442e-001	-7.777107e-002
7660070200	-7.040999e-001	1.137187e-002	-3.007111e-002	-6.042846e-002	-3.061878e-002	-6.167486e-002	-7.225040e-001	-8.284858e-002
7670069900	-7.077119e-001	5.507543e-003	-3.358313e-002	-6.398796e-002	-3.424827e-002	-6.506921e-002	-7.277939e-001	-8.823009e-002
7680069600	-7.123375e-001	5.828408e-004	-3.732682e-002	-6.663405e-002	-3.858712e-002	-6.774967e-002	-7.333299e-001	-9.343229e-002
7690069300	-7.176145e-001	-3.923106e-003	-4.169499e-002	-6.852646e-002	-4.290446e-002	-6.944761e-002	-7.377900e-001	-9.765916e-002
7700069000	-7.228779e-001	-7.599672e-003	-4.598766e-002	-7.009250e-002	-4.711112e-002	-7.095847e-002	-7.426615e-001	-1.008805e-001
7710068700	-7.289649e-001	-1.021706e-002	-5.034034e-002	-7.042502e-002	-5.146183e-002	-7.127809e-002	-7.463141e-001	-1.044607e-001
7720068400	-7.348565e-001	-1.295659e-002	-5.453496e-002	-7.040489e-002	-5.542464e-002	-7.119465e-002	-7.487548e-001	-1.061008e-001
7730068100	-7.404228e-001	-1.413517e-002	-5.841015e-002	-6.967933e-002	-5.946722e-002	-7.085957e-002	-7.513406e-001	-1.070075e-001
7740067800	-7.467456e-001	-1.500902e-002	-6.261138e-002	-6.894932e-002	-6.340165e-002	-6.978542e-002	-7.528100e-001	-1.067158e-001
7750067500	-7.516914e-001	-1.644816e-002	-6.604622e-002	-6.766493e-002	-6.687303e-002	-6.831716e-002	-7.540802e-001	-1.049871e-001
7760067200	-7.561572e-001	-1.687024e-002	-6.918729e-002	-6.605713e-002	-6.986632e-002	-6.680006e-002	-7.547832e-001	-1.024407e-001
7770066900	-7.607076e-001	-1.716205e-002	-7.211454e-002	-6.428455e-002	-7.260845e-002	-6.470076e-002	-7.558946e-001	-9.953365e-002
7780066600	-7.653551e-001	-1.689434e-002	-7.415857e-002	-6.224053e-002	-7.491361e-002	-6.283351e-002	-7.570481e-001	-9.515465e-002
7790066300	-7.685832e-001	-1.663373e-002	-7.627564e-002	-5.953148e-002	-7.735441e-002	-6.064533e-002	-7.576731e-001	-9.100128e-002
7800066000	-7.722526e-001	-1.607182e-002	-7.844111e-002	-5.738761e-002	-7.893818e-002	-5.819996e-002	-7.589216e-001	-8.657965e-002
7810065700	-7.758057e-001	-1.478361e-002	-8.003734e-002	-5.524476e-002	-8.065586e-002	-5.587379e-002	-7.605298e-001	-8.337106e-002
7820065400	-7.783388e-001	-1.398333e-002	-8.131149e-002	-5.317511e-002	-8.213693e-002	-5.360650e-002	-7.624288e-001	-8.051476e-002
7830065100	-7.811035e-001	-1.234061e-002	-8.240826e-002	-5.076483e-002	-8.360605e-002	-5.146870e-002	-7.642525e-001	-7.862445e-002
7840064800	-7.839490e-001	-1.137629e-002	-8.369059e-002	-4.860740e-002	-8.429967e-002	-4.909953e-002	-7.665551e-001	-7.827370e-002
7850064500	-7.861893e-001	-9.277621e-003	-8.434967e-002	-4.631800e-002	-8.563806e-002	-4.679044e-002	-7.691436e-001	-7.794154e-002
7860064200	-7.883324e-001	-7.637540e-003	-8.514930e-002	-4.415502e-002	-8.610171e-002	-4.477015e-002	-7.712203e-001	-7.892026e-002
7870063900	-7.908592e-001	-6.261099e-003	-8.566170e-002	-4.213622e-002	-8.644341e-002	-4.245520e-002	-7.729988e-001	-8.065264e-002
7880063600	-7.924581e-001	-3.901320e-003	-8.635008e-002	-4.000163e-002	-8.701306e-002	-4.059033e-002	-7.743726e-001	-8.280787e-002
7890063300	-7.946712e-001	-2.206647e-003	-8.678348e-002	-3.783487e-002	-8.756797e-002	-3.833478e-002	-7.753915e-001	-8.527272e-002
7900063000	-7.963998e-001	-1.227863e-003	-8.717079e-002	-3.589576e-002	-8.764638e-002	-3.623791e-002	-7.753903e-001	-8.784515e-002
7910062700	-7.982134e-001	6.248995e-004	-8.742683e-002	-3.411038e-002	-8.813073e-002	-3.420616e-002	-7.748494e-001	-9.021156e-002
7920062400	-7.999381e-001	1.852711e-003	-8.775496e-002	-3.204915e-002	-8.861376e-002	-3.210902e-002	-7.731784e-001	-9.166787e-002
7930062100	-8.017919e-001	3.005338e-003	-8.809051e-002	-3.010995e-002	-8.869445e-002	-3.033429e-002	-7.719080e-001	-9.274357e-002
7940061800	-8.026895e-001	5.091310e-003	-8.836570e-002	-2.808986e-002	-8.893853e-002	-2.826113e-002	-7.697231e-001	-9.259333e-002
7950061500	-8.044373e-001	5.668057e-003	-8.848290e-002	-2.602672e-002	-8.892528e-002	-2.631995e-002	-7.676278e-001	-9.185595e-002
7960061200	-8.053501e-001	6.762772e-003	-8.846072e-002	-2.409639e-002	-8.916886e-002	-2.434353e-002	-7.656324e-001	-9.008012e-002
7970060900	-8.069645e-001	8.225448e-003	-8.841864e-002	-2.216648e-002	-8.927871e-002	-2.254553e-002	-7.641271e-001	-8.679506e-002
7980060600	-8.071304e-001	9.712178e-003	-8.821840e-002	-2.005118e-002	-8.877240e-002	-2.067835e-002	-7.625318e-001	-8.355215e-002
7990060300	-8.081871e-001	1.128861e-002	-8.805085e-002	-1.818582e-002	-8.856811e-002	-1.867282e-002	-7.622720e-001	-8.024078e-002
8000060000	-8.087440e-001	1.277081e-002	-8.781723e-002	-1.632585e-002	-8.844672e-002	-1.674551e-002	-7.616733e-001	-7.739157e-002
8010059700	-8.094970e-001	1.389175e-002	-8.734109e-002	-1.458751e-002	-8.793488e-002	-1.475006e-002	-7.620989e-001	-7.410320e-002
8020059400	-8.098080e-001	1.561625e-002	-8.708777e-002	-1.244162e-002	-8.789215e-002	-1.317003e-002	-7.624428e-001	-7.223307e-002
8030059100	-8.107359e-001	1.696939e-002	-8.641816e-002	-1.089064e-002	-8.739434e-002	-1.117220e-002	-7.636414e-001	-7.090600e-002
8040058800	-8.110813e-001	1.839735e-002	-8.594468e-002	-9.354859e-003	-8.669667e-002	-9.367033e-003	-7.648228e-001	-7.069022e-002
8050058500	-8.120518e-001	1.978431e-002	-8.570398e-002	-7.684699e-003	-8.644472e-002	-7.968546e-003	-7.663655e-001	-7.189316e-002
8060058200	-8.127582e-001	2.114088e-002	-8.531793e-002	-5.773912e-003	-8.587625e-002	-6.228512e-003	-7.677208e-001	-7.298641e-002
8070057900	-8.130771e-001	2.219153e-002	-8.494471e-002	-4.491708e-003	-8.539677e-002	-4.574528e-003	-7.682717e-001	-7.615548e-002
8080057600	-8.139904e-001	2.333628e-002	-8.443050e-002	-2.834154e-003	-8.511231e-002	-3.232218e-003	-7.689143e-001	-7.985506e-002
8090057300	-8.146711e-001	2.488440e-002	-8.408199e-002	-1.171006e-003	-8.460082e-002	-1.744956e-003	-7.681648e-001	-8.312945e-002
8100057000	-8.150905e-001	2.528809e-002	-8.356983e-002	4.183824e-006	-8.392099e-002	-1.075996e-004	-7.675384e-001	-8.679312e-002
8110056700	-8.154407e-001	2.742065e-002	-8.321927e-002	1.646870e-003	-8.357124e-002	1.510631e-003	-7.656697e-001	-8.927212e-002
8120056400	-8.161798e-001	2.870013e-002	-8.248698e-002	3.440087e-003	-8.303434e-002	3.122857e-003	-7.633136e-001	-9.119501e-002
8130056100	-8.156492e-001	3.050622e-002	-8.177938e-002	4.792466e-003	-8.241130e-002	4.794812e-003	-7.611835e-001	-9.168215e-002
8140055800	-8.153444e-001	3.110069e-002	-8.109411e-002	6.299256e-003	-8.197116e-002	6.246846e-003	-7.582354e-001	-9.197913e-002
8150055500	-8.155393e-001	3.284599e-002	-8.060787e-002	8.019921e-003	-8.125610e-002	7.713324e-003	-7.556866e-001	-9.062389e-002
8160055200	-8.152418e-001	3.479863e-002	-8.006211e-002	1.001823e-002	-8.033146e-002	9.199737e-003	-7.531046e-001	-8.844511e-002
8170054900	-8.150248e-001	3.625915e-002	-7.951788e-002	1.130772e-002	-7.957425e-002	1.095847e-002	-7.505052e-001	-8.582732e-002
8180054600	-8.154253e-001	3.806830e-002	-7.867216e-002	1.296054e-002	-7.876965e-002	1.247673e-002	-7.488502e-001	-8.293086e-002
8190054300	-8.150629e-001	3.961855e-002	-7.813742e-002	1.462532e-002	-7.751235e-002	1.359369e-002	-7.481459e-001	-8.041042e-002
8200054000	-8.152949e-001	4.029491e-002	-7.741017e-002	1.593972e-002	-7.684887e-002	1.521729e-002	-7.478013e-001	-7.694374e-002
8210053700	-8.154321e-001	4.194797e-002	-7.632815e-002	1.759424e-002	-7.586854e-002	1.660572e-002	-7.481168e-001	-7.455182e-002
8220053400	-8.145351e-001	4.347934e-002	-7.524838e-002	1.874555e-002	-7.557946e-002	1.836414e-002	-7.494755e-001	-7.295740e-002
8230053100	-8.157088e-001	4.562041e-002	-7.469630e-002	2.050833e-002	-7.490943e-002	1.984819e-002	-7.509320e-001	-7.267304e-002
8240052800	-8.157815e-001	4.629502e-002	-7.392251e-002	2.183376e-002	-7.390007e-002	2.122882e-002	-7.512082e-001	-7.334964e-002
8250052500	-8.148973e-001	4.761285e-002	-7.280661e-002	2.322770e-002	-7.318515e-002	2.258141e-002	-7.522362e-001	-7.564060e-002
8260052200	-8.148900e-001	4.959499e-002	-7.203962e-002	2.487065e-002	-7.213042e-002	2.383951e-002	-7.533703e-001	-7.787301e-002
8270051900	-8.149441e-001	5.087102e-002	-7.121750e-002	2.611547e-002	-7.106451e-002	2.496822e-002	-7.527568e-001	-8.061719e-002
8280051600	-8.141852e-001	5.213619e-002	-7.024062e-002	2.753281e-002	-7.044289e-002	2.645776e-002	-7.523249e-001	-8.456145e-002
8290051300	-8.131696e-001	5.362599e-002	-6.928194e-002	2.884876e-002	-6.941832e-002	2.777431e-002	-7.512283e-001	-8.787595e-002
8300051000	-8.128391e-001	5.463384e-002	-6.822577e-002	3.018123e-002	-6.838726e-002	2.899739e-002	-7.490127e-001	-9.090780e-002
8310050700	-8.116974e-001	5.627062e-002	-6.731196e-002	3.137266e-002	-6.723084e-002	3.032008e-002	-7.462933e-001	-9.358827e-002
8320050400	-8.113215e-001	5.758857e-002	-6.629829e-002	3.235044e-002	-6.654963e-002	3.192861e-002	-7.433340e-001	-9.465212e-002
8330050100	-8.094919e-001	5.860256e-002	-6.514416e-002	3.364156e-002	-6.557185e-002	3.341653e-002	-7.393759e-001	-9.500856e-002
8340049800	-8.086236e-001	6.015569e-002	-6.387507e-002	3.482917e-002	-6.431650e-002	3.452995e-002	-7.363430e-001	-9.469587e-002
8350049500	-8.078025e-001	6.183738e-002	-6.266018e-002	3.566941e-002	-6.345427e-002	3.597094e-002	-7.337466e-001	-9.313006e-002
8360049200	-8.075512e-001	6.276645e-002	-6.137035e-002	3.710360e-002	-6.243315e-002	3.714186e-002	-7.312646e-001	-9.102961e-002
8370048900	-8.067930e-001	6.357664e-002	-6.046790e-002	3.845589e-002	-6.120983e-002	3.837160e-002	-7.287622e-001	-8.830491e-002
8380048600	-8.066870e-001	6.559711e-002	-5.920934e-002	3.983642e-002	-5.968594e-002	3.988931e-002	-7.280771e-001	-8.527553e-002
8390048300	-8.060338e-001	6.695588e-002	-5.836377e-002	4.133249e-002	-5.862162e-002	4.096413e-002	-7.274153e-001	-8.171549e-002
8400048000	-8.051249e-001	6.817220e-002	-5.700299e-002	4.252035e-002	-5.738815e-002	4.205508e-002	-7.279542e-001	-7.904664e-002
8410047700	-8.040895e-001	6.869577e-002	-5.562430e-002	4.374871e-002	-5.611576e-002	4.342901e-002	-7.279363e-001	-7.726093e-002
8420047400	-8.039651e-001	7.026132e-002	-5.411022e-002	4.477418e-002	-5.482694e-002	4.435293e-002	-7.286438e-001	-7.634203e-002
8430047100	-8.026844e-001	7.079286e-002	-5.273062e-002	4.564159e-002	-5.358664e-002	4.540177e-002	-7.294078e-001	-7.596212e-002
8440046800	-8.016655e-001	7.228470e-002	-5.129310e-002	4.635955e-002	-5.246242e-002	4.601742e-002	-7.297093e-001	-7.725681e-002
8450046500	-8.009135e-001	7.275281e-002	-5.011365e-002	4.750171e-002	-5.134938e-002	4.725750e-002	-7.297708e-001	-7.939015e-002
8460046200	-8.000858e-001	7.318220e-002	-4.888947e-002	4.839931e-002	-4.974942e-002	4.806907e-002	-7.295293e-001	-8.207310e-002
8470045900	-7.987596e-001	7.440733e-002	-4.754358e-002	4.925181e-002	-4.871026e-002	4.906031e-002	-7.288807e-001	-8.559273e-002
8480045600	-7.970981e-001	7.551069e-002	-4.647027e-002	5.026135e-002	-4.721954e-002	5.021516e-002	-7.275656e-001	-8.887089e-002
8490045300	-7.963554e-001	7.659388e-002	-4.518138e-002	5.106683e-002	-4.648280e-002	5.117488e-002	-7.253151e-001	-9.218864e-002
8500045000	-7.879593e-001	6.240683e-002	-4.299897e-002	4.991893e-002	-4.595875e-002	5.108003e-002	-7.116472e-001	-9.653377e-002
8510044700	-7.889105e-001	6.309575e-002	-4.274199e-002	5.032967e-002	-4.534787e-002	5.161264e-002	-7.097959e-001	-9.853704e-002
8520044400	-7.896964e-001	6.389738e-002	-4.139959e-002	5.218227e-002	-4.329768e-002	5.206633e-002	-7.088657e-001	-1.038668e-001
8530044100	-7.885052e-001	6.424134e-002	-4.035106e-002	5.294775e-002	-4.246447e-002	5.332305e-002	-7.064143e-001	-1.049196e-001
8540043800	-7.883083e-001	6.471350e-002	-3.854406e-002	5.410857e-002	-4.144343e-002	5.466167e-002	-7.056177e-001	-1.055607e-001
8550043500	-7.855720e-001	6.579264e-002	-3.787064e-002	5.492773e-002	-3.943574e-002	5.533505e-002	-7.031938e-001	-1.030751e-001
8560043200	-7.829544e-001	6.746196e-002	-3.668302e-002	5.601391e-002	-3.887970e-002	5.656221e-002	-7.020825e-001	-1.008994e-001
8570042900	-7.813329e-001	6.860695e-002	-3.577252e-002	5.731165e-002	-3.845586e-002	5.830000e-002	-6.989880e-001	-9.824675e-002
8580042600	-7.787273e-001	7.135232e-002	-3.418120e-002	5.758333e-002	-3.548427e-002	5.935814e-002	-6.982041e-001	-9.438468e-002
8590042300	-7.782981e-001	7.403484e-002	-3.249698e-002	5.893251e-002	-3.414481e-002	6.084406e-002	-6.972413e-001	-9.091758e-002
8600042000	-7.773179e-001	7.694746e-002	-3.175810e-002	6.052973e-002	-3.296606e-002	6.094533e-002	-6.960718e-001	-8.680486e-002
8610041700	-7.770629e-001	7.914127e-002	-3.016741e-002	6.135219e-002	-3.213846e-002	6.252952e-002	-6.952784e-001	-8.526564e-002
8620041400	-7.779704e-001	8.285159e-002	-2.863752e-002	6.266421e-002	-3.096024e-002	6.342228e-002	-6.957619e-001	-8.330746e-002
8630041100	-7.779422e-001	8.225889e-002	-2.819301e-002	6.282664e-002	-2.972876e-002	6.348609e-002	-6.950707e-001	-8.211454e-002
8640040800	-7.791523e-001	8.562703e-002	-2.695484e-002	6.369823e-002	-2.854336e-002	6.487274e-002	-6.955460e-001	-8.192786e-002
8650040500	-7.795274e-001	8.850666e-002	-2.434907e-002	6.540409e-002	-2.649248e-002	6.594977e-002	-6.947776e-001	-8.453031e-002
8660040200	-7.791449e-001	8.898170e-002	-2.416826e-002	6.506212e-002	-2.556542e-002	6.844716e-002	-6.955597e-001	-8.771186e-002
8670039900	-7.812532e-001	9.132186e-002	-2.359773e-002	6.725534e-002	-2.478538e-002	6.894083e-002	-6.929322e-001	-9.012319e-002
8680039600	-7.804973e-001	9.546509e-002	-2.180154e-002	6.756924e-002	-2.346257e-002	7.006995e-002	-6.944111e-001	-9.421959e-002
8690039300	-7.783589e-001	9.685588e-002	-2.057862e-002	6.974208e-002	-2.135502e-002	7.175379e-002	-6.913636e-001	-9.870360e-002
8700039000	-7.771463e-001	1.000654e-001	-1.887267e-002	7.089434e-002	-1.901673e-002	7.285995e-002	-6.907955e-001	-1.005730e-001
8710038700	-7.753037e-001	1.035055e-001	-1.682811e-002	7.234920e-002	-1.829857e-002	7.367263e-002	-6.908553e-001	-1.033701e-001
8720038400	-7.728624e-001	1.049875e-001	-1.524960e-002	7.301659e-002	-1.655426e-002	7.529093e-002	-6.869137e-001	-1.045697e-001
8730038100	-7.713959e-001	1.082004e-001	-1.413496e-002	7.398544e-002	-1.454033e-002	7.660597e-002	-6.846629e-001	-1.044934e-001
8740037800	-7.690475e-001	1.106853e-001	-1.260264e-002	7.579809e-002	-1.294141e-002	7.814522e-002	-6.823243e-001	-1.031952e-001
8750037500	-7.660541e-001	1.107781e-001	-1.064287e-002	7.597903e-002	-1.104266e-002	7.864009e-002	-6.780448e-001	-1.028338e-001
8760037200	-7.647959e-001	1.145408e-001	-9.082693e-003	7.792311e-002	-8.685426e-003	7.965206e-002	-6.750733e-001	-9.902742e-002
8770036900	-7.622285e-001	1.188226e-001	-6.910279e-003	7.888369e-002	-7.441416e-003	8.054276e-002	-6.731438e-001	-9.557547e-002
8780036600	-7.602076e-001	1.200406e-001	-4.752749e-003	7.945762e-002	-5.553041e-003	8.224244e-002	-6.703870e-001	-9.287246e-002
8790036300	-7.612161e-001	1.235928e-001	-2.703444e-003	8.032475e-002	-3.552071e-003	8.297266e-002	-6.686067e-001	-8.995122e-002
8800036000	-7.581035e-001	1.251967e-001	-1.327556e-003	8.098978e-002	-1.271494e-003	8.341917e-002	-6.677884e-001	-8.781522e-002
8810035700	-7.583978e-001	1.297674e-001	7.982195e-004	8.244259e-002	5.390830e-004	8.409454e-002	-6.653833e-001	-8.580952e-002
8820035400	-7.550406e-001	1.318270e-001	2.150928e-003	8.372737e-002	2.488679e-003	8.462760e-002	-6.661681e-001	-8.549204e-002
8830035100	-7.534491e-001	1.358672e-001	4.050038e-003	8.462962e-002	5.325754e-003	8.584583e-002	-6.663417e-001	-8.439144e-002
8840034800	-7.504449e-001	1.383726e-001	7.348077e-003	8.515374e-002	6.551307e-003	8.714569e-002	-6.660206e-001	-8.737321e-002
8850034500	-7.482612e-001	1.412076e-001	9.741943e-003	8.593391e-002	9.062816e-003	8.767324e-002	-6.676803e-001	-8.973446e-002
8860034200	-7.456461e-001	1.440469e-001	1.176074e-002	8.719144e-002	1.034987e-002	8.802218e-002	-6.676076e-001	-9.277045e-002
8870033900	-7.414598e-001	1.479247e-001	1.395306e-002	8.793852e-002	1.392588e-002	8.926579e-002	-6.668942e-001	-9.661836e-002
8880033600	-7.361491e-001	1.521260e-001	1.659383e-002	8.896534e-002	1.608467e-002	9.061852e-002	-6.653685e-001	-9.651650e-002
8890033300	-7.338230e-001	1.522403e-001	1.904076e-002	9.006630e-002	1.884866e-002	9.099398e-002	-6.629313e-001	-1.019270e-001
8900033000	-7.296490e-001	1.567593e-001	2.143570e-002	9.125767e-002	2.126487e-002	9.119043e-002	-6.599300e-001	-1.049857e-001
8910032700	-7.243614e-001	1.585253e-001	2.400544e-002	9.191047e-002	2.517830e-002	9.261981e-002	-6.572887e-001	-1.053996e-001
8920032400	-7.205353e-001	1.631798e-001	2.742823e-002	9.187779e-002	2.688071e-002	9.289516e-002	-6.527990e-001	-1.076612e-001
8930032100	-7.161722e-001	1.655307e-001	2.949710e-002	9.316724e-002	3.038912e-002	9.318802e-002	-6.487644e-001	-1.074332e-001
8940031800	-7.143162e-001	1.691477e-001	3.228477e-002	9.373540e-002	3.271122e-002	9.386275e-002	-6.458416e-001	-1.068337e-001
8950031500	-7.093337e-001	1.705082e-001	3.502228e-002	9.383766e-002	3.489482e-002	9.433711e-002	-6.402321e-001	-1.051664e-001
8960031200	-7.069780e-001	1.735826e-001	3.867686e-002	9.477650e-002	3.783645e-002	9.451305e-002	-6.366903e-001	-1.018431e-001
8970030900	-7.022567e-001	1.770542e-001	4.107145e-002	9.479070e-002	4.178389e-002	9.416759e-002	-6.335050e-001	-1.011397e-001
8980030600	-6.980693e-001	1.796737e-001	4.447672e-002	9.606792e-002	4.523339e-002	9.468486e-002	-6.306075e-001	-9.800948e-002
8990030300	-6.926804e-001	1.811230e-001	4.806085e-002	9.499535e-002	4.702168e-002	9.558386e-002	-6.263779e-001	-9.505763e-002
9000030000	-6.871071e-001	1.834925e-001	5.129328e-002	9.574855e-002	5.192147e-002	9.402280e-002	-6.271270e-001	-9.394099e-002
9010029700	-6.829293e-001	1.854654e-001	5.483856e-002	9.541947e-002	5.493774e-002	9.455646e-002	-6.246002e-001	-9.204352e-002
9020029400	-6.768340e-001	1.864328e-001	5.778941e-002	9.592050e-002	5.844629e-002	9.466579e-002	-6.251847e-001	-9.179821e-002
9030029100	-6.709783e-001	1.881614e-001	6.170735e-002	9.514250e-002	6.146313e-002	9.423197e-002	-6.248972e-001	-9.379139e-002
9040028800	-6.623632e-001	1.899169e-001	6.484575e-002	9.535419e-002	6.613497e-002	9.457852e-002	-6.243812e-001	-9.510530e-002
9050028500	-6.568437e-001	1.920473e-001	6.911786e-002	9.462129e-002	6.919079e-002	9.340208e-002	-6.246540e-001	-9.661887e-002
9060028200	-6.500150e-001	1.930945e-001	7.160079e-002	9.409586e-002	7.213559e-002	9.221517e-002	-6.237947e-001	-1.000037e-001
9070027900	-6.409025e-001	1.941481e-001	7.635223e-002	9.321917e-002	7.627160e-002	9.275072e-002	-6.216894e-001	-1.053382e-001
9080027600	-6.355364e-001	1.954777e-001	7.990435e-002	9.219562e-002	8.017899e-002	9.109323e-002	-6.189031e-001	-1.072296e-001
9090027300	-6.285742e-001	1.980802e-001	8.337995e-002	9.090671e-002	8.331777e-002	8.991219e-002	-6.157796e-001	-1.118424e-001
9100027000	-6.226107e-001	1.997113e-001	8.801118e-002	9.132020e-002	8.749465e-002	8.793585e-002	-6.122989e-001	-1.146703e-001
9110026700	-6.151751e-001	1.997782e-001	9.151330e-002	8.974397e-002	9.229574e-002	8.767962e-002	-6.095803e-001	-1.200317e-001
9120026400	-6.076313e-001	2.003341e-001	9.407323e-002	8.800818e-002	9.516180e-002	8.530434e-002	-6.038662e-001	-1.235622e-001
9130026100	-6.015036e-001	2.000573e-001	9.852778e-002	8.652215e-002	9.865827e-002	8.362420e-002	-5.985233e-001	-1.245604e-001
9140025800	-5.948208e-001	1.979762e-001	1.026816e-001	8.443326e-002	1.024056e-001	8.191009e-002	-5.942266e-001	-1.245431e-001
9150025500	-5.881714e-001	1.967122e-001	1.070593e-001	8.156468e-002	1.057821e-001	7.943818e-002	-5.889911e-001	-1.265011e-001
9160025200	-5.802274e-001	1.946610e-001	1.108963e-001	7.883505e-002	1.092479e-001	7.652476e-002	-5.835121e-001	-1.250026e-001
9170024900	-5.732101e-001	1.910760e-001	1.141680e-001	7.664523e-002	1.140702e-001	7.298010e-002	-5.804971e-001	-1.246735e-001
9180024600	-5.640420e-001	1.884736e-001	1.188739e-001	7.328584e-002	1.167954e-001	7.021781e-002	-5.780341e-001	-1.254938e-001
9190024300	-5.565574e-001	1.847174e-001	1.218334e-001	7.036849e-002	1.208756e-001	6.599803e-002	-5.749176e-001	-1.243814e-001
9200024000	-5.489148e-001	1.804258e-001	1.264547e-001	6.560769e-002	1.243872e-001	6.330227e-002	-5.743981e-001	-1.239050e-001
9210023700	-5.406431e-001	1.760973e-001	1.289150e-001	6.115820e-002	1.272660e-001	6.013327e-002	-5.730974e-001	-1.243114e-001
9220023400	-5.333319e-001	1.702562e-001	1.312965e-001	5.677322e-002	1.287341e-001	5.523364e-002	-5.726897e-001	-1.243101e-001
9230023100	-5.266387e-001	1.657915e-001	1.344624e-001	5.215362e-002	1.317941e-001	5.120235e-002	-5.722988e-001	-1.263083e-001
9240022800	-5.202957e-001	1.583456e-001	1.363675e-001	4.776741e-002	1.334715e-001	4.723914e-002	-5.726040e-001	-1.299869e-001
9250022500	-5.146579e-001	1.535984e-001	1.380973e-001	4.279773e-002	1.346169e-001	4.264306e-002	-5.730468e-001	-1.309345e-001
9260022200	-5.090240e-001	1.464397e-001	1.394685e-001	3.764644e-002	1.366294e-001	3.761576e-002	-5.732246e-001	-1.369010e-001
9270021900	-5.050519e-001	1.380604e-001	1.391809e-001	3.164847e-002	1.386634e-001	3.204056e-002	-5.732909e-001	-1.405744e-001
9280021600	-5.021489e-001	1.323703e-001	1.394497e-001	2.641595e-002	1.386067e-001	2.737457e-002	-5.724707e-001	-1.446553e-001
9290021300	-5.003414e-001	1.228886e-001	1.390095e-001	2.194204e-002	1.387670e-001	2.280591e-002	-5.709001e-001	-1.503159e-001
9300021000	-4.986479e-001	1.165969e-001	1.386319e-001	1.579960e-002	1.390473e-001	1.672445e-002	-5.703416e-001	-1.550399e-001
9310020700	-4.998041e-001	1.074978e-001	1.370525e-001	1.091652e-002	1.383634e-001	1.262513e-002	-5.665601e-001	-1.588680e-001
9320020400	-5.003441e-001	9.976914e-002	1.336020e-001	6.787367e-003	1.368056e-001	8.100397e-003	-5.670533e-001	-1.600634e-001
9330020100	-5.025564e-001	9.134775e-002	1.318777e-001	2.864624e-003	1.347529e-001	4.923825e-003	-5.642932e-001	-1.630930e-001
9340019800	-5.063868e-001	8.623561e-002	1.297396e-001	-1.160515e-003	1.325650e-001	1.450247e-003	-5.632813e-001	-1.631345e-001
9350019500	-5.103349e-001	7.797253e-002	1.267708e-001	-4.500081e-003	1.281964e-001	-1.165803e-003	-5.614377e-001	-1.615070e-001
9360019200	-5.143088e-001	7.306304e-002	1.230297e-001	-7.508648e-003	1.261596e-001	-4.010209e-003	-5.616672e-001	-1.588944e-001
9370018900	-5.195173e-001	6.968100e-002	1.187966e-001	-9.506901e-003	1.220974e-001	-6.226769e-003	-5.603888e-001	-1.566273e-001
9380018600	-5.244213e-001	6.468369e-002	1.153837e-001	-9.756246e-003	1.200931e-001	-8.876094e-003	-5.575693e-001	-1.535615e-001
9390018300	-5.259286e-001	6.347473e-002	1.120666e-001	-1.152115e-002	1.157662e-001	-1.163688e-002	-5.582976e-001	-1.491757e-001
9400018000	-5.293906e-001	5.997453e-002	1.098867e-001	-1.120728e-002	1.128442e-001	-1.326608e-002	-5.604386e-001	-1.447426e-001
9410017700	-5.333328e-001	6.033921e-002	1.054739e-001	-1.130027e-002	1.098636e-001	-1.296863e-002	-5.607098e-001	-1.394011e-001
9420017400	-5.375262e-001	6.083988e-002	1.026234e-001	-1.059092e-002	1.071395e-001	-1.138858e-002	-5.625066e-001	-1.381389e-001
9430017100	-5.422389e-001	6.434373e-002	1.007109e-001	-9.292926e-003	1.047575e-001	-1.156943e-002	-5.630594e-001	-1.308320e-001
9440016800	-5.449927e-001	6.574732e-002	9.805640e-002	-7.568719e-003	1.024843e-001	-8.599923e-003	-5.634950e-001	-1.288861e-001
9450016500	-5.479877e-001	6.878959e-002	9.694348e-002	-5.405342e-003	1.000775e-001	-6.895708e-003	-5.647557e-001	-1.275027e-001
9460016200	-5.511047e-001	7.351355e-002	9.642269e-002	-3.447567e-003	9.925037e-002	-4.115174e-003	-5.649989e-001	-1.282759e-001
9470015900	-5.528738e-001	7.915802e-002	9.443774e-002	-1.095937e-003	9.908299e-002	-1.736277e-003	-5.625758e-001	-1.277787e-001
9480015600	-5.566612e-001	8.389894e-002	9.497607e-002	1.449331e-003	9.908018e-002	7.668756e-004	-5.589750e-001	-1.272523e-001
9490015300	-5.555691e-001	8.661798e-002	9.536078e-002	3.503570e-003	1.004158e-001	3.559875e-003	-5.571236e-001	-1.293481e-001
9500015000	-5.567738e-001	9.150157e-002	9.598832e-002	5.587080e-003	1.012401e-001	5.220943e-003	-5.509682e-001	-1.304777e-001
9510014700	-5.569940e-001	9.577101e-002	9.678088e-002	7.977601e-003	1.018378e-001	7.943251e-003	-5.456973e-001	-1.320265e-001
9520014400	-5.556511e-001	1.000663e-001	9.918846e-002	1.033639e-002	1.037783e-001	8.698252e-003	-5.383700e-001	-1.324663e-001
9530014100	-5.535675e-001	1.032451e-001	1.011986e-001	1.178736e-002	1.052364e-001	1.108717e-002	-5.320596e-001	-1.325110e-001
9540013800	-5.491627e-001	1.079622e-001	1.040301e-001	1.360105e-002	1.083979e-001	1.285379e-002	-5.248603e-001	-1.309325e-001
9550013500	-5.485026e-001	1.115376e-001	1.067601e-001	1.576862e-002	1.100719e-001	1.530254e-002	-5.171698e-001	-1.294490e-001
9560013200	-5.448832e-001	1.169660e-001	1.087875e-001	1.659237e-002	1.141385e-001	1.630445e-002	-5.101410e-001	-1.268069e-001
9570012900	-5.390753e-001	1.193503e-001	1.132643e-001	1.685550e-002	1.170024e-001	1.669531e-002	-5.034242e-001	-1.224835e-001
9580012600	-5.350376e-001	1.239391e-001	1.161005e-001	1.681287e-002	1.210651e-001	1.691855e-002	-4.951680e-001	-1.196542e-001
9590012300	-5.292601e-001	1.261493e-001	1.188502e-001	1.833288e-002	1.249684e-001	1.753822e-002	-4.884998e-001	-1.176457e-001
9600012000	-5.243920e-001	1.295757e-001	1.232273e-001	1.773728e-002	1.281423e-001	1.641672e-002	-4.829056e-001	-1.147342e-001
9610011700	-5.190627e-001	1.334743e-001	1.267071e-001	1.754654e-002	1.320821e-001	1.589907e-002	-4.803239e-001	-1.135249e-001
9620011400	-5.134941e-001	1.352633e-001	1.314447e-001	1.654118e-002	1.360628e-001	1.592437e-002	-4.751449e-001	-1.120095e-001
9630011100	-5.089419e-001	1.380279e-001	1.344693e-001	1.548926e-002	1.401842e-001	1.428595e-002	-4.728265e-001	-1.145262e-001
9640010800	-5.025048e-001	1.399600e-001	1.376698e-001	1.469346e-002	1.438442e-001	1.315705e-002	-4.690358e-001	-1.147050e-001
9650010500	-4.963458e-001	1.419281e-001	1.427090e-001	1.295097e-002	1.468605e-001	1.067958e-002	-4.652063e-001	-1.188964e-001
9660010200	-4.928145e-001	1.419439e-001	1.466854e-001	1.087429e-002	1.513629e-001	9.194182e-003	-4.604163e-001	-1.236591e-001
9670009900	-4.851082e-001	1.416308e-001	1.508330e-001	7.561247e-003	1.556505e-001	6.753738e-003	-4.579275e-001	-1.331293e-001
9680009600	-4.800301e-001	1.426911e-001	1.541047e-001	5.892754e-003	1.593128e-001	4.934916e-003	-4.516903e-001	-1.391840e-001
9690009300	-4.735961e-001	1.433596e-001	1.581977e-001	2.966730e-003	1.640034e-001	2.270190e-003	-4.466135e-001	-1.457788e-001
9700009000	-4.664962e-001	1.412664e-001	1.620129e-001	-2.197709e-004	1.671821e-001	-1.095716e-003	-4.379443e-001	-1.544409e-001
9710008700	-4.612969e-001	1.395172e-001	1.650948e-001	-3.761014e-003	1.709786e-001	-5.856521e-003	-4.301329e-001	-1.614883e-001
9720008400	-4.542443e-001	1.390422e-001	1.690731e-001	-7.400621e-003	1.733329e-001	-9.256933e-003	-4.254654e-001	-1.684788e-001
9730008100	-4.492669e-001	1.390259e-001	1.709179e-001	-1.165137e-002	1.760467e-001	-1.350009e-002	-4.171530e-001	-1.755841e-001
9740007800	-4.432505e-001	1.359623e-001	1.748362e-001	-1.577893e-002	1.793459e-001	-1.714424e-002	-4.097142e-001	-1.790900e-001
9750007500	-4.378599e-001	1.341928e-001	1.771040e-001	-2.045625e-002	1.824624e-001	-2.126444e-002	-4.032561e-001	-1.841138e-001
9760007200	-4.314269e-001	1.325208e-001	1.800130e-001	-2.613551e-002	1.852518e-001	-2.644934e-002	-3.994033e-001	-1.871896e-001
9770006900	-4.272034e-001	1.294685e-001	1.808096e-001	-3.102188e-002	1.873867e-001	-3.176225e-002	-3.943377e-001	-1.906631e-001
9780006600	-4.220765e-001	1.262447e-001	1.829158e-001	-3.666397e-002	1.891311e-001	-3.791777e-002	-3.926093e-001	-1.919232e-001
9790006300	-4.167286e-001	1.247870e-001	1.833284e-001	-4.192269e-002	1.908748e-001	-4.249874e-002	-3.910660e-001	-1.958972e-001
9800006000	-4.127729e-001	1.220965e-001	1.848497e-001	-4.732880e-002	1.914332e-001	-4.787983e-002	-3.899700e-001	-1.996167e-001
9810005700	-4.078720e-001	1.182652e-001	1.854745e-001	-5.197555e-002	1.916656e-001	-5.240724e-002	-3.900062e-001	-2.039442e-001
9820005400	-4.030765e-001	1.178712e-001	1.855618e-001	-5.718357e-002	1.916174e-001	-5.871144e-002	-3.924981e-001	-2.105463e-001
9830005100	-3.993208e-001	1.130039e-001	1.856363e-001	-6.364021e-002	1.920171e-001	-6.350252e-002	-3.945758e-001	-2.174569e-001
9840004800	-3.961645e-001	1.092336e-001	1.855665e-001	-6.827988e-002	1.917300e-001	-6.996784e-002	-3.956577e-001	-2.236346e-001
9850004500	-3.924474e-001	1.062297e-001	1.854690e-001	-7.389769e-002	1.904967e-001	-7.434840e-002	-3.980229e-001	-2.336606e-001
9860004200	-3.889674e-001	1.014679e-001	1.835685e-001	-7.870363e-002	1.900294e-001	-8.056029e-002	-4.015360e-001	-2.411748e-001
9870003900	-3.856166e-001	9.902916e-002	1.830847e-001	-8.329047e-002	1.891001e-001	-8.426750e-002	-4.012344e-001	-2.513358e-001
9880003600	-3.823224e-001	9.614045e-002	1.813348e-001	-8.952067e-002	1.879205e-001	-8.978073e-002	-4.011002e-001	-2.595883e-001
9890003300	-3.810370e-001	9.244162e-002	1.795695e-001	-9.449310e-002	1.856740e-001	-9.521599e-002	-4.014166e-001	-2.715071e-001
9900003000	-3.780479e-001	9.004922e-002	1.774348e-001	-9.848624e-002	1.840140e-001	-9.955607e-002	-4.028885e-001	-2.801469e-001
9910002700	-3.751431e-001	8.563376e-002	1.763449e-001	-1.025984e-001	1.820520e-001	-1.054939e-001	-4.052103e-001	-2.845415e-001
9920002400	-3.737565e-001	8.516080e-002	1.746450e-001	-1.073716e-001	1.799947e-001	-1.097069e-001	-4.017707e-001	-2.931930e-001
9930002100	-3.713848e-001	8.053845e-002	1.721291e-001	-1.113513e-001	1.775641e-001	-1.129236e-001	-4.013259e-001	-2.980122e-001
9940001800	-3.679892e-001	7.756766e-002	1.698388e-001	-1.148136e-001	1.756416e-001	-1.176617e-001	-4.007866e-001	-3.026475e-001
9950001500	-3.667951e-001	7.558616e-002	1.672700e-001	-1.197766e-001	1.723455e-001	-1.214710e-001	-4.024321e-001	-3.032416e-001
9960001200	-3.647921e-001	7.191653e-002	1.634960e-001	-1.236126e-001	1.709281e-001	-1.257661e-001	-4.046801e-001	-3.052549e-001
9970000900	-3.633486e-001	7.142973e-002	1.606329e-001	-1.267870e-001	1.665580e-001	-1.294713e-001	-4.052207e-001	-3.066931e-001
9980000600	-3.608830e-001	6.729545e-002	1.576424e-001	-1.303566e-001	1.641504e-001	-1.331124e-001	-4.117633e-001	-3.074666e-001
9990000300	-3.595155e-001	6.476413e-002	1.547347e-001	-1.337192e-001	1.597207e-001	-1.361893e-001	-4.155076e-001	-3.059682e-001
10000000000	-3.580582e-001	6.317755e-002	1.509974e-001	-1.365325e-001	1.573202e-001	-1.393116e-001	-4.192788e-001	-3.081778e-001
