! (c) 2014 Infineon Technologies AG
!
! BGM7Mxxx4L12 - Silicon Germanium Quad-Band LTE LNA bank
!
! 20 May 2014
!
! Special Application Board
! C1 = L1 = 0 Ohm
! C2 = 100 nF
! Vcc = 1.8V
!
! RF input and output lines de-embedded
! Port 1 reference plane: LNA input AI (pin 8)
! Port 2 reference plane: LNA output AO (pin 7)
!
! Network Data:
! Measured BGM7Mxxx4L12 device level s-parameters
# GHz S MA R 50
!-----------------------------------------------------------------------------
!Freq         MagS11       AngS11       MagS21       AngS21       MagS12       AngS12       MagS22       AngS22
0.01         0.94345     -0.18883      0.006851    -106.89       0.0033341    89.539       0.99748     -0.52175     
0.02         0.94241     -0.78361      0.013964    -92.168       0.002812     88.659       0.99606     -1.2536      
0.03         0.94188     -1.3809       0.021347    -86.986       0.002293     87.047       0.9953      -1.9889      
0.04         0.94185     -1.9793       0.028795    -84.098       0.0017799    84.073       0.99519     -2.7259      
0.05         0.94232     -2.5774       0.03627     -82.097       0.0012802    78.157       0.99574     -3.4627      
0.06         0.9433      -3.1739       0.043759    -80.53        0.00081858   64.307       0.99693     -4.1973      
0.07         0.94477     -3.767        0.051269    -79.208       0.0005127    26.347       0.99876     -4.9277      
0.08         0.9433      -4.3172       0.060899    -78.045       0.00047636   32.773       0.99737     -5.6232      
0.09         0.9423      -4.8712       0.070537    -77           0.00044547   40.065       0.9966      -6.3221      
0.1          0.94178     -5.4277       0.080182    -76.031       0.00042123   48.224       0.99645     -7.023       
0.11         0.94172     -5.9854       0.089834    -75.114       0.00040484   57.137       0.99692     -7.7239      
0.12         0.94215     -6.543        0.099493    -74.232       0.00039731   66.551       0.99801     -8.4231      
0.13         0.94302     -7.0992       0.10919     -73.386       0.00039923   76.136       0.99968     -9.119       
0.14         0.94157     -7.6464       0.12204     -73.223       0.00042573   88.913       0.99805     -9.8341      
0.15         0.94059     -8.1973       0.1349      -72.953       0.00046854   99.893       0.99705     -10.554      
0.16         0.94008     -8.7508       0.14778     -72.603       0.00052369   108.94       0.99669     -11.276      
0.17         0.94004     -9.3056       0.16068     -72.194       0.00058777   116.3        0.99697     -11.999      
0.18         0.94047     -9.8604       0.1736      -71.737       0.00065819   122.31       0.99789     -12.721      
0.19         0.94133     -10.414       0.18659     -71.258       0.00073059   127.15       0.99939     -13.44       
0.2          0.93985     -10.947       0.20359     -71.66        0.00063796   123.05       0.99752     -14.162      
0.21         0.93883     -11.485       0.22068     -71.889       0.0005513    117.37       0.99629     -14.89       
0.22         0.93827     -12.025       0.23783     -71.982       0.00047394   109.45       0.9957      -15.621      
0.23         0.93817     -12.567       0.25505     -71.965       0.00041123   98.542       0.99576     -16.354      
0.24         0.93853     -13.11        0.27232     -71.859       0.00037077   84.319       0.99647     -17.087      
0.25         0.93929     -13.651       0.28974     -71.708       0.00035993   68.652       0.99774     -17.816      
0.26         0.93754     -14.201       0.31246     -72.785       0.00037451   89.232       0.9957      -18.502      
0.27         0.93626     -14.755       0.33547     -73.619       0.00042838   106.55       0.99427     -19.194      
0.28         0.93545     -15.313       0.35872     -74.253       0.00050932   119.41       0.99345     -19.89       
0.29         0.9351      -15.873       0.38217     -74.723       0.00060667   128.68       0.99324     -20.588      
0.3          0.93523     -16.434       0.4058      -75.056       0.00071381   135.49       0.99365     -21.287      
0.31         0.93576     -16.996       0.42972     -75.321       0.00082415   140.71       0.99456     -21.986      
0.32         0.93394     -17.597       0.4595      -77.161       0.0008275    146.51       0.99209     -22.728      
0.33         0.93263     -18.203       0.49013     -78.688       0.00083729   152.23       0.99027     -23.477      
0.34         0.93182     -18.813       0.52146     -79.951       0.00085332   157.8        0.9891      -24.232      
0.35         0.93152     -19.425       0.55338     -80.99        0.00087527   163.16       0.98859     -24.991      
0.36         0.93172     -20.039       0.58582     -81.838       0.00090273   168.28       0.98875     -25.751      
0.37         0.93229     -20.655       0.6187      -82.615       0.00094141   173.03       0.98941     -26.51       
0.38         0.92887     -21.39        0.65346     -86.037       0.0011825    174.76       0.98602     -27.22       
0.39         0.92606     -22.135       0.69134     -89.029       0.0014241    176.15       0.98323     -27.94       
0.4          0.92385     -22.889       0.73186     -91.629       0.0016661    177.34       0.98107     -28.668      
0.41         0.92226     -23.65        0.77463     -93.877       0.0019086    178.41       0.97954     -29.403      
0.42         0.92128     -24.417       0.81931     -95.813       0.0021515    179.39       0.97863     -30.143      
0.43         0.92056     -25.179       0.86338     -97.579       0.0023925   -179.94       0.97823     -30.879      
0.44         0.91037     -25.744       0.84977     -102.23       0.0025891    173.96       0.97492     -31.45       
0.45         0.90064     -26.337       0.84378     -107          0.0028171    168.88       0.97209     -32.03       
0.46         0.89138     -26.959       0.84559     -111.81       0.0030697    164.71       0.96977     -32.617      
0.47         0.88261     -27.61        0.85519     -116.56       0.0033415    161.29       0.96795     -33.211      
0.48         0.87434     -28.287       0.87233     -121.14       0.0036283    158.51       0.96663     -33.811      
0.49         0.8667      -28.963       0.89355     -125.32       0.0039108    156.25       0.96584     -34.416      
0.5          0.86191     -28.964       0.84405     -125.4        0.0038142    154.46       0.96583     -35.068      
0.51         0.85726     -28.974       0.79468     -125.58       0.0037252    152.54       0.96637     -35.721      
0.52         0.85275     -28.992       0.74547     -125.87       0.0036443    150.49       0.96746     -36.372      
0.53         0.84838     -29.017       0.69648     -126.31       0.0035722    148.32       0.9691      -37.021      
0.54         0.84414     -29.051       0.64775     -126.92       0.0035093    146.03       0.97129     -37.666      
0.55         0.84023     -29.102       0.60153     -127.58       0.0034557    143.86       0.97383     -38.311      
0.56         0.84009     -29.359       0.60172     -124.71       0.0033931    146.26       0.97277     -39.077      
0.57         0.84021     -29.616       0.60279     -121.84       0.0033335    148.72       0.97236     -39.847      
0.58         0.84056     -29.874       0.60472     -118.97       0.0032772    151.25       0.9726      -40.619      
0.59         0.84116     -30.131       0.60752     -116.12       0.0032243    153.84       0.97349     -41.39       
0.6          0.84201     -30.387       0.61119     -113.3        0.0031751    156.5        0.97502     -42.159      
0.61         0.843       -30.648       0.61676     -110.57       0.0031354    159.23       0.97696     -42.923      
0.62         0.84229     -31.038       0.643       -109.43       0.0032117    162.25       0.97478     -43.685      
0.63         0.84191     -31.431       0.66933     -108.31       0.0032932    165.15       0.97324     -44.454      
0.64         0.84183     -31.824       0.69573     -107.23       0.0033795    167.95       0.97235     -45.227      
0.65         0.84208     -32.218       0.72221     -106.18       0.0034703    170.64       0.9721      -46.004      
0.66         0.84263     -32.612       0.74876     -105.15       0.0035652    173.23       0.97251     -46.782      
0.67         0.84338     -33.007       0.77552     -104.21       0.0036737    175.71       0.97333     -47.561      
0.68         0.84223     -33.443       0.80491     -104.41       0.0039513    177.8        0.97074     -48.36       
0.69         0.84142     -33.883       0.83453     -104.55       0.0042313    179.71       0.96883     -49.168      
0.7          0.84096     -34.325       0.86435     -104.63       0.0045134   -178.53       0.96759     -49.982      
0.71         0.84083     -34.769       0.89438     -104.67       0.0047973   -176.9        0.96702     -50.801      
0.72         0.84105     -35.213       0.92459     -104.65       0.0050829   -175.38       0.96713     -51.621      
0.73         0.84145     -35.657       0.95491     -104.64       0.0053725   -174          0.96766     -52.441      
0.74         0.83984     -36.092       0.98467     -105.28       0.0057035   -173.63       0.96479     -53.24       
0.75         0.83855     -36.532       1.015       -105.85       0.0060352   -173.23       0.96258     -54.048      
0.76         0.83761     -36.975       1.0458      -106.34       0.0063676   -172.8        0.96103     -54.864      
0.77         0.837       -37.421       1.077       -106.77       0.0067005   -172.34       0.96015     -55.685      
0.78         0.83673     -37.87        1.1087      -107.13       0.0070341   -171.87       0.95994     -56.509      
0.79         0.83667     -38.319       1.1406      -107.48       0.0073705   -171.39       0.96014     -57.332      
0.8          0.83488     -38.763       1.1702      -108.29       0.007741    -171.18       0.95707     -58.129      
0.81         0.83344     -39.212       1.2006      -109.04       0.0081125   -170.93       0.95464     -58.935      
0.82         0.83233     -39.666       1.2318      -109.71       0.0084849   -170.64       0.95287     -59.75       
0.83         0.83156     -40.123       1.2636      -110.32       0.0088582   -170.32       0.95176     -60.57       
0.84         0.83114     -40.583       1.2961      -110.86       0.0092324   -169.97       0.95132     -61.394      
0.85         0.8309      -41.042       1.3288      -111.38       0.0096132   -169.66       0.95123     -62.219      
0.86         0.82888     -41.482       1.357       -112.28       0.010075    -170.17       0.94783     -63.049      
0.87         0.82718     -41.927       1.3862      -113.11       0.010541    -170.57       0.9451      -63.89       
0.88         0.82582     -42.378       1.4164      -113.89       0.011011    -170.89       0.94304     -64.739      
0.89         0.82479     -42.832       1.4475      -114.6        0.011485    -171.12       0.94166     -65.595      
0.9          0.82411     -43.289       1.4794      -115.26       0.011962    -171.29       0.94096     -66.456      
0.91         0.82362     -43.749       1.5118      -115.89       0.012447    -171.42       0.9406      -67.317      
0.92         0.82177     -44.209       1.5396      -116.81       0.012993    -171.85       0.93664     -68.16       
0.93         0.82026     -44.674       1.5686      -117.68       0.013543    -172.18       0.93335     -69.016      
0.94         0.81909     -45.143       1.5988      -118.5        0.014098    -172.44       0.93074     -69.882      
0.95         0.81826     -45.617       1.63        -119.26       0.014657    -172.63       0.9288      -70.757      
0.96         0.81778     -46.092       1.6623      -119.97       0.01522     -172.76       0.92755     -71.638      
0.97         0.81744     -46.566       1.695       -120.66       0.015782    -172.88       0.92665     -72.519      
0.98         0.81516     -47.003       1.7229      -121.59       0.016313    -173.42       0.92247     -73.355      
0.99         0.81321     -47.446       1.7522      -122.48       0.01685     -173.88       0.91893     -74.204      
1            0.81158     -47.894       1.7827      -123.31       0.017395    -174.28       0.91606     -75.065      
1.01         0.81028     -48.347       1.8144      -124.1        0.017945    -174.61       0.91385     -75.935      
1.02         0.8093      -48.804       1.8473      -124.83       0.018501    -174.89       0.9123      -76.812      
1.03         0.80847     -49.263       1.8806      -125.55       0.019068    -175.15       0.91105     -77.693      
1.04         0.80608     -49.717       1.9086      -126.55       0.0197      -175.74       0.90646     -78.58       
1.05         0.80401     -50.177       1.9381      -127.49       0.020342    -176.26       0.90254     -79.481      
1.06         0.80227     -50.643       1.9692      -128.39       0.020992    -176.7        0.89931     -80.396      
1.07         0.80086     -51.115       2.0017      -129.24       0.02165     -177.08       0.89677     -81.321      
1.08         0.79978     -51.59        2.0355      -130.04       0.022315    -177.4        0.89493     -82.255      
1.09         0.79887     -52.067       2.0697      -130.82       0.022989    -177.71       0.89336     -83.189      
1.1          0.79653     -52.536       2.0958      -131.79       0.02369     -178.43       0.888       -84.082      
1.11         0.79453     -53.011       2.1236      -132.72       0.024405    -179.06       0.8833      -84.994      
1.12         0.79285     -53.492       2.1529      -133.61       0.025132    -179.62       0.87929     -85.92       
1.13         0.79151     -53.978       2.1838      -134.46       0.02587      179.88       0.87597     -86.861      
1.14         0.79051     -54.467       2.2162      -135.27       0.026618     179.45       0.87335     -87.812      
1.15         0.78963     -54.955       2.2492      -136.06       0.027374     179.03       0.87101     -88.767      
1.16         0.78692     -55.405       2.2755      -137.06       0.02813      178.29       0.8654      -89.689      
1.17         0.78453     -55.862       2.3036      -138.02       0.028903     177.62       0.86046     -90.63       
1.18         0.78246     -56.326       2.3336      -138.94       0.02969      177.01       0.85622     -91.588      
1.19         0.78071     -56.795       2.3653      -139.82       0.030491     176.47       0.85267     -92.561      
1.2          0.77928     -57.27        2.3987      -140.66       0.031305     176          0.84983     -93.546      
1.21         0.77798     -57.748       2.4323      -141.49       0.032127     175.54       0.84722     -94.534      
1.22         0.77519     -58.231       2.4561      -142.49       0.032932     174.86       0.84104     -95.484      
1.23         0.77274     -58.721       2.4819      -143.47       0.033754     174.24       0.83555     -96.455      
1.24         0.77061     -59.218       2.5097      -144.41       0.034592     173.68       0.83075     -97.446      
1.25         0.76882     -59.722       2.5394      -145.32       0.035445     173.17       0.82666     -98.454      
1.26         0.76737     -60.231       2.5709      -146.19       0.036311     172.72       0.82329     -99.477      
1.27         0.766       -60.737       2.6028      -147.04       0.037185     172.28       0.82015     -100.5       
1.28         0.76274     -61.2         2.6252      -148.05       0.038026     171.49       0.8136      -101.45      
1.29         0.7598      -61.672       2.6498      -149.03       0.03889      170.77       0.80772     -102.43      
1.3          0.75718     -62.153       2.6765      -149.97       0.039776     170.11       0.80253     -103.43      
1.31         0.75487     -62.641       2.7052      -150.88       0.040681     169.5        0.79802     -104.45      
1.32         0.75289     -63.136       2.7359      -151.76       0.041604     168.95       0.79422     -105.48      
1.33         0.75101     -63.631       2.7668      -152.62       0.042539     168.42       0.79059     -106.52      
1.34         0.74764     -64.09        2.7868      -153.63       0.043443     167.62       0.7833      -107.51      
1.35         0.74458     -64.559       2.8091      -154.6        0.044374     166.88       0.77669     -108.52      
1.36         0.74182     -65.036       2.8336      -155.55       0.045329     166.2        0.77078     -109.56      
1.37         0.73938     -65.522       2.8603      -156.47       0.046307     165.58       0.76556     -110.63      
1.38         0.73726     -66.015       2.8891      -157.36       0.047306     165.01       0.76106     -111.71      
1.39         0.73522     -66.508       2.9184      -158.24       0.048311     164.46       0.75679     -112.8       
1.4          0.73161     -66.959       2.9373      -159.24       0.049228     163.68       0.7493      -113.81      
1.41         0.7283      -67.422       2.9586      -160.22       0.050174     162.95       0.74249     -114.85      
1.42         0.7253      -67.894       2.9823      -161.17       0.051147     162.28       0.73637     -115.92      
1.43         0.7226      -68.375       3.0083      -162.09       0.052146     161.66       0.73094     -117.02      
1.44         0.72021     -68.864       3.0365      -162.99       0.053169     161.09       0.72623     -118.13      
1.45         0.71789     -69.353       3.0649      -163.87       0.054192     160.53       0.72168     -119.25      
1.46         0.7141      -69.801       3.0803      -164.85       0.055082     159.75       0.71362     -120.27      
1.47         0.7106      -70.26        3.0983      -165.81       0.056004     159.02       0.70621     -121.32      
1.48         0.7074      -70.73        3.1187      -166.75       0.056958     158.34       0.69947     -122.4       
1.49         0.7045      -71.21        3.1415      -167.66       0.057941     157.7        0.69341     -123.51      
1.5          0.7019      -71.699       3.1666      -168.55       0.058952     157.11       0.68805     -124.65      
1.51         0.69935     -72.188       3.192       -169.43       0.059974     156.52       0.68286     -125.79      
1.52         0.69531     -72.632       3.2058      -170.41       0.060925     155.73       0.67453     -126.8       
1.53         0.69154     -73.088       3.2222      -171.36       0.061913     154.99       0.66682     -127.84      
1.54         0.68807     -73.556       3.2412      -172.3        0.062936     154.3        0.65975     -128.93      
1.55         0.68489     -74.035       3.2627      -173.22       0.063992     153.65       0.65333     -130.04      
1.56         0.68201     -74.524       3.2867      -174.11       0.06508      153.04       0.64758     -131.19      
1.57         0.67916     -75.009       3.3106      -175          0.06617      152.45       0.64198     -132.35      
1.58         0.67484     -75.417       3.3211      -175.95       0.067112     151.65       0.63348     -133.42      
1.59         0.67078     -75.838       3.3343      -176.9        0.068097     150.89       0.62561     -134.54      
1.6          0.66699     -76.273       3.3501      -177.82       0.069122     150.18       0.6184      -135.7       
1.61         0.66347     -76.719       3.3685      -178.73       0.070184     149.51       0.61186     -136.9       
1.62         0.66022     -77.178       3.3894      -179.62       0.071283     148.88       0.60601     -138.13      
1.63         0.65706     -77.636       3.4104       179.5        0.072386     148.27       0.60031     -139.37      
1.64         0.65292     -78.036       3.4191       178.54       0.073337     147.5        0.59167     -140.47      
1.65         0.64902     -78.45        3.4306       177.6        0.074332     146.77       0.58365     -141.62      
1.66         0.64539     -78.877       3.4448       176.67       0.07537      146.08       0.57626     -142.82      
1.67         0.64201     -79.316       3.4616       175.76       0.076448     145.43       0.56954     -144.06      
1.68         0.6389      -79.767       3.4811       174.87       0.077565     144.82       0.5635      -145.34      
1.69         0.63579     -80.215       3.5005       173.98       0.078675     144.22       0.55755     -146.63      
1.7          0.63129     -80.592       3.5061       173.05       0.079564     143.44       0.5485      -147.76      
1.71         0.62703     -80.984       3.5144       172.12       0.080502     142.7        0.54005     -148.96      
1.72         0.623       -81.39        3.5256       171.21       0.081488     142          0.53223     -150.2       
1.73         0.61922     -81.811       3.5394       170.3        0.082519     141.33       0.52506     -151.5       
1.74         0.61569     -82.246       3.556        169.42       0.083595     140.7        0.51856     -152.86      
1.75         0.61218     -82.678       3.5724       168.54       0.084671     140.08       0.51222     -154.21      
1.76         0.60756     -83.039       3.5744       167.61       0.085549     139.32       0.50327     -155.35      
1.77         0.60316     -83.416       3.5793       166.69       0.086481     138.6        0.49489     -156.56      
1.78         0.59898     -83.81        3.5871       165.77       0.087464     137.91       0.4871      -157.84      
1.79         0.59503     -84.218       3.5977       164.87       0.088496     137.25       0.47992     -159.17      
1.8          0.59131     -84.641       3.6111       163.98       0.089575     136.62       0.47339     -160.56      
1.81         0.58763     -85.055       3.6243       163.1        0.090646     136.01       0.46699     -161.96      
1.82         0.58298     -85.348       3.6237       162.21       0.091462     135.27       0.45815     -163.17      
1.83         0.57851     -85.658       3.626        161.33       0.092334     134.57       0.44987     -164.45      
1.84         0.57422     -85.984       3.631        160.46       0.093261     133.89       0.44217     -165.81      
1.85         0.57014     -86.326       3.6388       159.59       0.094239     133.24       0.43509     -167.23      
1.86         0.56624     -86.683       3.6493       158.73       0.095269     132.62       0.42865     -168.72      
1.87         0.56242     -87.037       3.6596       157.88       0.096294     132.01       0.42236     -170.22      
1.88         0.55803     -87.31        3.6569       157.01       0.097092     131.28       0.41387     -171.47      
1.89         0.55381     -87.598       3.6571       156.15       0.09795      130.58       0.40591     -172.8       
1.9          0.54976     -87.903       3.66         155.29       0.098865     129.9        0.3985      -174.22      
1.91         0.54588     -88.222       3.6657       154.43       0.099836     129.25       0.39168     -175.7       
1.92         0.54219     -88.558       3.6741       153.58       0.10086      128.63       0.38547     -177.26      
1.93         0.53851     -88.888       3.6822       152.73       0.10188      128.02       0.37941     -178.83      
1.94         0.53414     -89.133       3.6771       151.89       0.10261      127.33       0.37129      179.83      
1.95         0.52992     -89.395       3.6748       151.05       0.10341      126.66       0.36368      178.41      
1.96         0.52585     -89.672       3.6752       150.21       0.10426      126.02       0.35661      176.9       
1.97         0.52194     -89.966       3.6783       149.37       0.10518      125.4        0.35012      175.3       
1.98         0.51819     -90.276       3.6841       148.53       0.10614      124.8        0.34423      173.63      
1.99         0.51444     -90.576       3.6896       147.71       0.10709      124.21       0.3385       171.93      
2            0.51004     -90.767       3.6824       146.9        0.10772      123.54       0.33087      170.48      
2.01         0.50575     -90.974       3.6777       146.09       0.10841      122.88       0.32375      168.93      
2.02         0.5016      -91.198       3.6758       145.28       0.10916      122.25       0.31718      167.28      
2.03         0.49757     -91.438       3.6764       144.46       0.10997      121.63       0.31118      165.54      
2.04         0.49368     -91.695       3.6797       143.65       0.11083      121.04       0.3058       163.7       
2.05         0.48986     -91.945       3.6826       142.85       0.1117       120.45       0.30059      161.84      
2.06         0.48588     -92.1         3.6735       142.08       0.1123       119.8        0.29366      160.19      
2.07         0.48199     -92.27        3.667        141.29       0.11297      119.17       0.28727      158.44      
2.08         0.47821     -92.455       3.6629       140.51       0.1137       118.55       0.28144      156.58      
2.09         0.47455     -92.656       3.6614       139.72       0.1145       117.95       0.27623      154.61      
2.1          0.471       -92.871       3.6625       138.93       0.11535      117.37       0.27165      152.55      
2.11         0.46748     -93.076       3.6631       138.15       0.11619      116.8        0.2673       150.47      
2.12         0.46367     -93.173       3.6526       137.41       0.11674      116.18       0.26136      148.64      
2.13         0.45995     -93.283       3.6444       136.67       0.11736      115.58       0.25598      146.69      
2.14         0.45631     -93.408       3.6386       135.91       0.11803      114.99       0.25118      144.64      
2.15         0.45275     -93.547       3.6352       135.15       0.11877      114.42       0.24701      142.48      
2.16         0.44929     -93.701       3.6342       134.39       0.11957      113.86       0.2435       140.23      
2.17         0.44588     -93.85        3.633        133.64       0.12035      113.31       0.24014      137.97      
2.18         0.44235     -93.931       3.6219       132.92       0.12086      112.72       0.23497      135.95      
2.19         0.43889     -94.026       3.6131       132.18       0.12143      112.14       0.23037      133.81      
2.2          0.43551     -94.133       3.6066       131.45       0.12206      111.57       0.22638      131.55      
2.21         0.43221     -94.254       3.6024       130.7        0.12275      111.02       0.22302      129.2       
2.22         0.42898     -94.389       3.6006       129.95       0.12351      110.48       0.22035      126.76      
2.23         0.4258      -94.511       3.5985       129.22       0.12424      109.95       0.21789      124.31      
2.24         0.4225      -94.532       3.5863       128.53       0.12469      109.38       0.21396      122.01      
2.25         0.41926     -94.564       3.5763       127.84       0.1252       108.82       0.21065      119.61      
2.26         0.41607     -94.608       3.5685       127.14       0.12578      108.27       0.20799      117.12      
2.27         0.41294     -94.665       3.5629       126.43       0.12641      107.73       0.20602      114.55      
2.28         0.40988     -94.734       3.5595       125.71       0.12711      107.21       0.20475      111.92      
2.29         0.40689     -94.796       3.5558       125.01       0.12779      106.69       0.20367      109.32      
2.3          0.404       -94.787       3.5431       124.35       0.12818      106.14       0.20097      106.91      
2.31         0.40116     -94.789       3.5325       123.67       0.12864      105.61       0.19889      104.42      
2.32         0.39837     -94.801       3.5239       122.99       0.12915      105.08       0.19746      101.86      
2.33         0.39563     -94.823       3.5175       122.3        0.12973      104.56       0.19669      99.271      
2.34         0.39294     -94.856       3.5132       121.61       0.13037      104.05       0.1966       96.66       
2.35         0.39029     -94.883       3.5085       120.92       0.13099      103.55       0.1967       94.096      
2.36         0.38765     -94.856       3.4958       120.28       0.13137      103.04       0.19542      91.68       
2.37         0.38505     -94.838       3.485        119.63       0.13181      102.54       0.19474      89.229      
2.38         0.38249     -94.829       3.4763       118.97       0.1323       102.04       0.19468      86.762      
2.39         0.37997     -94.829       3.4695       118.3        0.13286      101.56       0.19523      84.3        
2.4          0.3775      -94.839       3.4647       117.63       0.13347      101.08       0.19638      81.862      
2.41         0.37506     -94.842       3.4594       116.97       0.13406      100.61       0.19762      79.479      
2.42         0.37261     -94.788       3.4458       116.35       0.13437      100.11       0.19732      77.148      
2.43         0.37021     -94.742       3.4341       115.71       0.13475      99.628       0.1976       74.814      
2.44         0.36783     -94.705       3.4242       115.07       0.13518      99.147       0.19844      72.493      
2.45         0.36549     -94.676       3.4163       114.42       0.13568      98.674       0.19985      70.204      
2.46         0.36319     -94.655       3.4102       113.77       0.13623      98.208       0.20182      67.962      
2.47         0.36097     -94.624       3.4037       113.12       0.13676      97.746       0.20385      65.777      
2.48         0.35898     -94.529       3.3896       112.53       0.13704      97.266       0.20455      63.606      
2.49         0.35701     -94.441       3.3773       111.93       0.13738      96.791       0.20577      61.46       
2.5          0.35506     -94.358       3.3667       111.31       0.13778      96.321       0.20751      59.351      
2.51         0.35315     -94.281       3.3579       110.69       0.13823      95.857       0.20976      57.292      
2.52         0.35126     -94.211       3.3509       110.06       0.13875      95.401       0.21251      55.297      
2.53         0.34941     -94.135       3.3435       109.44       0.13924      94.952       0.2153       53.375      
2.54         0.34764     -94.026       3.3295       108.87       0.13949      94.501       0.2169       51.506      
2.55         0.34589     -93.921       3.3171       108.28       0.1398       94.054       0.21894      49.678      
2.56         0.34416     -93.821       3.3064       107.68       0.14016      93.612       0.22142      47.899      
2.57         0.34247     -93.725       3.2975       107.08       0.14058      93.176       0.22433      46.177      
2.58         0.34079     -93.635       3.2902       106.47       0.14106      92.746       0.22764      44.52       
2.59         0.33916     -93.542       3.2826       105.87       0.14151      92.324       0.23086      42.897      
2.6          0.3376      -93.424       3.2691       105.32       0.14171      91.91        0.2327       41.188      
2.61         0.33607     -93.31        3.2571       104.76       0.14196      91.498       0.23497      39.52       
2.62         0.33456     -93.2         3.2467       104.19       0.14226      91.09        0.23764      37.898      
2.63         0.33308     -93.094       3.2378       103.61       0.14262      90.687       0.24071      36.33       
2.64         0.33162     -92.991       3.2306       103.02       0.14304      90.288       0.24416      34.821      
2.65         0.33023     -92.884       3.2228       102.44       0.14343      89.889       0.24758      33.36       
2.66         0.32905     -92.75        3.2087       101.92       0.14362      89.473       0.24991      31.889      
2.67         0.32789     -92.618       3.196        101.38       0.14387      89.06        0.25261      30.46       
2.68         0.32675     -92.489       3.1848       100.83       0.14417      88.65        0.25567      29.078      
2.69         0.32564     -92.361       3.1751       100.27       0.14453      88.244       0.25908      27.745      
2.7          0.32454     -92.236       3.1669       99.708       0.14494      87.843       0.26282      26.467      
2.71         0.32352     -92.113       3.1584       99.149       0.14533      87.446       0.26641      25.214      
2.72         0.32271     -91.994       3.1452       98.627       0.1455       87.045       0.26871      23.897      
2.73         0.32191     -91.876       3.1335       98.094       0.14572      86.646       0.27136      22.614      
2.74         0.32114     -91.759       3.1231       97.552       0.146        86.251       0.27433      21.371      
2.75         0.3204      -91.642       3.1142       97.001       0.14633      85.859       0.27763      20.17       
2.76         0.31967     -91.527       3.1068       96.443       0.14671      85.471       0.28124      19.015      
2.77         0.31895     -91.406       3.0988       95.895       0.14707      85.093       0.28473      17.889      
2.78         0.31818     -91.264       3.0852       95.394       0.1472       84.734       0.2871       16.739      
2.79         0.31742     -91.123       3.0729       94.882       0.14738      84.377       0.28978      15.619      
2.8          0.31669     -90.983       3.062        94.36        0.14762      84.021       0.29275      14.534      
2.81         0.31599     -90.843       3.0525       93.829       0.1479       83.669       0.29602      13.484      
2.82         0.3153      -90.703       3.0444       93.29        0.14823      83.32        0.29957      12.474      
2.83         0.31464     -90.57        3.0358       92.759       0.14855      82.967       0.303        11.472      
2.84         0.31399     -90.456       3.0226       92.266       0.14871      82.593       0.30545      10.4        
2.85         0.31337     -90.342       3.0107       91.762       0.14893      82.221       0.3082       9.3554      
2.86         0.31278     -90.228       3            91.249       0.14919      81.852       0.31123      8.3426      
2.87         0.31221     -90.114       2.9907       90.727       0.14951      81.486       0.31456      7.3634      
2.88         0.31167     -90           2.9827       90.197       0.14988      81.124       0.31816      6.4198      
2.89         0.31119     -89.883       2.9742       89.68        0.15021      80.767       0.3216       5.4951      
2.9          0.31088     -89.758       2.9609       89.217       0.15032      80.413       0.32397      4.5405      
2.91         0.31059     -89.633       2.9487       88.743       0.15047      80.06        0.32661      3.6103      
2.92         0.31033     -89.506       2.9378       88.259       0.15068      79.709       0.32952      2.7066      
2.93         0.31009     -89.377       2.9281       87.767       0.15094      79.361       0.3327       1.8314      
2.94         0.30988     -89.248       2.9197       87.266       0.15124      79.015       0.33613      0.98633     
2.95         0.30965     -89.118       2.9107       86.773       0.15153      78.668       0.33943      0.15128     
2.96         0.30929     -88.992       2.8978       86.317       0.15165      78.309       0.34177     -0.72543     
2.97         0.30896     -88.865       2.886        85.851       0.15182      77.951       0.34437     -1.5804      
2.98         0.30866     -88.736       2.8753       85.375       0.15203      77.595       0.34723     -2.4116      
2.99         0.30838     -88.607       2.8658       84.89        0.1523       77.241       0.35035     -3.2175      
3            0.30813     -88.476       2.8576       84.397       0.15262      76.891       0.35372     -3.9965      
3.01         0.30793     -88.349       2.8488       83.913       0.15291      76.541       0.35688     -4.7641      
3.02         0.30779     -88.238       2.8361       83.469       0.153        76.181       0.35896     -5.5612      
3.03         0.30768     -88.126       2.8244       83.015       0.15314      75.822       0.36129     -6.3407      
3.04         0.3076      -88.011       2.8139       82.551       0.15332      75.464       0.36386     -7.1009      
3.05         0.30755     -87.895       2.8045       82.078       0.15356      75.109       0.36668     -7.8403      
3.06         0.30753     -87.776       2.7963       81.598       0.15386      74.757       0.36973     -8.5573      
3.07         0.30754     -87.657       2.7876       81.127       0.15409      74.407       0.37267     -9.2656      
3.08         0.30757     -87.54        2.7753       80.696       0.15408      74.054       0.37485     -9.9983      
3.09         0.30764     -87.421       2.7641       80.255       0.15412      73.7         0.37726     -10.714      
3.1          0.30774     -87.3         2.7539       79.805       0.15421      73.347       0.37991     -11.412      
3.11         0.30787     -87.175       2.7448       79.347       0.15435      72.995       0.38279     -12.09       
3.12         0.30803     -87.048       2.7368       78.881       0.15454      72.644       0.38589     -12.747      
3.13         0.30824     -86.925       2.7285       78.426       0.15469      72.3         0.38888     -13.401      
3.14         0.30854     -86.816       2.7171       78.018       0.15466      71.968       0.39111     -14.089      
3.15         0.30887     -86.703       2.7067       77.6         0.15468      71.636       0.39357     -14.76       
3.16         0.30924     -86.588       2.6972       77.174       0.15475      71.304       0.39626     -15.415      
3.17         0.30963     -86.469       2.6888       76.739       0.15487      70.972       0.39918     -16.05       
3.18         0.31006     -86.346       2.6814       76.298       0.15503      70.642       0.40232     -16.667      
3.19         0.31049     -86.231       2.6734       75.863       0.15516      70.319       0.4053      -17.281      
3.2          0.31086     -86.143       2.6618       75.454       0.15509      70.015       0.40749     -17.931      
3.21         0.31127     -86.053       2.6511       75.035       0.15508      69.709       0.4099      -18.566      
3.22         0.31171     -85.959       2.6415       74.608       0.1551       69.404       0.41254     -19.186      
3.23         0.31218     -85.861       2.6328       74.172       0.15518      69.098       0.4154      -19.788      
3.24         0.31269     -85.759       2.6251       73.729       0.1553       68.793       0.41848     -20.373      
3.25         0.3132      -85.668       2.6169       73.298       0.15537      68.492       0.42136     -20.954      
3.26         0.31365     -85.611       2.6055       72.906       0.15526      68.198       0.42333     -21.564      
3.27         0.31414     -85.55        2.5949       72.506       0.15519      67.903       0.42554     -22.161      
3.28         0.31467     -85.486       2.5854       72.096       0.15516      67.607       0.42796     -22.745      
3.29         0.31524     -85.417       2.5767       71.679       0.15519      67.31        0.43059     -23.314      
3.3          0.31585     -85.345       2.569        71.254       0.15525      67.013       0.43344     -23.867      
3.31         0.31646     -85.276       2.5609       70.838       0.1553       66.724       0.43615     -24.425      
3.32         0.31701     -85.224       2.55         70.452       0.15521      66.451       0.43814     -25.026      
3.33         0.31761     -85.169       2.54         70.057       0.15517      66.177       0.44036     -25.614      
3.34         0.31825     -85.109       2.5309       69.654       0.15517      65.902       0.4428      -26.19       
3.35         0.31892     -85.046       2.5227       69.243       0.15521      65.628       0.44546     -26.751      
3.36         0.31964     -84.977       2.5154       68.825       0.1553       65.354       0.44834     -27.297      
3.37         0.32037     -84.918       2.5075       68.42        0.15535      65.085       0.45103     -27.843      
3.38         0.32108     -84.889       2.4968       68.053       0.15524      64.829       0.45292     -28.42       
3.39         0.32184     -84.856       2.4868       67.678       0.15518      64.571       0.45502     -28.986      
3.4          0.32264     -84.818       2.4778       67.295       0.15516      64.313       0.45735     -29.539      
3.41         0.32348     -84.775       2.4695       66.904       0.15518      64.055       0.4599      -30.08       
3.42         0.32437     -84.728       2.4622       66.506       0.15524      63.796       0.46267     -30.606      
3.43         0.32521     -84.693       2.4544       66.109       0.15526      63.537       0.46524     -31.127      
3.44         0.32587     -84.701       2.4441       65.723       0.15511      63.274       0.46701     -31.662      
3.45         0.32658     -84.704       2.4346       65.327       0.15501      63.01        0.46899     -32.186      
3.46         0.32734     -84.703       2.426        64.924       0.15496      62.744       0.47119     -32.7        
3.47         0.32816     -84.697       2.4183       64.513       0.15494      62.478       0.47361     -33.202      
3.48         0.32902     -84.686       2.4115       64.096       0.15496      62.211       0.47623     -33.691      
3.49         0.32989     -84.687       2.4041       63.691       0.15496      61.948       0.47867     -34.184      
3.5          0.33071     -84.724       2.3941       63.324       0.15484      61.692       0.48039     -34.706      
3.51         0.33159     -84.755       2.3848       62.948       0.15475      61.434       0.48233     -35.219      
3.52         0.33252     -84.782       2.3764       62.565       0.1547       61.176       0.48448     -35.722      
3.53         0.33351     -84.802       2.3688       62.174       0.1547       60.917       0.48685     -36.213      
3.54         0.33456     -84.818       2.362        61.777       0.15473      60.658       0.48942     -36.693      
3.55         0.33555     -84.832       2.3546       61.392       0.15473      60.413       0.49181     -37.179      
3.56         0.33635     -84.854       2.3443       61.042       0.15459      60.197       0.49346     -37.702      
3.57         0.3372      -84.871       2.3349       60.684       0.15448      59.98        0.49533     -38.216      
3.58         0.33811     -84.883       2.3262       60.318       0.15441      59.763       0.49743     -38.72       
3.59         0.33907     -84.89        2.3183       59.945       0.15438      59.544       0.49974     -39.214      
3.6          0.34008     -84.892       2.3112       59.564       0.15438      59.325       0.50226     -39.696      
3.61         0.34109     -84.905       2.3036       59.193       0.15437      59.105       0.50462     -40.174      
3.62         0.34204     -84.953       2.2938       58.848       0.15426      58.88        0.50632     -40.664      
3.63         0.34305     -84.996       2.2848       58.495       0.15419      58.654       0.50824     -41.146      
3.64         0.34411     -85.033       2.2766       58.134       0.15416      58.427       0.51037     -41.618      
3.65         0.34523     -85.065       2.2691       57.766       0.15416      58.201       0.5127      -42.08       
3.66         0.34641     -85.091       2.2624       57.392       0.15421      57.974       0.51525     -42.53       
3.67         0.34753     -85.13        2.2552       57.026       0.1542       57.745       0.51754     -42.984      
3.68         0.34843     -85.208       2.2459       56.685       0.15403      57.508       0.51898     -43.464      
3.69         0.3494      -85.281       2.2373       56.336       0.15389      57.268       0.52064     -43.936      
3.7          0.35044     -85.349       2.2295       55.98        0.15379      57.027       0.52252     -44.4        
3.71         0.35154     -85.411       2.2224       55.617       0.15373      56.785       0.52461     -44.855      
3.72         0.3527      -85.467       2.2161       55.247       0.15371      56.543       0.5269      -45.3        
3.73         0.35381     -85.525       2.2091       54.887       0.15366      56.31        0.52904     -45.75       
3.74         0.35473     -85.592       2.2          54.551       0.15349      56.094       0.53056     -46.226      
3.75         0.35571     -85.655       2.1915       54.208       0.15335      55.876       0.5323      -46.693      
3.76         0.35676     -85.713       2.1837       53.856       0.15325      55.658       0.53426     -47.153      
3.77         0.35787     -85.765       2.1766       53.499       0.15319      55.438       0.53643     -47.603      
3.78         0.35904     -85.812       2.1702       53.135       0.15316      55.218       0.53882     -48.043      
3.79         0.36016     -85.866       2.1634       52.777       0.1531       55.004       0.54104     -48.483      
3.8          0.36111     -85.944       2.1545       52.437       0.15293      54.799       0.54267     -48.938      
3.81         0.36213     -86.018       2.1463       52.09        0.15279      54.594       0.54452     -49.384      
3.82         0.36321     -86.087       2.1389       51.735       0.15269      54.387       0.54659     -49.822      
3.83         0.36436     -86.15        2.1321       51.374       0.15262      54.179       0.54886     -50.251      
3.84         0.36557     -86.207       2.1261       51.007       0.15259      53.971       0.55134     -50.67       
3.85         0.36675     -86.276       2.1195       50.654       0.15253      53.766       0.55353     -51.086      
3.86         0.36779     -86.378       2.1111       50.332       0.15236      53.565       0.55485     -51.511      
3.87         0.36891     -86.475       2.1033       50.003       0.15223      53.363       0.55638     -51.93       
3.88         0.3701      -86.566       2.0962       49.667       0.15213      53.161       0.55813     -52.343      
3.89         0.37136     -86.651       2.0898       49.326       0.15207      52.957       0.56007     -52.747      
3.9          0.37269     -86.73        2.084        48.978       0.15204      52.753       0.56222     -53.143      
3.91         0.37397     -86.813       2.0775       48.641       0.15197      52.555       0.56416     -53.55       
3.92         0.37511     -86.911       2.0687       48.327       0.15177      52.365       0.56545     -53.993      
3.93         0.37631     -87.004       2.0605       48.005       0.1516       52.174       0.56696     -54.429      
3.94         0.37759     -87.09        2.0529       47.676       0.15147      51.981       0.56869     -54.858      
3.95         0.37893     -87.171       2.046        47.34        0.15137      51.788       0.57064     -55.279      
3.96         0.38035     -87.246       2.0397       46.999       0.15131      51.594       0.57279     -55.692      
3.97         0.38168     -87.326       2.033        46.663       0.15121      51.402       0.57474     -56.107      
3.98         0.38276     -87.426       2.0245       46.344       0.15102      51.215       0.57607     -56.539      
3.99         0.38392     -87.521       2.0167       46.018       0.15087      51.027       0.57762     -56.965      
4            0.38515     -87.611       2.0095       45.684       0.15075      50.838       0.57938     -57.384      
4.01         0.38646     -87.694       2.0029       45.344       0.15066      50.647       0.58135     -57.795      
4.02         0.38783     -87.772       1.997        44.999       0.15061      50.456       0.58354     -58.198      
4.03         0.38911     -87.861       1.9907       44.668       0.15053      50.267       0.58555     -58.6        
4.04         0.39013     -87.977       1.9829       44.368       0.15033      50.078       0.587       -59.013      
4.05         0.39123     -88.089       1.9757       44.062       0.15017      49.887       0.58866     -59.42       
4.06         0.39241     -88.196       1.9691       43.749       0.15005      49.695       0.59053     -59.819      
4.07         0.39366     -88.297       1.9631       43.431       0.14996      49.502       0.59262     -60.211      
4.08         0.39499     -88.392       1.9577       43.107       0.1499       49.309       0.59491     -60.593      
4.09         0.39629     -88.494       1.9515       42.792       0.14983      49.115       0.59686     -60.982      
4.1          0.39747     -88.615       1.9431       42.493       0.14968      48.917       0.59798     -61.394      
4.11         0.39874     -88.731       1.9353       42.187       0.14958      48.719       0.59931     -61.801      
4.12         0.40008     -88.842       1.9281       41.874       0.14951      48.52        0.60086     -62.202      
4.13         0.4015      -88.946       1.9215       41.555       0.14947      48.32        0.60263     -62.597      
4.14         0.403       -89.043       1.9155       41.23        0.14947      48.122       0.60461     -62.983      
4.15         0.40437     -89.145       1.9092       40.908       0.14939      47.907       0.60639     -63.376      
4.16         0.40544     -89.26        1.9018       40.599       0.14914      47.659       0.60761     -63.788      
4.17         0.4066      -89.37        1.8949       40.283       0.14893      47.408       0.60905     -64.195      
4.18         0.40783     -89.476       1.8886       39.96        0.14877      47.156       0.61072     -64.595      
4.19         0.40914     -89.576       1.883        39.632       0.14864      46.903       0.6126      -64.988      
4.2          0.41053     -89.67        1.8779       39.299       0.14855      46.649       0.6147      -65.374      
4.21         0.41183     -89.774       1.8722       38.98        0.14836      46.423       0.61649     -65.749      
4.22         0.41288     -89.904       1.8647       38.691       0.14796      46.249       0.61751     -66.114      
4.23         0.41401     -90.028       1.8578       38.396       0.14759      46.07        0.61875     -66.475      
4.24         0.41523     -90.148       1.8515       38.093       0.14725      45.887       0.62019     -66.831      
4.25         0.41652     -90.262       1.8457       37.785       0.14695      45.702       0.62183     -67.18       
4.26         0.4179      -90.37        1.8405       37.472       0.14668      45.513       0.62368     -67.524      
4.27         0.4192      -90.481       1.8346       37.167       0.14639      45.339       0.62534     -67.872      
4.28         0.4203      -90.6         1.8271       36.88        0.14605      45.192       0.62651     -68.237      
4.29         0.42148     -90.714       1.8202       36.586       0.14574      45.041       0.62789     -68.597      
4.3          0.42274     -90.824       1.8138       36.285       0.14546      44.887       0.62948     -68.951      
4.31         0.42408     -90.928       1.8079       35.979       0.14522      44.731       0.63127     -69.299      
4.32         0.4255      -91.026       1.8027       35.667       0.145        44.573       0.63327     -69.64       
4.33         0.42684     -91.134       1.7969       35.369       0.14476      44.421       0.63498     -69.986      
4.34         0.42798     -91.264       1.7898       35.099       0.14444      44.278       0.63603     -70.348      
4.35         0.4292      -91.39        1.7833       34.823       0.14415      44.133       0.6373      -70.705      
4.36         0.43051     -91.51        1.7772       34.54        0.1439       43.985       0.63878     -71.058      
4.37         0.4319      -91.624       1.7717       34.252       0.14367      43.835       0.64046     -71.404      
4.38         0.43337     -91.733       1.7667       33.959       0.14347      43.682       0.64236     -71.744      
4.39         0.43472     -91.848       1.7612       33.67        0.14324      43.533       0.64402     -72.083      
4.4          0.4358      -91.98        1.7541       33.388       0.1429       43.389       0.64513     -72.427      
4.41         0.43696     -92.107       1.7476       33.1         0.1426       43.242       0.64645     -72.768      
4.42         0.43821     -92.229       1.7416       32.806       0.14233      43.092       0.64798     -73.103      
4.43         0.43954     -92.346       1.7361       32.506       0.14209      42.94        0.64971     -73.431      
4.44         0.44096     -92.458       1.7312       32.201       0.14188      42.786       0.65165     -73.754      
4.45         0.44226     -92.571       1.7257       31.905       0.14163      42.643       0.65329     -74.085      
4.46         0.44331     -92.693       1.7189       31.626       0.14128      42.519       0.6543      -74.439      
4.47         0.44444     -92.811       1.7125       31.34        0.14095      42.392       0.65552     -74.788      
4.48         0.44566     -92.924       1.7067       31.049       0.14066      42.262       0.65696     -75.132      
4.49         0.44697     -93.033       1.7014       30.751       0.1404       42.129       0.6586      -75.47       
4.5          0.44836     -93.136       1.6966       30.449       0.14017      41.994       0.66046     -75.802      
4.51         0.44965     -93.249       1.6912       30.157       0.1399       41.863       0.66207     -76.14       
4.52         0.45073     -93.383       1.6844       29.882       0.13957      41.74        0.66312     -76.493      
4.53         0.45191     -93.513       1.678        29.601       0.13927      41.614       0.66439     -76.842      
4.54         0.45317     -93.638       1.6722       29.313       0.13899      41.485       0.66588     -77.185      
4.55         0.45452     -93.759       1.6669       29.02        0.13874      41.353       0.66758     -77.523      
4.56         0.45596     -93.873       1.662        28.721       0.13853      41.22        0.6695      -77.854      
4.57         0.45728     -93.994       1.6567       28.435       0.13827      41.101       0.67114     -78.178      
4.58         0.45835     -94.129       1.6502       28.171       0.13793      41.007       0.6722      -78.497      
4.59         0.4595      -94.26        1.6442       27.9         0.13762      40.909       0.67348     -78.812      
4.6          0.46075     -94.386       1.6387       27.623       0.13733      40.809       0.67495     -79.121      
4.61         0.46209     -94.507       1.6336       27.341       0.13707      40.706       0.67664     -79.425      
4.62         0.46352     -94.623       1.6291       27.053       0.13684      40.601       0.67852     -79.723      
4.63         0.46486     -94.747       1.6239       26.773       0.13657      40.494       0.68008     -80.033      
4.64         0.46599     -94.888       1.6174       26.502       0.13623      40.386       0.68101     -80.368      
4.65         0.46722     -95.024       1.6114       26.226       0.13592      40.274       0.68216     -80.7        
4.66         0.46855     -95.156       1.6059       25.943       0.13564      40.16        0.68352     -81.026      
4.67         0.46996     -95.282       1.6009       25.654       0.13538      40.042       0.6851      -81.348      
4.68         0.47147     -95.403       1.5964       25.361       0.13515      39.923       0.68689     -81.663      
4.69         0.47282     -95.525       1.5912       25.082       0.13487      39.809       0.68841     -81.986      
4.7          0.47386     -95.653       1.5847       24.826       0.13449      39.704       0.68939     -82.325      
4.71         0.47499     -95.778       1.5787       24.564       0.13414      39.594       0.69058     -82.66       
4.72         0.47622     -95.898       1.5732       24.295       0.13382      39.482       0.692       -82.99       
4.73         0.47754     -96.013       1.5681       24.021       0.13352      39.366       0.69364     -83.314      
4.74         0.47895     -96.123       1.5635       23.741       0.13325      39.247       0.6955      -83.633      
4.75         0.48024     -96.246       1.5584       23.468       0.13295      39.138       0.69712     -83.952      
4.76         0.48131     -96.392       1.5523       23.205       0.13261      39.043       0.69828     -84.277      
4.77         0.48247     -96.533       1.5466       22.935       0.13229      38.945       0.69966     -84.597      
4.78         0.48374     -96.67        1.5414       22.659       0.13199      38.843       0.70126     -84.912      
4.79         0.4851      -96.801       1.5366       22.378       0.13172      38.739       0.70307     -85.221      
4.8          0.48656     -96.928       1.5323       22.092       0.13148      38.632       0.7051      -85.524      
4.81         0.48791     -97.06        1.5274       21.817       0.13121      38.537       0.70668     -85.823      
4.82         0.48904     -97.202       1.5214       21.56        0.13088      38.458       0.70748     -86.12       
4.83         0.49026     -97.339       1.5158       21.296       0.13057      38.376       0.7085      -86.415      
4.84         0.49159     -97.472       1.5107       21.026       0.13029      38.29        0.70973     -86.706      
4.85         0.49302     -97.6         1.506        20.751       0.13004      38.203       0.71116     -86.992      
4.86         0.49454     -97.723       1.5018       20.47        0.12981      38.112       0.7128      -87.273      
4.87         0.49588     -97.849       1.4969       20.202       0.12953      38.033       0.71413     -87.565      
4.88         0.49691     -97.985       1.4909       19.953       0.12916      37.969       0.71491     -87.879      
4.89         0.49803     -98.116       1.4853       19.696       0.12882      37.902       0.71591     -88.19       
4.9          0.49926     -98.244       1.4802       19.434       0.1285       37.831       0.71714     -88.497      
4.91         0.50058     -98.367       1.4755       19.166       0.12821      37.757       0.71858     -88.799      
4.92         0.502       -98.485       1.4713       18.892       0.12794      37.68        0.72023     -89.096      
4.93         0.5033      -98.606       1.4664       18.627       0.12764      37.607       0.72167     -89.397      
4.94         0.50439     -98.734       1.4606       18.373       0.12729      37.539       0.72269     -89.708      
4.95         0.50558     -98.858       1.4552       18.112       0.12696      37.467       0.72393     -90.015      
4.96         0.50686     -98.978       1.4502       17.845       0.12666      37.392       0.72539     -90.317      
4.97         0.50824     -99.094       1.4456       17.573       0.12638      37.314       0.72708     -90.614      
4.98         0.50973     -99.204       1.4415       17.295       0.12613      37.233       0.72897     -90.906      
4.99         0.51106     -99.323       1.4368       17.035       0.12583      37.162       0.73047     -91.194      
5            0.51214     -99.459       1.4311       16.801       0.12545      37.106       0.7313      -91.482      
5.01         0.51333     -99.59        1.4257       16.559       0.12509      37.047       0.73235     -91.767      
5.02         0.51462     -99.716       1.4208       16.311       0.12475      36.983       0.73362     -92.048      
5.03         0.51601     -99.839       1.4162       16.058       0.12444      36.916       0.73509     -92.324      
5.04         0.51751     -99.956       1.4121       15.799       0.12415      36.845       0.73678     -92.596      
5.05         0.51884     -100.08       1.4074       15.545       0.12383      36.783       0.73813     -92.876      
5.06         0.51992     -100.22       1.4018       15.295       0.12344      36.734       0.73895     -93.17       
5.07         0.5211      -100.36       1.3966       15.038       0.12308      36.68        0.73999     -93.461      
5.08         0.5224      -100.5        1.3919       14.775       0.12274      36.623       0.74125     -93.749      
5.09         0.5238      -100.62       1.3875       14.506       0.12242      36.562       0.74272     -94.032      
5.1          0.5253      -100.75       1.3836       14.233       0.12213      36.497       0.74442     -94.31       
5.11         0.52661     -100.87       1.379        13.975       0.1218       36.451       0.7458      -94.591      
5.12         0.52763     -101          1.3735       13.739       0.12142      36.429       0.74667     -94.881      
5.13         0.52875     -101.13       1.3684       13.497       0.12106      36.404       0.74777     -95.167      
5.14         0.52998     -101.25       1.3637       13.248       0.12073      36.374       0.74909     -95.449      
5.15         0.53132     -101.37       1.3594       12.993       0.12041      36.341       0.75063     -95.727      
5.16         0.53276     -101.49       1.3555       12.733       0.12011      36.304       0.75239     -96          
5.17         0.53401     -101.61       1.3509       12.483       0.11978      36.279       0.75378     -96.273      
5.18         0.53498     -101.73       1.3455       12.246       0.1194       36.269       0.75461     -96.551      
5.19         0.53606     -101.85       1.3404       12.002       0.11903      36.254       0.75566     -96.826      
5.2          0.53724     -101.97       1.3357       11.752       0.11869      36.235       0.75692     -97.098      
5.21         0.53853     -102.08       1.3314       11.496       0.11836      36.212       0.75841     -97.365      
5.22         0.53992     -102.19       1.3275       11.234       0.11806      36.186       0.76011     -97.628      
5.23         0.54114     -102.31       1.3231       10.984       0.11774      36.175       0.76141     -97.892      
5.24         0.5421      -102.44       1.3178       10.75        0.11739      36.184       0.76214     -98.164      
5.25         0.54317     -102.56       1.3129       10.509       0.11707      36.189       0.76308     -98.433      
5.26         0.54434     -102.68       1.3084       10.262       0.11676      36.191       0.76425     -98.698      
5.27         0.54562     -102.79       1.3042       10.008       0.11647      36.189       0.76563     -98.96       
5.28         0.54701     -102.9        1.3005       9.7495       0.1162       36.184       0.76722     -99.218      
5.29         0.54818     -103.02       1.2962       9.5023       0.11592      36.185       0.76846     -99.483      
5.3          0.54904     -103.14       1.291        9.2692       0.11562      36.195       0.76918     -99.761      
5.31         0.55002     -103.27       1.2861       9.0291       0.11534      36.201       0.77014     -100.04      
5.32         0.5511      -103.39       1.2817       8.7824       0.11508      36.205       0.77131     -100.31      
5.33         0.55229     -103.51       1.2776       8.5297       0.11484      36.205       0.77271     -100.58      
5.34         0.55359     -103.62       1.2739       8.2715       0.11462      36.203       0.77434     -100.84      
5.35         0.55471     -103.73       1.2696       8.0286       0.11437      36.193       0.77554     -101.1       
5.36         0.55557     -103.84       1.2644       7.8038       0.11409      36.173       0.77619     -101.37      
5.37         0.55653     -103.95       1.2595       7.5717       0.11383      36.15        0.77705     -101.64      
5.38         0.5576      -104.06       1.255        7.3327       0.11359      36.124       0.77814     -101.9       
5.39         0.55878     -104.16       1.2508       7.0874       0.11337      36.095       0.77945     -102.16      
5.4          0.56006     -104.26       1.2471       6.8364       0.11317      36.064       0.78098     -102.42      
5.41         0.56118     -104.37       1.2428       6.6012       0.11288      36.038       0.78214     -102.67      
5.42         0.56207     -104.48       1.2379       6.385        0.11249      36.017       0.78279     -102.93      
5.43         0.56307     -104.59       1.2333       6.1618       0.11211      35.991       0.78366     -103.18      
5.44         0.56418     -104.7        1.2291       5.9321       0.11175      35.96        0.78475     -103.43      
5.45         0.5654      -104.81       1.2252       5.6963       0.11141      35.925       0.78606     -103.68      
5.46         0.56673     -104.91       1.2217       5.4551       0.1111       35.885       0.78758     -103.92      
5.47         0.56786     -105.03       1.2175       5.2219       0.11074      35.878       0.78868     -104.17      
5.48         0.56874     -105.16       1.2125       4.9974       0.11035      35.908       0.78924     -104.43      
5.49         0.56974     -105.28       1.2079       4.7655       0.10997      35.934       0.79001     -104.68      
5.5          0.57085     -105.41       1.2036       4.5266       0.10961      35.955       0.79101     -104.93      
5.51         0.57208     -105.53       1.1997       4.2813       0.10926      35.972       0.79223     -105.18      
5.52         0.57342     -105.64       1.1961       4.0302       0.10893      35.984       0.79367     -105.42      
5.53         0.57454     -105.77       1.192        3.7959       0.10858      36.019       0.79479     -105.66      
5.54         0.5754      -105.9        1.1873       3.5808       0.10821      36.082       0.79551     -105.91      
5.55         0.57638     -106.03       1.183        3.3585       0.10786      36.14        0.79644     -106.14      
5.56         0.57748     -106.16       1.179        3.1297       0.10751      36.194       0.79759     -106.38      
5.57         0.5787      -106.29       1.1753       2.8947       0.10719      36.244       0.79896     -106.61      
5.58         0.58003     -106.41       1.1719       2.6542       0.10688      36.29        0.80054     -106.84      
5.59         0.5811      -106.53       1.1679       2.423        0.10654      36.34        0.80162     -107.08      
5.6          0.58186     -106.65       1.1631       2.201        0.10618      36.396       0.8021      -107.33      
5.61         0.58273     -106.77       1.1587       1.9714       0.10584      36.447       0.8028      -107.58      
5.62         0.58372     -106.89       1.1546       1.7346       0.10551      36.494       0.80373     -107.83      
5.63         0.58482     -107          1.1508       1.4913       0.10519      36.536       0.80488     -108.08      
5.64         0.58604     -107.11       1.1473       1.2419       0.10489      36.575       0.80626     -108.32      
5.65         0.58706     -107.23       1.1433       1.013        0.10457      36.633       0.80721     -108.56      
5.66         0.58783     -107.35       1.1386       0.80606      0.10423      36.714       0.80763     -108.8       
5.67         0.58872     -107.47       1.1342       0.5915       0.1039       36.791       0.80827     -109.03      
5.68         0.58973     -107.58       1.1302       0.3698       0.10359      36.864       0.80913     -109.26      
5.69         0.59085     -107.7        1.1264       0.14145      0.10328      36.933       0.81022     -109.49      
5.7          0.5921      -107.81       1.123       -0.093009     0.103        36.998       0.81151     -109.72      
5.71         0.59309     -107.93       1.1191      -0.31282      0.10268      37.076       0.81246     -109.95      
5.72         0.59382     -108.06       1.1146      -0.51751      0.10232      37.169       0.81298     -110.18      
5.73         0.59466     -108.19       1.1104      -0.7297       0.10198      37.257       0.81373     -110.41      
5.74         0.59563     -108.32       1.1065      -0.94891      0.10165      37.341       0.8147      -110.64      
5.75         0.59672     -108.44       1.103       -1.1746       0.10133      37.421       0.81589     -110.87      
5.76         0.59793     -108.57       1.0997      -1.4063       0.10103      37.496       0.81729     -111.09      
5.77         0.5989      -108.69       1.0959      -1.6242       0.10071      37.599       0.81822     -111.32      
5.78         0.5996      -108.81       1.0913      -1.8286       0.10038      37.73        0.81862     -111.55      
5.79         0.60042     -108.93       1.0871      -2.0409       0.10005      37.857       0.81924     -111.77      
5.8          0.60136     -109.05       1.0831      -2.2607       0.099737     37.98        0.82007     -112         
5.81         0.60243     -109.17       1.0795      -2.4873       0.099433     38.099       0.82113     -112.22      
5.82         0.60361     -109.28       1.0761      -2.7204       0.09914      38.214       0.82241     -112.44      
5.83         0.60456     -109.4        1.0723      -2.9448       0.098845     38.33        0.82323     -112.67      
5.84         0.60527     -109.53       1.068       -3.1615       0.098547     38.446       0.82357     -112.91      
5.85         0.6061      -109.67       1.064       -3.386        0.098259     38.558       0.82413     -113.14      
5.86         0.60706     -109.8        1.0602      -3.6179       0.097983     38.666       0.82491     -113.37      
5.87         0.60814     -109.92       1.0568      -3.8565       0.097718     38.771       0.82593     -113.6       
5.88         0.60935     -110.04       1.0537      -4.1015       0.097465     38.872       0.82716     -113.83      
5.89         0.61027     -110.16       1.05        -4.3219       0.097192     39.009       0.82801     -114.06      
5.9          0.61087     -110.28       1.0456      -4.5187       0.096897     39.183       0.82845     -114.29      
5.91         0.6116      -110.4        1.0414      -4.7236       0.096611     39.354       0.82912     -114.52      
5.92         0.61245     -110.52       1.0375      -4.9362       0.096334     39.521       0.83001     -114.75      
5.93         0.61342     -110.63       1.034       -5.156        0.096065     39.685       0.83113     -114.98      
5.94         0.61452     -110.74       1.0307      -5.3826       0.095806     39.846       0.83247     -115.2       
5.95         0.61532     -110.86       1.0268      -5.5952       0.09553      40.014       0.83332     -115.42      
5.96         0.61581     -110.99       1.0224      -5.7953       0.095236     40.189       0.83368     -115.64      
5.97         0.61643     -111.11       1.0182      -6.0039       0.094951     40.36        0.83425     -115.86      
5.98         0.61717     -111.24       1.0144      -6.2205       0.094675     40.528       0.83505     -116.08      
5.99         0.61805     -111.36       1.0108      -6.4446       0.094407     40.693       0.83607     -116.3       
6            0.61905     -111.49       1.0075      -6.6757       0.094148     40.854       0.83731     -116.51      
6.01         0.61988     -111.61       1.0038      -6.8858       0.093898     41.033       0.83804     -116.72      
6.02         0.62053     -111.73       0.99983     -7.076        0.093656     41.23        0.83826     -116.93      
6.03         0.62131     -111.85       0.99608     -7.274        0.093422     41.424       0.8387      -117.14      
6.04         0.62222     -111.97       0.99261     -7.4793       0.093196     41.616       0.83937     -117.35      
6.05         0.62325     -112.09       0.9894      -7.6915       0.092977     41.804       0.84024     -117.56      
6.06         0.62441     -112.2        0.98647     -7.9101       0.092766     41.99        0.84134     -117.77      
6.07         0.62527     -112.32       0.98295     -8.1158       0.092563     42.189       0.84201     -117.98      
6.08         0.62583     -112.44       0.97886     -8.3111       0.092369     42.4         0.84227     -118.19      
6.09         0.62652     -112.56       0.97502     -8.5146       0.092181     42.609       0.84274     -118.41      
6.1          0.62734     -112.68       0.97145     -8.726        0.092        42.816       0.84344     -118.62      
6.11         0.62828     -112.8        0.96815     -8.9447       0.091827     43.021       0.84436     -118.84      
6.12         0.62936     -112.91       0.96511     -9.1703       0.09166      43.224       0.84551     -119.05      
6.13         0.63007     -113.03       0.96151     -9.3721       0.091486     43.44        0.84619     -119.26      
6.14         0.63045     -113.16       0.95735     -9.553        0.091302     43.668       0.84642     -119.47      
6.15         0.63095     -113.28       0.95344     -9.7424       0.091125     43.894       0.84688     -119.69      
6.16         0.63159     -113.4        0.94977     -9.94         0.090955     44.118       0.84756     -119.9       
6.17         0.63236     -113.53       0.94636     -10.145       0.090791     44.34        0.84847     -120.11      
6.18         0.63326     -113.65       0.9432      -10.358       0.090633     44.56        0.8496      -120.32      
6.19         0.63394     -113.77       0.93973     -10.555       0.090486     44.796       0.85031     -120.53      
6.2          0.63442     -113.89       0.93597     -10.739       0.090347     45.047       0.85065     -120.73      
6.21         0.63503     -114.01       0.93246     -10.931       0.090215     45.297       0.8512      -120.93      
6.22         0.63577     -114.12       0.92918     -11.131       0.090088     45.546       0.85197     -121.13      
6.23         0.63665     -114.24       0.92616     -11.337       0.089967     45.793       0.85295     -121.32      
6.24         0.63765     -114.35       0.92338     -11.55        0.089851     46.038       0.85416     -121.52      
6.25         0.63832     -114.47       0.91994     -11.743       0.089733     46.301       0.85472     -121.72      
6.26         0.6387      -114.59       0.91588     -11.919       0.089612     46.579       0.85472     -121.92      
6.27         0.63921     -114.71       0.91205     -12.104       0.089497     46.856       0.85494     -122.13      
6.28         0.63985     -114.83       0.90845     -12.297       0.089386     47.131       0.85538     -122.33      
6.29         0.64062     -114.94       0.90509     -12.498       0.08928      47.406       0.85604     -122.54      
6.3          0.64153     -115.06       0.90197     -12.707       0.089179     47.68        0.85692     -122.74      
6.31         0.64207     -115.17       0.89846     -12.908       0.089083     47.954       0.85739     -122.95      
6.32         0.64232     -115.29       0.89461     -13.104       0.088991     48.229       0.85751     -123.18      
6.33         0.64269     -115.41       0.89099     -13.309       0.088905     48.503       0.85787     -123.41      
6.34         0.6432      -115.53       0.88761     -13.522       0.088824     48.776       0.85846     -123.63      
6.35         0.64384     -115.65       0.88448     -13.744       0.088748     49.048       0.85928     -123.86      
6.36         0.64461     -115.77       0.88158     -13.973       0.088677     49.32        0.86034     -124.08      
6.37         0.6451      -115.88       0.87825     -14.169       0.088675     49.599       0.86087     -124.28      
6.38         0.64534     -116          0.87451     -14.339       0.088734     49.885       0.86094     -124.46      
6.39         0.64572     -116.11       0.87098     -14.517       0.088799     50.172       0.86122     -124.64      
6.4          0.64623     -116.23       0.86767     -14.703       0.088868     50.461       0.86172     -124.82      
6.41         0.64687     -116.35       0.86459     -14.897       0.088943     50.75        0.86242     -125         
6.42         0.64764     -116.46       0.86172     -15.099       0.089022     51.039       0.86333     -125.18      
6.43         0.64814     -116.57       0.85848     -15.279       0.089104     51.294       0.86374     -125.36      
6.44         0.6484      -116.69       0.85492     -15.443       0.08919      51.517       0.86373     -125.56      
6.45         0.6488      -116.81       0.85156     -15.616       0.089283     51.741       0.86395     -125.76      
6.46         0.64934     -116.93       0.84841     -15.796       0.089382     51.966       0.86438     -125.96      
6.47         0.65001     -117.04       0.84548     -15.984       0.089488     52.193       0.86503     -126.16      
6.48         0.65081     -117.16       0.84276     -16.18        0.089601     52.421       0.86591     -126.36      
6.49         0.6513      -117.27       0.83969     -16.365       0.089624     52.624       0.86631     -126.56      
6.5          0.65155     -117.38       0.83632     -16.544       0.089573     52.805       0.86634     -126.76      
6.51         0.65192     -117.49       0.83317     -16.731       0.089529     52.986       0.8666      -126.96      
6.52         0.65243     -117.6        0.83022     -16.926       0.089493     53.166       0.86707     -127.17      
6.53         0.65307     -117.71       0.82749     -17.129       0.089464     53.345       0.86777     -127.37      
6.54         0.65384     -117.82       0.82498     -17.338       0.089444     53.524       0.86869     -127.57      
6.55         0.6543      -117.93       0.82186     -17.525       0.089379     53.774       0.86903     -127.76      
6.56         0.65453     -118.06       0.81824     -17.697       0.089276     54.084       0.86892     -127.96      
6.57         0.65489     -118.18       0.81481     -17.877       0.089176     54.393       0.86902     -128.15      
6.58         0.65539     -118.31       0.81159     -18.066       0.089081     54.702       0.86935     -128.35      
6.59         0.65603     -118.43       0.80858     -18.263       0.08899      55.009       0.86989     -128.54      
6.6          0.6568      -118.55       0.80577     -18.468       0.088903     55.316       0.87065     -128.74      
6.61         0.65727     -118.68       0.80265     -18.653       0.088911     55.673       0.87103     -128.93      
6.62         0.65751     -118.82       0.7993      -18.824       0.088998     56.074       0.87112     -129.13      
6.63         0.6579      -118.97       0.79614     -19.003       0.089087     56.476       0.87144     -129.33      
6.64         0.65843     -119.11       0.79318     -19.191       0.089179     56.88        0.87198     -129.53      
6.65         0.65911     -119.25       0.79041     -19.386       0.089273     57.284       0.87274     -129.72      
6.66         0.65993     -119.39       0.78785     -19.589       0.08937      57.689       0.87372     -129.92      
6.67         0.6603      -119.54       0.78478     -19.779       0.089568     58.086       0.87414     -130.12      
6.68         0.66033     -119.7        0.78132     -19.96        0.089848     58.477       0.87414     -130.32      
6.69         0.66051     -119.86       0.77806     -20.15        0.090131     58.872       0.87437     -130.52      
6.7          0.66085     -120.02       0.77498     -20.349       0.090418     59.268       0.87482     -130.72      
6.71         0.66134     -120.18       0.77211     -20.557       0.090708     59.667       0.87549     -130.92      
6.72         0.66198     -120.34       0.76944     -20.773       0.091001     60.069       0.87639     -131.12      
6.73         0.66225     -120.48       0.76627     -20.947       0.091365     60.453       0.87664     -131.32      
6.74         0.66225     -120.61       0.76272     -21.092       0.091787     60.824       0.87642     -131.52      
6.75         0.66238     -120.74       0.75933     -21.246       0.092212     61.199       0.87642     -131.72      
6.76         0.66266     -120.86       0.75612     -21.408       0.092642     61.578       0.87665     -131.93      
6.77         0.66307     -120.99       0.75308     -21.58        0.093076     61.96        0.8771      -132.13      
6.78         0.66363     -121.12       0.75023     -21.76        0.093514     62.346       0.87778     -132.34      
6.79         0.66365     -121.26       0.74705     -21.924       0.094088     62.667       0.87793     -132.54      
6.8          0.66328     -121.42       0.74367     -22.08        0.09477      62.941       0.87773     -132.75      
6.81         0.66307     -121.57       0.74045     -22.244       0.09546      63.221       0.87775     -132.96      
6.82         0.663       -121.73       0.7374      -22.417       0.096157     63.508       0.878       -133.17      
6.83         0.66309     -121.89       0.73452     -22.6         0.096862     63.801       0.87848     -133.38      
6.84         0.66333     -122.05       0.73183     -22.79        0.097573     64.101       0.87919     -133.6       
6.85         0.66315     -122.19       0.72873     -22.953       0.098321     64.319       0.87916     -133.8       
6.86         0.66268     -122.34       0.72536     -23.098       0.099102     64.478       0.87862     -134.01      
6.87         0.66236     -122.48       0.72214     -23.252       0.099894     64.645       0.87831     -134.21      
6.88         0.66219     -122.63       0.71908     -23.415       0.1007       64.822       0.87821     -134.42      
6.89         0.66216     -122.77       0.71619     -23.587       0.10151      65.007       0.87835     -134.63      
6.9          0.66228     -122.92       0.71347     -23.768       0.10234      65.2         0.8787      -134.84      
6.91         0.66199     -123.06       0.71045     -23.911       0.10316      65.271       0.8785      -135.03      
6.92         0.66145     -123.19       0.70724     -24.03        0.10399      65.256       0.87792     -135.23      
6.93         0.66104     -123.32       0.70418     -24.157       0.10484      65.251       0.87756     -135.42      
6.94         0.66078     -123.45       0.70126     -24.293       0.10571      65.258       0.87741     -135.62      
6.95         0.66065     -123.59       0.69848     -24.437       0.1066       65.275       0.87749     -135.82      
6.96         0.66067     -123.72       0.69587     -24.589       0.10751      65.304       0.87778     -136.01      
6.97         0.66028     -123.84       0.69299     -24.721       0.10833      65.244       0.87742     -136.2       
6.98         0.65962     -123.95       0.68996     -24.841       0.1091       65.122       0.87664     -136.39      
6.99         0.65909     -124.06       0.68707     -24.97        0.1099       65.011       0.87607     -136.58      
7            0.6587      -124.17       0.68433     -25.107       0.11072      64.911       0.87571     -136.78      
7.01         0.65843     -124.29       0.68172     -25.252       0.11156      64.822       0.87557     -136.97      
7.02         0.6583      -124.4        0.67927     -25.404       0.11243      64.745       0.87564     -137.17      
7.03         0.65773     -124.51       0.67656     -25.53        0.11324      64.572       0.87511     -137.36      
7.04         0.65688     -124.61       0.6737      -25.639       0.11403      64.336       0.8742      -137.56      
7.05         0.65616     -124.72       0.67097     -25.757       0.11484      64.111       0.87351     -137.76      
7.06         0.65557     -124.83       0.66837     -25.883       0.11569      63.899       0.87303     -137.96      
7.07         0.65511     -124.94       0.66591     -26.016       0.11658      63.698       0.87277     -138.16      
7.08         0.65478     -125.05       0.66359     -26.156       0.11749      63.51        0.87273     -138.37      
7.09         0.65394     -125.13       0.66107     -26.255       0.11829      63.136       0.87206     -138.55      
7.1          0.65277     -125.18       0.65843     -26.326       0.11903      62.637       0.87101     -138.72      
7.11         0.65171     -125.24       0.65591     -26.405       0.11983      62.151       0.87016     -138.9       
7.12         0.65076     -125.3        0.65351     -26.491       0.12068      61.679       0.86951     -139.08      
7.13         0.64993     -125.36       0.65123     -26.584       0.12158      61.222       0.86906     -139.26      
7.14         0.64921     -125.43       0.64907     -26.683       0.12254      60.78        0.86882     -139.44      
7.15         0.6487      -125.43       0.6472      -26.774       0.12267      60.141       0.86807     -139.57      
7.16         0.64834     -125.39       0.64557     -26.862       0.12228      59.35        0.867       -139.66      
7.17         0.64806     -125.35       0.64407     -26.954       0.12197      58.547       0.86609     -139.76      
7.18         0.64788     -125.31       0.64268     -27.05        0.12175      57.736       0.86534     -139.86      
7.19         0.64777     -125.28       0.64142     -27.151       0.12162      56.918       0.86477     -139.96      
7.2          0.64775     -125.24       0.64029     -27.256       0.12157      56.095       0.86436     -140.06      
7.21         0.64836     -125.23       0.63891     -27.41        0.1206       55.583       0.86416     -140.16      
7.22         0.64943     -125.23       0.63743     -27.6         0.11901      55.257       0.86418     -140.27      
7.23         0.6506      -125.23       0.63611     -27.796       0.11745      54.902       0.86436     -140.37      
7.24         0.65186     -125.22       0.63494     -27.996       0.11593      54.517       0.86472     -140.48      
7.25         0.65322     -125.21       0.63394     -28.2         0.11445      54.102       0.86525     -140.59      
7.26         0.65468     -125.21       0.6331      -28.408       0.11301      53.655       0.86595     -140.69      
7.27         0.65589     -125.28       0.63131     -28.619       0.11175      53.681       0.8665      -140.84      
7.28         0.65701     -125.41       0.62897     -28.838       0.11057      54.023       0.86705     -141.01      
7.29         0.65828     -125.53       0.62678     -29.066       0.1094       54.356       0.8678      -141.17      
7.3          0.65968     -125.65       0.62476     -29.301       0.10823      54.682       0.86876     -141.34      
7.31         0.66123     -125.77       0.62291     -29.543       0.10706      54.999       0.86992     -141.51      
7.32         0.66292     -125.89       0.62123     -29.793       0.1059       55.308       0.87128     -141.68      
7.33         0.66389     -126.03       0.61898     -30.005       0.10528      55.666       0.87192     -141.85      
7.34         0.66446     -126.18       0.6164      -30.196       0.10501      56.058       0.87218     -142.02      
7.35         0.66519     -126.34       0.61396     -30.397       0.10475      56.45        0.87264     -142.2       
7.36         0.66607     -126.49       0.61168     -30.606       0.10449      56.839       0.87331     -142.37      
7.37         0.6671      -126.64       0.60954     -30.823       0.10423      57.228       0.87419     -142.55      
7.38         0.66828     -126.79       0.60757     -31.049       0.10397      57.615       0.87528     -142.72      
7.39         0.66882     -126.92       0.60523     -31.236       0.10379      57.957       0.87559     -142.9       
7.4          0.66901     -127.05       0.60271     -31.404       0.10366      58.269       0.87548     -143.09      
7.41         0.66934     -127.17       0.60033     -31.581       0.10353      58.58        0.87558     -143.27      
7.42         0.66981     -127.29       0.59808     -31.766       0.10341      58.89        0.87589     -143.46      
7.43         0.67043     -127.41       0.59598     -31.958       0.10329      59.199       0.87642     -143.64      
7.44         0.67118     -127.53       0.59401     -32.159       0.10317      59.508       0.87716     -143.83      
7.45         0.67159     -127.66       0.59173     -32.347       0.10303      59.769       0.87731     -144.02      
7.46         0.67183     -127.8        0.58931     -32.532       0.10287      59.999       0.87719     -144.22      
7.47         0.67222     -127.94       0.58702     -32.726       0.10271      60.229       0.87729     -144.42      
7.48         0.67276     -128.07       0.58488     -32.928       0.10256      60.456       0.87761     -144.62      
7.49         0.67344     -128.21       0.58287     -33.138       0.10242      60.682       0.87814     -144.82      
7.5          0.67428     -128.34       0.58101     -33.356       0.10228      60.907       0.87889     -145.02      
7.51         0.67488     -128.49       0.57869     -33.553       0.10212      61.237       0.87925     -145.21      
7.52         0.6754      -128.64       0.57614     -33.741       0.10193      61.63        0.87945     -145.39      
7.53         0.67608     -128.79       0.57373     -33.939       0.10175      62.022       0.87985     -145.58      
7.54         0.67691     -128.94       0.57146     -34.146       0.10158      62.414       0.88047     -145.76      
7.55         0.67789     -129.09       0.56933     -34.362       0.1014       62.805       0.8813      -145.95      
7.56         0.67903     -129.24       0.56733     -34.586       0.10123      63.195       0.88234     -146.13      
7.57         0.67957     -129.41       0.56491     -34.787       0.10125      63.64        0.88254     -146.31      
7.58         0.67983     -129.6        0.56227     -34.981       0.10139      64.119       0.88233     -146.5       
7.59         0.68025     -129.79       0.55976     -35.184       0.10154      64.6         0.88234     -146.69      
7.6          0.68084     -129.97       0.55738     -35.397       0.10168      65.081       0.88255     -146.88      
7.61         0.6816      -130.16       0.55514     -35.619       0.10183      65.563       0.88298     -147.07      
7.62         0.68252     -130.34       0.55304     -35.85        0.10198      66.047       0.88363     -147.27      
7.63         0.68264     -130.53       0.55045     -36.035       0.10241      66.472       0.88368     -147.48      
7.64         0.68236     -130.71       0.54761     -36.199       0.103        66.866       0.88349     -147.71      
7.65         0.68224     -130.9        0.54489     -36.373       0.10359      67.263       0.88353     -147.95      
7.66         0.68229     -131.09       0.54228     -36.557       0.10419      67.663       0.88381     -148.18      
7.67         0.6825      -131.28       0.5398      -36.751       0.10479      68.067       0.88432     -148.41      
7.68         0.68289     -131.47       0.53744     -36.954       0.1054       68.474       0.88506     -148.65      
7.69         0.68259     -131.66       0.53475     -37.122       0.10611      68.721       0.88497     -148.87      
7.7          0.68198     -131.85       0.5319      -37.274       0.10688      68.882       0.88449     -149.09      
7.71         0.68153     -132.05       0.52917     -37.437       0.10766      69.049       0.88423     -149.31      
7.72         0.68125     -132.25       0.52654     -37.609       0.10846      69.223       0.8842      -149.53      
7.73         0.68114     -132.45       0.52403     -37.791       0.10927      69.404       0.8844      -149.75      
7.74         0.68119     -132.65       0.52163     -37.983       0.11009      69.591       0.88482     -149.98      
7.75         0.68069     -132.81       0.51922     -38.125       0.11074      69.613       0.8846      -150.18      
7.76         0.67993     -132.94       0.51684     -38.242       0.11131      69.547       0.88411     -150.36      
7.77         0.67931     -133.08       0.51456     -38.368       0.11189      69.488       0.88382     -150.55      
7.78         0.67884     -133.23       0.51238     -38.502       0.1125       69.435       0.88375     -150.74      
7.79         0.67852     -133.37       0.5103      -38.644       0.11313      69.389       0.88389     -150.93      
7.8          0.67835     -133.52       0.50832     -38.794       0.11378      69.349       0.88423     -151.12      
7.81         0.67808     -133.64       0.50625     -38.94        0.11411      69.314       0.88394     -151.32      
7.82         0.67782     -133.75       0.50416     -39.087       0.11427      69.279       0.88338     -151.51      
7.83         0.67769     -133.86       0.50217     -39.243       0.11445      69.246       0.88304     -151.71      
7.84         0.67771     -133.97       0.5003      -39.406       0.11465      69.213       0.88292     -151.91      
7.85         0.67785     -134.09       0.49852     -39.576       0.11486      69.182       0.88301     -152.11      
7.86         0.67814     -134.2        0.49686     -39.754       0.1151       69.153       0.88332     -152.32      
7.87         0.67814     -134.33       0.49472     -39.921       0.11521      69.211       0.88317     -152.52      
7.88         0.67805     -134.46       0.49237     -40.089       0.11525      69.314       0.88289     -152.73      
7.89         0.67811     -134.6        0.49012     -40.265       0.11531      69.417       0.88282     -152.95      
7.9          0.67831     -134.73       0.48798     -40.451       0.11538      69.52        0.88298     -153.16      
7.91         0.67866     -134.87       0.48595     -40.645       0.11546      69.623       0.88336     -153.37      
7.92         0.67916     -135.01       0.48403     -40.848       0.11556      69.726       0.88396     -153.59      
7.93         0.67921     -135.14       0.48183     -41.014       0.11574      69.836       0.88394     -153.78      
7.94         0.67909     -135.27       0.47953     -41.167       0.11597      69.949       0.8837      -153.97      
7.95         0.67912     -135.4        0.47733     -41.328       0.11622      70.064       0.88366     -154.15      
7.96         0.67929     -135.54       0.47523     -41.498       0.11648      70.18        0.88383     -154.34      
7.97         0.67961     -135.67       0.47323     -41.677       0.11675      70.299       0.88421     -154.53      
7.98         0.68007     -135.81       0.47134     -41.864       0.11704      70.419       0.8848      -154.71      
7.99         0.6802      -135.92       0.46926     -42.036       0.11722      70.499       0.88461     -154.91      
8            0.68022     -136.04       0.46713     -42.204       0.11734      70.557       0.88413     -155.12      
8.01         0.68038     -136.15       0.46511     -42.38        0.11749      70.616       0.88387     -155.32      
8.02         0.68068     -136.26       0.46318     -42.565       0.11764      70.676       0.88382     -155.53      
8.03         0.68112     -136.37       0.46136     -42.759       0.11781      70.736       0.884       -155.74      
8.04         0.6817      -136.48       0.45965     -42.96        0.118        70.798       0.88439     -155.95      
8.05         0.6822      -136.61       0.45757     -43.148       0.1181       70.938       0.88424     -156.16      
8.06         0.68275     -136.75       0.45538     -43.336       0.11816      71.117       0.88393     -156.37      
8.07         0.68344     -136.88       0.45328     -43.533       0.11823      71.296       0.88384     -156.59      
8.08         0.68428     -137.02       0.45128     -43.739       0.11832      71.476       0.88397     -156.8       
8.09         0.68526     -137.15       0.44939     -43.954       0.11841      71.655       0.88432     -157.02      
8.1          0.6864      -137.29       0.44761     -44.178       0.11851      71.834       0.8849      -157.23      
8.11         0.68714     -137.45       0.44544     -44.372       0.11871      72.051       0.88483     -157.44      
8.12         0.68777     -137.62       0.44313     -44.557       0.11896      72.285       0.88456     -157.64      
8.13         0.68856     -137.79       0.44091     -44.752       0.11922      72.522       0.88451     -157.84      
8.14         0.68951     -137.96       0.4388      -44.957       0.11949      72.759       0.88467     -158.04      
8.15         0.69063     -138.13       0.43678     -45.171       0.11977      72.998       0.88505     -158.24      
8.16         0.69191     -138.3        0.43487     -45.395       0.12006      73.239       0.88564     -158.45      
8.17         0.69256     -138.47       0.43266     -45.589       0.12042      73.447       0.88545     -158.66      
8.18         0.69301     -138.65       0.43036     -45.773       0.12081      73.642       0.885       -158.87      
8.19         0.69363     -138.83       0.42815     -45.968       0.12121      73.839       0.88477     -159.09      
8.2          0.6944      -139          0.42604     -46.173       0.12163      74.039       0.88477     -159.31      
8.21         0.69535     -139.18       0.42402     -46.388       0.12205      74.241       0.88498     -159.52      
8.22         0.69645     -139.35       0.4221      -46.612       0.12248      74.445       0.88542     -159.74      
8.23         0.69698     -139.53       0.41983     -46.82        0.12289      74.62        0.88516     -159.98      
8.24         0.69732     -139.71       0.41745     -47.026       0.12329      74.783       0.8847      -160.22      
8.25         0.69784     -139.89       0.41516     -47.243       0.12369      74.948       0.88448     -160.47      
8.26         0.69852     -140.07       0.41297     -47.47        0.12411      75.116       0.88449     -160.72      
8.27         0.69936     -140.25       0.41087     -47.708       0.12455      75.286       0.88473     -160.96      
8.28         0.70038     -140.43       0.40888     -47.957       0.12499      75.459       0.88521     -161.21      
8.29         0.7009      -140.63       0.40657     -48.149       0.12551      75.638       0.8852      -161.43      
8.3          0.70129     -140.83       0.40416     -48.321       0.12608      75.82        0.88509     -161.64      
8.31         0.70186     -141.03       0.40183     -48.504       0.12666      76.007       0.88519     -161.85      
8.32         0.7026      -141.22       0.39959     -48.698       0.12725      76.197       0.8855      -162.06      
8.33         0.70352     -141.42       0.39743     -48.902       0.12785      76.39        0.88604     -162.27      
8.34         0.70461     -141.62       0.39536     -49.117       0.12847      76.587       0.8868      -162.48      
8.35         0.70503     -141.82       0.39295     -49.302       0.12907      76.735       0.88656     -162.69      
8.36         0.70526     -142.02       0.39042     -49.482       0.12967      76.864       0.886       -162.9       
8.37         0.70566     -142.23       0.38797     -49.674       0.13028      76.997       0.88566     -163.12      
8.38         0.70624     -142.43       0.38561     -49.877       0.13091      77.133       0.88554     -163.33      
8.39         0.707       -142.63       0.38333     -50.091       0.13155      77.274       0.88564     -163.55      
8.4          0.70793     -142.84       0.38114     -50.317       0.1322       77.419       0.88596     -163.76      
8.41         0.70821     -143.04       0.37873     -50.501       0.13284      77.533       0.88558     -163.99      
8.42         0.70831     -143.24       0.37626     -50.675       0.13349      77.638       0.88502     -164.22      
8.43         0.70857     -143.44       0.37386     -50.859       0.13415      77.747       0.8847      -164.45      
8.44         0.70902     -143.65       0.37155     -51.056       0.13483      77.86        0.8846      -164.68      
8.45         0.70964     -143.85       0.36932     -51.263       0.13552      77.977       0.88472     -164.91      
8.46         0.71044     -144.05       0.36716     -51.483       0.13623      78.099       0.88507     -165.15      
8.47         0.71065     -144.27       0.36479     -51.656       0.13692      78.168       0.88477     -165.37      
8.48         0.71073     -144.49       0.36236     -51.818       0.13761      78.218       0.88432     -165.59      
8.49         0.71099     -144.72       0.36001     -51.991       0.13832      78.273       0.88409     -165.81      
8.5          0.71144     -144.94       0.35773     -52.175       0.13905      78.332       0.88408     -166.03      
8.51         0.71207     -145.17       0.35552     -52.371       0.1398       78.397       0.88429     -166.26      
8.52         0.71288     -145.39       0.35339     -52.578       0.14056      78.467       0.88472     -166.48      
8.53         0.71305     -145.6        0.35098     -52.743       0.14127      78.508       0.88443     -166.7       
8.54         0.71306     -145.8        0.3485      -52.897       0.14197      78.539       0.88398     -166.91      
8.55         0.71325     -146          0.34609     -53.063       0.1427       78.576       0.88374     -167.12      
8.56         0.71361     -146.21       0.34374     -53.242       0.14344      78.617       0.88372     -167.34      
8.57         0.71414     -146.41       0.34147     -53.432       0.1442       78.664       0.88392     -167.56      
8.58         0.71486     -146.61       0.33927     -53.634       0.14498      78.716       0.88434     -167.77      
8.59         0.71495     -146.81       0.33689     -53.785       0.14569      78.703       0.88392     -168         
8.6          0.71489     -147.01       0.33448     -53.923       0.14638      78.668       0.8833      -168.23      
8.61         0.71502     -147.21       0.33213     -54.073       0.14711      78.638       0.8829      -168.47      
8.62         0.71531     -147.4        0.32985     -54.235       0.14785      78.613       0.88273     -168.7       
8.63         0.71578     -147.6        0.32763     -54.408       0.14862      78.594       0.88279     -168.94      
8.64         0.71643     -147.8        0.32547     -54.593       0.14941      78.58        0.88307     -169.17      
8.65         0.71635     -148.01       0.32312     -54.728       0.15009      78.55        0.88261     -169.39      
8.66         0.71611     -148.21       0.32073     -54.85        0.15076      78.516       0.88199     -169.61      
8.67         0.71604     -148.42       0.31839     -54.985       0.15144      78.487       0.88159     -169.82      
8.68         0.71615     -148.63       0.31611     -55.131       0.15215      78.463       0.88141     -170.04      
8.69         0.71644     -148.84       0.3139      -55.289       0.15289      78.444       0.88144     -170.26      
8.7          0.7169      -149.05       0.31174     -55.459       0.15364      78.43        0.8817      -170.47      
8.71         0.71674     -149.25       0.30949     -55.586       0.15424      78.374       0.88139     -170.67      
8.72         0.71645     -149.45       0.30722     -55.702       0.1548       78.305       0.88099     -170.87      
8.73         0.71633     -149.64       0.30501     -55.83        0.15539      78.239       0.8808      -171.07      
8.74         0.71639     -149.84       0.30286     -55.97        0.156        78.178       0.88081     -171.26      
8.75         0.71662     -150.04       0.30076     -56.121       0.15664      78.121       0.88104     -171.46      
8.76         0.71702     -150.24       0.29873     -56.284       0.15731      78.069       0.88147     -171.66      
8.77         0.71704     -150.43       0.29656     -56.415       0.15786      78.025       0.88105     -171.85      
8.78         0.71703     -150.63       0.29439     -56.54        0.1584       77.986       0.88043     -172.04      
8.79         0.71719     -150.82       0.29227     -56.678       0.15895      77.951       0.88002     -172.23      
8.8          0.71752     -151.01       0.29021     -56.827       0.15953      77.92        0.87982     -172.43      
8.81         0.71803     -151.21       0.2882      -56.988       0.16014      77.893       0.87982     -172.62      
8.82         0.71871     -151.4        0.28625     -57.16        0.16077      77.87        0.88002     -172.82      
8.83         0.71886     -151.58       0.2841      -57.292       0.16125      77.846       0.87954     -173.02      
8.84         0.71891     -151.76       0.28191     -57.416       0.1617       77.823       0.87894     -173.23      
8.85         0.71914     -151.93       0.27977     -57.553       0.16216      77.804       0.87855     -173.44      
8.86         0.71953     -152.1        0.27768     -57.702       0.16265      77.787       0.87837     -173.65      
8.87         0.72009     -152.28       0.27565     -57.863       0.16317      77.773       0.87841     -173.86      
8.88         0.72081     -152.45       0.27367     -58.037       0.1637       77.762       0.87866     -174.07      
8.89         0.72086     -152.63       0.27145     -58.162       0.16426      77.737       0.87827     -174.27      
8.9          0.72077     -152.82       0.26917     -58.279       0.16483      77.708       0.87779     -174.47      
8.91         0.72085     -153.01       0.26694     -58.409       0.16543      77.684       0.87752     -174.68      
8.92         0.72111     -153.2        0.26476     -58.552       0.16605      77.664       0.87746     -174.88      
8.93         0.72153     -153.38       0.26263     -58.708       0.1667       77.647       0.87761     -175.08      
8.94         0.72213     -153.57       0.26055     -58.877       0.16737      77.635       0.87796     -175.29      
8.95         0.7222      -153.76       0.2584      -58.998       0.16799      77.6         0.87761     -175.48      
8.96         0.72219     -153.95       0.25624     -59.111       0.16859      77.56        0.87715     -175.67      
8.97         0.72236     -154.14       0.25413     -59.236       0.16923      77.524       0.8769      -175.87      
8.98         0.7227      -154.34       0.25207     -59.374       0.16989      77.492       0.87685     -176.06      
8.99         0.72322     -154.53       0.25006     -59.526       0.17057      77.464       0.877       -176.26      
9            0.7239      -154.72       0.2481      -59.69        0.17128      77.441       0.87736     -176.45      
9.01         0.72394     -154.91       0.24595     -59.8         0.17187      77.395       0.87684     -176.65      
9.02         0.72388     -155.1        0.24377     -59.9         0.17244      77.344       0.87618     -176.86      
9.03         0.72399     -155.29       0.24164     -60.014       0.17303      77.297       0.87573     -177.07      
9.04         0.72427     -155.47       0.23954     -60.141       0.17365      77.254       0.87549     -177.29      
9.05         0.72473     -155.66       0.2375      -60.282       0.1743       77.215       0.87547     -177.5       
9.06         0.72535     -155.85       0.23549     -60.436       0.17497      77.179       0.87565     -177.71      
9.07         0.72532     -156.04       0.23338     -60.524       0.17552      77.125       0.8751      -177.92      
9.08         0.7252      -156.23       0.23125     -60.598       0.17605      77.066       0.87445     -178.12      
9.09         0.72525     -156.42       0.22917     -60.686       0.1766       77.01        0.87401     -178.33      
9.1          0.72547     -156.62       0.22712     -60.787       0.17719      76.959       0.87378     -178.54      
9.11         0.72586     -156.81       0.22511     -60.901       0.1778       76.91        0.87376     -178.75      
9.12         0.72643     -157          0.22314     -61.028       0.17843      76.866       0.87396     -178.96      
9.13         0.72646     -157.18       0.22105     -61.111       0.17895      76.806       0.87352     -179.15      
9.14         0.72644     -157.37       0.21895     -61.19        0.17945      76.744       0.87303     -179.34      
9.15         0.72658     -157.55       0.21689     -61.282       0.17998      76.685       0.87273     -179.52      
9.16         0.7269      -157.73       0.21486     -61.388       0.18054      76.629       0.87263     -179.71      
9.17         0.72739     -157.91       0.21288     -61.507       0.18112      76.576       0.87273     -179.89      
9.18         0.72804     -158.1        0.21093     -61.641       0.18174      76.527       0.87303      179.92      
9.19         0.72806     -158.28       0.20887     -61.716       0.18229      76.468       0.8726       179.73      
9.2          0.72799     -158.46       0.20679     -61.781       0.18286      76.409       0.87209      179.54      
9.21         0.7281      -158.65       0.20475     -61.86        0.18345      76.353       0.87177      179.35      
9.22         0.72838     -158.83       0.20275     -61.953       0.18407      76.301       0.87166      179.16      
9.23         0.72883     -159.02       0.20078     -62.061       0.18471      76.253       0.87175      178.97      
9.24         0.72945     -159.2        0.19884     -62.183       0.18539      76.208       0.87204      178.77      
9.25         0.72942     -159.38       0.19678     -62.225       0.18593      76.152       0.87162      178.6       
9.26         0.72932     -159.56       0.1947      -62.252       0.18644      76.094       0.87113      178.43      
9.27         0.72939     -159.73       0.19265     -62.293       0.18698      76.04        0.87082      178.26      
9.28         0.72963     -159.91       0.19063     -62.349       0.18755      75.988       0.87071      178.09      
9.29         0.73004     -160.08       0.18864     -62.419       0.18816      75.941       0.87079      177.92      
9.3          0.73061     -160.26       0.18668     -62.504       0.18879      75.896       0.87106      177.75      
9.31         0.73043     -160.43       0.18467     -62.515       0.18931      75.826       0.87054      177.59      
9.32         0.73016     -160.6        0.18265     -62.515       0.18983      75.749       0.86992      177.42      
9.33         0.73005     -160.77       0.18065     -62.528       0.19038      75.676       0.86949      177.25      
9.34         0.73011     -160.93       0.17869     -62.556       0.19096      75.607       0.86926      177.08      
9.35         0.73033     -161.1        0.17675     -62.598       0.19157      75.541       0.86921      176.92      
9.36         0.73072     -161.27       0.17484     -62.655       0.19221      75.479       0.86936      176.75      
9.37         0.73069     -161.44       0.17295     -62.653       0.19274      75.402       0.86876      176.57      
9.38         0.73066     -161.61       0.17109     -62.643       0.19325      75.323       0.86809      176.39      
9.39         0.73079     -161.77       0.16925     -62.647       0.1938       75.247       0.86761      176.2       
9.4          0.73109     -161.94       0.16744     -62.665       0.19438      75.175       0.86734      176.02      
9.41         0.73155     -162.11       0.16565     -62.696       0.19499      75.106       0.86726      175.83      
9.42         0.73218     -162.27       0.16389     -62.742       0.19563      75.041       0.86738      175.65      
9.43         0.73205     -162.43       0.16208     -62.727       0.1961       74.97        0.86693      175.47      
9.44         0.73183     -162.59       0.16027     -62.705       0.19656      74.898       0.86647      175.3       
9.45         0.73177     -162.75       0.15848     -62.697       0.19704      74.828       0.8662       175.12      
9.46         0.73188     -162.91       0.15671     -62.703       0.19755      74.762       0.86612      174.94      
9.47         0.73215     -163.07       0.15497     -62.723       0.1981       74.699       0.86624      174.77      
9.48         0.73257     -163.23       0.15325     -62.757       0.19867      74.639       0.86655      174.59      
9.49         0.73252     -163.39       0.15139     -62.72        0.19919      74.579       0.86622      174.44      
9.5          0.73245     -163.55       0.14951     -62.675       0.19971      74.52        0.86586      174.3       
9.51         0.73255     -163.71       0.14765     -62.644       0.20026      74.464       0.86569      174.15      
9.52         0.73281     -163.87       0.14581     -62.628       0.20084      74.411       0.86569      174.01      
9.53         0.73323     -164.03       0.14399     -62.628       0.20145      74.362       0.86587      173.86      
9.54         0.73382     -164.19       0.14219     -62.644       0.2021       74.317       0.86623      173.72      
9.55         0.73363     -164.34       0.14038     -62.562       0.20261      74.242       0.86564      173.57      
9.56         0.73336     -164.5        0.13858     -62.464       0.2031       74.161       0.86495      173.41      
9.57         0.73326     -164.66       0.13679     -62.381       0.20364      74.084       0.86444      173.25      
9.58         0.73332     -164.82       0.13502     -62.311       0.2042       74.01        0.86413      173.09      
9.59         0.73353     -164.97       0.13327     -62.256       0.2048       73.94        0.86399      172.93      
9.6          0.73391     -165.13       0.13153     -62.217       0.20543      73.873       0.86405      172.77      
9.61         0.73368     -165.28       0.12976     -62.09        0.20594      73.788       0.86343      172.59      
9.62         0.73341     -165.44       0.12799     -61.952       0.20645      73.701       0.86281      172.4       
9.63         0.73331     -165.59       0.12623     -61.827       0.20699      73.617       0.86237      172.22      
9.64         0.73336     -165.74       0.12448     -61.717       0.20757      73.536       0.86214      172.03      
9.65         0.73357     -165.9        0.12275     -61.621       0.20818      73.46        0.8621       171.84      
9.66         0.73394     -166.05       0.12104     -61.54        0.20883      73.387       0.86226      171.66      
9.67         0.73366     -166.21       0.11935     -61.351       0.20929      73.3         0.86175      171.5       
9.68         0.73334     -166.37       0.11767     -61.146       0.20974      73.211       0.86121      171.36      
9.69         0.73318     -166.53       0.11601     -60.952       0.21023      73.126       0.86085      171.21      
9.7          0.73318     -166.69       0.11435     -60.772       0.21075      73.044       0.86068      171.06      
9.71         0.73335     -166.85       0.11271     -60.604       0.2113       72.965       0.86068      170.91      
9.72         0.73368     -167.02       0.11108     -60.451       0.21189      72.889       0.86086      170.77      
9.73         0.73353     -167.15       0.10953     -60.219       0.21232      72.806       0.86039      170.64      
9.74         0.73338     -167.27       0.108       -59.978       0.21273      72.723       0.8599       170.51      
9.75         0.73338     -167.4        0.10649     -59.748       0.21318      72.643       0.85958      170.39      
9.76         0.73353     -167.53       0.10498     -59.53        0.21367      72.565       0.85943      170.26      
9.77         0.73382     -167.65       0.10348     -59.324       0.21419      72.491       0.85945      170.14      
9.78         0.73427     -167.78       0.102       -59.131       0.21475      72.419       0.85965      170.01      
9.79         0.73411     -167.92       0.1005      -58.876       0.21516      72.351       0.85909      169.88      
9.8          0.73394     -168.08       0.099009    -58.615       0.21557      72.285       0.85851      169.75      
9.81         0.73392     -168.23       0.097526    -58.366       0.21602      72.222       0.8581       169.62      
9.82         0.73407     -168.38       0.096051    -58.129       0.2165       72.161       0.85786      169.48      
9.83         0.73437     -168.54       0.094584    -57.905       0.21701      72.104       0.8578       169.35      
9.84         0.73483     -168.69       0.093127    -57.694       0.21755      72.049       0.8579       169.22      
9.85         0.73459     -168.81       0.091618    -57.329       0.21799      71.997       0.85744      169.08      
9.86         0.73433     -168.94       0.090103    -56.936       0.21844      71.947       0.857        168.93      
9.87         0.73421     -169.06       0.088593    -56.552       0.21892      71.9         0.85673      168.79      
9.88         0.73424     -169.19       0.087089    -56.177       0.21943      71.856       0.85665      168.65      
9.89         0.73442     -169.31       0.085591    -55.812       0.21997      71.814       0.85673      168.5       
9.9          0.73475     -169.43       0.084099    -55.457       0.22055      71.776       0.857        168.36      
9.91         0.7346      -169.56       0.082687    -54.988       0.22104      71.713       0.85676      168.23      
9.92         0.73446     -169.69       0.081295    -54.499       0.22155      71.648       0.85655      168.11      
9.93         0.73447     -169.82       0.079907    -54.016       0.22208      71.585       0.85652      167.98      
9.94         0.73464     -169.94       0.078524    -53.539       0.22266      71.526       0.85665      167.86      
9.95         0.73495     -170.07       0.077145    -53.068       0.22326      71.47        0.85695      167.74      
9.96         0.73541     -170.2        0.07577     -52.604       0.2239       71.417       0.85741      167.61      
9.97         0.73509     -170.32       0.074455    -51.957       0.2244       71.351       0.85669      167.52      
9.98         0.73474     -170.45       0.073154    -51.271       0.22489      71.284       0.85585      167.43      
9.99         0.73453     -170.58       0.071858    -50.585       0.22542      71.221       0.85516      167.34      
10           0.73448     -170.7        0.070565    -49.899       0.22598      71.161       0.85463      167.25      
10.01        0.73457     -170.83       0.069275    -49.212       0.22658      71.104       0.85426      167.16      
! 
!
!
!Noise Parameters
! Measured BGM7Mxxx4L12 device level noise-parameters
!Freq  NFmin(dB)  Mag(GammaOpt)  Ang(GammaOpt)(deg)  rn(normalized by ref. impedance)
1.8          0.69616      0.42122      60.879       0.1711      
1.85         0.67832      0.41454      61.692       0.15583     
1.9          0.67587      0.42613      63.789       0.1539      
1.95         0.67613      0.41405      65.147       0.15693     
2            0.6697       0.39893      65.887       0.15209     
2.05         0.65169      0.45379      66.789       0.14202     
2.1          0.68279      0.42376      69.206       0.14106     
2.2          0.71166      0.41161      71.137       0.14729     
2.35         0.74882      0.4149       76.255       0.13738     
2.5          0.78329      0.3814       81.772       0.13663     
2.65         0.83056      0.36044      84.845       0.13898  
