! (c) 2014 Infineon Technologies AG
!
! BGM7xMxx4L12 - Silicon Germanium Quad-Band LTE LNA bank
!
! 20 May 2014
!
! Special Application Board
! C1 = L1 = 0 Ohm
! C2 = 100 nF
! Vcc = 1.8V
!
! RF input and output lines de-embedded
! Port 1 reference plane: LNA input AI (pin 9)
! Port 2 reference plane: LNA output AO (pin 6)
!
! Network Data:
! Measured BGM7xMxx4L12 device level s-parameters
# GHz S MA R 50
!-----------------------------------------------------------------------------
!Freq         MagS11       AngS11       MagS21       AngS21       MagS12       AngS12       MagS22       AngS22
0.01         0.94974     -0.23514      0.0066575   -88.226       0.0029404   -60.62        0.99859     -0.73864     
0.02         0.94873     -0.79291      0.013907    -84.477       0.0024178   -59.149       0.99717     -1.4578      
0.03         0.9482      -1.3531       0.021171    -82.797       0.0018958   -57.271       0.99638     -2.1805      
0.04         0.94816     -1.9143       0.02844     -81.602       0.0013751   -54.523       0.99624     -2.9049      
0.05         0.9486      -2.4753       0.035712    -80.597       0.00085792  -49.327       0.99674     -3.6292      
0.06         0.94951     -3.0348       0.042988    -79.684       0.00036104  -31.341       0.99789     -4.3515      
0.07         0.95089     -3.5913       0.050279    -78.821       0.00027044   80.007       0.99965     -5.07        
0.08         0.9494      -4.096        0.059768    -77.559       0.00024603   89.168       0.99817     -5.7876      
0.09         0.94834     -4.6044       0.069265    -76.443       0.00022803   99.916       0.99733     -6.5091      
0.1          0.94773     -5.1154       0.07877     -75.419       0.00021802   111.97       0.99712     -7.2326      
0.11         0.94757     -5.6277       0.088282    -74.459       0.00021712   124.61       0.99756     -7.9563      
0.12         0.94784     -6.1404       0.097802    -73.544       0.00022547   136.86       0.99864     -8.6784      
0.13         0.94854     -6.6521       0.10736     -72.669       0.00024209   147.87       1.0003      -9.3972      
0.14         0.94718     -7.1647       0.12037     -72.45        0.00026107   153.97       0.99867     -10.134      
0.15         0.94627     -7.6807       0.1334      -72.132       0.00028205   159.31       0.99768     -10.876      
0.16         0.9458      -8.1991       0.14644     -71.741       0.00030462   164          0.99734     -11.62       
0.17         0.94578     -8.7185       0.15949     -71.296       0.00032846   168.12       0.99766     -12.365      
0.18         0.9462      -9.238        0.17256     -70.808       0.00035331   171.78       0.99864     -13.109      
0.19         0.94704     -9.7561       0.18571     -70.303       0.00037908   175.11       1.0002      -13.85       
0.2          0.94564     -10.269       0.20324     -70.768       0.00041331  -178.25       0.99824     -14.584      
0.21         0.94468     -10.785       0.22086     -71.044       0.00045128  -172.56       0.99691     -15.323      
0.22         0.94417     -11.304       0.23856     -71.173       0.00049216  -167.66       0.99624     -16.067      
0.23         0.9441      -11.824       0.25632     -71.184       0.00053528  -163.41       0.99622     -16.812      
0.24         0.94449     -12.344       0.27414     -71.101       0.00058017  -159.7        0.99686     -17.557      
0.25         0.94526     -12.864       0.29212     -70.97        0.00062649  -156.53       0.99807     -18.3        
0.26         0.94357     -13.411       0.31603     -72.133       0.0006761   -158.94       0.99594     -19.023      
0.27         0.94235     -13.963       0.34027     -73.031       0.00072751  -160.92       0.99444     -19.752      
0.28         0.9416      -14.519       0.36476     -73.714       0.00078038  -162.55       0.99359     -20.486      
0.29         0.94133     -15.077       0.38948     -74.221       0.00083446  -163.87       0.99337     -21.222      
0.3          0.94152     -15.635       0.41439     -74.582       0.00088954  -164.94       0.99381     -21.958      
0.31         0.94211     -16.195       0.43965     -74.879       0.00094888  -165.73       0.99477     -22.694      
0.32         0.9401      -16.838       0.47283     -77.159       0.0011421   -163.5        0.99207     -23.442      
0.33         0.93862     -17.487       0.50718     -79.043       0.0013361   -161.71       0.99001     -24.199      
0.34         0.93767     -18.14        0.54249     -80.595       0.0015307   -160.19       0.98862     -24.961      
0.35         0.93728     -18.796       0.57859     -81.87        0.0017258   -158.86       0.98789     -25.729      
0.36         0.93742     -19.453       0.61537     -82.911       0.0019213   -157.65       0.98782     -26.498      
0.37         0.93787     -20.114       0.6524      -83.888       0.0021176   -156.74       0.98827     -27.265      
0.38         0.93119     -20.921       0.683       -88.8         0.0023421   -162.15       0.98441     -27.95       
0.39         0.92517     -21.75        0.71963     -93.192       0.0025888   -166.44       0.98114     -28.647      
0.4          0.91982     -22.6         0.76145     -97.063       0.0028522   -169.85       0.97847     -29.353      
0.41         0.91518     -23.467       0.80769     -100.44       0.0031281   -172.55       0.97641     -30.067      
0.42         0.91123     -24.351       0.85766     -103.36       0.0034137   -174.69       0.97495     -30.787      
0.43         0.90766     -25.219       0.90695     -105.92       0.0036902   -176.51       0.97407     -31.506      
0.44         0.89513     -25.303       0.85451     -109.59       0.0035295    178.28       0.97266     -32.065      
0.45         0.88278     -25.41        0.80767     -113.81       0.0034096    172.57       0.97173     -32.627      
0.46         0.8706      -25.54        0.76747     -118.6        0.0033352    166.49       0.97129     -33.192      
0.47         0.85862     -25.695       0.73502     -123.94       0.0033094    160.18       0.97133     -33.759      
0.48         0.84683     -25.874       0.71143     -129.76       0.0033334    153.87       0.97186     -34.327      
0.49         0.83572     -26.069       0.6965      -135.6        0.0033972    148.03       0.97281     -34.9        
0.5          0.83599     -26.059       0.65997     -133.28       0.0032597    149.02       0.9726      -35.652      
0.51         0.83639     -26.048       0.624       -130.77       0.0031221    150.04       0.97303     -36.405      
0.52         0.83692     -26.038       0.58867     -128.04       0.0029845    151.09       0.97409     -37.156      
0.53         0.83758     -26.026       0.55414     -125.05       0.0028469    152.17       0.9758      -37.905      
0.54         0.83837     -26.014       0.52057     -121.76       0.0027093    153.29       0.97813     -38.65       
0.55         0.83926     -26.016       0.49039     -118.15       0.0025776    154.61       0.98086     -39.39       
0.56         0.83973     -26.361       0.50846     -115.19       0.0025773    159.22       0.97903     -40.175      
0.57         0.84049     -26.706       0.5273      -112.39       0.002589     163.82       0.97786     -40.966      
0.58         0.84154     -27.048       0.54683     -109.73       0.0026126    168.37       0.97737     -41.762      
0.59         0.84287     -27.389       0.567       -107.2        0.0026479    172.85       0.97754     -42.559      
0.6          0.8445      -27.726       0.58774     -104.8        0.0026944    177.21       0.9784      -43.356      
0.61         0.84625     -28.064       0.60937     -102.61       0.0027566   -178.68       0.97969     -44.149      
0.62         0.84527     -28.481       0.63839     -102.22       0.0029174   -176.93       0.9772      -44.906      
0.63         0.84462     -28.902       0.66746     -101.8        0.0030794   -175.29       0.97534     -45.672      
0.64         0.8443      -29.324       0.6966      -101.36       0.0032423   -173.75       0.97412     -46.443      
0.65         0.84431     -29.748       0.72581     -100.91       0.0034062   -172.28       0.97355     -47.219      
0.66         0.84465     -30.172       0.75507     -100.43       0.0035709   -170.89       0.97363     -47.996      
0.67         0.84519     -30.596       0.78435     -99.995       0.0037419   -169.59       0.97413     -48.774      
0.68         0.84365     -31.028       0.81307     -100.48       0.0040076   -168.92       0.97132     -49.562      
0.69         0.84245     -31.464       0.84216     -100.89       0.0042737   -168.24       0.96917     -50.359      
0.7          0.84158     -31.904       0.87159     -101.23       0.0045402   -167.56       0.96768     -51.164      
0.71         0.84106     -32.347       0.90132     -101.5        0.0048072   -166.88       0.96685     -51.973      
0.72         0.84088     -32.791       0.93135     -101.71       0.0050745   -166.2        0.9667      -52.785      
0.73         0.8409      -33.235       0.96151     -101.91       0.005343    -165.55       0.96697     -53.596      
0.74         0.8391      -33.668       0.99004     -102.66       0.0056228   -165.23       0.964       -54.388      
0.75         0.83764     -34.106       1.0192      -103.33       0.0059033   -164.88       0.96168     -55.189      
0.76         0.83651     -34.548       1.049       -103.93       0.0061844   -164.5        0.96002     -55.998      
0.77         0.83572     -34.994       1.0793      -104.46       0.006466    -164.1        0.95901     -56.812      
0.78         0.83528     -35.442       1.1101      -104.92       0.0067482   -163.67       0.95868     -57.629      
0.79         0.83503     -35.891       1.1411      -105.36       0.0070328   -163.3        0.95875     -58.446      
0.8          0.83308     -36.323       1.1696      -106.2        0.0073443   -163.93       0.95567     -59.225      
0.81         0.83146     -36.76        1.1988      -106.97       0.0076598   -164.46       0.95322     -60.014      
0.82         0.83017     -37.202       1.2289      -107.68       0.0079789   -164.89       0.95141     -60.81       
0.83         0.82921     -37.648       1.2596      -108.32       0.0083012   -165.24       0.95024     -61.613      
0.84         0.8286      -38.097       1.2911      -108.9        0.0086264   -165.51       0.94972     -62.419      
0.85         0.82815     -38.547       1.3228      -109.45       0.0089565   -165.75       0.94955     -63.227      
0.86         0.82586     -38.989       1.3498      -110.37       0.0093196   -166.32       0.94606     -64.031      
0.87         0.82389     -39.438       1.3779      -111.22       0.0096872   -166.79       0.94321     -64.847      
0.88         0.82226     -39.892       1.407       -112.02       0.010059    -167.19       0.94101     -65.671      
0.89         0.82097     -40.351       1.437       -112.76       0.010434    -167.51       0.93947     -66.503      
0.9          0.82001     -40.814       1.4679      -113.44       0.010813    -167.76       0.93859     -67.339      
0.91         0.81927     -41.278       1.4991      -114.09       0.011197    -167.98       0.93805     -68.175      
0.92         0.81728     -41.729       1.5258      -115.01       0.011613    -168.58       0.93417     -68.975      
0.93         0.81563     -42.186       1.5537      -115.88       0.012035    -169.09       0.93092     -69.787      
0.94         0.81431     -42.647       1.5827      -116.7        0.012462    -169.53       0.9283      -70.61       
0.95         0.81332     -43.113       1.6128      -117.46       0.012893    -169.89       0.92633     -71.441      
0.96         0.81268     -43.581       1.6438      -118.17       0.013329    -170.18       0.925       -72.278      
0.97         0.81218     -44.048       1.6754      -118.86       0.013771    -170.44       0.92401     -73.116      
0.98         0.80982     -44.479       1.7023      -119.78       0.014228    -170.89       0.92002     -73.925      
0.99         0.80779     -44.916       1.7305      -120.65       0.014692    -171.28       0.91665     -74.747      
1            0.80607     -45.359       1.76        -121.48       0.01516     -171.6        0.91391     -75.58       
1.01         0.80467     -45.806       1.7906      -122.25       0.015633    -171.86       0.91182     -76.421      
1.02         0.8036      -46.258       1.8224      -122.98       0.01611     -172.07       0.91036     -77.269      
1.03         0.80267     -46.712       1.8546      -123.69       0.01659     -172.28       0.90919     -78.119      
1.04         0.80022     -47.157       1.8814      -124.66       0.017062    -173.01       0.90476     -78.948      
1.05         0.79808     -47.609       1.9098      -125.59       0.017544    -173.67       0.90096     -79.791      
1.06         0.79627     -48.067       1.9396      -126.47       0.018036    -174.25       0.89779     -80.646      
1.07         0.79478     -48.53        1.9707      -127.3        0.018536    -174.77       0.89527     -81.512      
1.08         0.79361     -48.997       2.0033      -128.09       0.019043    -175.23       0.8934      -82.386      
1.09         0.79261     -49.468       2.0361      -128.85       0.01956     -175.67       0.89178     -83.26       
1.1          0.7902      -49.942       2.0609      -129.8        0.020108    -176.34       0.88676     -84.094      
1.11         0.78812     -50.423       2.0873      -130.7        0.020666    -176.95       0.88236     -84.944      
1.12         0.78638     -50.91        2.1152      -131.57       0.021235    -177.48       0.87859     -85.808      
1.13         0.78497     -51.402       2.1446      -132.4        0.021812    -177.96       0.87546     -86.685      
1.14         0.7839      -51.898       2.1755      -133.19       0.022398    -178.38       0.87297     -87.572      
1.15         0.78296     -52.393       2.2068      -133.96       0.02299     -178.79       0.87075     -88.461      
1.16         0.78038     -52.851       2.232       -134.92       0.023583    -179.51       0.86554     -89.31       
1.17         0.77812     -53.316       2.2589      -135.85       0.024189     179.84       0.86095     -90.176      
1.18         0.77618     -53.788       2.2876      -136.74       0.024807     179.24       0.85699     -91.058      
1.19         0.77457     -54.266       2.3179      -137.59       0.025436     178.71       0.85366     -91.952      
1.2          0.77328     -54.748       2.3497      -138.41       0.026076     178.24       0.85097     -92.858      
1.21         0.77211     -55.233       2.3819      -139.2        0.026725     177.78       0.84851     -93.766      
1.22         0.76949     -55.713       2.4051      -140.17       0.027372     177.02       0.84286     -94.636      
1.23         0.76719     -56.202       2.4302      -141.1        0.028035     176.32       0.83783     -95.525      
1.24         0.76522     -56.697       2.4572      -142          0.028713     175.69       0.83343     -96.431      
1.25         0.76359     -57.198       2.4859      -142.87       0.029405     175.11       0.82968     -97.352      
1.26         0.76228     -57.703       2.5163      -143.7        0.030109     174.59       0.82656     -98.287      
1.27         0.76105     -58.21        2.5472      -144.52       0.030816     174.1        0.82368     -99.222      
1.28         0.75797     -58.696       2.569       -145.48       0.031452     173.37       0.81782     -100.09      
1.29         0.7552      -59.192       2.5929      -146.43       0.032105     172.69       0.81257     -100.98      
1.3          0.75276     -59.696       2.6188      -147.34       0.032774     172.07       0.80793     -101.89      
1.31         0.75066     -60.207       2.6466      -148.22       0.033459     171.5        0.80392     -102.82      
1.32         0.74888     -60.724       2.6762      -149.06       0.034159     170.97       0.80054     -103.76      
1.33         0.74724     -61.242       2.7062      -149.89       0.03487      170.47       0.7973      -104.71      
1.34         0.74423     -61.729       2.726       -150.86       0.035579     169.73       0.79071     -105.6       
1.35         0.74154     -62.225       2.748       -151.8        0.036308     169.04       0.78471     -106.52      
1.36         0.73918     -62.729       2.7721      -152.71       0.037057     168.41       0.77934     -107.46      
1.37         0.73714     -63.24        2.7982      -153.59       0.037822     167.83       0.7746      -108.42      
1.38         0.73542     -63.757       2.8264      -154.45       0.038604     167.3        0.7705      -109.4       
1.39         0.7338      -64.273       2.8549      -155.29       0.039394     166.78       0.76662     -110.38      
1.4          0.73059     -64.752       2.8739      -156.25       0.040142     165.99       0.76007     -111.28      
1.41         0.7277      -65.24        2.8952      -157.19       0.040915     165.26       0.75411     -112.2       
1.42         0.72513     -65.738       2.9188      -158.1        0.04171      164.58       0.74875     -113.16      
1.43         0.72287     -66.243       2.9444      -158.99       0.042526     163.95       0.74401     -114.13      
1.44         0.72093     -66.755       2.9722      -159.85       0.043363     163.38       0.7399      -115.11      
1.45         0.71905     -67.268       3           -160.7        0.044198     162.82       0.7359      -116.1       
1.46         0.71564     -67.756       3.0157      -161.64       0.04491      162.09       0.72863     -116.99      
1.47         0.71254     -68.254       3.0338      -162.56       0.045647     161.42       0.72193     -117.91      
1.48         0.70975     -68.763       3.0541      -163.45       0.046407     160.78       0.71582     -118.86      
1.49         0.70728     -69.28        3.0766      -164.33       0.047189     160.19       0.71029     -119.83      
1.5          0.70512     -69.804       3.1013      -165.19       0.047993     159.64       0.70537     -120.82      
1.51         0.70304     -70.33        3.1263      -166.03       0.048802     159.1        0.70061     -121.82      
1.52         0.69949     -70.821       3.1405      -166.96       0.049541     158.32       0.69331     -122.7       
1.53         0.69625     -71.323       3.157       -167.87       0.05031      157.58       0.68655     -123.62      
1.54         0.69332     -71.836       3.176       -168.77       0.051108     156.89       0.68034     -124.56      
1.55         0.6907      -72.358       3.1973      -169.65       0.051932     156.24       0.6747      -125.53      
1.56         0.6884      -72.889       3.2208      -170.5        0.052782     155.64       0.66964     -126.53      
1.57         0.68617     -73.416       3.2444      -171.34       0.053637     155.05       0.66471     -127.53      
1.58         0.68257     -73.878       3.2561      -172.25       0.054392     154.32       0.65734     -128.47      
1.59         0.67925     -74.351       3.2701      -173.15       0.055177     153.63       0.65051     -129.43      
1.6          0.67622     -74.836       3.2866      -174.03       0.055992     152.99       0.64424     -130.43      
1.61         0.67349     -75.33        3.3055      -174.89       0.056835     152.38       0.63855     -131.46      
1.62         0.67105     -75.833       3.3266      -175.73       0.057704     151.81       0.63345     -132.51      
1.63         0.66869     -76.336       3.348       -176.57       0.058584     151.25       0.62846     -133.57      
1.64         0.66513     -76.801       3.3583      -177.47       0.0594       150.51       0.6209      -134.51      
1.65         0.66185     -77.278       3.3712      -178.35       0.060251     149.81       0.61386     -135.48      
1.66         0.65886     -77.766       3.3866      -179.23       0.061134     149.16       0.60737     -136.49      
1.67         0.65615     -78.264       3.4044       179.92       0.062048     148.54       0.60144     -137.54      
1.68         0.65374     -78.771       3.4246       179.08       0.062991     147.97       0.59608     -138.61      
1.69         0.65135     -79.278       3.4447       178.25       0.063929     147.4        0.59078     -139.69      
1.7          0.64753     -79.749       3.4529       177.36       0.064698     146.65       0.58276     -140.65      
1.71         0.64399     -80.232       3.4637       176.48       0.065504     145.93       0.57525     -141.66      
1.72         0.64073     -80.728       3.4771       175.61       0.066348     145.26       0.56828     -142.71      
1.73         0.63775     -81.236       3.4929       174.76       0.067226     144.62       0.56186     -143.79      
1.74         0.63507     -81.754       3.5112       173.92       0.068139     144.01       0.55602     -144.92      
1.75         0.63241     -82.272       3.5294       173.09       0.06906      143.42       0.55027     -146.04      
1.76         0.62847     -82.737       3.5353       172.21       0.06988      142.7        0.54218     -147.01      
1.77         0.6248      -83.218       3.5438       171.33       0.070739     142.01       0.53459     -148.02      
1.78         0.62139     -83.711       3.5549       170.46       0.071637     141.36       0.5275      -149.08      
1.79         0.61827     -84.217       3.5686       169.61       0.072573     140.75       0.52093     -150.19      
1.8          0.61543     -84.735       3.5849       168.77       0.073543     140.17       0.51491     -151.33      
1.81         0.61261     -85.246       3.601        167.94       0.074502     139.59       0.50897     -152.48      
1.82         0.60859     -85.664       3.6045       167.07       0.075245     138.85       0.50083     -153.48      
1.83         0.60482     -86.098       3.6106       166.21       0.076033     138.14       0.49316     -154.53      
1.84         0.60128     -86.546       3.6193       165.36       0.076865     137.47       0.48599     -155.63      
1.85         0.598       -87.006       3.6307       164.52       0.077739     136.82       0.47932     -156.79      
1.86         0.59497     -87.48        3.6447       163.69       0.078653     136.21       0.47319     -157.99      
1.87         0.59196     -87.953       3.6584       162.87       0.079559     135.6        0.46715     -159.19      
1.88         0.58797     -88.372       3.6593       162.01       0.080252     134.87       0.45909     -160.19      
1.89         0.58421     -88.807       3.663        161.16       0.080994     134.17       0.45147     -161.25      
1.9          0.58068     -89.257       3.6693       160.31       0.081783     133.49       0.4443      -162.36      
1.91         0.57739     -89.721       3.6784       159.47       0.082617     132.84       0.43761     -163.53      
1.92         0.57435     -90.197       3.6901       158.64       0.083496     132.22       0.43143     -164.76      
1.93         0.57134     -90.671       3.7015       157.81       0.084373     131.6        0.42533     -165.99      
1.94         0.56746     -91.079       3.7003       156.98       0.085068     130.9        0.41739     -167.01      
1.95         0.56379     -91.503       3.7019       156.15       0.085814     130.22       0.40987     -168.1       
1.96         0.56034     -91.941       3.7061       155.32       0.086607     129.57       0.40278     -169.26      
1.97         0.55712     -92.393       3.713        154.5        0.087448     128.94       0.39615     -170.48      
1.98         0.55413     -92.859       3.7225       153.68       0.088335     128.34       0.39        -171.76      
1.99         0.55112     -93.318       3.7316       152.87       0.089208     127.74       0.38393     -173.05      
2            0.54706     -93.694       3.7283       152.06       0.089839     127.05       0.37614     -174.12      
2.01         0.5432      -94.087       3.7277       151.24       0.090522     126.39       0.36875     -175.27      
2.02         0.53954     -94.495       3.7297       150.43       0.091255     125.75       0.36178     -176.5       
2.03         0.53608     -94.918       3.7343       149.62       0.092038     125.13       0.35525     -177.8       
2.04         0.53284     -95.357       3.7415       148.81       0.09287      124.53       0.34919     -179.17      
2.05         0.52962     -95.787       3.7483       148.02       0.093698     123.94       0.34323      179.45      
2.06         0.52566     -96.121       3.7425       147.23       0.094333     123.28       0.33578      178.28      
2.07         0.52187     -96.47        3.7392       146.43       0.095021     122.63       0.32872      177.03      
2.08         0.51826     -96.836       3.7385       145.64       0.095761     122.01       0.32208      175.69      
2.09         0.51483     -97.217       3.7405       144.85       0.096553     121.41       0.31588      174.27      
2.1          0.51159     -97.613       3.745        144.06       0.097393     120.84       0.31015      172.77      
2.11         0.50837     -98.002       3.749        143.28       0.098215     120.26       0.30454      171.26      
2.12         0.50457     -98.299       3.7414       142.53       0.098774     119.59       0.2976       169.98      
2.13         0.50092     -98.612       3.7362       141.77       0.09939      118.94       0.29104      168.62      
2.14         0.49742     -98.94        3.7335       141          0.10006      118.3        0.2849       167.15      
2.15         0.49408     -99.284       3.7334       140.24       0.10079      117.69       0.27919      165.6       
2.16         0.4909      -99.643       3.7357       139.48       0.10157      117.09       0.27396      163.95      
2.17         0.48776     -99.998       3.7377       138.72       0.10234      116.51       0.26879      162.3       
2.18         0.48419     -100.29       3.7296       137.98       0.10287      115.89       0.26211      160.92      
2.19         0.48077     -100.6        3.7239       137.22       0.10347      115.29       0.25581      159.44      
2.2          0.47748     -100.92       3.7206       136.47       0.10411      114.71       0.2499       157.85      
2.21         0.47435     -101.25       3.7198       135.71       0.10481      114.15       0.24443      156.14      
2.22         0.47136     -101.6        3.7215       134.96       0.10556      113.6        0.23943      154.33      
2.23         0.46839     -101.94       3.7226       134.21       0.1063       113.05       0.23454      152.49      
2.24         0.46488     -102.18       3.7129       133.5        0.10677      112.44       0.22842      150.88      
2.25         0.4615      -102.43       3.7054       132.77       0.10731      111.85       0.22271      149.14      
2.26         0.45823     -102.7        3.7003       132.05       0.1079       111.27       0.21743      147.27      
2.27         0.45509     -102.98       3.6976       131.32       0.10855      110.71       0.21263      145.28      
2.28         0.45208     -103.27       3.6972       130.58       0.10925      110.16       0.20833      143.16      
2.29         0.44911     -103.56       3.6964       129.86       0.10993      109.61       0.20418      141.03      
2.3          0.44589     -103.78       3.6861       129.16       0.11037      109.01       0.19881      139.19      
2.31         0.44277     -104.01       3.6781       128.46       0.11087      108.42       0.19387      137.2       
2.32         0.43977     -104.26       3.6724       127.75       0.11142      107.85       0.18938      135.08      
2.33         0.43687     -104.52       3.6689       127.03       0.11203      107.29       0.18539      132.82      
2.34         0.43409     -104.79       3.6677       126.32       0.11269      106.74       0.18193      130.44      
2.35         0.43133     -105.05       3.666        125.61       0.11334      106.2        0.17866      128.03      
2.36         0.42828     -105.25       3.6549       124.94       0.11377      105.64       0.17434      125.87      
2.37         0.42533     -105.45       3.6459       124.25       0.11425      105.09       0.1705       123.57      
2.38         0.42248     -105.66       3.6392       123.56       0.11479      104.54       0.16715      121.14      
2.39         0.41972     -105.89       3.6346       122.87       0.11538      104.01       0.16434      118.58      
2.4          0.41706     -106.14       3.6322       122.17       0.11602      103.5        0.1621       115.91      
2.41         0.41443     -106.37       3.6292       121.48       0.11665      102.98       0.15999      113.24      
2.42         0.41159     -106.54       3.6171       120.82       0.11703      102.44       0.15658      110.76      
2.43         0.40882     -106.71       3.6071       120.15       0.11747      101.9        0.15368      108.15      
2.44         0.40614     -106.9        3.5991       119.47       0.11797      101.37       0.15133      105.42      
2.45         0.40355     -107.11       3.5932       118.79       0.11852      100.85       0.14955      102.58      
2.46         0.40104     -107.32       3.5895       118.11       0.11912      100.34       0.14837      99.673      
2.47         0.39857     -107.52       3.5852       117.43       0.11971      99.833       0.14739      96.766      
2.48         0.39597     -107.62       3.5723       116.8        0.12007      99.307       0.14534      93.974      
2.49         0.39343     -107.73       3.5614       116.15       0.12049      98.788       0.14385      91.089      
2.5          0.39096     -107.85       3.5525       115.5        0.12096      98.278       0.14296      88.14       
2.51         0.38856     -107.98       3.5455       114.84       0.12149      97.777       0.14267      85.154      
2.52         0.38622     -108.13       3.5406       114.18       0.12207      97.287       0.14298      82.165      
2.53         0.38388     -108.26       3.5352       113.52       0.12263      96.8         0.1435       79.241      
2.54         0.38133     -108.35       3.522        112.91       0.12292      96.288       0.14304      76.455      
2.55         0.37884     -108.46       3.5107       112.28       0.12327      95.783       0.14313      73.655      
2.56         0.3764      -108.57       3.5012       111.64       0.12367      95.284       0.14377      70.868      
2.57         0.37403     -108.69       3.4937       111          0.12413      94.792       0.14496      68.121      
2.58         0.37173     -108.82       3.4882       110.35       0.12464      94.31        0.14667      65.439      
2.59         0.36949     -108.94       3.4821       109.72       0.12513      93.828       0.14842      62.82       
2.6          0.36735     -108.99       3.4689       109.13       0.1254       93.322       0.1489       60.164      
2.61         0.36526     -109.04       3.4574       108.53       0.12572      92.82        0.1499       57.537      
2.62         0.36321     -109.1        3.4478       107.92       0.1261       92.324       0.15141      54.961      
2.63         0.36122     -109.17       3.4399       107.3        0.12653      91.835       0.15343      52.457      
2.64         0.35928     -109.25       3.4339       106.68       0.12703      91.354       0.15593      50.043      
2.65         0.35736     -109.31       3.4272       106.07       0.12749      90.881       0.15849      47.716      
2.66         0.35543     -109.32       3.4135       105.5        0.12773      90.412       0.16005      45.4        
2.67         0.35354     -109.34       3.4014       104.92       0.12802      89.947       0.16206      43.148      
2.68         0.35169     -109.36       3.391        104.32       0.12836      89.487       0.16451      40.973      
2.69         0.34988     -109.39       3.3824       103.72       0.12876      89.033       0.16738      38.887      
2.7          0.34812     -109.43       3.3755       103.12       0.12921      88.585       0.17064      36.899      
2.71         0.34641     -109.46       3.3681       102.52       0.12963      88.138       0.17385      34.977      
2.72         0.3448      -109.47       3.3548       101.95       0.12985      87.67        0.17592      33.001      
2.73         0.34323     -109.48       3.3431       101.37       0.13011      87.206       0.17838      31.09       
2.74         0.3417      -109.49       3.3331       100.78       0.13043      86.745       0.18121      29.253      
2.75         0.34021     -109.51       3.3247       100.19       0.13081      86.291       0.18441      27.498      
2.76         0.33876     -109.54       3.3181       99.582       0.13123      85.842       0.18795      25.829      
2.77         0.33731     -109.55       3.3108       98.99        0.13163      85.401       0.19141      24.215      
2.78         0.33575     -109.51       3.297        98.444       0.13181      84.964       0.19384      22.554      
2.79         0.33423     -109.48       3.2847       97.887       0.13204      84.53        0.19661      20.953      
2.8          0.33274     -109.45       3.274        97.32        0.13233      84.1         0.1997       19.417      
2.81         0.33128     -109.42       3.2649       96.745       0.13266      83.674       0.2031       17.953      
2.82         0.32986     -109.4        3.2574       96.163       0.13305      83.254       0.2068       16.561      
2.83         0.32847     -109.37       3.2494       95.589       0.13341      82.834       0.21042      15.191      
2.84         0.32714     -109.3        3.2358       95.051       0.13358      82.399       0.21319      13.706      
2.85         0.32585     -109.24       3.2238       94.502       0.13381      81.966       0.21627      12.279      
2.86         0.32458     -109.18       3.2132       93.944       0.13409      81.537       0.21966      10.913      
2.87         0.32333     -109.12       3.2042       93.377       0.13441      81.112       0.22334      9.6115      
2.88         0.32212     -109.07       3.1967       92.803       0.13479      80.693       0.2273       8.3764      
2.89         0.32097     -109          3.1885       92.242       0.13513      80.273       0.23113      7.1689      
2.9          0.31994     -108.89       3.1746       91.73        0.1352       79.838       0.234        5.8895      
2.91         0.31893     -108.78       3.1622       91.207       0.13532      79.403       0.23715      4.659       
2.92         0.31795     -108.67       3.1511       90.675       0.1355       78.971       0.24058      3.4802      
2.93         0.31699     -108.56       3.1415       90.133       0.13572      78.54        0.24427      2.3551      
2.94         0.31605     -108.46       3.1333       89.584       0.136        78.113       0.24822      1.2854      
2.95         0.31514     -108.35       3.1246       89.044       0.13627      77.695       0.25206      0.23227     
2.96         0.31425     -108.23       3.111        88.54        0.13639      77.292       0.25506     -0.89613     
2.97         0.31338     -108.11       3.0987       88.027       0.13656      76.89        0.25833     -1.9812      
2.98         0.31254     -107.99       3.0878       87.503       0.13678      76.491       0.26185     -3.0208      
2.99         0.31172     -107.87       3.0783       86.971       0.13704      76.095       0.26562     -4.0135      
3            0.31093     -107.76       3.0702       86.431       0.13736      75.703       0.26963     -4.958       
3.01         0.3102      -107.64       3.0615       85.899       0.13765      75.311       0.27345     -5.8978      
3.02         0.30965     -107.51       3.048        85.399       0.13775      74.91        0.27627     -6.9305      
3.03         0.30912     -107.38       3.0357       84.889       0.1379       74.51        0.27934     -7.9275      
3.04         0.30861     -107.25       3.0249       84.369       0.1381       74.112       0.28266     -8.8867      
3.05         0.30813     -107.12       3.0153       83.841       0.13835      73.717       0.28623     -9.8067      
3.06         0.30767     -106.99       3.0071       83.305       0.13865      73.326       0.29003     -10.686      
3.07         0.30723     -106.85       2.9982       82.779       0.13891      72.939       0.2937      -11.557      
3.08         0.3068      -106.7        2.9847       82.295       0.13895      72.554       0.29655     -12.492      
3.09         0.3064      -106.54       2.9724       81.8         0.13905      72.17        0.29966     -13.394      
3.1          0.30601     -106.38       2.9614       81.296       0.13919      71.787       0.30299     -14.263      
3.11         0.30565     -106.22       2.9517       80.782       0.13939      71.406       0.30657     -15.098      
3.12         0.30531     -106.06       2.9432       80.261       0.13963      71.028       0.31036     -15.896      
3.13         0.30502     -105.91       2.9342       79.752       0.13984      70.651       0.31401     -16.692      
3.14         0.30485     -105.76       2.9211       79.29        0.13987      70.271       0.31687     -17.553      
3.15         0.3047      -105.6        2.9092       78.818       0.13994      69.892       0.31997     -18.385      
3.16         0.30457     -105.45       2.8985       78.336       0.14007      69.514       0.32329     -19.188      
3.17         0.30447     -105.29       2.8889       77.846       0.14024      69.137       0.32685     -19.959      
3.18         0.30439     -105.13       2.8806       77.348       0.14046      68.763       0.33062     -20.698      
3.19         0.30433     -104.98       2.8716       76.858       0.14065      68.398       0.33423     -21.433      
3.2          0.30429     -104.83       2.8585       76.401       0.14068      68.052       0.33701     -22.217      
3.21         0.30428     -104.68       2.8465       75.934       0.14075      67.706       0.34002     -22.976      
3.22         0.3043      -104.53       2.8356       75.458       0.14086      67.361       0.34325     -23.709      
3.23         0.30434     -104.37       2.8259       74.972       0.14102      67.018       0.34671     -24.415      
3.24         0.3044      -104.22       2.8174       74.479       0.14123      66.676       0.35037     -25.092      
3.25         0.30452     -104.06       2.8082       73.997       0.14139      66.329       0.35386     -25.769      
3.26         0.30474     -103.91       2.7951       73.558       0.14138      65.958       0.35652     -26.495      
3.27         0.30498     -103.75       2.783        73.109       0.14141      65.586       0.35941     -27.2        
3.28         0.30525     -103.59       2.7721       72.65        0.14149      65.215       0.36252     -27.883      
3.29         0.30555     -103.43       2.7622       72.182       0.14162      64.846       0.36584     -28.541      
3.3          0.30587     -103.26       2.7534       71.706       0.14179      64.478       0.36937     -29.174      
3.31         0.30619     -103.09       2.7441       71.24        0.14193      64.123       0.37274     -29.813      
3.32         0.30649     -102.93       2.7315       70.811       0.14189      63.797       0.37536     -30.514      
3.33         0.30682     -102.77       2.72         70.371       0.1419       63.471       0.3782      -31.195      
3.34         0.30718     -102.6        2.7095       69.922       0.14194      63.145       0.38127     -31.854      
3.35         0.30756     -102.43       2.7          69.465       0.14204      62.82        0.38455     -32.492      
3.36         0.30796     -102.26       2.6916       68.999       0.14217      62.496       0.38804     -33.106      
3.37         0.30841     -102.09       2.6825       68.545       0.14228      62.173       0.39137     -33.725      
3.38         0.30896     -101.95       2.67         68.126       0.14221      61.85        0.39398     -34.397      
3.39         0.30953     -101.8        2.6584       67.698       0.1422       61.526       0.39681     -35.05       
3.4          0.31013     -101.65       2.6479       67.26        0.14223      61.202       0.39986     -35.684      
3.41         0.31076     -101.49       2.6383       66.814       0.1423       60.879       0.40313     -36.297      
3.42         0.31141     -101.33       2.6298       66.359       0.14241      60.556       0.4066      -36.889      
3.43         0.31207     -101.17       2.6206       65.911       0.14249      60.232       0.40986     -37.476      
3.44         0.31269     -101.05       2.6083       65.484       0.14241      59.901       0.41228     -38.093      
3.45         0.31334     -100.92       2.597        65.048       0.14238      59.57        0.41491     -38.694      
3.46         0.31402     -100.78       2.5867       64.603       0.14239      59.238       0.41775     -39.278      
3.47         0.31474     -100.64       2.5774       64.148       0.14245      58.906       0.42081     -39.845      
3.48         0.31548     -100.5        2.569        63.686       0.14255      58.575       0.42406     -40.392      
3.49         0.31628     -100.36       2.5601       63.237       0.14262      58.249       0.42716     -40.944      
3.5          0.31718     -100.25       2.5479       62.825       0.14255      57.931       0.42956     -41.54       
3.51         0.31811     -100.13       2.5367       62.403       0.14252      57.612       0.43219     -42.12       
3.52         0.31907     -99.999       2.5265       61.972       0.14253      57.293       0.43503     -42.685      
3.53         0.32007     -99.868       2.5172       61.533       0.14258      56.974       0.43808     -43.232      
3.54         0.32109     -99.731       2.5088       61.086       0.14268      56.656       0.44133     -43.762      
3.55         0.32209     -99.595       2.4999       60.653       0.14274      56.341       0.44441     -44.304      
3.56         0.32298     -99.467       2.4879       60.264       0.14264      56.028       0.4468      -44.905      
3.57         0.32391     -99.334       2.4769       59.865       0.14259      55.714       0.44941     -45.491      
3.58         0.32487     -99.196       2.4667       59.457       0.14258      55.399       0.45225     -46.062      
3.59         0.32586     -99.054       2.4574       59.04        0.14261      55.085       0.45531     -46.616      
3.6          0.32688     -98.908       2.449        58.616       0.14268      54.771       0.45858     -47.153      
3.61         0.32795     -98.775       2.44         58.202       0.14269      54.463       0.46166     -47.686      
3.62         0.32909     -98.68        2.4281       57.822       0.1425       54.163       0.464       -48.238      
3.63         0.33028     -98.58        2.417        57.433       0.14236      53.862       0.46656     -48.776      
3.64         0.3315      -98.475       2.4068       57.034       0.14225      53.558       0.46933     -49.3        
3.65         0.33275     -98.364       2.3974       56.626       0.14219      53.254       0.47232     -49.809      
3.66         0.33405     -98.248       2.3889       56.211       0.14216      52.949       0.4755      -50.303      
3.67         0.33534     -98.144       2.3799       55.805       0.14213      52.654       0.47847     -50.802      
3.68         0.33658     -98.077       2.3687       55.429       0.14204      52.38        0.48066     -51.338      
3.69         0.33786     -98.005       2.3584       55.044       0.14199      52.106       0.48307     -51.862      
3.7          0.33919     -97.927       2.3488       54.651       0.14198      51.832       0.4857      -52.373      
3.71         0.34055     -97.843       2.3401       54.249       0.142        51.557       0.48854     -52.871      
3.72         0.34196     -97.753       2.3322       53.84        0.14207      51.284       0.49159     -53.354      
3.73         0.34329     -97.661       2.3237       53.442       0.14208      51.01        0.49446     -53.838      
3.74         0.34443     -97.573       2.3128       53.074       0.14194      50.733       0.4967      -54.349      
3.75         0.34561     -97.48        2.3027       52.697       0.14184      50.455       0.49916     -54.849      
3.76         0.34682     -97.382       2.2933       52.312       0.14178      50.176       0.50182     -55.336      
3.77         0.34807     -97.279       2.2848       51.918       0.14176      49.897       0.5047      -55.809      
3.78         0.34937     -97.171       2.277        51.517       0.14178      49.618       0.50778     -56.268      
3.79         0.35062     -97.079       2.2686       51.123       0.14175      49.337       0.51065     -56.739      
3.8          0.35177     -97.027       2.2576       50.75        0.14159      49.049       0.51281     -57.253      
3.81         0.35296     -96.971       2.2474       50.366       0.14147      48.759       0.51521     -57.757      
3.82         0.3542      -96.909       2.238        49.975       0.14139      48.468       0.51782     -58.248      
3.83         0.35548     -96.843       2.2294       49.575       0.14135      48.177       0.52065     -58.727      
3.84         0.3568      -96.771       2.2216       49.167       0.14136      47.886       0.52369     -59.192      
3.85         0.35819     -96.704       2.2132       48.774       0.14131      47.609       0.52649     -59.651      
3.86         0.35965     -96.654       2.2024       48.419       0.14112      47.36        0.52855     -60.115      
3.87         0.36116     -96.599       2.1924       48.055       0.14097      47.109       0.53082     -60.569      
3.88         0.36272     -96.537       2.1831       47.682       0.14086      46.857       0.53329     -61.013      
3.89         0.36431     -96.47        2.1746       47.301       0.14078      46.604       0.53598     -61.445      
3.9          0.36596     -96.396       2.1669       46.912       0.14074      46.35        0.53886     -61.865      
3.91         0.3676      -96.328       2.1584       46.538       0.14068      46.097       0.54154     -62.299      
3.92         0.36918     -96.278       2.1478       46.2         0.14051      45.843       0.5436      -62.778      
3.93         0.37082     -96.222       2.1378       45.853       0.14038      45.588       0.54587     -63.246      
3.94         0.3725      -96.16        2.1285       45.496       0.14028      45.332       0.54837     -63.704      
3.95         0.37422     -96.092       2.12         45.132       0.14023      45.075       0.55108     -64.151      
3.96         0.37599     -96.018       2.1121       44.76        0.14021      44.818       0.55401     -64.585      
3.97         0.37771     -95.947       2.1036       44.397       0.14017      44.563       0.55676     -65.026      
3.98         0.37927     -95.891       2.0931       44.055       0.14006      44.311       0.55894     -65.497      
3.99         0.38089     -95.829       2.0832       43.704       0.13998      44.058       0.56136     -65.957      
4            0.38254     -95.761       2.074        43.344       0.13994      43.804       0.56399     -66.407      
4.01         0.38425     -95.687       2.0654       42.976       0.13994      43.551       0.56684     -66.844      
4.02         0.386       -95.607       2.0576       42.601       0.13998      43.299       0.56991     -67.27       
4.03         0.38778     -95.556       2.0494       42.247       0.13998      43.027       0.57272     -67.705      
4.04         0.38958     -95.566       2.0395       41.941       0.13988      42.716       0.57481     -68.175      
4.05         0.39144     -95.568       2.0302       41.627       0.13982      42.404       0.57714     -68.635      
4.06         0.39336     -95.564       2.0216       41.305       0.1398       42.092       0.5797      -69.085      
4.07         0.39533     -95.553       2.0136       40.976       0.13982      41.781       0.58248     -69.524      
4.08         0.39736     -95.534       2.0062       40.639       0.13989      41.471       0.58548     -69.951      
4.09         0.39926     -95.543       1.9984       40.31        0.1398       41.174       0.58799     -70.375      
4.1          0.40085     -95.611       1.9888       40           0.13937      40.895       0.58936     -70.809      
4.11         0.40252     -95.673       1.9799       39.681       0.13898      40.61        0.59094     -71.237      
4.12         0.40425     -95.729       1.9716       39.354       0.13862      40.321       0.59275     -71.658      
4.13         0.40605     -95.778       1.964        39.02        0.13831      40.028       0.59478     -72.072      
4.14         0.40792     -95.82        1.9569       38.679       0.13804      39.732       0.59702     -72.476      
4.15         0.40959     -95.844       1.9494       38.339       0.13776      39.453       0.59918     -72.883      
4.16         0.41083     -95.842       1.9403       38.004       0.13743      39.209       0.60098     -73.303      
4.17         0.41213     -95.835       1.9319       37.661       0.13714      38.961       0.60301     -73.715      
4.18         0.41349     -95.824       1.9241       37.31        0.13688      38.71        0.60526     -74.119      
4.19         0.4149      -95.809       1.9169       36.952       0.13667      38.456       0.60772     -74.513      
4.2          0.41637     -95.788       1.9104       36.587       0.13648      38.201       0.61039     -74.897      
4.21         0.41784     -95.777       1.9032       36.243       0.13627      37.968       0.61276     -75.278      
4.22         0.41926     -95.787       1.894        35.94        0.13596      37.776       0.61437     -75.663      
4.23         0.42074     -95.793       1.8854       35.629       0.13568      37.581       0.6162      -76.041      
4.24         0.42228     -95.793       1.8773       35.309       0.13544      37.383       0.61824     -76.411      
4.25         0.42388     -95.788       1.8699       34.982       0.13523      37.183       0.62049     -76.774      
4.26         0.42554     -95.778       1.8631       34.648       0.13505      36.981       0.62294     -77.128      
4.27         0.42718     -95.777       1.8555       34.324       0.13485      36.778       0.6252      -77.485      
4.28         0.42873     -95.797       1.8462       34.022       0.13459      36.572       0.62694     -77.858      
4.29         0.43034     -95.812       1.8374       33.711       0.13436      36.363       0.6289      -78.225      
4.3          0.43202     -95.821       1.8292       33.392       0.13416      36.152       0.63107     -78.583      
4.31         0.43376     -95.824       1.8216       33.064       0.13399      35.939       0.63344     -78.934      
4.32         0.43556     -95.822       1.8145       32.73        0.13386      35.725       0.63602     -79.275      
4.33         0.43733     -95.831       1.8069       32.418       0.13369      35.51        0.63836     -79.625      
4.34         0.43901     -95.868       1.7978       32.152       0.13341      35.292       0.64013     -80.001      
4.35         0.44076     -95.898       1.7892       31.876       0.13316      35.071       0.64212     -80.369      
4.36         0.44258     -95.922       1.7811       31.593       0.13295      34.847       0.64432     -80.729      
4.37         0.44446     -95.94        1.7735       31.302       0.13277      34.622       0.64674     -81.082      
4.38         0.4464      -95.952       1.7665       31.003       0.13263      34.395       0.64936     -81.425      
4.39         0.44807     -95.991       1.759        30.725       0.13239      34.174       0.6517      -81.782      
4.4          0.44923     -96.083       1.7503       30.486       0.13196      33.961       0.65339     -82.172      
4.41         0.45046     -96.171       1.7421       30.239       0.13157      33.743       0.65531     -82.554      
4.42         0.45177     -96.254       1.7343       29.984       0.13121      33.521       0.65745     -82.93       
4.43         0.45316     -96.332       1.7271       29.722       0.13088      33.295       0.65982     -83.297      
4.44         0.45464     -96.405       1.7203       29.452       0.13059      33.065       0.66241     -83.655      
4.45         0.45583     -96.452       1.7138       29.185       0.13026      32.877       0.66446     -84.017      
4.46         0.45648     -96.46        1.7071       28.925       0.12984      32.763       0.66544     -84.395      
4.47         0.4572      -96.465       1.701        28.659       0.12944      32.644       0.66665     -84.768      
4.48         0.45799     -96.468       1.6953       28.386       0.12907      32.52        0.66809     -85.137      
4.49         0.45884     -96.469       1.6902       28.109       0.12872      32.393       0.66976     -85.499      
4.5          0.45975     -96.466       1.6855       27.826       0.12841      32.262       0.67165     -85.855      
4.51         0.46077     -96.458       1.6799       27.54        0.12812      32.135       0.67334     -86.2        
4.52         0.46192     -96.44        1.6724       27.249       0.12786      32.017       0.67453     -86.534      
4.53         0.46313     -96.419       1.6654       26.949       0.12764      31.898       0.67594     -86.863      
4.54         0.46439     -96.394       1.6589       26.643       0.12743      31.776       0.67756     -87.186      
4.55         0.46572     -96.366       1.6529       26.329       0.12726      31.652       0.6794      -87.504      
4.56         0.46711     -96.333       1.6475       26.01        0.12711      31.526       0.68144     -87.814      
4.57         0.4685      -96.308       1.6414       25.706       0.12692      31.395       0.68326     -88.127      
4.58         0.46986     -96.299       1.6339       25.432       0.12666      31.253       0.68459     -88.448      
4.59         0.47127     -96.286       1.6268       25.149       0.12643      31.108       0.68613     -88.765      
4.6          0.47275     -96.269       1.6203       24.858       0.12623      30.961       0.68788     -89.075      
4.61         0.4743      -96.247       1.6142       24.561       0.12605      30.812       0.68985     -89.38       
4.62         0.4759      -96.221       1.6086       24.258       0.12591      30.662       0.69202     -89.678      
4.63         0.47742     -96.211       1.6024       23.966       0.12572      30.511       0.69382     -89.979      
4.64         0.47877     -96.231       1.5949       23.696       0.12544      30.359       0.69492     -90.292      
4.65         0.48019     -96.246       1.5879       23.418       0.12519      30.204       0.69623     -90.601      
4.66         0.48168     -96.256       1.5814       23.132       0.12498      30.047       0.69775     -90.906      
4.67         0.48324     -96.262       1.5753       22.839       0.12479      29.888       0.69949     -91.205      
4.68         0.48487     -96.263       1.5698       22.54        0.12462      29.726       0.70143     -91.497      
4.69         0.48639     -96.267       1.5635       22.259       0.12443      29.573       0.70313     -91.798      
4.7          0.4877      -96.278       1.5559       22.009       0.12418      29.43        0.70436     -92.117      
4.71         0.48909     -96.285       1.5488       21.75        0.12395      29.284       0.70581     -92.431      
4.72         0.49055     -96.288       1.5421       21.483       0.12376      29.137       0.70747     -92.74       
4.73         0.49207     -96.286       1.5359       21.209       0.12359      28.987       0.70935     -93.043      
4.74         0.49366     -96.28        1.5301       20.928       0.12344      28.836       0.71144     -93.34       
4.75         0.49515     -96.285       1.5239       20.657       0.12326      28.69        0.71326     -93.633      
4.76         0.49645     -96.311       1.5169       20.405       0.123        28.549       0.71457     -93.926      
4.77         0.49782     -96.333       1.5103       20.145       0.12276      28.406       0.71609     -94.214      
4.78         0.49927     -96.35        1.5041       19.877       0.12255      28.26        0.71782     -94.498      
4.79         0.50079     -96.364       1.4983       19.603       0.12237      28.113       0.71975     -94.775      
4.8          0.50239     -96.372       1.4931       19.322       0.12222      27.963       0.72189     -95.047      
4.81         0.50386     -96.387       1.4873       19.058       0.12203      27.825       0.72359     -95.316      
4.82         0.50511     -96.414       1.4804       18.82        0.12175      27.703       0.72454     -95.59       
4.83         0.50643     -96.437       1.474        18.575       0.1215       27.578       0.7257      -95.86       
4.84         0.50783     -96.457       1.468        18.322       0.12128      27.451       0.72706     -96.125      
4.85         0.50931     -96.472       1.4624       18.062       0.12109      27.321       0.72863     -96.387      
4.86         0.51085     -96.482       1.4572       17.796       0.12092      27.189       0.7304      -96.643      
4.87         0.51226     -96.497       1.4515       17.544       0.1207       27.062       0.73186     -96.911      
4.88         0.51345     -96.522       1.4448       17.313       0.12041      26.942       0.73281     -97.202      
4.89         0.51471     -96.544       1.4384       17.075       0.12015      26.818       0.73397     -97.489      
4.9          0.51604     -96.561       1.4325       16.828       0.11991      26.691       0.73534     -97.772      
4.91         0.51745     -96.575       1.4269       16.575       0.11969      26.562       0.73693     -98.051      
4.92         0.51893     -96.584       1.4218       16.315       0.11951      26.431       0.73874     -98.324      
4.93         0.52032     -96.597       1.4162       16.064       0.1193       26.308       0.7403      -98.597      
4.94         0.52153     -96.618       1.4098       15.829       0.11906      26.198       0.74144     -98.874      
4.95         0.52282     -96.636       1.4038       15.585       0.11884      26.085       0.7428      -99.146      
4.96         0.52418     -96.65        1.3982       15.334       0.11865      25.969       0.74436     -99.415      
4.97         0.52562     -96.659       1.393        15.076       0.11848      25.852       0.74614     -99.678      
4.98         0.52714     -96.665       1.3882       14.812       0.11833      25.733       0.74812     -99.935      
4.99         0.5285      -96.678       1.3828       14.569       0.11814      25.607       0.74971     -100.19      
5            0.52963     -96.703       1.3765       14.357       0.11787      25.471       0.75066     -100.44      
5.01         0.53083     -96.725       1.3706       14.137       0.11762      25.332       0.75182     -100.7       
5.02         0.53211     -96.744       1.365        13.909       0.11739      25.19        0.75319     -100.94      
5.03         0.53347     -96.759       1.3598       13.675       0.1172       25.045       0.75476     -101.19      
5.04         0.53491     -96.77        1.355        13.434       0.11703      24.898       0.75653     -101.42      
5.05         0.5362      -96.79        1.3498       13.202       0.11681      24.769       0.75795     -101.67      
5.06         0.53726     -96.827       1.3436       12.981       0.11651      24.663       0.75881     -101.93      
5.07         0.5384      -96.861       1.3379       12.753       0.11623      24.553       0.75989     -102.18      
5.08         0.53962     -96.891       1.3325       12.517       0.11597      24.44        0.76117     -102.43      
5.09         0.54092     -96.918       1.3276       12.275       0.11574      24.324       0.76267     -102.68      
5.1          0.54231     -96.941       1.3229       12.026       0.11554      24.205       0.76437     -102.92      
5.11         0.54355     -96.964       1.3179       11.795       0.1153       24.1         0.76577     -103.16      
5.12         0.54456     -96.989       1.3122       11.59        0.11501      24.011       0.76669     -103.4       
5.13         0.54565     -97.011       1.3068       11.377       0.11474      23.919       0.76782     -103.64      
5.14         0.54682     -97.03        1.3017       11.157       0.1145       23.824       0.76914     -103.87      
5.15         0.54808     -97.046       1.297        10.931       0.11427      23.726       0.77068     -104.1       
5.16         0.54941     -97.057       1.2927       10.698       0.11407      23.626       0.77241     -104.33      
5.17         0.55058     -97.072       1.2879       10.478       0.11385      23.532       0.77378     -104.56      
5.18         0.55151     -97.091       1.2821       10.274       0.11358      23.446       0.77462     -104.8       
5.19         0.55252     -97.107       1.2768       10.062       0.11333      23.358       0.77566     -105.03      
5.2          0.55361     -97.121       1.2717       9.843        0.1131       23.266       0.77691     -105.27      
5.21         0.55479     -97.131       1.267        9.6172       0.1129       23.172       0.77837     -105.5       
5.22         0.55604     -97.138       1.2627       9.3852       0.11272      23.075       0.78003     -105.72      
5.23         0.55713     -97.154       1.258        9.165        0.11251      22.983       0.78129     -105.95      
5.24         0.558       -97.183       1.2526       8.9606       0.11226      22.899       0.78199     -106.18      
5.25         0.55895     -97.21        1.2476       8.7488       0.11203      22.811       0.7829      -106.4       
5.26         0.55999     -97.234       1.243        8.5302       0.11183      22.72        0.784       -106.63      
5.27         0.56111     -97.254       1.2387       8.305        0.11164      22.627       0.78532     -106.85      
5.28         0.56232     -97.272       1.2347       8.074        0.11148      22.532       0.78683     -107.06      
5.29         0.56336     -97.293       1.2302       7.8591       0.11128      22.439       0.78803     -107.28      
5.3          0.56419     -97.32        1.2249       7.6648       0.11102      22.347       0.78876     -107.5       
5.31         0.5651      -97.346       1.2199       7.4629       0.11078      22.252       0.7897      -107.72      
5.32         0.56609     -97.368       1.2153       7.254        0.11056      22.153       0.79084     -107.94      
5.33         0.56717     -97.388       1.211        7.0385       0.11037      22.052       0.79219     -108.15      
5.34         0.56833     -97.404       1.207        6.817        0.11019      21.949       0.79373     -108.36      
5.35         0.56934     -97.421       1.2025       6.6049       0.10997      21.856       0.7949      -108.57      
5.36         0.57015     -97.442       1.1973       6.4042       0.10967      21.777       0.79553     -108.79      
5.37         0.57104     -97.459       1.1924       6.1959       0.10939      21.693       0.79636     -109         
5.38         0.57201     -97.474       1.1879       5.9804       0.10914      21.605       0.7974      -109.21      
5.39         0.57307     -97.487       1.1837       5.7583       0.1089       21.514       0.79864     -109.41      
5.4          0.5742      -97.496       1.1798       5.5299       0.10869      21.421       0.80007     -109.61      
5.41         0.57514     -97.511       1.1754       5.3229       0.10846      21.332       0.80119     -109.82      
5.42         0.5758      -97.535       1.1705       5.1419       0.1082       21.249       0.80187     -110.03      
5.43         0.57654     -97.556       1.1658       4.9537       0.10797      21.162       0.80275     -110.24      
5.44         0.57738     -97.575       1.1615       4.7585       0.10775      21.073       0.80384     -110.44      
5.45         0.57829     -97.592       1.1575       4.5568       0.10756      20.98        0.80513     -110.65      
5.46         0.5793      -97.607       1.1537       4.3492       0.10738      20.886       0.80662     -110.85      
5.47         0.58017     -97.63        1.1495       4.152        0.10716      20.806       0.80771     -111.05      
5.48         0.58086     -97.665       1.1447       3.967        0.10686      20.742       0.80828     -111.26      
5.49         0.58164     -97.698       1.1402       3.7745       0.10659      20.675       0.80906     -111.46      
5.5          0.58251     -97.729       1.136        3.5751       0.10633      20.604       0.81003     -111.66      
5.51         0.58347     -97.758       1.1321       3.3692       0.1061       20.529       0.81122     -111.86      
5.52         0.58452     -97.783       1.1285       3.1572       0.10588      20.451       0.8126      -112.06      
5.53         0.58542     -97.815       1.1245       2.9599       0.10565      20.385       0.81366     -112.25      
5.54         0.58613     -97.856       1.1201       2.7795       0.1054       20.331       0.81429     -112.43      
5.55         0.58693     -97.894       1.1159       2.5922       0.10516      20.274       0.81512     -112.62      
5.56         0.58782     -97.931       1.112        2.3983       0.10495      20.213       0.81615     -112.8       
5.57         0.5888      -97.964       1.1084       2.1984       0.10475      20.15        0.81738     -112.98      
5.58         0.58988     -97.995       1.1051       1.9928       0.10458      20.084       0.8188      -113.16      
5.59         0.5907      -98.023       1.1013       1.7987       0.10435      20.033       0.81974     -113.34      
5.6          0.59123     -98.048       1.0968       1.6166       0.10406      19.997       0.8201      -113.54      
5.61         0.59184     -98.071       1.0925       1.427        0.10378      19.957       0.82066     -113.74      
5.62         0.59254     -98.092       1.0885       1.2305       0.10353      19.914       0.82143     -113.93      
5.63         0.59333     -98.112       1.0848       1.0274       0.1033       19.866       0.8224      -114.12      
5.64         0.59421     -98.129       1.0814       0.81827      0.10308      19.816       0.82357     -114.31      
5.65         0.59491     -98.153       1.0776       0.62766      0.10284      19.77        0.82437     -114.5       
5.66         0.59538     -98.185       1.0733       0.45735      0.10257      19.728       0.82472     -114.68      
5.67         0.59594     -98.216       1.0693       0.27991      0.10232      19.682       0.82527     -114.86      
5.68         0.5966      -98.246       1.0655       0.095755     0.10209      19.633       0.82602     -115.04      
5.69         0.59735     -98.273       1.062       -0.094681     0.10188      19.58        0.82696     -115.22      
5.7          0.59819     -98.298       1.0588      -0.29094      0.10169      19.525       0.82811     -115.4       
5.71         0.59884     -98.334       1.0552      -0.47488      0.10146      19.479       0.82895     -115.57      
5.72         0.59929     -98.384       1.051       -0.64613      0.1012       19.445       0.82944     -115.75      
5.73         0.59984     -98.432       1.0471      -0.82451      0.10096      19.406       0.83012     -115.92      
5.74         0.60049     -98.478       1.0434      -1.0096       0.10073      19.364       0.83101     -116.09      
5.75         0.60123     -98.523       1.04        -1.201        0.10053      19.319       0.83208     -116.26      
5.76         0.60207     -98.566       1.0369      -1.3982       0.10034      19.27        0.83335     -116.43      
5.77         0.60271     -98.603       1.0333      -1.5792       0.10012      19.241       0.83416     -116.59      
5.78         0.60313     -98.635       1.0292      -1.7437       0.099861     19.231       0.83445     -116.77      
5.79         0.60365     -98.666       1.0254      -1.9155       0.09962      19.217       0.83494     -116.94      
5.8          0.60426     -98.696       1.0218      -2.0939       0.099396     19.2         0.83562     -117.11      
5.81         0.60496     -98.724       1.0184      -2.2788       0.099188     19.18        0.8365      -117.28      
5.82         0.60576     -98.75        1.0154      -2.4695       0.098998     19.157       0.83758     -117.45      
5.83         0.60632     -98.783       1.0119      -2.6523       0.098776     19.133       0.83828     -117.62      
5.84         0.60663     -98.825       1.0081      -2.8276       0.09852      19.109       0.83857     -117.79      
5.85         0.60704     -98.867       1.0044      -3.0099       0.098281     19.082       0.83905     -117.97      
5.86         0.60754     -98.907       1.0011      -3.1988       0.098059     19.05        0.83974     -118.14      
5.87         0.60815     -98.946       0.998       -3.3939       0.097855     19.015       0.84062     -118.31      
5.88         0.60885     -98.983       0.99517     -3.5947       0.097667     18.977       0.84171     -118.48      
5.89         0.60932     -99.019       0.99184     -3.7761       0.097444     18.955       0.84242     -118.65      
5.9          0.60955     -99.056       0.98795     -3.9387       0.097182     18.949       0.84276     -118.83      
5.91         0.60988     -99.091       0.9843      -4.1085       0.096936     18.938       0.84329     -119.01      
5.92         0.6103      -99.126       0.98089     -4.2851       0.096705     18.924       0.84403     -119.19      
5.93         0.61083     -99.16        0.97773     -4.4681       0.096491     18.906       0.84497     -119.37      
5.94         0.61144     -99.192       0.97483     -4.6571       0.096293     18.885       0.84612     -119.54      
5.95         0.61185     -99.232       0.9715      -4.8315       0.096072     18.877       0.84682     -119.71      
5.96         0.61204     -99.28        0.96773     -4.9925       0.095824     18.88        0.84705     -119.87      
5.97         0.61233     -99.329       0.96418     -5.1606       0.095592     18.88        0.84748     -120.03      
5.98         0.61272     -99.376       0.96088     -5.3356       0.095376     18.876       0.8481      -120.19      
5.99         0.61321     -99.422       0.95782     -5.5169       0.095174     18.869       0.84892     -120.35      
6            0.61381     -99.467       0.955       -5.7042       0.094989     18.859       0.84993     -120.5       
6.01         0.61422     -99.51        0.9519      -5.8758       0.094792     18.858       0.85051     -120.66      
6.02         0.61446     -99.553       0.94849     -6.0329       0.094583     18.867       0.85066     -120.81      
6.03         0.61479     -99.596       0.9453      -6.1966       0.094389     18.872       0.851       -120.96      
6.04         0.61523     -99.637       0.94235     -6.3666       0.09421      18.875       0.85153     -121.12      
6.05         0.61577     -99.677       0.93963     -6.5424       0.094046     18.874       0.85226     -121.27      
6.06         0.6164      -99.716       0.93714     -6.7237       0.093897     18.871       0.85318     -121.42      
6.07         0.61674     -99.76        0.93417     -6.8928       0.093703     18.885       0.85368     -121.57      
6.08         0.61679     -99.811       0.93071     -7.052        0.093465     18.914       0.85376     -121.73      
6.09         0.61693     -99.862       0.92747     -7.2182       0.093241     18.94        0.85404     -121.89      
6.1          0.61719     -99.913       0.92446     -7.3909       0.09303      18.962       0.85452     -122.04      
6.11         0.61754     -99.963       0.92168     -7.5699       0.092833     18.981       0.85519     -122.2       
6.12         0.618       -100.01       0.91913     -7.7545       0.092651     18.997       0.85605     -122.35      
6.13         0.6182      -100.06       0.91612     -7.919        0.092451     19.017       0.85656     -122.5       
6.14         0.61816     -100.12       0.91265     -8.066        0.092236     19.04        0.85674     -122.66      
6.15         0.61822     -100.18       0.90939     -8.22         0.092035     19.06        0.85711     -122.81      
6.16         0.61838     -100.24       0.90635     -8.3808       0.091847     19.077       0.85768     -122.96      
6.17         0.61865     -100.3        0.90352     -8.5479       0.091674     19.09        0.85843     -123.11      
6.18         0.61903     -100.35       0.90092     -8.7209       0.091514     19.101       0.85939     -123.25      
6.19         0.61923     -100.41       0.89813     -8.8783       0.091333     19.137       0.85997     -123.4       
6.2          0.61925     -100.46       0.89514     -9.0221       0.09113      19.197       0.86022     -123.54      
6.21         0.61938     -100.51       0.89237     -9.1721       0.090939     19.253       0.86067     -123.67      
6.22         0.61962     -100.56       0.8898      -9.3279       0.09076      19.306       0.86129     -123.81      
6.23         0.61996     -100.61       0.88745     -9.4891       0.090594     19.357       0.86211     -123.95      
6.24         0.6204      -100.66       0.88532     -9.6554       0.09044      19.405       0.86312     -124.09      
6.25         0.6205      -100.72       0.88254     -9.8108       0.090252     19.473       0.86352     -124.22      
6.26         0.62029     -100.78       0.87918     -9.9586       0.090031     19.56        0.86337     -124.37      
6.27         0.62019     -100.83       0.87602     -10.114       0.089821     19.644       0.86341     -124.51      
6.28         0.6202      -100.89       0.87307     -10.276       0.089622     19.724       0.86364     -124.65      
6.29         0.62031     -100.95       0.87033     -10.444       0.089434     19.801       0.86407     -124.79      
6.3          0.62053     -101.01       0.8678      -10.619       0.089257     19.875       0.86468     -124.94      
6.31         0.62049     -101.07       0.86498     -10.787       0.089082     19.949       0.86499     -125.09      
6.32         0.62021     -101.14       0.86192     -10.952       0.088909     20.021       0.86505     -125.25      
6.33         0.62004     -101.21       0.85906     -11.124       0.088747     20.091       0.86531     -125.42      
6.34         0.61998     -101.28       0.85642     -11.303       0.088596     20.157       0.86577     -125.58      
6.35         0.62003     -101.34       0.85398     -11.488       0.088458     20.222       0.86644     -125.74      
6.36         0.62019     -101.41       0.85177     -11.678       0.08833      20.284       0.86731     -125.91      
6.37         0.62012     -101.48       0.84921     -11.841       0.088245     20.371       0.86768     -126.05      
6.38         0.61987     -101.54       0.84634     -11.98        0.088196     20.48        0.86761     -126.17      
6.39         0.61973     -101.6        0.84366     -12.126       0.088157     20.589       0.86772     -126.29      
6.4          0.61969     -101.66       0.84118     -12.278       0.088129     20.698       0.86801     -126.41      
6.41         0.61976     -101.73       0.83889     -12.436       0.08811      20.805       0.86849     -126.53      
6.42         0.61995     -101.79       0.8368      -12.599       0.088102     20.913       0.86915     -126.65      
6.43         0.61985     -101.86       0.83435     -12.748       0.088086     20.976       0.86943     -126.78      
6.44         0.61952     -101.93       0.83158     -12.885       0.088067     20.999       0.8694      -126.92      
6.45         0.6193      -102.01       0.829       -13.029       0.088062     21.022       0.86955     -127.05      
6.46         0.6192      -102.08       0.82661     -13.178       0.08807      21.045       0.8699      -127.19      
6.47         0.61921     -102.16       0.82442     -13.334       0.088092     21.068       0.87043     -127.32      
6.48         0.61933     -102.24       0.82242     -13.494       0.088126     21.091       0.87116     -127.46      
6.49         0.61914     -102.31       0.82011     -13.652       0.088078     21.078       0.87145     -127.59      
6.5          0.61871     -102.37       0.81756     -13.809       0.087964     21.032       0.87139     -127.72      
6.51         0.61839     -102.44       0.81521     -13.973       0.087865     20.984       0.87152     -127.85      
6.52         0.61818     -102.51       0.81306     -14.142       0.087782     20.934       0.87184     -127.99      
6.53         0.61808     -102.58       0.8111      -14.317       0.087715     20.882       0.87235     -128.12      
6.54         0.61809     -102.65       0.80934     -14.497       0.087664     20.828       0.87305     -128.25      
6.55         0.61783     -102.73       0.80695     -14.657       0.087525     20.823       0.87325     -128.39      
6.56         0.61737     -102.81       0.80406     -14.803       0.087311     20.857       0.87308     -128.52      
6.57         0.61702     -102.89       0.80135     -14.956       0.087109     20.887       0.87308     -128.65      
6.58         0.61679     -102.97       0.79883     -15.116       0.086919     20.913       0.87328     -128.78      
6.59         0.61667     -103.06       0.7965      -15.283       0.086743     20.936       0.87367     -128.92      
6.6          0.61667     -103.14       0.79436     -15.455       0.086579     20.955       0.87425     -129.05      
6.61         0.61652     -103.23       0.79203     -15.614       0.086349     21.011       0.87447     -129.18      
6.62         0.61628     -103.33       0.78958     -15.765       0.086065     21.094       0.87444     -129.31      
6.63         0.61615     -103.42       0.78732     -15.921       0.085791     21.172       0.87459     -129.44      
6.64         0.61614     -103.52       0.78524     -16.083       0.085528     21.246       0.87494     -129.57      
6.65         0.61626     -103.62       0.78334     -16.251       0.085275     21.316       0.87547     -129.71      
6.66         0.61649     -103.71       0.78164     -16.424       0.085033     21.381       0.87619     -129.84      
6.67         0.61623     -103.83       0.77941     -16.584       0.084815     21.546       0.87642     -129.97      
6.68         0.61561     -103.96       0.77678     -16.737       0.084614     21.793       0.8763      -130.1       
6.69         0.61512     -104.1        0.77433     -16.896       0.084417     22.038       0.87636     -130.23      
6.7          0.61476     -104.23       0.77206     -17.062       0.084226     22.28        0.87661     -130.36      
6.71         0.61453     -104.37       0.76998     -17.234       0.08404      22.52        0.87705     -130.49      
6.72         0.61444     -104.51       0.76809     -17.412       0.08386      22.757       0.87768     -130.62      
6.73         0.614       -104.64       0.76578     -17.56        0.083801     22.99        0.87779     -130.76      
6.74         0.61333     -104.76       0.76317     -17.687       0.083839     23.22        0.87752     -130.9       
6.75         0.61277     -104.88       0.76072     -17.821       0.083882     23.451       0.87745     -131.04      
6.76         0.61235     -105          0.75843     -17.961       0.083932     23.682       0.87756     -131.18      
6.77         0.61205     -105.13       0.75632     -18.108       0.083988     23.914       0.87787     -131.32      
6.78         0.61188     -105.25       0.75438     -18.26        0.08405      24.147       0.87838     -131.46      
6.79         0.61127     -105.38       0.75217     -18.408       0.0841       24.343       0.87849     -131.59      
6.8          0.61034     -105.51       0.7498      -18.556       0.084143     24.51        0.87832     -131.72      
6.81         0.60955     -105.64       0.7476      -18.71        0.084194     24.678       0.87833     -131.84      
6.82         0.60888     -105.77       0.74556     -18.87        0.084253     24.846       0.87853     -131.96      
6.83         0.60835     -105.91       0.7437      -19.036       0.084319     25.015       0.87892     -132.08      
6.84         0.60794     -106.05       0.74202     -19.208       0.084394     25.185       0.87949     -132.21      
6.85         0.60712     -106.19       0.73986     -19.36        0.084546     25.407       0.87946     -132.34      
6.86         0.60602     -106.33       0.73736     -19.501       0.084757     25.672       0.87904     -132.47      
6.87         0.60504     -106.47       0.73502     -19.648       0.084974     25.939       0.8788      -132.6       
6.88         0.6042      -106.61       0.73285     -19.802       0.085196     26.208       0.87876     -132.74      
6.89         0.60349     -106.76       0.73085     -19.962       0.085425     26.48        0.8789      -132.87      
6.9          0.60291     -106.91       0.72901     -20.128       0.085658     26.754       0.87924     -133.01      
6.91         0.60182     -107.05       0.72681     -20.264       0.086077     27.004       0.87907     -133.14      
6.92         0.60039     -107.19       0.72434     -20.381       0.086635     27.239       0.87858     -133.26      
6.93         0.59908     -107.33       0.72203     -20.505       0.0872       27.48        0.87826     -133.39      
6.94         0.59789     -107.47       0.71987     -20.635       0.087773     27.728       0.87813     -133.51      
6.95         0.59684     -107.62       0.71786     -20.771       0.088353     27.982       0.87819     -133.64      
6.96         0.59592     -107.77       0.71601     -20.913       0.08894      28.242       0.87844     -133.77      
6.97         0.59471     -107.88       0.71407     -21.032       0.089607     28.22        0.87809     -133.88      
6.98         0.59331     -107.96       0.71208     -21.135       0.090348     28.002       0.87736     -133.98      
6.99         0.59202     -108.04       0.71024     -21.245       0.091114     27.798       0.8768      -134.09      
7            0.59084     -108.13       0.70854     -21.359       0.091906     27.608       0.87642     -134.19      
7.01         0.58977     -108.22       0.70699     -21.478       0.092722     27.433       0.87621     -134.3       
7.02         0.5888      -108.32       0.70558     -21.602       0.093562     27.273       0.87617     -134.41      
7.03         0.58776     -108.4        0.704       -21.733       0.094045     26.99        0.87589     -134.51      
7.04         0.5867      -108.48       0.70234     -21.873       0.094289     26.614       0.87548     -134.62      
7.05         0.58574     -108.56       0.70083     -22.017       0.094567     26.244       0.87525     -134.72      
7.06         0.58489     -108.64       0.69947     -22.166       0.09488      25.878       0.87519     -134.83      
7.07         0.58415     -108.73       0.69827     -22.319       0.095228     25.518       0.8753      -134.93      
7.08         0.58352     -108.82       0.69723     -22.476       0.09561      25.165       0.87559     -135.04      
7.09         0.58262     -108.91       0.69571     -22.627       0.095815     24.849       0.87558     -135.14      
7.1          0.58158     -109.01       0.6939      -22.777       0.095904     24.554       0.8754      -135.24      
7.11         0.58064     -109.11       0.69225     -22.933       0.096023     24.26        0.8754      -135.34      
7.12         0.57982     -109.21       0.69075     -23.094       0.096172     23.967       0.87557     -135.45      
7.13         0.57912     -109.32       0.68941     -23.259       0.096351     23.676       0.87592     -135.55      
7.14         0.57852     -109.43       0.68823     -23.429       0.096561     23.388       0.87644     -135.65      
7.15         0.57783     -109.53       0.6868      -23.586       0.096618     23.034       0.87649     -135.75      
7.16         0.57709     -109.61       0.68525     -23.735       0.096586     22.631       0.87627     -135.84      
7.17         0.57646     -109.7        0.68385     -23.889       0.096591     22.226       0.87622     -135.93      
7.18         0.57595     -109.79       0.6826      -24.048       0.096633     21.821       0.87634     -136.02      
7.19         0.57553     -109.88       0.68151     -24.211       0.096712     21.415       0.87662     -136.11      
7.2          0.57523     -109.98       0.68058     -24.377       0.096829     21.009       0.87708     -136.2       
7.21         0.57485     -110.1        0.67914     -24.553       0.096471     20.71        0.87721     -136.3       
7.22         0.57446     -110.25       0.6774      -24.737       0.095799     20.468       0.87719     -136.4       
7.23         0.5742      -110.41       0.67583     -24.927       0.095153     20.212       0.87734     -136.5       
7.24         0.57407     -110.56       0.67443     -25.122       0.094533     19.942       0.87767     -136.6       
7.25         0.57407     -110.71       0.67319     -25.323       0.09394      19.657       0.87817     -136.71      
7.26         0.57419     -110.87       0.67213     -25.527       0.093374     19.358       0.87884     -136.81      
7.27         0.57369     -111.03       0.67056     -25.715       0.092992     19.179       0.87899     -136.93      
7.28         0.57281     -111.21       0.66871     -25.895       0.092731     19.079       0.87887     -137.05      
7.29         0.57207     -111.38       0.66703     -26.081       0.092488     18.974       0.87892     -137.18      
7.3          0.57146     -111.56       0.6655      -26.273       0.092264     18.863       0.87916     -137.3       
7.31         0.57099     -111.75       0.66413     -26.47        0.092058     18.748       0.87959     -137.43      
7.32         0.57065     -111.93       0.66293     -26.672       0.091871     18.628       0.88021     -137.56      
7.33         0.57009     -112.14       0.66127     -26.86        0.091524     18.591       0.88044     -137.68      
7.34         0.56944     -112.36       0.65936     -27.044       0.091077     18.604       0.8805      -137.79      
7.35         0.56894     -112.58       0.6576      -27.234       0.090642     18.61        0.88074     -137.9       
7.36         0.56859     -112.8        0.65601     -27.43        0.09022      18.607       0.88115     -138.01      
7.37         0.56839     -113.02       0.65458     -27.632       0.089811     18.598       0.88175     -138.12      
7.38         0.56834     -113.25       0.65331     -27.838       0.089415     18.581       0.88253     -138.23      
7.39         0.56755     -113.45       0.65163     -28.018       0.089191     18.597       0.88263     -138.35      
7.4          0.56634     -113.64       0.64974     -28.182       0.089078     18.635       0.88238     -138.47      
7.41         0.56527     -113.83       0.64799     -28.353       0.088976     18.671       0.88231     -138.59      
7.42         0.56433     -114.03       0.6464      -28.53        0.088887     18.704       0.88242     -138.71      
7.43         0.56353     -114.23       0.64495     -28.713       0.08881      18.736       0.88272     -138.83      
7.44         0.56287     -114.44       0.64366     -28.9         0.088745     18.766       0.8832      -138.95      
7.45         0.56182     -114.66       0.64192     -29.089       0.08855      18.802       0.88317     -139.08      
7.46         0.56059     -114.89       0.63996     -29.282       0.088279     18.838       0.88291     -139.22      
7.47         0.55951     -115.12       0.63816     -29.481       0.08802      18.869       0.88284     -139.36      
7.48         0.55857     -115.36       0.63651     -29.687       0.087772     18.896       0.88296     -139.5       
7.49         0.55779     -115.61       0.63502     -29.9         0.087536     18.918       0.88328     -139.65      
7.5          0.55715     -115.86       0.63368     -30.117       0.087312     18.936       0.88379     -139.79      
7.51         0.55603     -116.08       0.63189     -30.303       0.087186     18.935       0.88389     -139.92      
7.52         0.55465     -116.28       0.62987     -30.472       0.087124     18.923       0.88381     -140.03      
7.53         0.55341     -116.49       0.628       -30.648       0.087075     18.909       0.88392     -140.15      
7.54         0.55231     -116.71       0.62626     -30.83        0.087041     18.893       0.88421     -140.27      
7.55         0.55135     -116.93       0.62468     -31.019       0.08702      18.876       0.88468     -140.4       
7.56         0.55053     -117.16       0.62324     -31.213       0.087013     18.858       0.88534     -140.52      
7.57         0.54921     -117.39       0.62138     -31.395       0.086947     18.908       0.88529     -140.63      
7.58         0.54765     -117.62       0.61934     -31.572       0.086848     18.998       0.8849      -140.75      
7.59         0.54624     -117.87       0.61744     -31.756       0.08676      19.085       0.88468     -140.86      
7.6          0.54498     -118.11       0.61567     -31.948       0.086681     19.171       0.88465     -140.98      
7.61         0.54386     -118.37       0.61406     -32.145       0.086612     19.255       0.88479     -141.1       
7.62         0.54289     -118.62       0.61259     -32.348       0.086554     19.337       0.88512     -141.22      
7.63         0.54149     -118.8        0.61081     -32.515       0.08661      19.302       0.88492     -141.35      
7.64         0.53986     -118.94       0.60889     -32.663       0.086741     19.201       0.88448     -141.48      
7.65         0.53834     -119.08       0.6071      -32.818       0.086889     19.101       0.88423     -141.62      
7.66         0.53694     -119.23       0.60544     -32.979       0.087055     19.002       0.88417     -141.76      
7.67         0.53566     -119.38       0.60392     -33.145       0.087238     18.906       0.8843      -141.9       
7.68         0.5345      -119.54       0.60253     -33.317       0.087438     18.812       0.88462     -142.03      
7.69         0.53338     -119.71       0.60075     -33.492       0.087394     18.706       0.88445     -142.17      
7.7          0.53234     -119.9        0.59882     -33.672       0.087219     18.589       0.88408     -142.31      
7.71         0.53143     -120.09       0.59703     -33.859       0.087061     18.468       0.88391     -142.45      
7.72         0.53065     -120.28       0.59537     -34.052       0.086921     18.343       0.88392     -142.58      
7.73         0.53        -120.48       0.59386     -34.251       0.086798     18.214       0.88412     -142.72      
7.74         0.52947     -120.68       0.59248     -34.456       0.086693     18.081       0.88451     -142.87      
7.75         0.52875     -120.86       0.59081     -34.629       0.086547     17.963       0.88445     -142.98      
7.76         0.52798     -121.03       0.58903     -34.788       0.086384     17.849       0.8842      -143.09      
7.77         0.52732     -121.2        0.58737     -34.952       0.086239     17.732       0.88413     -143.19      
7.78         0.52679     -121.38       0.58584     -35.123       0.08611      17.611       0.88424     -143.3       
7.79         0.52638     -121.56       0.58445     -35.3         0.085999     17.487       0.88452     -143.41      
7.8          0.5261      -121.75       0.58319     -35.481       0.085906     17.36        0.88498     -143.52      
7.81         0.5253      -121.94       0.58148     -35.647       0.085852     17.307       0.88475     -143.64      
7.82         0.52427     -122.13       0.57959     -35.807       0.085823     17.295       0.88423     -143.78      
7.83         0.52336     -122.33       0.57782     -35.974       0.085807     17.282       0.88389     -143.91      
7.84         0.52259     -122.53       0.57618     -36.147       0.085804     17.267       0.88375     -144.05      
7.85         0.52195     -122.74       0.57467     -36.326       0.085814     17.252       0.88379     -144.19      
7.86         0.52144     -122.94       0.57329     -36.511       0.085838     17.236       0.88403     -144.33      
7.87         0.52117     -123.07       0.57174     -36.663       0.08579      17.009       0.88369     -144.45      
7.88         0.52106     -123.16       0.57015     -36.801       0.085722     16.668       0.88313     -144.58      
7.89         0.52106     -123.25       0.56869     -36.944       0.085682     16.324       0.88275     -144.71      
7.9          0.52116     -123.34       0.56734     -37.092       0.08567      15.978       0.88256     -144.84      
7.91         0.52135     -123.43       0.56611     -37.245       0.085686     15.63        0.88254     -144.97      
7.92         0.52165     -123.52       0.56501     -37.402       0.085731     15.281       0.88272     -145.1       
7.93         0.52225     -123.68       0.56368     -37.574       0.085384     14.998       0.88258     -145.2       
7.94         0.52308     -123.89       0.5623      -37.756       0.084845     14.737       0.88236     -145.3       
7.95         0.52405     -124.09       0.56105     -37.944       0.084328     14.463       0.88231     -145.39      
7.96         0.52515     -124.29       0.55994     -38.136       0.083834     14.176       0.88243     -145.49      
7.97         0.52638     -124.49       0.55895     -38.333       0.083364     13.876       0.88272     -145.58      
7.98         0.52775     -124.68       0.55811     -38.535       0.082919     13.563       0.88319     -145.68      
7.99         0.52881     -124.94       0.55678     -38.735       0.082366     13.431       0.88302     -145.8       
8            0.5298      -125.24       0.55529     -38.938       0.081762     13.385       0.88262     -145.93      
8.01         0.53095     -125.52       0.55392     -39.148       0.08117      13.327       0.88242     -146.06      
8.02         0.53227     -125.81       0.5527      -39.363       0.080591     13.257       0.8824      -146.19      
8.03         0.53374     -126.09       0.5516      -39.583       0.080025     13.175       0.88256     -146.33      
8.04         0.53539     -126.37       0.55065     -39.808       0.079472     13.082       0.88292     -146.46      
8.05         0.53622     -126.71       0.54918     -40.024       0.078973     13.1         0.88273     -146.6       
8.06         0.53677     -127.08       0.54752     -40.241       0.078503     13.171       0.88236     -146.73      
8.07         0.53751     -127.45       0.54599     -40.463       0.078041     13.234       0.88218     -146.87      
8.08         0.53843     -127.82       0.54459     -40.693       0.077587     13.289       0.88219     -147.01      
8.09         0.53955     -128.18       0.54333     -40.928       0.077142     13.337       0.88239     -147.15      
8.1          0.54086     -128.54       0.54222     -41.17        0.076706     13.376       0.88278     -147.28      
8.11         0.54169     -128.92       0.54065     -41.378       0.076287     13.475       0.8826      -147.41      
8.12         0.54238     -129.29       0.53892     -41.576       0.07588      13.601       0.88222     -147.52      
8.13         0.54326     -129.67       0.53732     -41.78        0.075479     13.721       0.88203     -147.64      
8.14         0.54435     -130.04       0.53585     -41.991       0.075085     13.834       0.88201     -147.75      
8.15         0.54562     -130.42       0.5345      -42.208       0.074699     13.941       0.88217     -147.87      
8.16         0.54709     -130.78       0.53329     -42.431       0.074319     14.041       0.88252     -147.99      
8.17         0.54767     -131.17       0.53172     -42.64        0.074043     14.175       0.88219     -148.11      
8.18         0.54795     -131.58       0.53004     -42.846       0.073819     14.324       0.88164     -148.24      
8.19         0.54842     -131.98       0.52849     -43.059       0.073602     14.469       0.88128     -148.37      
8.2          0.5491      -132.38       0.52706     -43.279       0.073391     14.61        0.8811      -148.5       
8.21         0.54999     -132.78       0.52576     -43.505       0.073186     14.748       0.8811      -148.63      
8.22         0.55108     -133.18       0.52459     -43.737       0.072988     14.883       0.88129     -148.76      
8.23         0.55162     -133.56       0.52301     -43.954       0.072827     14.954       0.88081     -148.9       
8.24         0.55201     -133.94       0.5213      -44.168       0.072689     14.994       0.88014     -149.06      
8.25         0.55259     -134.32       0.51972     -44.389       0.07256      15.031       0.87966     -149.22      
8.26         0.55337     -134.7        0.51826     -44.616       0.07244      15.065       0.87938     -149.38      
8.27         0.55435     -135.07       0.51692     -44.85        0.072329     15.096       0.87929     -149.54      
8.28         0.55553     -135.44       0.51572     -45.09        0.072228     15.125       0.8794      -149.7       
8.29         0.55631     -135.83       0.51427     -45.306       0.072032     14.992       0.87918     -149.82      
8.3          0.55703     -136.22       0.51276     -45.515       0.071805     14.782       0.87889     -149.93      
8.31         0.55794     -136.6        0.51138     -45.73        0.071595     14.565       0.87877     -150.04      
8.32         0.55907     -136.99       0.51012     -45.951       0.071403     14.342       0.87883     -150.15      
8.33         0.56039     -137.37       0.50899     -46.178       0.071227     14.113       0.87907     -150.26      
8.34         0.56192     -137.75       0.50798     -46.41        0.07107      13.878       0.87948     -150.37      
8.35         0.563       -138.18       0.50642     -46.66        0.070458     13.742       0.87928     -150.47      
8.36         0.56403     -138.64       0.50471     -46.923       0.069652     13.635       0.87891     -150.58      
8.37         0.56529     -139.09       0.50312     -47.194       0.068857     13.51        0.8787      -150.68      
8.38         0.56678     -139.54       0.50168     -47.472       0.068073     13.365       0.87867     -150.79      
8.39         0.5685      -139.98       0.50036     -47.757       0.067302     13.201       0.87882     -150.89      
8.4          0.57045     -140.42       0.49919     -48.048       0.066544     13.017       0.87914     -151         
8.41         0.57128     -140.89       0.49732     -48.313       0.065803     13.242       0.87893     -151.13      
8.42         0.57177     -141.38       0.49522     -48.573       0.065066     13.644       0.8786      -151.27      
8.43         0.57251     -141.87       0.49324     -48.841       0.06433      14.04        0.87846     -151.4       
8.44         0.57349     -142.36       0.4914      -49.118       0.063594     14.432       0.87851     -151.54      
8.45         0.57472     -142.85       0.48968     -49.404       0.062859     14.817       0.87874     -151.68      
8.46         0.57619     -143.33       0.4881      -49.698       0.062124     15.197       0.87917     -151.83      
8.47         0.57662     -143.81       0.48603     -49.947       0.061653     15.707       0.87902     -151.96      
8.48         0.57674     -144.31       0.48381     -50.183       0.061293     16.272       0.87873     -152.1       
8.49         0.57711     -144.8        0.48172     -50.429       0.060934     16.838       0.87862     -152.24      
8.5          0.57773     -145.29       0.47974     -50.684       0.060575     17.402       0.87871     -152.38      
8.51         0.57859     -145.78       0.47787     -50.947       0.060217     17.967       0.87898     -152.52      
8.52         0.5797      -146.27       0.47614     -51.218       0.059859     18.531       0.87944     -152.66      
8.53         0.58005     -146.73       0.47402     -51.446       0.059686     19.079       0.87931     -152.79      
8.54         0.58023     -147.19       0.4718      -51.66        0.059589     19.62        0.87904     -152.92      
8.55         0.58064     -147.65       0.46969     -51.884       0.059493     20.161       0.87895     -153.05      
8.56         0.58129     -148.12       0.46769     -52.117       0.059398     20.702       0.87904     -153.17      
8.57         0.58217     -148.57       0.4658      -52.358       0.059305     21.243       0.87932     -153.3       
8.58         0.58328     -149.03       0.46403     -52.608       0.059214     21.784       0.87978     -153.43      
8.59         0.58362     -149.47       0.46196     -52.825       0.059178     22.254       0.87949     -153.58      
8.6          0.58377     -149.9        0.45984     -53.034       0.059166     22.695       0.87904     -153.74      
8.61         0.58415     -150.33       0.45782     -53.251       0.059155     23.137       0.87877     -153.9       
8.62         0.58475     -150.75       0.45591     -53.478       0.059147     23.578       0.87871     -154.07      
8.63         0.58557     -151.18       0.4541      -53.712       0.059141     24.019       0.87883     -154.23      
8.64         0.58662     -151.61       0.4524      -53.955       0.059137     24.46        0.87916     -154.39      
8.65         0.58692     -152.04       0.45027     -54.163       0.059167     24.798       0.87877     -154.54      
8.66         0.58708     -152.48       0.44804     -54.363       0.059214     25.096       0.8782      -154.68      
8.67         0.58746     -152.91       0.4459      -54.573       0.059263     25.395       0.87782     -154.82      
8.68         0.58806     -153.35       0.44386     -54.792       0.059316     25.693       0.87762     -154.96      
8.69         0.58889     -153.78       0.44193     -55.02        0.059373     25.992       0.87761     -155.1       
8.7          0.58994     -154.21       0.4401      -55.256       0.059432     26.291       0.87779     -155.24      
8.71         0.59021     -154.63       0.43807     -55.453       0.059489     26.569       0.87759     -155.36      
8.72         0.59032     -155.04       0.43602     -55.64        0.059548     26.839       0.87735     -155.48      
8.73         0.59064     -155.45       0.43406     -55.836       0.05961      27.11        0.87728     -155.6       
8.74         0.59118     -155.86       0.4322      -56.041       0.059676     27.381       0.8774      -155.73      
8.75         0.59193     -156.27       0.43043     -56.253       0.059746     27.652       0.8777      -155.85      
8.76         0.5929      -156.67       0.42876     -56.473       0.05982      27.924       0.87817     -155.97      
8.77         0.59343     -157.06       0.42682     -56.676       0.059856     28.151       0.87777     -156.08      
8.78         0.59392     -157.44       0.42484     -56.877       0.059881     28.362       0.87714     -156.19      
8.79         0.59461     -157.82       0.42295     -57.086       0.05991      28.573       0.8767      -156.3       
8.8          0.59551     -158.19       0.42116     -57.304       0.059944     28.783       0.87642     -156.41      
8.81         0.59662     -158.57       0.41947     -57.53        0.059983     28.994       0.87632     -156.53      
8.82         0.59793     -158.94       0.41787     -57.764       0.060026     29.204       0.8764      -156.64      
8.83         0.59873     -159.3        0.41595     -57.969       0.059998     29.435       0.87592     -156.77      
8.84         0.59947     -159.66       0.41396     -58.17        0.059947     29.673       0.87537     -156.91      
8.85         0.60041     -160.02       0.41206     -58.379       0.0599       29.91        0.875       -157.05      
8.86         0.60155     -160.37       0.41026     -58.597       0.059857     30.146       0.87481     -157.19      
8.87         0.60289     -160.72       0.40855     -58.823       0.059818     30.38        0.87481     -157.33      
8.88         0.60442     -161.07       0.40693     -59.058       0.059783     30.614       0.875       -157.47      
8.89         0.60529     -161.43       0.4049      -59.267       0.059743     30.9         0.87464     -157.61      
8.9          0.60604     -161.8        0.40278     -59.474       0.059703     31.203       0.87422     -157.74      
8.91         0.60701     -162.16       0.40075     -59.69        0.059666     31.506       0.87397     -157.87      
8.92         0.60817     -162.53       0.39881     -59.915       0.059633     31.808       0.87391     -158.01      
8.93         0.60954     -162.88       0.39696     -60.15        0.059603     32.109       0.87403     -158.14      
8.94         0.61111     -163.24       0.39521     -60.393       0.059576     32.409       0.87434     -158.28      
8.95         0.61198     -163.59       0.39325     -60.594       0.059605     32.7         0.87406     -158.4       
8.96         0.61274     -163.95       0.39126     -60.787       0.059656     32.987       0.87369     -158.52      
8.97         0.6137      -164.31       0.38937     -60.988       0.059711     33.275       0.8735      -158.64      
8.98         0.61486     -164.67       0.38756     -61.198       0.059769     33.563       0.87349     -158.76      
8.99         0.61623     -165.02       0.38583     -61.417       0.05983      33.851       0.87365     -158.88      
9            0.6178      -165.36       0.3842      -61.644       0.059895     34.139       0.87399     -158.99      
9.01         0.61865     -165.72       0.38219     -61.838       0.059966     34.41        0.87343     -159.13      
9.02         0.61941     -166.08       0.38011     -62.028       0.060041     34.676       0.87271     -159.27      
9.03         0.62037     -166.43       0.37812     -62.227       0.06012      34.941       0.87217     -159.42      
9.04         0.62154     -166.79       0.37621     -62.436       0.060203     35.208       0.87181     -159.56      
9.05         0.62291     -167.13       0.37438     -62.653       0.060289     35.474       0.87164     -159.71      
9.06         0.62448     -167.48       0.37264     -62.88        0.060379     35.741       0.87166     -159.85      
9.07         0.6254      -167.81       0.37062     -63.069       0.060474     35.984       0.8711      -160         
9.08         0.62624     -168.14       0.36857     -63.253       0.060574     36.22        0.87048     -160.14      
9.09         0.62727     -168.46       0.36659     -63.447       0.060677     36.456       0.87004     -160.28      
9.1          0.6285      -168.79       0.36469     -63.649       0.060785     36.693       0.86979     -160.42      
9.11         0.62992     -169.1        0.36287     -63.861       0.060897     36.93        0.86972     -160.57      
9.12         0.63153     -169.42       0.36113     -64.082       0.061012     37.169       0.86983     -160.71      
9.13         0.63241     -169.74       0.35912     -64.271       0.06109      37.394       0.86944     -160.85      
9.14         0.63318     -170.07       0.35707     -64.457       0.061159     37.616       0.86901     -160.99      
9.15         0.63415     -170.39       0.3551      -64.653       0.061232     37.838       0.86876     -161.13      
9.16         0.63532     -170.71       0.3532      -64.858       0.061309     38.06        0.86869     -161.26      
9.17         0.63668     -171.03       0.35139     -65.073       0.061391     38.282       0.86881     -161.4       
9.18         0.63823     -171.34       0.34965     -65.297       0.061477     38.505       0.86911     -161.54      
9.19         0.6392      -171.66       0.34765     -65.477       0.061586     38.725       0.86856     -161.67      
9.2          0.64013     -171.98       0.34562     -65.652       0.061705     38.945       0.86787     -161.8       
9.21         0.64125     -172.29       0.34366     -65.836       0.061829     39.165       0.86736     -161.93      
9.22         0.64257     -172.61       0.34177     -66.03        0.061957     39.387       0.86702     -162.06      
9.23         0.64408     -172.92       0.33996     -66.233       0.062089     39.609       0.86687     -162.19      
9.24         0.64578     -173.22       0.33822     -66.445       0.062226     39.833       0.86689     -162.32      
9.25         0.6468      -173.51       0.33623     -66.619       0.062362     40.031       0.86633     -162.45      
9.26         0.64774     -173.78       0.33422     -66.788       0.062502     40.222       0.86572     -162.58      
9.27         0.64886     -174.05       0.33227     -66.968       0.062647     40.415       0.86528     -162.71      
9.28         0.65016     -174.32       0.33039     -67.157       0.062796     40.608       0.86502     -162.84      
9.29         0.65164     -174.59       0.32859     -67.356       0.062951     40.804       0.86495     -162.98      
9.3          0.65329     -174.85       0.32686     -67.564       0.06311      41           0.86505     -163.11      
9.31         0.65421     -175.12       0.3249      -67.719       0.063244     41.195       0.8645      -163.23      
9.32         0.65505     -175.39       0.32292     -67.865       0.063376     41.389       0.86389     -163.34      
9.33         0.65606     -175.66       0.32101     -68.02        0.063511     41.585       0.86345     -163.46      
9.34         0.65726     -175.92       0.31916     -68.186       0.063652     41.782       0.86318     -163.57      
9.35         0.65864     -176.19       0.31738     -68.36        0.063797     41.98        0.86308     -163.69      
9.36         0.66019     -176.44       0.31566     -68.544       0.063947     42.179       0.86315     -163.8       
9.37         0.66115     -176.69       0.3138      -68.707       0.064093     42.357       0.86256     -163.94      
9.38         0.66207     -176.94       0.31195     -68.871       0.064242     42.529       0.8619      -164.07      
9.39         0.66316     -177.18       0.31016     -69.044       0.064396     42.703       0.86143     -164.21      
9.4          0.66442     -177.42       0.30844     -69.227       0.064554     42.879       0.86113     -164.35      
9.41         0.66585     -177.65       0.30678     -69.419       0.064718     43.055       0.86102     -164.5       
9.42         0.66746     -177.88       0.3052      -69.62        0.064887     43.234       0.86109     -164.64      
9.43         0.66828     -178.13       0.30334     -69.773       0.064995     43.403       0.86051     -164.77      
9.44         0.66903     -178.39       0.30145     -69.921       0.065089     43.57        0.85988     -164.9       
9.45         0.66995     -178.64       0.29963     -70.079       0.065189     43.737       0.85943     -165.03      
9.46         0.67105     -178.89       0.29786     -70.246       0.065294     43.906       0.85915     -165.16      
9.47         0.67233     -179.14       0.29616     -70.423       0.065405     44.075       0.85905     -165.3       
9.48         0.67379     -179.38       0.29452     -70.609       0.065521     44.245       0.85913     -165.43      
9.49         0.67475     -179.61       0.29263     -70.751       0.065691     44.434       0.85863     -165.55      
9.5          0.67571     -179.83       0.29072     -70.889       0.06588      44.629       0.85811     -165.66      
9.51         0.67684      179.95       0.28886     -71.037       0.066074     44.826       0.85775     -165.77      
9.52         0.67813      179.73       0.28707     -71.195       0.066272     45.025       0.85756     -165.88      
9.53         0.67959      179.52       0.28533     -71.364       0.066475     45.225       0.85754     -166         
9.54         0.68122      179.31       0.28365     -71.541       0.066683     45.428       0.85768     -166.11      
9.55         0.68214      179.1        0.28182     -71.677       0.066845     45.581       0.85714     -166.23      
9.56         0.683        178.9        0.28        -71.809       0.067001     45.723       0.85655     -166.35      
9.57         0.68403      178.7        0.27823     -71.952       0.067162     45.866       0.85612     -166.48      
9.58         0.68522      178.5        0.27651     -72.104       0.067328     46.01        0.85588     -166.6       
9.59         0.68656      178.3        0.27485     -72.265       0.067501     46.157       0.8558      -166.73      
9.6          0.68807      178.11       0.27325     -72.437       0.067679     46.305       0.8559      -166.86      
9.61         0.68883      177.91       0.27146     -72.573       0.067858     46.439       0.85523     -166.99      
9.62         0.68953      177.71       0.26965     -72.709       0.068043     46.571       0.85451     -167.14      
9.63         0.6904       177.51       0.2679      -72.855       0.068233     46.705       0.85397     -167.28      
9.64         0.69142      177.31       0.26621     -73.011       0.068429     46.84        0.85361     -167.43      
9.65         0.69261      177.11       0.26457     -73.177       0.068631     46.978       0.85343     -167.57      
9.66         0.69396      176.92       0.26298     -73.353       0.068839     47.118       0.85343     -167.72      
9.67         0.69474      176.73       0.26118     -73.47        0.069014     47.242       0.85283     -167.85      
9.68         0.69551      176.54       0.25937     -73.58        0.069186     47.363       0.85221     -167.98      
9.69         0.69644      176.35       0.25761     -73.701       0.069364     47.486       0.85177     -168.11      
9.7          0.69753      176.17       0.25589     -73.833       0.069548     47.611       0.8515      -168.24      
9.71         0.69878      175.98       0.25423     -73.974       0.069739     47.738       0.85141     -168.37      
9.72         0.70019      175.81       0.25262     -74.125       0.069936     47.867       0.85149     -168.5       
9.73         0.70114      175.64       0.25091     -74.237       0.070107     47.993       0.85107     -168.61      
9.74         0.7021       175.49       0.24921     -74.346       0.070277     48.12        0.85065     -168.71      
9.75         0.70321      175.34       0.24757     -74.465       0.070454     48.249       0.8504      -168.82      
9.76         0.70447      175.19       0.24597     -74.595       0.070636     48.379       0.85032     -168.93      
9.77         0.70588      175.04       0.24442     -74.734       0.070825     48.512       0.8504      -169.04      
9.78         0.70743      174.9        0.24291     -74.883       0.07102      48.646       0.85065     -169.14      
9.79         0.70822      174.74       0.24124     -74.992       0.071219     48.766       0.84996     -169.26      
9.8          0.70895      174.57       0.23957     -75.099       0.071424     48.885       0.8492      -169.39      
9.81         0.70984      174.4        0.23794     -75.217       0.071634     49.006       0.84861     -169.51      
9.82         0.71088      174.24       0.23636     -75.345       0.071852     49.129       0.84819     -169.64      
9.83         0.71208      174.08       0.23483     -75.483       0.072075     49.255       0.84794     -169.76      
9.84         0.71343      173.92       0.23334     -75.631       0.072305     49.383       0.84786     -169.89      
9.85         0.71412      173.79       0.2317      -75.716       0.072514     49.488       0.84724     -170.02      
9.86         0.71479      173.66       0.23006     -75.796       0.072724     49.589       0.84662     -170.15      
9.87         0.7156       173.53       0.22846     -75.885       0.072941     49.692       0.84618     -170.28      
9.88         0.71655      173.41       0.22689     -75.984       0.073165     49.799       0.84592     -170.41      
9.89         0.71764      173.28       0.22538     -76.094       0.073396     49.908       0.84582     -170.54      
9.9          0.71888      173.17       0.2239      -76.213       0.073633     50.019       0.8459      -170.67      
9.91         0.7197       173.04       0.22231     -76.289       0.073843     50.134       0.84555     -170.78      
9.92         0.72055      172.92       0.22073     -76.365       0.074052     50.25        0.84523     -170.89      
9.93         0.72154      172.79       0.21919     -76.45        0.074268     50.37        0.84508     -170.99      
9.94         0.72268      172.67       0.21768     -76.546       0.07449      50.491       0.84509     -171.1       
9.95         0.72395      172.56       0.21622     -76.651       0.074718     50.615       0.84526     -171.2       
9.96         0.72536      172.44       0.2148      -76.766       0.074954     50.741       0.8456      -171.31      
9.97         0.72598      172.33       0.21325     -76.837       0.075165     50.831       0.84488     -171.4       
9.98         0.72656      172.21       0.2117      -76.907       0.075377     50.915       0.84407     -171.49      
9.99         0.72727      172.1        0.21019     -76.986       0.075597     51.001       0.84342     -171.59      
10           0.72812      171.99       0.20872     -77.076       0.075825     51.09        0.84292     -171.68      
10.01        0.72911      171.88       0.20729     -77.177       0.076059     51.182       0.84259     -171.78      
!
! 
!
!
!Noise Parameters
! Measured BGM7xMxx4L12 device level noise-parameters
!Freq  NFmin(dB)  Mag(GammaOpt)  Ang(GammaOpt)(deg)  rn(normalized by ref. impedance)
1.8          0.69297      0.3805       63.782       0.15735     
1.85         0.67175      0.37009      65.183       0.13572     
1.9          0.68019      0.3626       66.567       0.13899     
1.95         0.67166      0.35059      68.176       0.13982     
2            0.66355      0.34446      70.435       0.13795     
2.05         0.66011      0.3798       74.208       0.12267     
2.1          0.67731      0.36391      75.197       0.12301     
2.2          0.70671      0.36264      81.249       0.12547     
2.35         0.73787      0.35544      85.594       0.11949     
2.5          0.77656      0.33819      90.448       0.11878     
2.65         0.81241      0.36318      100.13       0.10947  
