! NEC Compound Semiconductor Devices Ltd.
! 20. August 2002
! NE85633/2SC3356
! NPN Silicon Transistor
! Vce = 10 V  Ic = 5 mA
# GHz  S  MA  R  50
!      f         S11             S21             S12             S22
!    GHz     MAG     ANG     MAG     ANG     MAG     ANG     MAG     ANG
    0.20   0.651   -69.3  10.616   129.3   0.051    59.2   0.735   -28.1
    0.40   0.467  -113.3   6.856   104.4   0.071    54.4   0.550   -34.1
    0.60   0.391  -139.3   4.852    90.9   0.086    56.0   0.468   -33.9
    0.80   0.360  -159.2   3.802    81.2   0.101    59.1   0.426   -33.6
    1.00   0.360  -176.9   3.098    72.9   0.118    61.0   0.397   -35.7
    1.20   0.361   172.7   2.646    67.3   0.137    63.5   0.373   -38.3
    1.40   0.381   160.3   2.298    59.3   0.157    63.3   0.360   -43.0
    1.60   0.398   152.2   2.071    55.2   0.180    64.1   0.337   -45.9
    1.80   0.423   143.3   1.836    49.0   0.203    63.7   0.320   -52.3
    2.00   0.445   137.6   1.689    46.2   0.220    64.7   0.302   -52.2
