! NEC Compound Semiconductor Devices Ltd.
! 20. August 2002
! NE85633/2SC3356
! NPN Silicon Transistor
! Vce = 10 V  Ic = 20 mA
# GHz  S  MA  R  50
!      f         S11             S21             S12             S22
!    GHz     MAG     ANG     MAG     ANG     MAG     ANG     MAG     ANG
    0.20   0.339  -107.0  16.516   108.7   0.035    66.1   0.459   -36.6
    0.40   0.258  -147.3   8.928    92.1   0.060    71.0   0.343   -32.9
    0.60   0.243  -167.7   6.022    83.0   0.085    71.9   0.305   -29.9
    0.80   0.242   177.0   4.633    76.2   0.109    72.2   0.284   -29.4
    1.00   0.260   164.5   3.744    69.9   0.136    70.4   0.266   -31.7
    1.20   0.269   157.6   3.193    65.7   0.160    69.9   0.246   -35.0
    1.40   0.294   148.7   2.750    58.8   0.187    66.7   0.233   -40.4
    1.60   0.314   143.1   2.479    55.5   0.212    65.2   0.208   -43.6
    1.80   0.343   136.5   2.185    50.1   0.238    62.4   0.190   -50.5
    2.00   0.367   131.4   2.016    47.8   0.254    61.6   0.173   -48.3
