! Analog Devices, Inc."								
! Device:	ADL8154ACPZN							
! Description:	"10 MHz to 6 GHz, Wideband, Low Noise Amplifier"							
! Conditions:	Vdd = 5.0 V							
!		IDQ = 125 mA						
!		Pin = -25 dBm						
!		Operating Temperature = -40 C (at package bottom)       						
! Product validation unit SN30 soldered down to Evaluation Board as shown on ADL8154-EVALZ User Guide. Board loss de-embedded from S21 magnitude.  All other RF measurements reference to RF coaxial connector.								
! Frequency (GHz)	S11_Mag (dB)	S11_Phase (deg)	S21_Mag (dB)	S21_Phase (deg)	S12_Mag (dB)	S12_Phase (deg)	S22_Mag (dB)	S22_Phase (deg)
#  GHZ   S   DB   R 50								
 								
0.01	-9.8535	-115.9445	18.197	-153.439	-23.624	26.969	-6.3145	154.3055
0.11	-9.3285	-179.1085	18.424	170.807	-22.954	-5.742	-9.2065	169.4225
0.21	-9.4565	174.7055	18.38	161.124	-22.976	-13.868	-9.2625	161.9125
0.31	-9.687	169.221	18.355	151.983	-23.001	-21.559	-9.427	153.047
0.41	-9.697	164.455	18.324	142.797	-23.033	-28.697	-9.668	144.165
0.51	-9.617	159.239	18.294	133.661	-23.071	-36.212	-10.109	134.909
0.61	-9.6135	154.2355	18.291	124.661	-23.078	-43.383	-10.5935	125.8225
0.71	-9.7755	148.9845	18.266	115.496	-23.151	-50.897	-11.1275	116.9195
0.81	-9.9525	145.0865	18.274	106.313	-23.115	-58.33	-11.8265	108.5545
0.91	-10.1645	141.7555	18.275	97.274	-23.125	-65.584	-12.7045	99.8405
1.01	-10.2455	138.6395	18.283	88.157	-23.156	-73.041	-13.8725	90.7095
1.11	-10.4065	134.8495	18.258	78.862	-23.223	-80.597	-15.1585	81.2225
1.21	-10.709	131.127	18.231	69.751	-23.208	-87.838	-16.865	71.729
1.31	-11.0685	127.7225	18.186	60.464	-23.289	-95.525	-18.7625	60.6985
1.41	-11.302	125.338	18.182	51.069	-23.31	-103.167	-21.186	48.678
1.51	-11.496	122.402	18.156	41.854	-23.35	-110.807	-24.765	31.129
1.61	-11.611	119.029	18.103	32.616	-23.41	-118.674	-29.984	-7.728
1.71	-11.672	115.495	18.045	23.511	-23.504	-125.957	-30.159	-82.124
1.81	-11.779	112.908	17.984	14.295	-23.577	-133.544	-24.538	-118.642
1.91	-11.7955	110.1885	17.937	5.083	-23.678	-141.116	-20.7425	-136.9025
2.01	-11.8185	107.1985	17.881	-4.183	-23.736	-148.92	-18.3055	-148.7245
2.109	-11.8005	103.6065	17.846	-13.355	-23.815	-156.641	-16.4695	-159.5265
2.209	-11.7505	99.2485	17.814	-22.485	-23.886	-164.253	-14.9775	-169.4315
2.309	-11.7875	94.8435	17.737	-31.617	-23.979	-172.1	-13.7805	-178.3355
2.409	-11.822	89.895	17.674	-40.78	-24.092	-179.662	-12.875	173.58
2.509	-11.8805	84.2915	17.608	-50.03	-24.138	172.554	-12.1355	165.9805
2.609	-12.0895	77.8825	17.572	-59.216	-24.258	165.062	-11.5605	158.6085
2.709	-12.3095	70.1715	17.549	-68.459	-24.346	156.996	-11.0665	151.5535
2.809	-12.4185	62.3545	17.496	-77.468	-24.416	149.161	-10.6745	145.1215
2.909	-12.672	53.264	17.473	-86.903	-24.496	141.506	-10.225	137.698
3.009	-12.9395	43.9815	17.424	-96.341	-24.596	133.732	-9.9495	130.3005
3.109	-13.23	34.689	17.401	-105.787	-24.657	125.939	-9.852	122.989
3.209	-13.646	24.772	17.416	-115.116	-24.701	118.081	-9.747	115.641
3.309	-14.1245	13.5095	17.418	-124.864	-24.71	110.258	-9.6815	108.1795
3.409	-14.762	1.634	17.394	-134.399	-24.792	102.03	-9.679	101.262
3.509	-15.5045	-11.3835	17.36	-144.246	-24.825	94.219	-9.7365	94.2695
3.609	-16.487	-26.01	17.351	-154.234	-24.846	85.903	-9.889	87.418
3.709	-17.4195	-43.5015	17.334	-164.186	-24.907	77.628	-10.1125	80.9545
3.809	-17.931	-63.566	17.322	-174.364	-24.956	69.33	-10.286	74.309
3.909	-18.116	-85	17.292	175.399	-24.952	60.793	-10.468	67.224
4.009	-17.9605	-107.5855	17.264	165.05	-25.051	52.49	-10.6845	60.1545
4.109	-17.3795	-128.3905	17.202	154.558	-25.093	43.724	-10.9785	52.9055
4.209	-16.7205	-146.6865	17.141	144.051	-25.209	35.095	-11.3155	45.4635
4.309	-16.044	-163.294	17.041	133.417	-25.276	26.47	-11.621	37.998
4.409	-15.3395	-178.9655	16.954	122.776	-25.363	17.907	-11.9105	30.0375
4.509	-14.656	166.531	16.854	111.979	-25.465	8.919	-12.102	21.882
4.609	-14.036	151.897	16.726	101.055	-25.581	-0.056	-12.288	13.5
4.709	-13.4705	139.5185	16.584	90.226	-25.729	-8.749	-12.4725	5.0505
4.809	-13.0315	127.7405	16.472	79.192	-25.816	-17.598	-12.4895	-4.4295
4.909	-12.7365	116.7135	16.315	68.163	-25.965	-26.815	-12.5325	-14.1155
5.009	-12.5705	105.8655	16.17	56.935	-26.113	-35.971	-12.5345	-24.6115
5.109	-12.525	94.732	16.027	45.552	-26.308	-45.306	-12.533	-35.6
5.209	-12.6485	83.7825	15.86	34.176	-26.419	-54.621	-12.5265	-46.4185
5.309	-13.016	72.521	15.694	22.537	-26.631	-64.322	-12.45	-57.575
5.409	-13.509	59.713	15.503	10.825	-26.82	-74.059	-12.332	-68.828
5.509	-14.1525	45.6095	15.309	-1.133	-27.074	-83.756	-12.1355	-80.4715
5.609	-14.873	29.802	15.116	-13.347	-27.299	-94.431	-11.945	-92.132
5.709	-15.7705	11.8905	14.862	-25.761	-27.634	-104.557	-11.8205	-103.1295
5.809	-16.6625	-9.5245	14.621	-38.436	-27.926	-115.205	-11.6795	-113.9635
5.909	-17.3975	-36.4035	14.349	-51.387	-28.32	-126.158	-11.5655	-124.3105
6.009	-17.354	-67.505	14.017	-64.621	-28.758	-137.404	-11.483	-133.94
6.108	-16.1775	-99.4605	13.646	-78.219	-29.299	-148.926	-11.3835	-143.5855
6.208	-14.2955	-126.8345	13.198	-92.031	-29.859	-161.14	-11.3675	-152.5725
6.308	-12.191	-149.924	12.678	-106.156	-30.654	-172.622	-11.315	-161.279
6.408	-10.1565	-168.7605	12.044	-120.437	-31.529	174.385	-11.2815	-169.4025
6.508	-8.441	174.764	11.339	-134.775	-32.484	161.806	-11.139	-176.638
6.608	-6.9925	160.2195	10.521	-149.187	-33.569	150.268	-10.9095	176.0915
6.708	-5.8035	146.8705	9.623	-163.237	-34.728	138.451	-10.5795	169.5605
6.808	-4.882	134.554	8.593	-176.998	-35.979	125.529	-10.149	162.581
6.908	-4.132	122.983	7.497	169.382	-37.161	113.371	-9.66	155.027
7.008	-3.5525	112.3545	6.311	156.357	-38.688	101.013	-9.1895	147.5395
7.108	-3.058	102.306	5.105	143.873	-40.281	87.935	-8.687	139.522
7.208	-2.662	93.024	3.83	131.844	-41.607	73.969	-8.235	131.552
7.308	-2.327	84.44	2.545	120.434	-42.935	62.446	-7.794	123.58
7.408	-2.017	76.613	1.253	109.614	-44.62	45.378	-7.35	115.787
7.508	-1.7685	68.8985	-0.042	99.203	-46.078	33.163	-6.8705	107.8515
7.608	-1.581	61.581	-1.369	89.103	-47.166	18.84	-6.437	99.643
7.708	-1.394	54.616	-2.647	79.369	-48.608	4.683	-6.022	91.321
7.808	-1.2675	47.8785	-3.953	69.826	-49.478	-5.44	-5.6595	83.2845
7.908	-1.171	41.476	-5.239	60.57	-49.616	-16.626	-5.355	75.583
8.008	-1.0905	35.0085	-6.553	51.445	-50.504	-25.903	-5.0345	68.3605
8.108	-1.032	28.777	-7.846	42.601	-49.547	-30.925	-4.757	61.247
8.208	-0.977	22.779	-9.132	34.062	-48.906	-41.313	-4.456	54.21
8.308	-0.9625	17.0815	-10.429	25.872	-48.562	-55.144	-4.2065	47.1105
8.408	-0.946	11.51	-11.706	17.677	-48.431	-62.703	-4.002	40.34
8.508	-0.897	6.141	-12.971	9.855	-47.696	-70.936	-3.786	33.786
8.608	-0.858	0.786	-14.219	1.975	-47.443	-78.087	-3.614	27.379
8.708	-0.809	-4.395	-15.415	-5.477	-46.852	-87.452	-3.441	21.268
8.808	-0.8065	-9.2995	-16.651	-12.897	-46.674	-93.536	-3.2695	15.3095
8.908	-0.7915	-13.6325	-17.832	-20.028	-46.469	-98.646	-3.1175	9.5785
9.008	-0.8205	-18.3605	-19.05	-27.208	-46.235	-104.401	-2.9645	3.7515
9.108	-0.829	-22.778	-20.202	-34.231	-45.839	-111.127	-2.832	-1.984
9.208	-0.8435	-27.2575	-21.365	-41.087	-45.663	-115.445	-2.7235	-7.4115
9.308	-0.8505	-31.4035	-22.459	-47.857	-45.53	-120.967	-2.6285	-12.6355
9.408	-0.8355	-35.3955	-23.563	-54.472	-45.362	-127.019	-2.5405	-17.6985
9.508	-0.8495	-39.3445	-24.627	-61.178	-44.919	-131.222	-2.4565	-22.6365
9.608	-0.8395	-43.0425	-25.713	-67.311	-44.975	-136.605	-2.3655	-27.5875
9.708	-0.84	-46.96	-26.744	-74.074	-44.285	-141.162	-2.313	-32.835
9.808	-0.84	-50.502	-27.756	-80.863	-44.485	-145.411	-2.263	-37.929
9.908	-0.816	-54.222	-28.666	-88.496	-43.917	-153.774	-2.223	-42.989
10.007	-0.8195	-57.4785	-29.64	-94.747	-43.717	-157.465	-2.2145	-47.7215
10.107	-0.8255	-61.1745	-30.425	-102.761	-43.388	-163.783	-2.1775	-52.3945
10.207	-0.882	-64.912	-31.348	-110.377	-43.479	-168.334	-2.179	-57.104
10.307	-0.9105	-68.1455	-32.312	-117.955	-42.967	-175.024	-2.1935	-61.9725
10.407	-0.9405	-71.7875	-33.161	-125.797	-42.439	176.248	-2.2365	-66.7785
10.507	-0.9575	-75.3135	-34.079	-134.925	-42.215	167.553	-2.3445	-71.3545
10.607	-1.0045	-78.8065	-35.219	-143.133	-42.499	158.861	-2.5015	-75.1825
10.707	-1.021	-82.103	-36.514	-150.217	-42.765	149.631	-2.554	-78.257
10.807	-1.038	-85.453	-37.736	-154.641	-44.057	141.402	-2.525	-81.215
10.907	-1.0645	-88.8895	-38.569	-158.38	-45.003	138.19	-2.4045	-84.8265
11.007	-1.0755	-92.1225	-39.131	-161.323	-45.696	136.524	-2.3215	-89.0905
11.107	-1.0955	-95.5885	-39.62	-166.889	-46.175	138.232	-2.2495	-93.6775
11.207	-1.125	-99.167	-39.754	-172.097	-45.967	138.274	-2.229	-98.246
11.307	-1.1405	-102.8575	-40.111	-179.079	-46.348	137.196	-2.1995	-102.6715
11.407	-1.184	-106.428	-40.202	174.152	-45.568	135.941	-2.207	-107.254
11.507	-1.2395	-110.0705	-40.391	165.276	-44.846	127.269	-2.2225	-111.7515
11.607	-1.266	-114.022	-40.839	156.138	-44.952	122.108	-2.245	-116.207
11.707	-1.2835	-117.7085	-41.548	147.241	-45.009	115.601	-2.3175	-120.7035
11.807	-1.3235	-121.4325	-42.187	141.695	-45.696	110.726	-2.3285	-124.9785
11.907	-1.3595	-125.4015	-42.639	137.755	-45.911	106.449	-2.3525	-128.9605
12.007	-1.388	-129.32	-42.834	132.576	-45.99	106.051	-2.363	-132.913
12.107	-1.403	-133.213	-43.03	126.765	-46.287	103.405	-2.39	-136.913
12.207	-1.381	-137.142	-42.992	122.224	-45.889	101.028	-2.398	-141.223
12.307	-1.371	-141.243	-43.076	115.76	-45.751	96.772	-2.424	-145.846
12.407	-1.3855	-145.4235	-43.139	109.996	-45.252	93.764	-2.4345	-150.3395
12.507	-1.3835	-149.7165	-42.944	102.822	-45.248	87.999	-2.5065	-154.7315
12.607	-1.4	-153.632	-42.898	94.926	-44.703	83.231	-2.527	-158.873
12.707	-1.3755	-157.8975	-42.593	88.745	-44.468	77.785	-2.5635	-162.7325
12.807	-1.366	-162.136	-42.415	78.401	-44.09	71.581	-2.602	-167.066
12.907	-1.3625	-166.2505	-42.316	69.759	-43.942	64.417	-2.5975	-171.0195
13.007	-1.3575	-170.4775	-42.189	62.177	-43.682	55.197	-2.6495	-175.6155
13.107	-1.316	-174.895	-42.196	49.458	-43.204	46.555	-2.703	-179.691
13.207	-1.276	-179.05	-42.395	39.446	-43.039	36.594	-2.759	176.672
13.307	-1.234	177.106	-42.694	29.32	-43.107	26.881	-2.756	173.407
13.407	-1.215	172.828	-43.311	17.557	-43.458	16.924	-2.764	170.17
13.507	-1.1675	168.6935	-43.874	7.82	-43.873	6.787	-2.7455	166.6425
13.607	-1.0835	164.8335	-44.097	-1.61	-44.027	-4.564	-2.6995	162.9575
13.707	-1.0395	161.0275	-44.616	-12.251	-44.754	-10.566	-2.6855	159.1145
13.807	-0.9955	157.2685	-44.941	-21.801	-44.904	-18.264	-2.6995	155.4935
13.907	-0.9565	153.5225	-45.649	-30.779	-45.443	-29.095	-2.7135	151.9965
14.007	-0.9255	149.7085	-46.162	-40.317	-45.635	-38.877	-2.7055	148.6685
14.106	-0.8735	146.1225	-46.291	-52.286	-46.22	-47.568	-2.6425	145.3685
14.206	-0.878	142.285	-47.618	-62.95	-47.01	-58.287	-2.569	141.556
14.306	-0.8675	138.9795	-47.916	-75.693	-47.519	-66.864	-2.5545	137.8995
14.406	-0.8435	135.9315	-48.399	-82.032	-48.476	-74.823	-2.5485	134.2115
14.506	-0.817	132.634	-49.125	-87.228	-49.074	-79.115	-2.544	131.022
14.606	-0.818	129.52	-49.776	-99.41	-49.508	-89.97	-2.537	128.18
14.706	-0.784	126.51	-50.055	-105.689	-50.387	-98.98	-2.503	125.203
14.806	-0.7295	123.6555	-50.537	-115.443	-50.831	-104.949	-2.4525	121.9015
14.906	-0.694	120.858	-51.409	-128.184	-50.988	-110.829	-2.427	118.157
15.006	-0.648	117.991	-51.43	-134.836	-51.759	-118.083	-2.44	114.629
15.106	-0.6085	115.6815	-51.376	-137.697	-52.338	-126.62	-2.4795	111.5175
15.206	-0.6195	113.1535	-51.812	-149.47	-52.136	-131.142	-2.5385	108.6815
15.306	-0.6435	110.5655	-51.478	-152.242	-52.544	-138.69	-2.5345	105.7805
15.406	-0.6265	108.1605	-51.834	-161.413	-52.318	-149.469	-2.5145	102.5735
15.506	-0.595	105.898	-51.46	-167.235	-52.482	-153.793	-2.52	98.954
15.606	-0.602	103.507	-50.856	-175.169	-53.133	-160.728	-2.569	95.207
15.706	-0.5875	101.3195	-51.229	177.283	-52.829	-165.614	-2.6455	91.9165
15.806	-0.5735	99.1735	-50.631	175.462	-52.547	-174.103	-2.7165	88.9675
15.906	-0.554	97.068	-50.163	170.228	-52.221	-180.663	-2.782	86.501
16.006	-0.584	94.6	-49.145	161.324	-51.593	174.295	-2.857	83.653
16.106	-0.581	92.616	-48.875	154.606	-51.657	163.452	-2.988	80.416
16.206	-0.5455	90.9525	-48.143	149.146	-50.928	155.626	-3.2265	77.2015
16.306	-0.5255	89.2175	-47.054	138.452	-50.65	144.814	-3.5325	74.4435
16.406	-0.5245	87.2925	-47.056	126.236	-50.791	132.244	-3.8535	73.4505
16.506	-0.5145	85.5195	-47.203	115.989	-51.553	119.735	-3.9875	73.9265
16.606	-0.488	83.693	-47.799	102.683	-52.918	111.077	-3.813	74.2
16.706	-0.5165	81.9905	-48.821	93.611	-53.93	107.552	-3.4875	72.4385
16.806	-0.5075	79.9805	-50.352	92.495	-54.994	114.803	-3.2485	69.6935
16.906	-0.502	78.129	-50.452	93.026	-56.026	115.197	-3.11	66.264
17.006	-0.497	76.691	-50.241	95.95	-54.009	121.464	-3.044	63.164
17.106	-0.49	74.693	-49.956	94.067	-53.36	122.035	-2.977	60.173
17.206	-0.4745	72.7395	-49.044	99.13	-51.824	120.326	-2.8875	57.2295
17.306	-0.4225	71.1505	-47.834	97.001	-50.676	117.595	-2.8475	53.9375
17.406	-0.43	69.068	-47.374	92.801	-49.78	114.501	-2.842	50.376
17.506	-0.36	67.266	-46.363	92.959	-48.535	108.821	-2.91	47.054
17.606	-0.325	65.406	-45.404	88.878	-47.875	102.716	-3.034	44.186
17.706	-0.3565	63.4905	-44.311	80.853	-46.837	94.888	-3.1895	41.5035
17.806	-0.37	61.681	-42.67	77.683	-45.393	90.746	-3.298	39.095
17.906	-0.3705	59.7995	-41.411	69.312	-44.139	81.335	-3.3835	36.4015
18.005	-0.3725	57.7455	-40.618	63.053	-42.996	74.39	-3.5245	33.2625
18.105	-0.4215	55.6655	-39.199	54.161	-41.43	64.284	-3.7025	30.6005
18.205	-0.453	53.555	-37.968	44.85	-40.437	55.284	-3.896	28.256
18.305	-0.502	51.249	-36.672	34.779	-39.148	43.32	-4.121	26.933
18.405	-0.532	49.163	-35.502	24.482	-37.761	33.327	-4.29	25.68
18.505	-0.5365	47.2725	-34.003	11.943	-36.247	20.759	-4.3885	24.5525
18.605	-0.5785	44.6585	-32.301	-2.291	-34.673	5.441	-4.4285	22.9425
18.705	-0.675	42.062	-30.712	-18.774	-32.936	-11.795	-4.464	21.303
18.805	-0.816	39.875	-28.972	-38.987	-31.219	-33.15	-4.442	19.968
18.905	-0.937	38.661	-27.486	-64.92	-29.722	-60.022	-4.329	18.324
19.005	-0.9975	37.8135	-26.969	-95.695	-29.277	-91.761	-4.3075	16.3875
19.105	-0.9075	36.2195	-27.873	-125.806	-30.219	-122.092	-4.3595	14.6035
19.205	-0.7815	34.1805	-29.443	-149.723	-31.854	-146.563	-4.3735	13.4235
19.305	-0.7225	31.4825	-31.068	-169.3	-33.482	-166.131	-4.2655	11.8435
19.405	-0.7115	28.7615	-32.665	174.369	-35.102	176.898	-4.0585	9.8855
19.505	-0.7055	25.7435	-33.985	160.684	-36.479	162.365	-3.8495	7.4095
19.605	-0.719	22.947	-35.151	147.827	-37.649	149.785	-3.586	4.992
19.705	-0.75	19.727	-36.152	136.497	-38.767	137.269	-3.293	2.493
19.805	-0.8485	16.6005	-37.213	126.79	-39.892	126.799	-3.0295	-0.8465
19.905	-0.8615	13.5685	-38.247	116.358	-40.826	116.458	-2.8185	-4.9845
20.005	-0.915	10.605	-38.895	107.498	-41.721	107.221	-2.714	-9.141
20.105	-0.973	7.451	-39.656	99.707	-42.417	99.273	-2.683	-12.638
20.205	-1.048	4.044	-40.196	90.257	-43.232	91.259	-2.611	-15.866
20.305	-1.0865	1.1945	-41.137	84.703	-43.877	83.706	-2.5105	-18.9595
20.405	-1.145	-1.833	-41.609	78.474	-44.751	78.305	-2.395	-22.62
20.505	-1.214	-4.92	-42.026	73.704	-44.801	71.733	-2.25	-26.468
20.605	-1.276	-8.051	-42.294	66.573	-45.148	61.916	-2.204	-30.972
20.705	-1.3285	-10.9955	-42.42	57.338	-45.817	55.355	-2.2285	-34.8915
20.805	-1.382	-14.176	-43.272	51.712	-46.514	51.422	-2.25	-38
20.905	-1.427	-17.773	-43.673	48.315	-47.088	47.355	-2.207	-40.794
21.005	-1.501	-21.24	-43.908	48.148	-47.153	44.738	-2.124	-44.215
21.105	-1.5765	-24.2835	-43.933	43.083	-47.42	42.65	-2.0405	-48.2855
21.205	-1.683	-27.772	-44.174	38.616	-47.602	35.14	-1.977	-52.805
21.305	-1.6955	-31.0265	-44.301	32.668	-47.977	31.059	-1.9685	-57.1335
21.405	-1.726	-34.089	-44.586	28.637	-48.277	27.001	-1.985	-60.422
21.505	-1.7365	-37.1675	-44.822	26.396	-48.13	24.041	-1.9995	-63.1415
21.605	-1.799	-40.645	-45.09	24.626	-48.716	18.945	-2.019	-65.922
21.705	-1.846	-44.149	-45.347	19.185	-49.288	18.639	-1.995	-69.347
21.805	-1.896	-46.866	-45.835	20.407	-49.724	15.026	-2.005	-73.392
21.905	-1.9545	-50.1205	-45.782	13.017	-50.175	11.192	-2.0215	-77.5935
22.005	-2.0405	-53.4615	-45.485	14.569	-49.85	12.717	-2.0515	-81.3885
22.104	-2.0965	-56.9985	-45.71	12.601	-49.965	7.894	-2.1075	-84.3925
22.204	-2.1425	-59.7915	-45.641	8.386	-50	5.071	-2.0775	-86.7715
22.304	-2.165	-63.023	-45.454	6.229	-49.477	4.994	-2.061	-89.288
22.404	-2.227	-66.598	-46.022	6.35	-50.192	2.427	-2.05	-92.629
22.504	-2.2305	-69.8215	-46.21	4.958	-49.854	4.023	-2.1295	-96.1335
22.604	-2.26	-73.071	-46.08	0.813	-50.042	-4.163	-2.233	-99.756
22.704	-2.2955	-76.3845	-45.505	-1.041	-50.136	-4.428	-2.3145	-102.7385
22.804	-2.304	-79.515	-45.391	-2.311	-49.67	-6.445	-2.318	-105.189
22.904	-2.318	-82.306	-45.773	-5.069	-50.129	-8.06	-2.248	-107.429
23.004	-2.3695	-85.0515	-45.729	-10.214	-50.14	-11.842	-2.1185	-110.0715
23.104	-2.41	-88.043	-45.943	-10.784	-50.239	-12.171	-2.092	-113.09
23.204	-2.382	-91.002	-45.18	-11.99	-50.25	-18.03	-2.123	-115.925
23.304	-2.3645	-93.9455	-45.67	-17.909	-49.978	-19.441	-2.1995	-118.1965
23.404	-2.3685	-96.7695	-45.579	-18.282	-49.67	-23.223	-2.3005	-119.8405
23.504	-2.4225	-100.5755	-45.385	-22.326	-49.993	-23.424	-2.3125	-122.4985
23.604	-2.455	-103.337	-45.813	-24.466	-49.753	-29.096	-2.225	-124.753
23.704	-2.404	-105.816	-46.036	-30.691	-50.093	-28.589	-2.117	-127.689
23.804	-2.4405	-108.5645	-45.601	-29.042	-50.201	-28.794	-2.0945	-130.5545
23.904	-2.402	-111.764	-45.311	-28.747	-50.03	-31.617	-2.092	-132.59
24.004	-2.3395	-114.3165	-46.524	-28.018	-49.981	-33.265	-2.1085	-133.5565
24.104	-2.304	-117.202	-45.904	-31.294	-50.169	-32.864	-2.123	-134.366
24.204	-2.3235	-119.8325	-45.871	-29.135	-50.008	-33.839	-2.1235	-136.1475
24.304	-2.266	-122.937	-45.936	-34.149	-49.828	-32.308	-2.062	-138.671
24.404	-2.244	-125.565	-46.249	-33.374	-49.538	-35.23	-2.072	-141.551
24.504	-2.2775	-128.3245	-45.456	-32.159	-49.432	-35.919	-2.0925	-143.5355
24.604	-2.312	-131.388	-45.167	-34.621	-49.553	-37.283	-2.094	-144.755
24.704	-2.311	-134.319	-44.593	-33.254	-48.451	-35.471	-2.031	-145.248
24.804	-2.3	-136.954	-44.523	-37.44	-48.096	-38.042	-1.985	-146.134
24.904	-2.3215	-140.2405	-43.92	-35.792	-48.247	-39.353	-1.9765	-148.1895
25.004	-2.338	-143.739	-43.599	-40.644	-47.896	-42.359	-2.039	-150.451
25.104	-2.359	-146.475	-43.807	-41.591	-47.247	-44.758	-2.137	-152.549
25.204	-2.345	-149.034	-43.34	-42.872	-46.973	-45.212	-2.209	-153.589
25.304	-2.3715	-152.5585	-43.121	-44.205	-46.764	-47.118	-2.2295	-154.1155
25.404	-2.4075	-156.2905	-42.885	-47.358	-45.956	-47.645	-2.1795	-154.9455
25.504	-2.407	-159.211	-41.87	-47.848	-45.826	-51.215	-2.158	-156.594
25.604	-2.4745	-162.1045	-42.184	-47.956	-45.605	-51.765	-2.2925	-158.7695
25.704	-2.4805	-165.8875	-41.115	-49.973	-45.015	-53.017	-2.4385	-160.5185
25.804	-2.4745	-169.7165	-40.545	-51.439	-44.482	-55.898	-2.6025	-161.7545
25.904	-2.5055	-173.5205	-39.87	-55.296	-44.094	-59.25	-2.6845	-162.4395
26.003	-2.5995	-177.7165	-39.09	-59.966	-43.243	-63.004	-2.6525	-163.5855
26.103	-2.708	177.987	-38.678	-62.508	-42.663	-65.272	-2.587	-165.262
26.203	-2.732	173.501	-37.943	-67.926	-42.059	-69.822	-2.621	-167.522
26.303	-2.796	168.759	-37.26	-71.426	-41.409	-74.771	-2.713	-169.378
26.403	-2.91	163.661	-36.601	-76.89	-40.668	-79.844	-2.876	-170.492
26.503	-3.0225	157.8445	-36.004	-81.688	-40.04	-83.888	-3.0225	-171.3455
26.603	-3.1065	152.4825	-35.775	-92.123	-39.676	-92.208	-3.1365	-172.2355
26.703	-3.179	146.413	-35.645	-96.018	-40.011	-98.838	-3.112	-174.174
26.803	-3.365	139.337	-35.661	-101.122	-39.896	-102.333	-3.196	-177.052
26.903	-3.6055	131.8505	-35.097	-104.283	-39.268	-108.627	-3.2585	-179.3155
27.003	-3.8785	124.2145	-34.548	-108.219	-38.635	-112.497	-3.3865	-181.0365
27.103	-4.2875	115.6725	-33.733	-114.26	-38.168	-115.563	-3.5365	178.4555
27.203	-4.731	106.228	-33.243	-120.685	-37.301	-123.742	-3.63	176.984
27.303	-5.212	96.86	-32.688	-128.367	-37.068	-129.911	-3.639	175.635
27.403	-5.909	87.228	-32.465	-138.027	-36.76	-141.122	-3.705	172.321
27.503	-6.49	77.175	-32.166	-146.292	-36.299	-148.443	-3.777	169.292
27.603	-6.9185	67.4295	-32.134	-154.895	-36.29	-157.554	-3.9615	166.7535
27.703	-7.2885	56.6695	-32.188	-163.081	-36.315	-166.239	-4.0725	165.5435
27.803	-7.6285	44.5425	-31.897	-170.944	-36.257	-171.728	-4.1595	164.2955
27.903	-7.9175	30.2055	-32.316	-177.32	-36.469	-176.292	-4.1155	162.5165
28.003	-8.099	16.604	-32.201	178.043	-36.29	172.723	-4.176	159.585
28.103	-8.3565	2.3625	-32.302	170.05	-36.035	167.376	-4.3895	155.2905
28.203	-8.5775	-11.9255	-31.944	161.881	-35.911	157.104	-4.6645	151.8625
28.303	-8.529	-25.716	-32.229	151.822	-36.199	148.403	-4.912	149.104
28.403	-8.4855	-38.7435	-32.437	145.348	-36.356	142.605	-5.0805	146.8145
28.503	-8.357	-52.146	-32.628	138.608	-36.576	134.019	-5.009	144.327
28.603	-8.209	-64.464	-32.498	129.79	-36.475	128.863	-4.988	140.734
28.703	-8.097	-74.861	-32.643	123.149	-36.201	121.717	-5.104	136.67
28.803	-8.1325	-84.8075	-32.399	116.082	-36.156	111.191	-5.3395	131.9755
28.903	-8.0335	-94.8575	-32.894	106.226	-36.234	104.076	-5.7705	127.7635
29.003	-8.0915	-103.6155	-32.386	101.059	-36.252	97.674	-6.0285	124.8225
29.103	-8.291	-111.877	-32.404	89.283	-36.262	87.746	-6.203	120.75
29.203	-8.527	-121.732	-32.436	80.618	-36.025	79.786	-6.219	116.304
29.303	-8.6545	-131.0055	-32.388	71.407	-35.745	70.802	-6.2095	110.7935
29.403	-9.1655	-140.1925	-32.164	60.303	-35.694	62.287	-6.3545	104.2905
29.503	-9.8935	-149.3965	-31.887	55.252	-35.415	54.452	-6.7755	99.8385
29.603	-10.8005	-159.8045	-31.681	45.876	-35.126	45.424	-7.1065	95.4135
29.703	-11.651	-168.856	-31.097	37.754	-34.732	35.333	-7.345	91.649
29.803	-12.9795	-177.0255	-30.363	28.517	-34.107	25.472	-7.4415	86.6945
29.903	-14.5065	172.8365	-30.183	15.685	-33.751	14.436	-7.4985	80.7925
30.002	-15.978	162.155	-29.319	4.411	-32.931	4.854	-7.614	73.282
30.102	-17.4225	153.5885	-28.863	-7.207	-32.433	-6.896	-7.8485	67.0435
30.202	-20.3755	142.6185	-28.224	-17.874	-31.905	-16.477	-8.0275	59.6485
30.302	-22.131	125.149	-27.089	-27.104	-30.696	-27.942	-8.11	53.892
30.402	-21.833	104.676	-25.991	-37.621	-29.719	-37.706	-8.157	48.276
30.502	-21.889	80.598	-24.692	-49.628	-28.534	-49.648	-8.06	42.162
30.602	-19.0825	54.3005	-23.422	-64.322	-27.209	-63.397	-8.1255	33.8575
30.702	-16.8315	38.8305	-22.318	-77.427	-26.139	-77.127	-8.1675	25.1555
30.802	-15.413	24.786	-21.143	-91.855	-25.113	-91.787	-8.451	16.118
30.902	-14.2255	11.6895	-20.084	-107.352	-24.19	-106.628	-8.8885	8.0805
31.002	-13.213	1.741	-19.142	-122.134	-23.374	-122.074	-9.264	2.307
31.102	-12.847	-5.932	-18.178	-138.106	-22.462	-138.222	-9.473	-3.631
31.202	-13.002	-11.43	-17.522	-153.841	-21.786	-154.268	-9.668	-10.096
31.302	-12.7745	-15.5375	-16.87	-169.747	-21.208	-169.796	-9.9315	-16.4465
31.402	-12.597	-17.7	-16.352	174.923	-20.792	174.953	-10.348	-22.42
31.502	-12.5995	-18.0545	-15.925	159.057	-20.464	158.92	-10.9035	-26.2395
31.602	-12.613	-18.913	-15.624	143.447	-20.295	143.44	-11.473	-28.118
31.702	-12.25	-16.732	-15.599	128.361	-20.266	128.357	-11.413	-28.055
31.802	-11.6185	-13.3805	-15.482	114.691	-20.274	114.019	-10.9905	-29.2125
31.902	-10.929	-11.626	-15.477	101.118	-20.253	100.463	-10.345	-33.695
32.002	-10.1465	-12.8415	-15.416	87.171	-20.282	86.957	-9.9595	-39.9615
32.102	-9.464	-14.711	-15.382	73.575	-20.341	73.472	-9.754	-47.535
32.202	-8.928	-16.251	-15.452	60.555	-20.351	60.643	-9.735	-54.175
32.302	-8.7065	-18.8675	-15.552	47.761	-20.528	47.214	-9.8295	-60.8115
32.402	-8.519	-21.169	-15.623	35.338	-20.586	34.528	-9.754	-66.669
32.502	-8.3135	-22.6495	-15.77	21.945	-20.874	21.676	-9.7855	-74.5605
32.602	-8.2305	-22.6275	-15.881	8.797	-21.079	8.218	-10.0215	-83.3535
32.702	-8.216	-24.392	-16.278	-5.947	-21.384	-6.269	-10.66	-93.949
32.802	-8.1755	-26.4615	-16.632	-19.561	-21.869	-20.279	-11.6665	-104.8285
32.902	-8.028	-27.949	-17.115	-34.687	-22.393	-34.035	-13.392	-114.047
33.002	-8.372	-27.4	-17.933	-47.709	-23.312	-48.153	-15.548	-121.33
33.102	-8.369	-27.991	-18.654	-61.316	-24.091	-61.57	-18.526	-123.793
33.202	-8.334	-27.804	-19.701	-74.439	-25.153	-74.703	-21.601	-121.305
33.302	-8.232	-26.711	-20.918	-86.807	-26.524	-86.569	-25.942	-105.661
33.402	-8.149	-26.183	-22.081	-98.065	-27.808	-98.695	-28.433	-69.981
33.502	-8.162	-26.581	-23.562	-108.73	-29.348	-107.533	-24.689	-30.144
33.602	-8.035	-27.143	-25.08	-116.538	-31.177	-115.115	-20.239	-25.741
33.702	-7.832	-25.989	-26.669	-122.295	-32.873	-120.761	-17.527	-31.73
33.802	-7.7405	-26.6495	-28.276	-126.652	-34.751	-123.997	-15.9535	-41.0305
33.902	-7.837	-28.515	-29.825	-128.367	-35.813	-123.615	-15.28	-48.866
34.002	-7.838	-29.419	-30.363	-128.048	-36.697	-124.236	-15.095	-56.343
34.101	-7.892	-29.165	-30.691	-132.153	-36.844	-125.624	-15.383	-59.438
34.201	-8.184	-28.003	-31.294	-133.881	-37.625	-128.39	-15.577	-60.766
34.301	-8.274	-27.162	-31.147	-138.753	-37.225	-128.016	-15.265	-61.719
34.401	-8.1885	-24.7935	-31.683	-143.731	-37.441	-133.787	-15.3375	-63.0975
34.501	-7.653	-22.306	-31.707	-147.503	-37.705	-139.522	-15.344	-64.87
34.601	-7.3985	-22.5395	-31.736	-154.059	-37.808	-147.318	-15.8535	-63.9935
34.701	-7.019	-23.621	-32.109	-167.068	-38.561	-160.869	-15.692	-56.965
34.801	-6.6605	-24.4035	-33.601	176.479	-40.163	-174.182	-14.8475	-53.0215
34.901	-6.362	-24.327	-37.107	167.119	-43.121	-169.407	-13.459	-53.656
35.001	-6.042	-26.103	-41.661	-178.356	-46.328	-148.249	-12.744	-59.026
35.101	-5.6615	-27.9405	-42.722	-148.218	-46.457	-120.137	-12.1455	-64.8105
35.201	-5.3535	-30.5905	-40.707	-115.564	-43.452	-104.53	-12.1465	-69.5335
35.301	-5.202	-32.77	-36.817	-111.371	-39.665	-107.222	-12.061	-72.365
35.401	-5.263	-35.581	-33.07	-114.059	-37.049	-115.075	-11.66	-74.087
35.501	-5.206	-38.67	-30.499	-122.575	-35.196	-124.065	-11.247	-78.262
35.601	-5.2715	-40.2195	-28.401	-136.202	-33.04	-135.815	-10.9275	-83.6965
35.701	-5.247	-41.445	-26.89	-150.794	-31.542	-150.11	-10.994	-90.791
35.801	-5.1995	-43.9905	-25.468	-164.428	-30.4	-163.161	-11.2875	-97.4355
35.901	-5.1815	-45.7345	-24.437	-177.518	-29.569	-177.061	-12.3245	-102.5305
36.001	-5.1695	-48.0105	-23.816	167.468	-29.024	167.78	-13.1985	-104.5795
36.101	-5.33	-51.151	-23.243	150.667	-28.595	151.493	-13.898	-103.461
36.201	-5.353	-53.687	-23.012	134.735	-28.743	136.655	-14.24	-103.704
36.301	-5.3695	-55.0235	-22.966	119.585	-28.793	122.09	-14.4235	-104.6985
36.401	-5.404	-57.27	-23.509	105.836	-29.386	107.54	-14.878	-106.636
36.501	-5.444	-60.107	-23.987	92.366	-29.806	94.505	-15.635	-107.992
36.601	-5.575	-64.129	-24.549	80.432	-30.631	82.502	-16.593	-106.9
36.701	-5.659	-67.33	-25.569	70.548	-31.68	72.004	-17.276	-101.284
36.801	-5.931	-68.978	-26.294	61.388	-32.712	64.5	-17.171	-94.942
36.901	-6.123	-72.437	-27.302	53.957	-33.773	55.808	-16.673	-91.095
37.001	-6.2195	-76.7545	-28.226	46.929	-35.374	49.965	-15.8665	-90.3475
37.101	-6.497	-80.75	-29.047	42.103	-36.413	44.655	-15.459	-89.624
37.201	-6.8245	-85.1925	-29.68	40.298	-37.32	44.312	-14.7085	-88.2045
37.301	-7.253	-90.912	-30.711	38.987	-38.541	46.97	-13.84	-90.724
37.401	-7.556	-96.063	-30.646	44.881	-38.038	53.668	-13.011	-96.793
37.501	-7.9695	-100.8405	-30.183	47.114	-37.414	52.746	-12.6825	-104.4395
37.601	-8.578	-106.051	-29.143	42.381	-36.257	50.193	-12.947	-111.138
37.701	-8.859	-113.504	-28.143	36.129	-35.54	42.964	-13.358	-115.265
37.801	-9.249	-119.599	-27.36	27.281	-35.954	32.922	-13.783	-118.373
37.901	-9.6395	-127.0195	-27.211	17.1	-35.517	25.144	-13.6645	-120.0205
38.001	-10.389	-136.896	-27.329	7.068	-35.535	16.056	-13.308	-124.762
38.1	-10.6545	-145.6575	-28.326	-2.551	-36.091	9.6	-12.7405	-129.3495
38.2	-11.272	-155.084	-29.33	-10.985	-37.029	3.121	-12.288	-140.235
38.3	-11.94	-163.953	-30.995	-15.328	-38.317	2.351	-12.375	-149.781
38.4	-11.661	-176.998	-31.543	-11.191	-37.497	7.232	-12.465	-158.151
38.5	-11.657	172.086	-31.75	-7.545	-37.064	6.368	-13.226	-165.826
38.6	-11.6445	159.6885	-31.335	-10.43	-36.965	4.063	-13.8245	-173.4405
38.7	-11.9005	145.8155	-30.97	-11.398	-36.26	-2.54	-14.5855	-179.6905
38.8	-11.29	136.95	-30.672	-15.847	-35.948	-9.17	-15.276	175.183
38.9	-11.2765	128.3185	-30.217	-22.976	-36.64	-14	-15.9565	170.0415
39	-11.101	118.873	-30.222	-25.403	-36.712	-17.187	-16.654	164.642
39.1	-10.7345	109.6985	-29.732	-28.904	-36.22	-22.914	-17.8145	160.7725
39.2	-10.435	103.386	-29.416	-38.024	-36.605	-33.082	-18.236	160.69
39.3	-10.3775	95.7005	-29.233	-49.425	-36.823	-41.601	-18.5225	159.4815
39.4	-10.0955	89.2265	-31.147	-61.156	-38.464	-49.182	-18.8215	158.1035
39.5	-9.9125	83.9595	-32.481	-71.853	-39.951	-57.052	-18.1415	158.7285
39.6	-9.681	79.088	-34.599	-69.366	-40.574	-50.211	-18.193	155.635
39.7	-9.8605	74.5655	-35.698	-73.177	-41.671	-49.721	-17.8245	157.9285
39.8	-9.323	70.458	-37.467	-72.486	-41.907	-50.848	-17.141	156.7
39.9	-9.1135	65.8525	-40.157	-66.588	-44.335	-41.613	-16.2585	154.1105
40	-9.1645	62.4015	-43.315	-53.858	-45.955	-39.341	-15.4255	149.2185
