! Analog Devices, Inc."								
! Device:	ADL8154ACPZN - THRU							
! Description:	"10 MHz to 6 GHz, Wideband, Low Noise Amplifier"							
! Conditions:	Pin = -25 dBm							
!		Operating Temperature = +25 C (at package bottom)       						
! Measurement used thru-cal line of SN#48.								
! Frequency (GHz)	S11_Mag (dB)	S11_Phase (deg)	S21_Mag (dB)	S21_Phase (deg)	S12_Mag (dB)	S12_Phase (deg)	S22_Mag (dB)	S22_Phase (deg)
#  GHZ   S   DB   R 50								
								
0.010	-45.986	-119.605	0.013	-0.027	0.007	0.06	-44.143	8.174
0.110	-47.38	69.612	-0.001	-2.16	-0.009	-2.137	-45.082	83.868
0.210	-42.358	78.436	-0.019	-4.125	-0.008	-4.208	-40.544	80.99
0.310	-37.809	74.343	-0.028	-6.043	-0.028	-5.99	-39.271	71.297
0.410	-36.794	75.781	-0.026	-7.986	-0.048	-8.045	-36.58	75.388
0.510	-34.824	70.66	-0.032	-9.876	-0.037	-9.876	-34.393	74.385
0.610	-32.906	73.013	-0.041	-11.816	-0.041	-11.868	-33.153	67.321
0.710	-31.988	69.434	-0.047	-13.73	-0.053	-13.78	-31.98	66.775
0.810	-30.966	69.012	-0.057	-15.659	-0.051	-15.656	-30.816	64.322
0.910	-30.542	67.853	-0.063	-17.57	-0.058	-17.588	-30.273	64.279
1.010	-29.827	66.026	-0.069	-19.473	-0.069	-19.452	-29.825	60.453
1.110	-29.932	63.622	-0.071	-21.401	-0.069	-21.348	-29.701	60.002
1.210	-29.395	62.272	-0.078	-23.239	-0.072	-23.271	-29.523	56.319
1.310	-29.263	62.693	-0.081	-25.168	-0.082	-25.148	-29.03	54.849
1.410	-29.037	61.217	-0.092	-27.093	-0.089	-27.086	-28.806	50.837
1.510	-28.898	58.751	-0.102	-28.979	-0.093	-28.967	-28.518	48.019
1.610	-28.673	56.846	-0.102	-30.857	-0.106	-30.873	-28.402	44.208
1.710	-28.863	55.506	-0.108	-32.755	-0.106	-32.775	-28.257	42.053
1.810	-28.821	53.788	-0.108	-34.689	-0.117	-34.649	-28.405	39.868
1.910	-29.157	53.023	-0.115	-36.524	-0.122	-36.568	-28.808	34.883
2.010	-29.573	54.357	-0.129	-38.477	-0.118	-38.455	-29.198	31.761
2.109	-30.52	52.962	-0.131	-40.384	-0.132	-40.365	-29.737	25.177
2.209	-31.044	56.024	-0.147	-42.229	-0.142	-42.267	-30.592	21.581
2.309	-32.131	55.222	-0.149	-44.139	-0.146	-44.172	-30.933	14.421
2.409	-32.509	56.613	-0.148	-46.029	-0.153	-46.071	-31.366	8.124
2.509	-33.722	61.859	-0.155	-47.938	-0.165	-47.938	-32.112	1.033
2.609	-34.568	62.359	-0.165	-49.849	-0.173	-49.871	-32.582	-7.988
2.709	-36.42	77.203	-0.187	-51.729	-0.179	-51.8	-33.465	-19.02
2.809	-36.334	85.553	-0.179	-53.621	-0.188	-53.636	-34.093	-28.197
2.909	-38.551	106.3	-0.192	-55.532	-0.192	-55.536	-34.009	-44.286
3.009	-37.769	123.42	-0.199	-57.427	-0.204	-57.443	-33.479	-58.091
3.109	-36.575	136.462	-0.208	-59.322	-0.215	-59.337	-32.917	-68.533
3.209	-34.742	146.143	-0.228	-61.195	-0.225	-61.21	-31.84	-82.028
3.309	-33.496	152.258	-0.235	-63.099	-0.238	-63.119	-30.963	-92.045
3.409	-32.162	153.777	-0.244	-64.953	-0.242	-65.033	-30.333	-100.244
3.509	-30.352	159.091	-0.255	-66.816	-0.264	-66.856	-29.201	-109.205
3.609	-29.151	163.488	-0.272	-68.712	-0.27	-68.749	-28.641	-116.777
3.709	-28.078	162.617	-0.279	-70.561	-0.29	-70.606	-27.713	-123.1
3.809	-27.134	163.581	-0.294	-72.426	-0.297	-72.488	-27.006	-129.779
3.909	-26.502	162.455	-0.308	-74.294	-0.316	-74.329	-26.238	-133.435
4.009	-26.027	161.467	-0.327	-76.16	-0.328	-76.21	-25.881	-137.657
4.109	-25.57	160.644	-0.337	-78.044	-0.337	-77.974	-25.825	-140.248
4.209	-25.178	159.764	-0.349	-79.844	-0.356	-79.869	-25.5	-144.393
4.309	-24.975	157.898	-0.36	-81.706	-0.368	-81.721	-25.152	-145.977
4.409	-24.48	156.756	-0.369	-83.525	-0.377	-83.539	-24.998	-151.69
4.509	-24.431	156.45	-0.386	-85.371	-0.381	-85.328	-24.89	-155.059
4.609	-24.156	155.455	-0.388	-87.182	-0.395	-87.191	-24.663	-158.243
4.709	-23.972	153.639	-0.399	-88.991	-0.405	-88.999	-24.595	-162.552
4.809	-24.185	152.858	-0.407	-90.84	-0.411	-90.839	-24.546	-166.678
4.909	-24.209	150.185	-0.417	-92.636	-0.421	-92.669	-24.923	-169.312
5.009	-24.598	148.322	-0.425	-94.473	-0.425	-94.495	-25.345	-174.234
5.109	-24.798	145.499	-0.434	-96.327	-0.431	-96.302	-25.828	-177.901
5.209	-25.082	143.847	-0.435	-98.087	-0.434	-98.169	-26.234	175.72
5.309	-25.497	141.454	-0.438	-99.934	-0.441	-99.957	-26.804	169.873
5.409	-25.887	141.663	-0.438	-101.774	-0.44	-101.771	-27.65	163.387
5.509	-26.747	141.194	-0.445	-103.592	-0.442	-103.661	-28.245	155.248
5.609	-27.714	139.933	-0.448	-105.47	-0.447	-105.462	-28.932	145.338
5.709	-29.155	137.218	-0.439	-107.28	-0.457	-107.31	-29.779	132.012
5.809	-30.806	136.223	-0.451	-109.145	-0.456	-109.11	-30.129	120.958
5.909	-32.698	129.809	-0.459	-110.961	-0.449	-111.034	-30.53	103.992
6.009	-34.945	124.266	-0.452	-112.853	-0.464	-112.919	-30.112	89.355
6.108	-38.005	116.821	-0.453	-114.697	-0.462	-114.712	-28.924	75.226
6.208	-43.446	108.863	-0.461	-116.576	-0.469	-116.607	-27.873	65.335
6.308	-56.273	72.612	-0.468	-118.42	-0.467	-118.501	-26.684	54.766
6.408	-43.622	-46.492	-0.467	-120.332	-0.472	-120.386	-25.803	45.303
6.508	-36.568	-60	-0.47	-122.227	-0.471	-122.273	-24.545	37.49
6.608	-32.49	-58.239	-0.467	-124.133	-0.481	-124.137	-23.691	31.837
6.708	-29.994	-62.784	-0.477	-126.002	-0.486	-126.064	-22.792	25.697
6.808	-27.928	-62.047	-0.48	-127.92	-0.492	-127.932	-21.97	20.108
6.908	-26.465	-62.031	-0.49	-129.774	-0.495	-129.797	-21.34	16.589
7.008	-25.196	-64.098	-0.499	-131.683	-0.498	-131.716	-20.543	11.527
7.108	-23.975	-67.334	-0.5	-133.542	-0.512	-133.629	-19.922	8.436
7.208	-23.13	-69.144	-0.51	-135.461	-0.515	-135.463	-19.327	5.62
7.308	-22.241	-71.869	-0.522	-137.358	-0.523	-137.374	-18.714	2.29
7.408	-21.314	-74.501	-0.532	-139.19	-0.542	-139.239	-18.202	-0.965
7.508	-20.514	-76.213	-0.541	-141.1	-0.547	-141.097	-17.745	-3.846
7.608	-19.704	-77.08	-0.556	-142.951	-0.562	-143.019	-17.222	-6.542
7.708	-19.151	-78.338	-0.566	-144.876	-0.564	-144.868	-16.872	-9.41
7.808	-18.623	-80.075	-0.579	-146.675	-0.586	-146.688	-16.545	-12.933
7.908	-18.094	-81.231	-0.6	-148.571	-0.599	-148.528	-16.199	-16.15
8.008	-17.663	-83.042	-0.603	-150.394	-0.612	-150.386	-15.978	-18.997
8.108	-17.258	-85.242	-0.622	-152.209	-0.622	-152.201	-15.687	-22.013
8.208	-16.888	-86.969	-0.63	-154.04	-0.641	-154.056	-15.446	-24.092
8.308	-16.479	-88.418	-0.639	-155.837	-0.65	-155.902	-15.248	-26.915
8.408	-16.11	-88.857	-0.664	-157.701	-0.657	-157.731	-15.12	-29.934
8.508	-15.808	-89.96	-0.67	-159.548	-0.672	-159.587	-15.001	-32.19
8.608	-15.53	-90.752	-0.682	-161.312	-0.687	-161.385	-14.828	-34.288
8.708	-15.409	-91.553	-0.694	-163.135	-0.699	-163.206	-14.767	-36.735
8.808	-15.306	-92.016	-0.705	-164.939	-0.708	-164.983	-14.69	-39.608
8.908	-15.193	-93.082	-0.715	-166.728	-0.724	-166.792	-14.647	-42.129
9.008	-15.095	-94.344	-0.725	-168.597	-0.732	-168.634	-14.637	-44.802
9.108	-14.971	-95.816	-0.738	-170.424	-0.742	-170.376	-14.574	-47.446
9.208	-14.863	-96.604	-0.741	-172.191	-0.747	-172.213	-14.688	-50.398
9.308	-14.829	-96.741	-0.751	-173.969	-0.749	-174.062	-14.927	-53.272
9.408	-14.737	-96.75	-0.751	-175.812	-0.757	-175.85	-14.994	-57.202
9.508	-14.818	-96.399	-0.755	-177.633	-0.762	-177.674	-15.259	-59.954
9.608	-14.847	-96.252	-0.759	-179.449	-0.761	-179.507	-15.302	-62.942
9.708	-15.074	-95.829	-0.758	178.75	-0.763	178.713	-15.661	-65.466
9.808	-15.231	-95.843	-0.756	176.936	-0.754	176.833	-16.008	-67.753
9.908	-15.431	-96.314	-0.76	175.068	-0.754	174.984	-16.332	-71.158
10.007	-15.499	-96.404	-0.755	173.222	-0.757	173.19	-16.674	-74.319
10.107	-15.651	-95.785	-0.751	171.332	-0.756	171.333	-17.099	-78.814
10.207	-15.799	-95.238	-0.754	169.527	-0.753	169.463	-17.648	-82.806
10.307	-15.983	-94.158	-0.737	167.647	-0.757	167.651	-18.108	-87.153
10.407	-16.129	-92.588	-0.745	165.824	-0.753	165.731	-18.612	-92.979
10.507	-16.386	-90.594	-0.745	163.964	-0.753	163.938	-19.153	-98.54
10.607	-16.707	-89.433	-0.751	162.082	-0.751	162.021	-19.892	-104.375
10.707	-16.953	-87.753	-0.744	160.257	-0.747	160.197	-20.613	-110.284
10.807	-17.217	-85.647	-0.742	158.371	-0.743	158.284	-21.407	-119.103
10.907	-17.4	-83.553	-0.741	156.459	-0.749	156.421	-22.088	-129.711
11.007	-17.534	-81.588	-0.741	154.567	-0.744	154.572	-22.565	-139.572
11.107	-17.648	-79.285	-0.739	152.692	-0.75	152.68	-23.047	-150.643
11.207	-17.754	-76.654	-0.748	150.822	-0.748	150.758	-23.084	-161.487
11.307	-17.735	-73.314	-0.745	148.922	-0.752	148.853	-23.092	-174.327
11.407	-17.89	-69.906	-0.756	147.039	-0.759	146.993	-22.754	174.647
11.507	-17.802	-66.396	-0.763	145.123	-0.752	145.123	-22.127	164.329
11.607	-17.916	-63.656	-0.764	143.229	-0.77	143.165	-21.652	154.452
11.707	-17.974	-61.131	-0.777	141.3	-0.777	141.286	-20.917	146.909
11.807	-17.934	-58.783	-0.783	139.37	-0.786	139.361	-20.107	139.266
11.907	-17.842	-56.839	-0.789	137.522	-0.79	137.432	-19.387	133.201
12.007	-17.611	-55.257	-0.796	135.6	-0.808	135.547	-18.657	128.237
12.107	-17.451	-52.712	-0.806	133.719	-0.813	133.663	-18.03	123.102
12.207	-17.202	-49.973	-0.82	131.793	-0.822	131.742	-17.495	117.329
12.307	-16.975	-47.306	-0.828	129.873	-0.834	129.881	-16.99	112.11
12.407	-16.768	-44.568	-0.841	128.009	-0.84	127.954	-16.54	108.161
12.507	-16.693	-42.154	-0.845	126.106	-0.845	126.064	-16.17	103.818
12.607	-16.655	-40.032	-0.848	124.227	-0.859	124.155	-15.855	99.811
12.707	-16.553	-38.475	-0.857	122.318	-0.865	122.217	-15.503	96.059
12.807	-16.435	-36.571	-0.87	120.368	-0.869	120.315	-15.26	91.345
12.907	-16.286	-35.181	-0.873	118.461	-0.88	118.401	-14.96	87.709
13.007	-15.955	-33.558	-0.893	116.565	-0.889	116.576	-14.698	84.086
13.107	-15.745	-31.537	-0.894	114.702	-0.897	114.65	-14.491	79.641
13.207	-15.514	-29.033	-0.912	112.775	-0.909	112.713	-14.353	75.215
13.307	-15.316	-26.862	-0.92	110.904	-0.921	110.841	-14.145	71.746
13.407	-15.096	-24.63	-0.938	108.983	-0.937	108.953	-13.883	67.878
13.507	-14.919	-22.344	-0.955	107.084	-0.95	107.061	-13.844	63.858
13.607	-14.788	-20.963	-0.965	105.256	-0.964	105.182	-13.772	60.023
13.707	-14.601	-18.685	-0.977	103.348	-0.978	103.309	-13.704	55.397
13.807	-14.399	-17.113	-0.993	101.377	-0.999	101.416	-13.608	50.782
13.907	-14.131	-15.623	-1.007	99.579	-1.014	99.546	-13.558	46.566
14.007	-13.868	-13.869	-1.031	97.623	-1.031	97.631	-13.475	42.062
14.106	-13.542	-11.737	-1.045	95.712	-1.043	95.726	-13.472	37.856
14.206	-13.265	-9.636	-1.066	93.84	-1.07	93.823	-13.434	33.48
14.306	-13.009	-8.155	-1.095	91.946	-1.085	91.896	-13.298	29.39
14.406	-12.796	-6.247	-1.117	90.07	-1.111	89.956	-13.234	24.949
14.506	-12.642	-4.792	-1.134	88.104	-1.135	88.106	-13.271	20.887
14.606	-12.449	-3.597	-1.156	86.225	-1.157	86.111	-13.176	16.847
14.706	-12.214	-2.892	-1.188	84.307	-1.181	84.253	-13.179	12.486
14.806	-11.973	-2.138	-1.213	82.395	-1.215	82.345	-13.092	8.174
14.906	-11.733	-1.648	-1.238	80.524	-1.236	80.473	-13.118	4.07
15.006	-11.456	-0.824	-1.264	78.64	-1.263	78.585	-13.086	-0.039
15.106	-11.224	0.216	-1.287	76.729	-1.287	76.736	-13.172	-4.473
15.206	-10.979	1.219	-1.309	74.943	-1.315	74.878	-13.134	-9.09
15.306	-10.826	2.09	-1.339	73.061	-1.327	73.011	-13.205	-13.494
15.406	-10.697	2.431	-1.353	71.2	-1.354	71.156	-13.207	-16.664
15.506	-10.573	2.591	-1.372	69.348	-1.374	69.246	-13.23	-20.265
15.606	-10.429	2.801	-1.394	67.509	-1.398	67.482	-13.289	-24.217
15.706	-10.292	2.871	-1.409	65.694	-1.42	65.566	-13.357	-28.123
15.806	-10.16	2.801	-1.435	63.852	-1.436	63.788	-13.338	-31.419
15.906	-10.029	2.752	-1.458	62.047	-1.459	61.993	-13.414	-35.097
16.006	-9.931	2.925	-1.472	60.288	-1.475	60.208	-13.494	-39.025
16.106	-9.843	3.049	-1.494	58.51	-1.496	58.422	-13.608	-42.81
16.206	-9.78	3.425	-1.509	56.706	-1.517	56.675	-13.659	-47.139
16.306	-9.784	3.472	-1.525	54.93	-1.526	54.915	-13.82	-51.245
16.406	-9.78	3.328	-1.535	53.197	-1.542	53.176	-13.919	-54.747
16.506	-9.766	3.081	-1.549	51.451	-1.553	51.425	-14.111	-58.664
16.606	-9.738	2.825	-1.56	49.75	-1.567	49.701	-14.224	-63.461
16.706	-9.711	2.709	-1.565	48.032	-1.58	47.96	-14.368	-67.63
16.806	-9.692	2.518	-1.583	46.328	-1.584	46.284	-14.45	-71.047
16.906	-9.738	2.588	-1.592	44.583	-1.6	44.508	-14.598	-74.914
17.006	-9.843	2.741	-1.592	42.836	-1.604	42.799	-14.879	-77.92
17.106	-9.949	2.862	-1.594	41.107	-1.609	41.054	-15.074	-81.82
17.206	-10.107	2.966	-1.605	39.323	-1.62	39.285	-15.282	-85.942
17.306	-10.257	2.869	-1.609	37.564	-1.62	37.549	-15.427	-90.776
17.406	-10.447	2.34	-1.622	35.846	-1.615	35.77	-15.711	-95.175
17.506	-10.581	1.982	-1.608	34.019	-1.622	34.006	-16.029	-99.585
17.606	-10.699	1.662	-1.614	32.253	-1.622	32.185	-16.279	-103.1
17.706	-10.858	1.629	-1.615	30.526	-1.624	30.44	-16.417	-107.635
17.806	-11.028	2.035	-1.608	28.708	-1.621	28.594	-16.682	-112.302
17.906	-11.282	2.682	-1.595	26.858	-1.614	26.843	-17.173	-117.299
18.005	-11.584	3.526	-1.587	25.094	-1.602	25.036	-17.606	-121.82
18.105	-11.944	4.404	-1.577	23.235	-1.579	23.195	-18.097	-127.262
18.205	-12.379	5.278	-1.57	21.341	-1.576	21.272	-18.457	-132.012
18.305	-12.907	5.536	-1.556	19.373	-1.553	19.361	-19.114	-137.237
18.405	-13.392	6.418	-1.542	17.424	-1.549	17.47	-19.833	-142.109
18.505	-13.84	6.748	-1.533	15.532	-1.531	15.464	-20.65	-147.75
18.605	-14.157	8.722	-1.511	13.59	-1.533	13.469	-21.556	-157.891
18.705	-14.525	11.507	-1.512	11.659	-1.506	11.563	-21.956	-167.196
18.805	-14.981	15.342	-1.498	9.707	-1.497	9.606	-22.661	-178.788
18.905	-15.434	19.641	-1.478	7.751	-1.505	7.654	-22.988	170.287
19.005	-15.996	24.699	-1.479	5.822	-1.491	5.646	-23.311	156.136
19.105	-16.428	30.165	-1.477	3.755	-1.491	3.712	-22.985	144.715
19.205	-16.921	35.974	-1.479	1.768	-1.481	1.701	-22.835	131.603
19.305	-17.222	42	-1.473	-0.267	-1.485	-0.292	-22.838	119.034
19.405	-17.323	47.849	-1.475	-2.244	-1.474	-2.289	-22.439	108.547
19.505	-17.085	53.52	-1.491	-4.315	-1.484	-4.339	-21.301	97.459
19.605	-16.481	59.991	-1.506	-6.321	-1.489	-6.344	-20.249	87.837
19.705	-15.898	66.027	-1.508	-8.338	-1.517	-8.425	-19.509	81.506
19.805	-15.248	71.962	-1.537	-10.314	-1.528	-10.366	-18.607	75.899
19.905	-14.644	76.485	-1.539	-12.365	-1.554	-12.401	-17.765	71.245
20.005	-14.078	80.325	-1.568	-14.363	-1.573	-14.426	-17.051	66.182
20.105	-13.643	83.157	-1.594	-16.379	-1.602	-16.422	-16.38	62.73
20.205	-13.141	84.929	-1.62	-18.431	-1.632	-18.36	-15.828	58.804
20.305	-12.778	86.487	-1.649	-20.42	-1.659	-20.446	-15.411	54.871
20.405	-12.244	86.883	-1.69	-22.339	-1.682	-22.403	-14.852	51.031
20.505	-11.724	87.357	-1.7	-24.42	-1.713	-24.454	-14.432	46.837
20.605	-11.218	87.345	-1.746	-26.349	-1.753	-26.467	-14.079	43.697
20.705	-10.663	88.05	-1.775	-28.321	-1.79	-28.363	-13.764	41.001
20.805	-10.199	88.846	-1.822	-30.282	-1.82	-30.329	-13.508	37.906
20.905	-9.805	89.659	-1.844	-32.242	-1.854	-32.289	-13.251	35.058
21.005	-9.531	90.293	-1.884	-34.183	-1.885	-34.168	-13.044	32.245
21.105	-9.305	90.28	-1.909	-36.057	-1.922	-36.151	-12.747	29.439
21.205	-9.13	89.859	-1.934	-37.918	-1.943	-37.938	-12.587	27.002
21.305	-8.925	88.993	-1.953	-39.748	-1.966	-39.886	-12.36	25.148
21.405	-8.693	88.391	-1.988	-41.639	-1.992	-41.7	-12.129	21.589
21.505	-8.463	87.449	-2.009	-43.457	-2.014	-43.536	-12.045	19.788
21.605	-8.205	87.072	-2.03	-45.251	-2.043	-45.332	-11.849	17.679
21.705	-8.01	86.766	-2.05	-46.974	-2.065	-47.065	-11.788	15.449
21.805	-7.84	86.92	-2.08	-48.745	-2.088	-48.885	-11.703	12.786
21.905	-7.817	86.846	-2.085	-50.484	-2.098	-50.579	-11.874	10.666
22.005	-7.793	86.497	-2.111	-52.143	-2.109	-52.261	-11.712	8.554
22.104	-7.796	85.666	-2.131	-53.949	-2.134	-54.038	-11.698	5.653
22.204	-7.772	84.73	-2.137	-55.703	-2.142	-55.801	-11.749	4.146
22.304	-7.771	83.655	-2.144	-57.419	-2.159	-57.47	-11.71	1.945
22.404	-7.753	82.541	-2.156	-59.057	-2.167	-59.175	-11.717	0.134
22.504	-7.719	81.673	-2.177	-60.754	-2.172	-60.815	-11.686	-1.428
22.604	-7.715	80.862	-2.178	-62.353	-2.174	-62.453	-11.715	-2.358
22.704	-7.724	80.412	-2.183	-64.168	-2.184	-64.178	-11.84	-3.359
22.804	-7.867	79.998	-2.176	-65.705	-2.184	-65.881	-12.068	-4.104
22.904	-8.076	79.515	-2.17	-67.507	-2.172	-67.484	-12.264	-4.862
23.004	-8.31	78.502	-2.161	-69.208	-2.178	-69.236	-12.398	-6.035
23.104	-8.589	76.96	-2.164	-70.975	-2.163	-71.033	-12.692	-6.165
23.204	-8.766	75.152	-2.158	-72.757	-2.167	-72.901	-12.86	-6.325
23.304	-8.911	73.659	-2.153	-74.575	-2.156	-74.62	-13.181	-7.284
23.404	-9.078	72.65	-2.145	-76.415	-2.154	-76.466	-13.418	-7.628
23.504	-9.281	71.764	-2.141	-78.259	-2.146	-78.296	-13.775	-7.791
23.604	-9.602	71.303	-2.116	-80.158	-2.121	-80.228	-14.043	-6.714
23.704	-9.979	70.607	-2.104	-82.032	-2.107	-82.119	-14.381	-6.074
23.804	-10.431	69.796	-2.089	-83.968	-2.081	-83.976	-14.709	-4.741
23.904	-10.941	68.674	-2.074	-85.845	-2.07	-85.976	-15.127	-3.854
24.004	-11.458	66.855	-2.047	-87.782	-2.065	-87.871	-15.558	-0.911
24.104	-11.952	65.021	-2.032	-89.818	-2.041	-89.823	-15.811	2.312
24.204	-12.316	63.635	-2.023	-91.757	-2.031	-91.793	-16.14	4.359
24.304	-12.84	63.266	-2	-93.726	-2.009	-93.777	-16.635	8.36
24.404	-13.363	63.705	-1.98	-95.718	-1.997	-95.791	-16.943	12.859
24.504	-14.061	64.231	-1.977	-97.755	-1.977	-97.774	-17.097	16.998
24.604	-14.83	65.983	-1.958	-99.713	-1.971	-99.738	-17.416	21.819
24.704	-15.876	67.457	-1.95	-101.728	-1.956	-101.785	-17.402	26.204
24.804	-17.02	69.179	-1.936	-103.688	-1.946	-103.736	-17.583	30.84
24.904	-18.212	69.374	-1.933	-105.735	-1.938	-105.782	-17.528	34.953
25.004	-19.464	69.917	-1.936	-107.808	-1.93	-107.784	-17.392	37.917
25.104	-20.391	72.933	-1.932	-109.723	-1.942	-109.765	-17.223	41.501
25.204	-21.256	78.422	-1.926	-111.705	-1.939	-111.792	-16.77	45.133
25.304	-21.854	89.032	-1.935	-113.674	-1.938	-113.718	-16.55	49.013
25.404	-22.354	103.484	-1.941	-115.642	-1.951	-115.691	-16.071	52.61
25.504	-22.574	119.839	-1.96	-117.619	-1.956	-117.712	-15.926	55.423
25.604	-21.867	137.016	-1.981	-119.527	-1.971	-119.596	-15.442	59.4
25.704	-21.39	148.822	-1.989	-121.507	-1.983	-121.635	-14.994	60.6
25.804	-20.483	157.066	-1.993	-123.554	-1.994	-123.577	-14.543	61.971
25.904	-19.722	163.122	-2.015	-125.498	-2.028	-125.516	-14.398	62.559
26.003	-18.912	164.351	-2.035	-127.505	-2.028	-127.489	-14.266	63.614
26.103	-17.892	164.297	-2.056	-129.347	-2.061	-129.47	-13.928	65.066
26.203	-16.86	164.365	-2.072	-131.34	-2.08	-131.406	-13.66	65.763
26.303	-15.69	164.733	-2.086	-133.312	-2.095	-133.394	-13.477	65.901
26.403	-14.727	166.512	-2.104	-135.228	-2.123	-135.269	-13.302	66.58
26.503	-13.952	168.21	-2.145	-137.103	-2.146	-137.228	-13.096	66.133
26.603	-13.52	170.25	-2.149	-139.072	-2.163	-139.174	-13.007	65.868
26.703	-13.259	170.614	-2.178	-140.904	-2.173	-141.009	-13.032	65.446
26.803	-12.981	170.022	-2.198	-142.967	-2.188	-142.834	-12.791	65.639
26.903	-12.82	168.877	-2.227	-144.748	-2.219	-144.908	-12.735	65.045
27.003	-12.504	167.21	-2.211	-146.711	-2.24	-146.709	-12.813	64.966
27.103	-12.102	164.65	-2.239	-148.442	-2.232	-148.647	-12.672	65.298
27.203	-11.815	163.218	-2.24	-150.449	-2.251	-150.401	-12.619	63.977
27.303	-11.39	162.21	-2.246	-152.215	-2.263	-152.29	-12.59	64.178
27.403	-11.041	162.14	-2.254	-154.165	-2.26	-154.015	-12.628	63.939
27.503	-10.887	162.962	-2.252	-156.014	-2.256	-155.895	-12.567	63.505
27.603	-10.828	162.148	-2.235	-157.745	-2.255	-157.741	-12.823	63.586
27.703	-10.988	161.808	-2.227	-159.483	-2.233	-159.468	-13.034	63.312
27.803	-11.11	160.036	-2.229	-161.393	-2.21	-161.438	-13.267	62.564
27.903	-11.15	157.512	-2.251	-163.182	-2.237	-163.189	-13.436	61.428
28.003	-11.139	155.839	-2.214	-164.999	-2.228	-164.936	-13.6	60.281
28.103	-10.943	153.037	-2.221	-166.918	-2.219	-166.929	-13.605	60.364
28.203	-10.923	151.501	-2.215	-168.834	-2.201	-168.747	-13.768	59.218
28.303	-10.958	151.171	-2.206	-170.647	-2.218	-170.686	-13.898	60.818
28.403	-11.129	150.515	-2.201	-172.505	-2.202	-172.446	-14.239	60.297
28.503	-11.492	150.081	-2.194	-174.297	-2.192	-174.567	-14.556	61.263
28.603	-11.99	147.839	-2.174	-176.279	-2.177	-176.357	-14.956	62.251
28.703	-12.211	144.334	-2.148	-178.302	-2.161	-178.285	-15.226	63.938
28.803	-12.472	141.104	-2.153	179.785	-2.149	179.725	-15.781	64.889
28.903	-12.573	138.422	-2.113	177.802	-2.163	177.705	-16.128	68.039
29.003	-12.495	136.865	-2.145	175.683	-2.146	175.768	-16.419	67.301
29.103	-12.683	135.965	-2.138	173.825	-2.148	173.657	-16.902	69.895
29.203	-12.948	136.125	-2.134	171.73	-2.127	171.623	-17.152	72.954
29.303	-13.513	136.576	-2.127	169.709	-2.144	169.655	-17.53	76.623
29.403	-14.225	136.43	-2.131	167.7	-2.143	167.534	-17.911	79.533
29.503	-15.186	134.168	-2.129	165.565	-2.113	165.441	-18.146	84.342
29.603	-16.134	129.939	-2.117	163.53	-2.117	163.416	-18.529	88.801
29.703	-16.731	124.731	-2.118	161.357	-2.135	161.373	-18.197	95.435
29.803	-16.973	120.914	-2.135	159.15	-2.125	159.215	-18.131	99.167
29.903	-17.19	120.33	-2.117	157.297	-2.141	157.048	-17.753	104.627
30.002	-17.597	122.217	-2.136	155.076	-2.115	154.899	-17.871	109.489
30.102	-18.343	126.315	-2.125	152.905	-2.126	152.886	-17.257	114.757
30.202	-19.415	129.053	-2.119	150.868	-2.125	150.716	-16.657	117.821
30.302	-21.301	133.491	-2.12	148.803	-2.126	148.632	-16.447	121.812
30.402	-24.12	136.331	-2.13	146.657	-2.136	146.734	-15.829	125.443
30.502	-27.028	135.405	-2.152	144.706	-2.153	144.598	-15.493	128.507
30.602	-29.427	122.602	-2.151	142.525	-2.168	142.495	-15.104	128.341
30.702	-30.16	126.732	-2.165	140.524	-2.179	140.414	-14.948	130.405
30.802	-32.615	135.303	-2.2	138.489	-2.196	138.3	-14.555	131.934
30.902	-33.065	166.122	-2.197	136.405	-2.202	136.265	-14.116	132.306
31.002	-29.78	-162.323	-2.206	134.404	-2.181	134.355	-13.805	132.532
31.102	-26.726	-136.864	-2.218	132.564	-2.23	132.36	-13.471	133.097
31.202	-24.512	-119.104	-2.234	130.642	-2.225	130.455	-13.049	133.247
31.302	-22.508	-105.763	-2.243	128.702	-2.247	128.555	-12.723	133.101
31.402	-21.403	-95.596	-2.284	126.871	-2.27	126.708	-12.481	133.177
31.502	-21.354	-88.199	-2.281	124.766	-2.302	124.889	-12.365	132.03
31.602	-21.802	-87.138	-2.324	122.913	-2.301	122.814	-12.501	131.664
31.702	-21.886	-90.26	-2.334	120.787	-2.343	120.79	-12.407	130.35
31.802	-21.731	-96.777	-2.355	118.637	-2.356	118.558	-12.364	127.901
31.902	-20.209	-103.819	-2.372	116.755	-2.366	116.53	-12.467	126.747
32.002	-18.589	-103.934	-2.395	114.683	-2.387	114.539	-12.508	125.312
32.102	-17.494	-101.762	-2.372	112.752	-2.394	112.715	-12.797	123.576
32.202	-16.787	-95.632	-2.38	110.785	-2.398	110.582	-12.878	121.759
32.302	-16.374	-91.465	-2.393	108.823	-2.402	108.794	-13.175	119.064
32.402	-16.567	-87.285	-2.404	106.919	-2.429	106.886	-13.444	116.154
32.502	-17.405	-83.858	-2.429	104.831	-2.414	104.847	-13.843	115.233
32.602	-17.87	-85.081	-2.445	102.767	-2.438	102.739	-13.92	112.964
32.702	-18.491	-89.443	-2.46	100.689	-2.455	100.665	-14.272	109.165
32.802	-18.382	-95.213	-2.471	98.557	-2.459	98.547	-14.624	106.276
32.902	-17.712	-97.357	-2.476	96.461	-2.489	96.41	-14.736	102.135
33.002	-17.338	-96.224	-2.476	94.418	-2.503	94.328	-14.919	97.15
33.102	-16.888	-91.403	-2.506	92.458	-2.486	92.34	-15.522	92.427
33.202	-17.018	-83.657	-2.508	90.415	-2.504	90.526	-16.021	87.968
33.302	-17.18	-75.565	-2.552	88.394	-2.533	88.347	-16.452	83.918
33.402	-18.013	-68.825	-2.558	86.522	-2.596	86.367	-16.703	76.554
33.502	-19.016	-60.898	-2.598	84.535	-2.61	84.506	-17.492	67.351
33.602	-19.751	-56.683	-2.62	82.591	-2.607	82.431	-18.39	56.789
33.702	-20.07	-58.043	-2.624	80.44	-2.649	80.457	-18.686	51.202
33.802	-19.474	-59.524	-2.659	78.638	-2.643	78.56	-18.312	41.294
33.902	-17.91	-59.237	-2.648	76.664	-2.646	76.73	-18.315	30.545
34.002	-16.575	-57.055	-2.648	74.761	-2.659	74.661	-18.366	22.378
34.101	-15.482	-51.609	-2.654	72.84	-2.633	72.858	-18.303	13.576
34.201	-14.773	-45.888	-2.662	70.851	-2.664	70.749	-18.006	7.108
34.301	-14.434	-41.394	-2.654	68.781	-2.666	68.665	-17.655	-3.207
34.401	-14.693	-37.756	-2.663	66.537	-2.684	66.59	-17.446	-12.548
34.501	-15.12	-35.998	-2.668	64.366	-2.69	64.345	-17.109	-20.881
34.601	-15.281	-39.835	-2.665	62.126	-2.68	62.174	-16.255	-27.49
34.701	-15.19	-46.449	-2.664	60.033	-2.681	60.009	-15.487	-33.478
34.801	-14.625	-51.115	-2.657	57.878	-2.682	57.828	-14.903	-38.981
34.901	-13.516	-51.09	-2.674	55.848	-2.692	55.661	-14.379	-45.924
35.001	-12.387	-50.102	-2.686	53.75	-2.705	53.624	-13.894	-51.211
35.101	-12.025	-46.545	-2.695	51.696	-2.722	51.474	-13.361	-55.595
35.201	-11.816	-41.134	-2.737	49.522	-2.741	49.456	-12.892	-60.868
35.301	-11.99	-38.282	-2.76	47.324	-2.775	47.273	-12.41	-63.456
35.401	-12.51	-37.314	-2.784	45.159	-2.79	45.147	-12.255	-67.73
35.501	-12.864	-41.003	-2.818	42.991	-2.817	42.894	-11.856	-70.671
35.601	-12.911	-45.966	-2.831	40.706	-2.844	40.825	-11.49	-75.405
35.701	-12.597	-51.076	-2.822	38.725	-2.844	38.69	-11.366	-79.484
35.801	-11.909	-52.372	-2.829	36.765	-2.826	36.83	-11.212	-82.127
35.901	-11.138	-51.944	-2.865	34.748	-2.874	34.648	-10.902	-84.262
36.001	-10.719	-49.084	-2.887	32.914	-2.894	32.821	-10.585	-88.502
36.101	-10.486	-46.106	-2.944	31.112	-2.915	31.212	-10.394	-91.7
36.201	-10.803	-44.098	-2.968	29.126	-2.966	28.967	-10.286	-94.597
36.301	-11.36	-43.929	-3.021	27.03	-2.991	26.932	-10.318	-98.437
36.401	-11.87	-45.568	-3.04	24.772	-3.038	24.551	-10.309	-101.437
36.501	-12.12	-50.995	-3.046	22.617	-3.051	22.455	-10.065	-105.346
36.601	-11.829	-55.576	-3.068	20.444	-3.114	20.421	-10.036	-109.769
36.701	-11.273	-58.786	-3.1	18.317	-3.086	18.225	-10.405	-110.649
36.801	-10.748	-58.296	-3.128	16.296	-3.13	16.147	-10.775	-115.828
36.901	-10.531	-54.895	-3.158	14.073	-3.141	13.881	-11.264	-123.342
37.001	-10.673	-50.576	-3.211	11.894	-3.23	11.806	-11.337	-129.396
37.101	-11.198	-47.815	-3.292	9.653	-3.293	9.618	-11.93	-135.258
37.201	-12.2	-47.297	-3.337	7.273	-3.347	7.327	-12.67	-140.361
37.301	-13.231	-50.072	-3.404	4.893	-3.398	4.817	-12.811	-148.449
37.401	-13.825	-57.319	-3.47	2.783	-3.487	2.81	-12.931	-156.54
37.501	-13.806	-64.24	-3.517	0.723	-3.552	0.477	-14.18	-166.154
37.601	-13.236	-67.192	-3.626	-1.4	-3.632	-1.41	-14.746	-172.95
37.701	-12.813	-65.441	-3.686	-3.247	-3.673	-3.102	-15.654	178.447
37.801	-12.827	-61.841	-3.73	-4.837	-3.721	-4.851	-16.467	161.541
37.901	-13.437	-54.414	-3.751	-6.561	-3.766	-6.778	-17.158	143.233
38.001	-14.708	-46.799	-3.756	-8.225	-3.777	-8.4	-17.492	128.995
38.100	-16.758	-38.609	-3.749	-10.28	-3.774	-10.335	-17.091	113.686
38.200	-19.491	-29.94	-3.728	-12.281	-3.749	-12.436	-16.615	103.289
38.300	-22.669	-27.23	-3.722	-14.715	-3.707	-14.596	-15.882	95.669
38.400	-24.934	-30.535	-3.67	-17.13	-3.686	-17.126	-15.273	83.806
38.500	-23.842	-36.512	-3.662	-19.309	-3.694	-19.542	-14.876	79.792
38.600	-21.075	-30.643	-3.661	-21.591	-3.668	-21.67	-14.021	74.997
38.700	-18.35	-19.866	-3.685	-23.648	-3.706	-23.955	-12.991	70.927
38.800	-16.31	-6.018	-3.774	-25.963	-3.779	-26.125	-12.234	64.773
38.900	-15.043	7.977	-3.875	-28.186	-3.862	-28.131	-11.757	62.492
39.000	-14.448	22.683	-3.98	-30.241	-3.992	-30.366	-11.285	58.503
39.100	-14.321	35.556	-4.061	-32.844	-4.082	-32.576	-10.838	55.285
39.200	-14.65	45.463	-4.09	-35.24	-4.087	-35.12	-10.573	50.083
39.300	-15.107	48.126	-4.097	-37.869	-4.106	-37.834	-10.181	46.771
39.400	-15.144	39.968	-4.135	-40.373	-4.106	-40.361	-9.781	44.54
39.500	-13.976	28.7	-4.191	-42.631	-4.166	-42.938	-9.235	42.033
39.600	-12.142	22.05	-4.294	-45.213	-4.262	-45.328	-8.731	38.004
39.700	-10.403	20.695	-4.409	-47.367	-4.427	-47.326	-8.387	34.014
39.800	-9.207	23.121	-4.57	-49.186	-4.636	-49.639	-8.145	32.635
39.900	-8.689	26.408	-4.809	-51.26	-4.796	-51.308	-7.825	30.818
40.000	-8.734	30.856	-4.993	-52.696	-5.022	-53.018	-7.685	27.902
