! Analog Devices, Inc."								
! Device:	ADL8154ACPZN							
! Description:	"10 MHz to 6 GHz, Wideband, Low Noise Amplifier"							
! Conditions:	Vdd = 5.0 V							
!		IDQ = 125 mA						
!		Pin = -25 dBm						
!		Operating Temperature = +125 C (at package bottom)       						
! Product validation unit SN30 soldered down to Evaluation Board as shown on ADL8154-EVALZ User Guide. Board loss de-embedded from S21 magnitude.  All other RF measurements reference to RF coaxial connector.								
! Frequency (GHz)	S11_Mag (dB)	S11_Phase (deg)	S21_Mag (dB)	S21_Phase (deg)	S12_Mag (dB)	S12_Phase (deg)	S22_Mag (dB)	S22_Phase (deg)
#  GHZ   S   DB   R 50								
 								
0.01	-10.4465	-119.6045	17.815	-155.629	-23.867	24.912	-6.6075	151.9115
0.11	-10.0435	-178.6005	18.024	170.087	-23.156	-6.029	-9.8895	168.1555
0.21	-10.0585	175.3075	17.97	160.027	-23.17	-14.558	-9.9755	159.7935
0.31	-10.262	169.97	17.921	150.508	-23.216	-22.504	-10.132	150.352
0.41	-10.299	165.568	17.876	141.009	-23.267	-29.896	-10.392	140.816
0.51	-10.203	160.279	17.832	131.485	-23.333	-37.207	-10.867	130.448
0.61	-10.1425	155.9365	17.815	122.184	-23.35	-45.159	-11.4465	120.5935
0.71	-10.2645	151.3695	17.78	112.693	-23.4	-52.39	-12.1215	110.5715
0.81	-10.3505	147.8215	17.766	103.185	-23.42	-59.899	-12.9395	100.8375
0.91	-10.4565	144.4905	17.748	93.816	-23.397	-67.614	-13.9855	90.8905
1.01	-10.5035	141.0925	17.729	84.353	-23.444	-74.919	-15.2775	79.6105
1.11	-10.6285	137.3895	17.682	74.733	-23.528	-82.74	-16.7445	67.7545
1.21	-10.809	133.842	17.637	65.305	-23.571	-90.369	-18.658	54.267
1.31	-10.9765	130.2235	17.572	55.784	-23.658	-97.94	-20.9095	36.3975
1.41	-11.123	127.067	17.538	46.131	-23.756	-105.883	-23.216	13.156
1.51	-11.24	123.653	17.486	36.594	-23.82	-113.463	-25.248	-21.903
1.61	-11.26	119.733	17.407	27.096	-23.911	-121.181	-24.907	-65.819
1.71	-11.272	115.439	17.331	17.715	-23.995	-128.797	-22.323	-96.943
1.81	-11.287	112.072	17.244	8.248	-24.092	-136.63	-19.554	-117.997
1.91	-11.2285	108.3615	17.174	-1.185	-24.229	-144.34	-17.3325	-134.1445
2.01	-11.2335	104.1075	17.091	-10.665	-24.324	-151.946	-15.6555	-146.0655
2.109	-11.2535	99.6195	17.028	-20.076	-24.42	-159.735	-14.3485	-156.8995
2.209	-11.2345	94.4905	16.97	-29.443	-24.589	-167.401	-13.2515	-166.9785
2.309	-11.2485	89.2385	16.874	-38.781	-24.658	-175.156	-12.3285	-176.1325
2.409	-11.307	83.203	16.789	-48.137	-24.744	177.086	-11.594	175.488
2.509	-11.4285	76.5555	16.702	-57.586	-24.87	169.459	-10.9785	167.3905
2.609	-11.6865	69.1775	16.644	-66.996	-24.985	161.728	-10.4915	159.6835
2.709	-11.9235	60.6255	16.599	-76.439	-25.093	153.878	-10.0905	152.3025
2.809	-12.0785	51.7635	16.519	-85.883	-25.17	146.248	-9.7615	144.9905
2.909	-12.361	41.913	16.46	-95.404	-25.26	138.513	-9.471	137.915
3.009	-12.6505	31.7625	16.39	-105.061	-25.393	130.365	-9.2885	130.5715
3.109	-13.019	21.476	16.341	-114.708	-25.465	123.106	-9.241	123.614
3.209	-13.522	10.161	16.331	-124.254	-25.49	115.13	-9.184	116.674
3.309	-14.0555	-2.7185	16.304	-134.252	-25.597	106.917	-9.1675	109.7245
3.409	-14.699	-16.152	16.25	-143.999	-25.618	98.868	-9.192	103.072
3.509	-15.3705	-31.0575	16.186	-154.075	-25.748	90.799	-9.2815	96.4755
3.609	-16.149	-48.896	16.143	-164.282	-25.799	82.587	-9.424	90.101
3.709	-16.7085	-68.7855	16.087	-174.438	-25.855	74.323	-9.6165	84.1735
3.809	-16.773	-89.692	16.037	175.192	-25.917	66.081	-9.749	78.048
3.909	-16.52	-109.942	15.972	164.789	-25.991	57.675	-9.89	71.432
4.009	-15.9725	-129.8505	15.909	154.306	-26.078	49.215	-10.0365	64.7775
4.109	-15.2555	-147.4165	15.812	143.699	-26.142	40.755	-10.2575	57.8265
4.209	-14.5725	-163.4455	15.716	133.075	-26.246	32.374	-10.5165	50.7695
4.309	-13.954	-178.273	15.586	122.338	-26.343	23.888	-10.733	43.61
4.409	-13.3395	167.2095	15.471	111.577	-26.458	15.068	-10.9535	35.9645
4.509	-12.811	153.798	15.344	100.655	-26.572	6.411	-11.099	27.822
4.609	-12.3	140.675	15.197	89.582	-26.697	-2.241	-11.265	19.164
4.709	-11.8155	129.0505	15.035	78.599	-26.82	-11.206	-11.4575	10.3875
4.809	-11.4755	117.5805	14.908	67.386	-26.923	-20.253	-11.5295	0.6215
4.909	-11.2645	106.6915	14.732	56.142	-27.086	-29.071	-11.6535	-9.3745
5.009	-11.1705	95.8445	14.569	44.669	-27.293	-38.439	-11.7365	-20.1605
5.109	-11.186	84.483	14.403	33.002	-27.438	-47.681	-11.828	-31.287
5.209	-11.3875	73.2835	14.209	21.304	-27.597	-57.229	-11.8885	-42.2855
5.309	-11.759	61.287	14.013	9.321	-27.854	-66.837	-11.886	-53.69
5.409	-12.221	47.742	13.788	-2.763	-28.026	-76.496	-11.837	-65.014
5.509	-12.8395	32.6085	13.551	-15.103	-28.354	-86.62	-11.6985	-76.7145
5.609	-13.501	15.777	13.308	-27.734	-28.616	-97.301	-11.559	-88.115
5.709	-14.2735	-3.5095	12.995	-40.578	-29.021	-107.666	-11.4305	-98.8345
5.809	-14.9355	-26.3365	12.683	-53.704	-29.481	-118.584	-11.2765	-109.3255
5.909	-15.3065	-53.3895	12.326	-67.109	-29.907	-129.217	-11.0925	-119.2965
6.009	-14.986	-82.793	11.886	-80.782	-30.398	-140.352	-10.925	-128.368
6.108	-13.8435	-112.1155	11.39	-94.726	-31.238	-152.072	-10.6945	-137.6405
6.208	-12.2435	-137.5085	10.803	-108.809	-31.888	-164.097	-10.5215	-146.2305
6.308	-10.505	-159.354	10.131	-123.056	-32.769	-176.047	-10.277	-154.798
6.408	-8.8885	-177.4695	9.336	-137.307	-33.783	172.317	-10.0355	-163.1005
6.508	-7.491	166.554	8.475	-151.395	-34.787	160.457	-9.71	-170.989
6.608	-6.3255	152.3395	7.509	-165.413	-35.954	148.666	-9.3495	-179.2805
6.708	-5.3695	139.4735	6.471	-178.901	-37.17	136.709	-8.9775	172.8895
6.808	-4.641	127.697	5.319	168.002	-38.513	122.587	-8.579	164.648
6.908	-4.034	116.706	4.125	155.074	-39.941	112.273	-8.161	156.081
7.008	-3.5515	106.5815	2.871	142.809	-41.552	96.736	-7.7825	147.6305
7.108	-3.139	96.953	1.607	131.087	-42.735	83.861	-7.388	138.986
7.208	-2.802	88.043	0.298	119.785	-44.61	71.041	-7.058	130.446
7.308	-2.512	79.852	-1.009	109.035	-46.049	53.256	-6.741	121.99
7.408	-2.26	72.326	-2.322	98.814	-47.57	31.291	-6.424	113.934
7.508	-2.0475	64.9085	-3.628	88.964	-49.082	17.461	-6.0775	105.8345
7.608	-1.885	57.911	-4.956	79.34	-50.411	0.408	-5.755	97.631
7.708	-1.724	51.168	-6.241	70.026	-51.01	-14.169	-5.439	89.394
7.808	-1.6315	44.7105	-7.542	60.894	-51.688	-24.247	-5.1705	81.4135
7.908	-1.556	38.598	-8.832	52.079	-51.725	-40.701	-4.938	73.755
8.008	-1.4845	32.5045	-10.153	43.423	-51.4	-41.166	-4.7005	66.5875
8.108	-1.43	26.568	-11.441	35.06	-51.512	-49.269	-4.495	59.509
8.208	-1.392	20.755	-12.709	26.796	-50.195	-58.7	-4.266	52.595
8.308	-1.3895	15.2815	-14.008	18.911	-49.489	-67.663	-4.0645	45.7085
8.408	-1.357	10.027	-15.255	11.141	-49.077	-75.173	-3.897	39.086
8.508	-1.306	4.91	-16.504	3.555	-48.409	-83.251	-3.714	32.701
8.608	-1.25	-0.1	-17.719	-3.927	-48.499	-87.412	-3.58	26.389
8.708	-1.196	-5.117	-18.892	-11.195	-47.631	-97.446	-3.448	20.485
8.808	-1.2005	-9.7115	-20.09	-18.417	-47.628	-102.416	-3.3105	14.7375
8.908	-1.1855	-13.8775	-21.251	-25.216	-47.357	-108.058	-3.1825	9.2315
9.008	-1.1825	-18.3115	-22.437	-32.254	-47.388	-115.097	-3.0455	3.5715
9.108	-1.171	-22.512	-23.569	-39.18	-47.011	-119.957	-2.922	-1.91
9.208	-1.1795	-26.8095	-24.675	-45.856	-46.931	-124.372	-2.8245	-7.1615
9.308	-1.1755	-30.7275	-25.742	-52.562	-47.05	-128.701	-2.7365	-12.2175
9.408	-1.1545	-34.5545	-26.773	-59.082	-46.599	-132.036	-2.6565	-17.0705
9.508	-1.1475	-38.2655	-27.814	-65.497	-46.657	-138.908	-2.5785	-21.7765
9.608	-1.1025	-41.8575	-28.823	-71.819	-46.42	-143.752	-2.4795	-26.5185
9.708	-1.091	-45.723	-29.791	-78.528	-46.381	-150.637	-2.412	-31.542
9.808	-1.061	-49.141	-30.74	-85.273	-46.285	-154.6	-2.348	-36.476
9.908	-1.011	-52.716	-31.569	-91.259	-46.708	-152.645	-2.294	-41.319
10.007	-0.9895	-55.9235	-32.357	-98.312	-46.179	-159.628	-2.2655	-45.8905
10.107	-0.9755	-59.6515	-33.05	-104.41	-45.814	-164.764	-2.2035	-50.3145
10.207	-0.998	-63.432	-33.839	-111.874	-45.637	-166.662	-2.17	-54.857
10.307	-1.0065	-66.7555	-34.676	-118.96	-46.039	-167.587	-2.1225	-59.6145
10.407	-1.0225	-70.5225	-35.213	-125.701	-45.276	-176.65	-2.0875	-64.4155
10.507	-1.0195	-74.1145	-35.882	-133.161	-44.316	-180.322	-2.1025	-69.2905
10.607	-1.0445	-77.7105	-36.431	-141.917	-44.204	174.698	-2.1705	-73.8385
10.707	-1.072	-81.245	-36.932	-149.885	-43.789	166.536	-2.209	-78.079
10.807	-1.09	-84.79	-37.677	-158.757	-43.621	158.394	-2.293	-82.06
10.907	-1.1085	-88.3975	-38.671	-167.709	-43.825	151.277	-2.3395	-85.8565
11.007	-1.1125	-91.8275	-39.645	-174.062	-44.796	141.854	-2.3475	-89.6325
11.107	-1.1465	-95.5185	-40.769	-177.833	-45.544	137.59	-2.2925	-93.8695
11.207	-1.19	-99.282	-41.02	178.673	-46.213	140.077	-2.274	-98.261
11.307	-1.2075	-103.1095	-41.111	174.046	-46.524	139.27	-2.2365	-102.6905
11.407	-1.257	-106.84	-40.997	167.931	-45.944	137.804	-2.247	-107.304
11.507	-1.3225	-110.7685	-40.868	159.925	-45.205	135.048	-2.2535	-111.9855
11.607	-1.347	-114.931	-41.009	151.604	-44.708	127.622	-2.279	-116.637
11.707	-1.3885	-118.8785	-41.498	141.886	-44.558	119.708	-2.3735	-121.4835
11.807	-1.4625	-122.8455	-41.895	131.795	-44.859	111.476	-2.4425	-125.9825
11.907	-1.5255	-126.9645	-42.396	127.606	-44.873	106.847	-2.5235	-129.9995
12.007	-1.567	-131.078	-42.853	119.329	-45.523	102.968	-2.569	-133.925
12.107	-1.612	-135.254	-43.279	116.028	-45.576	97.569	-2.621	-137.91
12.207	-1.627	-139.413	-43.114	108.881	-45.265	93.678	-2.644	-142.179
12.307	-1.65	-143.626	-43.599	102.778	-45.764	88.933	-2.692	-146.819
12.407	-1.6955	-147.8635	-43.253	96.498	-45.497	83.665	-2.7355	-151.2905
12.507	-1.7155	-152.1045	-43.504	88.818	-45.01	77.698	-2.8425	-155.6635
12.607	-1.765	-156.137	-43.38	82.532	-44.794	71.376	-2.895	-159.692
12.707	-1.7675	-160.4595	-43.52	71.389	-44.85	64.175	-2.9555	-163.4795
12.807	-1.773	-164.714	-43.458	63.222	-44.621	55.433	-3.015	-167.712
12.907	-1.7845	-168.8445	-43.737	53.451	-44.339	47.668	-3.0295	-171.5935
13.007	-1.8085	-173.1525	-44.09	41.851	-44.565	37.026	-3.0985	-176.0795
13.107	-1.785	-177.427	-44.363	33.68	-44.789	28.201	-3.16	-180.076
13.207	-1.776	178.468	-45.09	22.872	-45.29	17.766	-3.211	176.307
13.307	-1.788	174.694	-45.14	11.497	-45.867	9.3	-3.2	172.995
13.407	-1.769	170.504	-46.395	0.439	-46.204	-1.212	-3.198	169.656
13.507	-1.7295	166.4585	-47.106	-8.412	-46.893	-10.561	-3.1875	166.0685
13.607	-1.6665	162.6695	-47.851	-15.293	-47.312	-16.641	-3.1615	162.3565
13.707	-1.6605	158.9485	-49.076	-26.122	-48.107	-27.963	-3.1795	158.6015
13.807	-1.6455	155.4325	-49.888	-35.543	-48.875	-35.508	-3.2115	155.1075
13.907	-1.6035	151.9375	-50.519	-40.742	-49.336	-41.513	-3.2335	151.7425
14.007	-1.5785	148.2715	-50.794	-53.234	-50.095	-50.314	-3.2295	148.5585
14.106	-1.5515	144.8715	-51.744	-58.52	-50.831	-57.844	-3.1675	145.3985
14.206	-1.553	141.389	-51.878	-64.088	-51.587	-65.155	-3.101	141.649
14.306	-1.5295	138.4575	-52.293	-78.6	-51.618	-72.066	-3.0935	138.0815
14.406	-1.5005	135.6465	-53.164	-90.066	-52.183	-83.921	-3.0995	134.4515
14.506	-1.458	132.548	-53.037	-98.18	-53.233	-92.802	-3.108	131.338
14.606	-1.422	129.64	-53.718	-101.131	-53.531	-98.405	-3.111	128.545
14.706	-1.387	126.721	-54.585	-114.321	-53.359	-104.06	-3.084	125.674
14.806	-1.3355	123.9815	-53.956	-117.714	-53.994	-112.396	-3.0515	122.5055
14.906	-1.275	121.334	-54.144	-131.081	-54.673	-117.366	-3.049	118.99
15.006	-1.224	118.609	-54.723	-133.161	-54.696	-126.361	-3.076	115.703
15.106	-1.1995	116.4605	-54.298	-146.846	-55.021	-134.001	-3.1325	112.8045
15.206	-1.2035	114.1015	-53.735	-154.648	-55.004	-138.96	-3.2045	110.1565
15.306	-1.2095	111.6595	-53.795	-157.82	-54.414	-144.91	-3.2145	107.3795
15.406	-1.1815	109.3985	-53.44	-167.474	-55.376	-150.588	-3.2185	104.3035
15.506	-1.14	107.229	-52.352	-164.359	-54.252	-159.85	-3.256	100.826
15.606	-1.146	105.01	-52.725	-177.31	-53.795	-169.68	-3.34	97.233
15.706	-1.1315	103.0045	-51.722	169.137	-53.425	-176.9	-3.4625	94.0775
15.806	-1.1125	101.0315	-51.658	169.862	-53.221	176.595	-3.5865	91.3385
15.906	-1.093	98.966	-50.069	158.273	-52.93	167.789	-3.711	89.207
16.006	-1.096	96.697	-50.005	149.046	-53.411	156.965	-3.851	86.994
16.106	-1.088	94.85	-49.062	144.215	-52.957	149.761	-4.025	84.783
16.206	-1.0525	93.3325	-49.231	133.774	-53.086	133.968	-4.2335	83.1245
16.306	-1.0185	91.6355	-49.996	126.039	-53.285	130.521	-4.3305	82.0265
16.406	-0.9935	89.7665	-49.955	115.423	-54.243	127.036	-4.2725	81.4575
16.506	-0.9805	87.9425	-50.275	107.276	-55.491	121.553	-4.0865	80.4915
16.606	-0.966	86.07	-51.218	109.191	-55.659	120.721	-3.854	78.513
16.706	-1.0025	84.4375	-52.919	106.625	-55.754	125.804	-3.6515	75.3505
16.806	-0.9755	82.5305	-52.171	109.925	-55.52	130.535	-3.5565	71.9565
16.906	-0.962	80.732	-51.876	111.148	-54.668	130.204	-3.531	68.332
17.006	-0.964	79.253	-51.162	112.689	-53.504	124.895	-3.55	65.225
17.106	-0.961	77.298	-49.836	110.361	-52.568	128.102	-3.542	62.312
17.206	-0.9505	75.3275	-48.886	110.523	-51.424	124.249	-3.4965	59.4195
17.306	-0.9105	73.7505	-47.684	104.589	-50.085	117.366	-3.4945	56.2035
17.406	-0.909	71.739	-46.696	102.695	-49.172	111.559	-3.52	52.685
17.506	-0.839	69.975	-45.793	96.2	-48.424	108.944	-3.615	49.48
17.606	-0.821	68.101	-44.711	93.509	-47.088	99.79	-3.775	46.743
17.706	-0.8565	66.2475	-43.991	87.971	-46.359	93.503	-3.9575	44.4155
17.806	-0.869	64.39	-42.876	78.292	-45.247	86.079	-4.081	42.366
17.906	-0.8615	62.4875	-41.91	72.739	-44.155	78.852	-4.1575	40.0865
18.005	-0.8685	60.5015	-40.896	64.864	-43.558	69.955	-4.2805	37.2145
18.105	-0.9115	58.5265	-39.916	55.596	-42.488	61.863	-4.4485	34.7415
18.205	-0.939	56.462	-38.721	48.092	-41.231	52.118	-4.659	32.623
18.305	-0.974	54.154	-37.76	36.928	-40.219	41.898	-4.884	31.693
18.405	-0.982	52.088	-36.708	25.639	-39.187	31.088	-4.999	30.866
18.505	-0.9935	50.0615	-35.55	14.848	-38.008	18.719	-4.9975	29.9525
18.605	-1.0285	47.5225	-34.596	2.115	-37.065	5.893	-4.9405	28.0525
18.705	-1.093	45.033	-33.218	-11.415	-35.769	-8.199	-4.966	25.893
18.805	-1.202	42.712	-31.737	-27.962	-34.369	-24.707	-5.005	24.457
18.905	-1.288	40.854	-30.231	-48.013	-32.769	-45.218	-4.96	23.478
19.005	-1.4245	39.1165	-29.094	-72.89	-31.592	-70.14	-4.8885	22.5885
19.105	-1.5155	37.6025	-28.879	-101.929	-31.405	-99.619	-4.7615	21.2855
19.205	-1.4615	36.4725	-29.775	-129.711	-32.271	-127.961	-4.6285	19.5205
19.305	-1.3705	34.2675	-31.345	-152.914	-33.901	-151.425	-4.4985	17.1715
19.405	-1.3385	31.7145	-33.003	-170.838	-35.56	-169.764	-4.3485	14.7285
19.505	-1.3165	28.7865	-34.487	173.7	-37.097	175.009	-4.2125	12.1085
19.605	-1.326	26.015	-35.833	161.346	-38.474	162.437	-4.01	9.792
19.705	-1.358	22.847	-37.011	150.35	-39.793	149.677	-3.77	7.345
19.805	-1.4475	19.8415	-38.199	139.02	-40.758	139.376	-3.5495	4.0695
19.905	-1.4635	16.8185	-38.94	132.338	-41.811	129.902	-3.3615	0.0055
20.005	-1.538	13.876	-39.646	122.725	-42.447	121.688	-3.278	-4.023
20.105	-1.612	10.863	-40.269	113.55	-43.023	113.148	-3.265	-7.456
20.205	-1.669	7.605	-40.917	106.625	-43.8	105.192	-3.201	-10.498
20.305	-1.7035	4.7525	-41.348	96.978	-44.517	97.454	-3.0985	-13.5375
20.405	-1.778	1.752	-41.79	90.359	-44.832	88.207	-2.976	-17.159
20.505	-1.853	-1.206	-42.205	84.458	-45.417	83.606	-2.833	-20.98
20.605	-1.924	-4.22	-42.404	76.915	-45.577	76.073	-2.792	-25.501
20.705	-1.9995	-7.1475	-42.874	70.255	-46.189	67.269	-2.8265	-29.4515
20.805	-2.066	-10.21	-43.521	62.707	-46.961	60.611	-2.875	-32.685
20.905	-2.098	-13.637	-44.199	55.852	-47.477	55.097	-2.877	-35.554
21.005	-2.173	-16.972	-44.457	55.703	-47.958	52.77	-2.8	-38.844
21.105	-2.2585	-19.8925	-44.699	49.606	-48.589	49.133	-2.6925	-42.9275
21.205	-2.365	-23.118	-44.326	48.835	-48.421	47.097	-2.617	-47.502
21.305	-2.3685	-26.2545	-44.66	44.097	-48.433	40.825	-2.6035	-51.8625
21.405	-2.414	-29.281	-44.507	38.969	-48.631	38.575	-2.624	-55.162
21.505	-2.4515	-32.2125	-45.355	34.877	-48.944	33.97	-2.6295	-57.8595
21.605	-2.499	-35.335	-44.807	32.727	-49.149	31.725	-2.619	-60.727
21.705	-2.522	-38.708	-45.65	26.263	-49.898	25.503	-2.564	-64.261
21.805	-2.582	-41.241	-45.672	24.979	-49.709	23.253	-2.562	-68.361
21.905	-2.6435	-44.2875	-45.884	21.859	-49.78	18.63	-2.5745	-72.5025
22.005	-2.7275	-47.3985	-46.137	19.106	-50.081	16.231	-2.6035	-76.0605
22.104	-2.7685	-50.6485	-46.584	17.11	-50.467	11.266	-2.6445	-78.8905
22.204	-2.8045	-53.2975	-46.247	14.355	-50.143	12.084	-2.5965	-81.1775
22.304	-2.826	-56.458	-46.839	8.747	-50.267	10.9	-2.555	-83.765
22.404	-2.891	-59.764	-46.66	10.395	-50.388	6.611	-2.539	-87.243
22.504	-2.8815	-62.6965	-46.771	10.552	-50.701	8.474	-2.6145	-90.8285
22.604	-2.919	-65.658	-46.31	5.573	-50.348	3.129	-2.719	-94.402
22.704	-2.9315	-68.7825	-46.802	2.877	-51.13	-0.343	-2.7855	-97.2915
22.804	-2.911	-71.83	-46.026	-0.697	-51.013	-5.641	-2.765	-99.646
22.904	-2.928	-74.577	-46.428	-1.95	-51.266	-2.174	-2.671	-101.856
23.004	-2.9845	-77.0545	-47.344	-4.575	-50.64	-9.141	-2.5285	-104.3985
23.104	-3.013	-79.828	-46.219	-4.729	-50.871	-11.51	-2.498	-107.34
23.204	-2.986	-82.592	-46.503	-6.239	-51.023	-11.268	-2.52	-109.966
23.304	-2.9815	-85.3725	-46.884	-10.986	-50.282	-14.184	-2.5865	-111.9835
23.404	-2.9845	-88.0495	-46.677	-13.836	-50.681	-17.068	-2.6675	-113.5905
23.504	-3.0095	-91.7015	-46.709	-18.737	-50.918	-22.877	-2.6595	-116.1195
23.604	-3.036	-94.319	-47.084	-16.215	-50.807	-18.462	-2.56	-118.548
23.704	-3	-96.788	-46.692	-20.314	-51.171	-21.064	-2.456	-121.477
23.804	-3.0455	-99.3825	-46.17	-22.321	-51.549	-26.927	-2.4485	-124.3335
23.904	-3.007	-102.575	-46.643	-24.313	-50.381	-28.566	-2.45	-126.151
24.004	-2.9565	-105.0095	-46.493	-26.184	-50.645	-27.713	-2.4605	-127.1415
24.104	-2.916	-107.83	-46.896	-28.939	-51.062	-30.709	-2.461	-128.025
24.204	-2.9195	-110.5045	-46.931	-26.315	-50.43	-30.639	-2.4405	-129.9435
24.304	-2.891	-113.535	-46.787	-32.219	-50.88	-32.041	-2.368	-132.494
24.404	-2.896	-116.032	-46.914	-32.569	-50.545	-37.412	-2.365	-135.298
24.504	-2.9235	-118.7165	-46.344	-35.118	-50.884	-34.473	-2.3765	-137.0775
24.604	-2.949	-121.733	-46.474	-34.239	-50.087	-37.505	-2.357	-138.1
24.704	-2.952	-124.71	-45.981	-38.744	-50.234	-35.367	-2.279	-138.648
24.804	-2.953	-127.467	-45.763	-39.811	-49.821	-41.055	-2.22	-139.509
24.904	-2.9915	-130.7465	-45.655	-38.867	-49.474	-43.756	-2.2025	-141.7235
25.004	-3.004	-134.097	-45.577	-44.377	-49.212	-45.152	-2.262	-144.059
25.104	-3.006	-137.052	-45.603	-47.907	-49.205	-49.612	-2.353	-146.172
25.204	-2.984	-139.851	-45.539	-50.023	-49.009	-53.489	-2.416	-147.287
25.304	-2.9945	-143.7825	-44.907	-51.911	-49.097	-56.077	-2.4235	-147.9485
25.404	-3.0505	-147.8295	-45.4	-52.361	-49.246	-55.819	-2.3685	-148.9965
25.504	-3.068	-151.042	-45.032	-53.087	-49.132	-59.779	-2.341	-150.799
25.604	-3.1375	-154.1835	-45.745	-57.959	-49.091	-60.759	-2.4635	-153.0345
25.704	-3.1595	-158.2565	-45.852	-57.66	-49.95	-61.76	-2.5875	-154.8855
25.804	-3.1755	-162.3125	-45.931	-56.734	-49.856	-57.933	-2.7275	-156.0895
25.904	-3.2175	-166.5725	-45.799	-51.797	-49.862	-56.654	-2.7755	-156.8085
26.003	-3.3445	-171.1715	-45.276	-50.168	-48.967	-54.338	-2.7155	-157.9365
26.103	-3.472	-175.724	-44.208	-49.907	-48.092	-52.86	-2.628	-159.686
26.203	-3.527	-180.85	-43.224	-47.306	-47.042	-54.993	-2.646	-161.766
26.303	-3.668	173.842	-41.873	-55.179	-46.492	-57.24	-2.732	-163.594
26.403	-3.842	168.32	-41.186	-57.289	-45.007	-58.649	-2.878	-164.565
26.503	-3.9955	162.1665	-39.758	-60.145	-44.121	-63.425	-3.0205	-165.5185
26.603	-4.1725	156.5035	-39.272	-67.714	-43.508	-68.42	-3.1125	-166.5565
26.703	-4.348	150.269	-39.229	-73.269	-43.22	-78.988	-3.076	-168.593
26.803	-4.651	143.066	-38.345	-80.977	-42.916	-79.789	-3.148	-171.514
26.903	-4.9805	135.8995	-37.204	-85.9	-41.502	-88.547	-3.1955	-173.7515
27.003	-5.3395	128.8995	-36.737	-90.157	-41.291	-94.766	-3.2805	-175.2855
27.103	-5.7875	121.0545	-36.057	-97.385	-40.305	-100.394	-3.4025	-175.6265
27.203	-6.183	112.435	-35.897	-104.668	-40.223	-108.706	-3.449	-177.125
27.303	-6.616	103.565	-35.372	-109.374	-39.795	-114.309	-3.427	-178.259
27.403	-7.186	94.003	-34.804	-119.279	-38.914	-125.493	-3.457	178.551
27.503	-7.654	83.727	-34.3	-129.725	-38.134	-133.227	-3.504	175.818
27.603	-7.9555	73.6395	-34.052	-139.828	-38.206	-140.849	-3.6545	173.5635
27.703	-8.2545	62.1945	-33.347	-148.66	-37.874	-149.882	-3.7395	172.5745
27.803	-8.6025	49.5055	-33.842	-157.17	-37.576	-158.33	-3.8495	171.5825
27.903	-8.9265	35.2655	-33.474	-170.47	-37.997	-169.395	-3.8205	169.9315
28.003	-9.175	22.274	-33.618	-178.054	-37.763	-179.823	-3.909	167.163
28.103	-9.3915	8.7175	-34.01	172.566	-37.45	169.346	-4.1255	163.1805
28.203	-9.5945	-5.6545	-33.917	160.147	-38.056	160.693	-4.4065	160.1475
28.303	-9.683	-18.966	-34.426	156.517	-38.23	151.477	-4.619	157.816
28.403	-9.7045	-31.6455	-34.657	147.244	-38.905	142.45	-4.7345	155.6685
28.503	-9.649	-44.648	-35.103	138.944	-38.553	137.298	-4.6	153.555
28.603	-9.611	-56.454	-34.885	128.403	-39.12	126.777	-4.523	150.281
28.703	-9.525	-66.293	-34.645	119.993	-39.334	119.366	-4.613	146.622
28.803	-9.6705	-75.8955	-35.133	114.72	-38.681	110.114	-4.8185	142.5965
28.903	-9.6785	-85.5555	-35.254	104.863	-39.053	104.632	-5.1815	139.1125
29.003	-9.9625	-93.3575	-35.099	97.424	-38.627	94.283	-5.4065	136.6505
29.103	-10.387	-100.192	-35.383	86.534	-38.124	83.884	-5.546	133.082
29.203	-10.892	-108.101	-35.009	79.552	-38.513	75.648	-5.543	128.767
29.303	-11.2915	-114.5695	-34.548	65.973	-38.001	63.1	-5.5745	123.5275
29.403	-12.0725	-120.3045	-34.074	56.095	-37.779	54.324	-5.7625	117.4915
29.503	-13.0025	-124.4465	-34.252	49.265	-37.26	45.448	-6.1755	113.3175
29.603	-13.9915	-128.8805	-33.431	35.865	-36.943	36.311	-6.5235	109.1095
29.703	-14.615	-130.936	-32.687	28.887	-36.162	26.893	-6.691	105.13
29.803	-15.3835	-131.0945	-32.114	15.866	-35.625	17.184	-6.8095	99.7125
29.903	-16.1465	-132.7765	-31.52	6.506	-34.636	5.391	-6.9205	93.4815
30.002	-16.977	-136.224	-30.414	-5.888	-34.189	-6.068	-7.124	86.056
30.102	-17.4065	-141.0005	-29.423	-19.257	-33.243	-17.625	-7.4935	79.8355
30.202	-19.0355	-137.4365	-28.749	-30.406	-32.323	-29.088	-7.8665	72.7625
30.302	-20.66	-141.045	-27.459	-40.705	-31.319	-40.419	-8.175	67.365
30.402	-23.154	-148.106	-26.527	-53.147	-30.285	-51.815	-8.531	62.035
30.502	-26.727	-143.318	-25.426	-65.374	-29.27	-65.52	-8.774	55.964
30.602	-38.4325	-104.3195	-24.349	-79.534	-28.24	-77.955	-9.2125	47.5855
30.702	-33.2735	-3.8745	-23.383	-93.205	-27.167	-92.286	-9.7015	38.6245
30.802	-26.947	-0.19	-22.522	-106.976	-26.54	-107.207	-10.442	29.921
30.902	-23.2685	-2.8485	-21.747	-122.686	-25.858	-122.775	-11.2405	23.1335
31.002	-20.654	-2.844	-21.169	-137.63	-25.312	-137.622	-11.687	19.295
31.102	-19.412	-2.639	-20.817	-152.861	-24.961	-152.576	-11.797	14.912
31.202	-18.576	-0.396	-20.558	-167.374	-24.794	-166.715	-11.762	9.503
31.302	-16.9995	-1.3465	-20.396	179.411	-24.711	-180.405	-11.7315	3.1055
31.402	-15.561	-2.875	-20.235	166.88	-24.605	167.535	-11.908	-3.853
31.502	-14.5985	-4.9865	-20.098	155.527	-24.6	155.327	-12.1785	-9.8095
31.602	-13.982	-8.517	-19.831	143.014	-24.35	143.784	-12.725	-14.766
31.702	-13.269	-9.472	-19.689	131.582	-24.174	131.993	-12.78	-19.21
31.802	-12.5505	-8.6685	-19.374	119.469	-23.954	119.959	-12.6895	-24.2805
31.902	-12.028	-8.341	-19.189	106.824	-23.862	106.967	-12.436	-32.877
32.002	-11.4465	-9.1165	-19.137	92.769	-23.84	93.207	-12.5255	-43.5215
32.102	-10.801	-8.8	-19.172	78.927	-23.881	79.622	-12.702	-54.941
32.202	-10.069	-8.716	-19.353	65.794	-24.153	66.742	-13.258	-65.232
32.302	-9.5905	-10.4905	-19.678	52.864	-24.504	53.714	-13.9195	-73.3605
32.402	-9.056	-12.12	-20.097	40.927	-24.911	42.107	-14.264	-79.448
32.502	-8.5425	-14.0585	-20.681	28.929	-25.517	30.446	-14.7135	-85.6545
32.602	-8.2025	-14.9485	-21.247	18.677	-26.064	19.358	-15.3915	-91.5315
32.702	-7.926	-17.615	-22.135	6.695	-27.045	7.944	-16.671	-99.425
32.802	-7.6725	-20.5725	-22.853	-3.16	-27.828	-1.847	-18.6195	-104.9185
32.902	-7.353	-23.281	-23.631	-12.8	-28.61	-11.332	-21.862	-103.351
33.002	-7.47	-24.337	-24.583	-21.083	-29.599	-19.847	-24.593	-87.29
33.102	-7.331	-26.669	-25.505	-27.816	-30.534	-25.425	-24.578	-64.026
33.202	-7.213	-28.582	-26.61	-33.718	-31.759	-30.483	-23.144	-56.596
33.302	-7.084	-29.937	-27.431	-37.165	-32.505	-34.154	-22.518	-53.027
33.402	-7.093	-31.921	-27.845	-41.558	-32.86	-38.293	-22.723	-50.958
33.502	-7.226	-34.105	-28.282	-43.924	-33.179	-39.782	-22.128	-41.308
33.602	-7.342	-35.951	-28.479	-47.179	-33.68	-42.448	-20.114	-36.577
33.702	-7.437	-36.032	-28.828	-50.173	-33.662	-45.874	-18.109	-40.853
33.802	-7.6585	-37.3035	-28.561	-51.139	-33.475	-48.531	-16.5135	-48.3465
33.902	-7.965	-38.986	-28.306	-55.529	-33.157	-55.185	-15.696	-55.709
34.002	-8.215	-39.286	-28.06	-62.603	-32.884	-59.63	-15.1	-62.135
34.101	-8.434	-38.079	-27.672	-70.315	-32.525	-68.04	-14.869	-65.103
34.201	-8.771	-36.321	-27.938	-77.139	-32.49	-74.683	-14.517	-67.671
34.301	-8.938	-35.632	-27.725	-85.477	-32.487	-84.874	-13.968	-70.203
34.401	-8.9795	-32.9385	-27.881	-92.865	-32.722	-90.788	-13.8535	-73.5805
34.501	-8.655	-29.672	-28.46	-99.57	-33.119	-99.067	-13.777	-78.337
34.601	-8.5035	-28.8665	-28.464	-104.987	-33.093	-104.775	-14.2325	-81.1965
34.701	-8.148	-28.733	-28.837	-112.806	-33.564	-109.503	-14.597	-80.725
34.801	-7.7975	-28.6255	-29.162	-115.302	-33.645	-115.338	-14.7105	-80.0955
34.901	-7.534	-27.544	-28.711	-118.798	-33.863	-117.228	-14.252	-80.981
35.001	-7.226	-28.48	-28.538	-120.596	-33.126	-118.898	-13.995	-86.42
35.101	-6.8595	-29.5935	-27.894	-125.573	-32.8	-124.365	-13.7675	-92.2835
35.201	-6.6315	-30.9665	-27.062	-131.64	-31.883	-130.958	-13.9945	-97.6985
35.301	-6.511	-31.615	-26.149	-138.952	-31.266	-138.355	-14.464	-101.118
35.401	-6.472	-32.726	-25.246	-148.143	-30.478	-148.842	-14.658	-100.956
35.501	-6.269	-34.258	-24.861	-159.042	-30.123	-159.182	-14.639	-101.606
35.601	-6.1875	-34.7595	-24.379	-170.786	-29.493	-171.288	-14.5345	-102.0265
35.701	-5.979	-35.64	-24.089	177.247	-29.488	176.632	-14.617	-105.068
35.801	-5.8385	-37.7435	-24.041	164.245	-29.088	165.233	-14.9555	-107.2875
35.901	-5.6635	-39.2485	-24.06	151.732	-29.407	152.655	-15.9335	-107.1235
36.001	-5.5755	-41.0825	-24.449	139.756	-29.892	141.561	-16.3355	-104.4475
36.101	-5.595	-43.751	-24.659	127.471	-30.241	128.83	-16.163	-100.281
36.201	-5.474	-46.268	-25.092	118.544	-30.688	117.808	-15.667	-103.822
36.301	-5.4615	-47.9145	-25.701	108.622	-31.246	110.366	-15.4905	-108.7235
36.401	-5.474	-50.303	-25.928	98.173	-31.899	100.96	-15.792	-115.707
36.501	-5.491	-53.134	-26.463	89.96	-32.456	91.434	-16.467	-122.441
36.601	-5.586	-56.736	-26.781	78.912	-32.874	83.149	-17.346	-126.296
36.701	-5.646	-59.68	-27.197	71.646	-33.004	76.517	-18.082	-126.795
36.801	-5.911	-61.006	-27.227	64.667	-33.589	67.697	-18.244	-126.393
36.901	-6.061	-64.352	-27.887	58.379	-34.11	59.378	-18.326	-127.573
37.001	-6.1855	-68.6215	-28.31	47.536	-34.275	50.8	-18.2585	-129.0685
37.101	-6.505	-72.136	-28.615	37.573	-35.167	42.134	-18.764	-130.138
37.201	-6.8545	-75.7975	-28.916	28.521	-35.514	33.245	-19.4855	-127.2725
37.301	-7.237	-80.368	-29.197	22.11	-36.433	26.877	-19.537	-123.774
37.401	-7.488	-84.492	-29.666	15.019	-36.509	18.69	-18.977	-122.582
37.501	-7.8035	-89.2225	-29.387	3.97	-37.205	7.57	-18.6015	-126.5055
37.601	-8.311	-94.577	-29.464	-7.721	-37.525	-1.378	-18.928	-132.48
37.701	-8.67	-102.157	-30.037	-19.45	-38.065	-15.361	-19.63	-135.211
37.801	-9.133	-108.434	-29.922	-32.252	-39.021	-31.073	-20.224	-137.856
37.901	-9.6365	-116.0165	-30.518	-48.412	-39.93	-43.06	-20.1505	-134.9685
38.001	-10.51	-125.111	-31.345	-64.245	-41.249	-57.119	-19.051	-137.923
38.1	-10.9915	-134.6835	-31.872	-82.052	-42.814	-76.916	-17.7255	-141.8175
38.2	-11.816	-145.126	-32.885	-103.332	-44.638	-97.905	-16.548	-152.577
38.3	-12.761	-155.516	-34.309	-123.795	-46.554	-127.405	-16.004	-161.645
38.4	-12.797	-171.194	-34.949	-142.206	-48.599	-152.265	-15.42	-168.472
38.5	-13.17	175.083	-36.429	-160.75	-49.518	175.114	-15.53	-173.988
38.6	-13.4445	159.8975	-37.341	-177.351	-51.219	141.609	-15.1835	-179.3385
38.7	-13.7365	142.5375	-38.904	163.903	-49.839	122.469	-14.7355	174.3065
38.8	-13.023	131.459	-38.176	156.288	-50.913	108.045	-14.533	165.894
38.9	-12.9425	120.3375	-39.226	150.019	-52.862	103.883	-14.3865	156.6505
39	-12.465	108.598	-38.963	142.253	-52.013	102.748	-14.519	145.933
39.1	-11.8235	96.4945	-37.685	149.478	-53.975	104.867	-14.9905	136.7305
39.2	-11.507	88.526	-37.435	145.985	-47.561	115.514	-15.225	130.694
39.3	-11.3095	78.3935	-34.958	135.933	-46.249	126.476	-15.4655	124.9565
39.4	-10.9955	70.7725	-32.974	136.853	-43.906	116.675	-15.5525	118.5055
39.5	-10.8015	65.2805	-31.77	126.29	-41.93	109.328	-15.5865	116.5345
39.6	-10.448	59.921	-30.178	112.964	-40.007	99.3	-15.885	110.411
39.7	-10.4715	52.9485	-28.68	102.592	-38.565	88.062	-16.4755	108.8945
39.8	-9.915	48.744	-28.244	93.243	-37.969	78.686	-16.942	108.148
39.9	-9.8525	43.1635	-27.386	85.209	-37.296	67.452	-17.2475	109.7145
40	-10.0135	39.7185	-26.867	71.525	-37.481	59.41	-17.2695	111.4245
