! Analog Devices, Inc."								
! Device:	ADL8154ACPZN							
! Description:	"10 MHz to 6 GHz, Wideband, Low Noise Amplifier"							
! Conditions:	Vdd = 5.0 V							
!		IDQ = 125 mA						
!		Pin = -25 dBm						
!		Operating Temperature = +85 C (at package bottom)       						
! Product validation unit SN30 soldered down to Evaluation Board as shown on ADL8154-EVALZ User Guide. Board loss de-embedded from S21 magnitude.  All other RF measurements reference to RF coaxial connector.								
! Frequency (GHz)	S11_Mag (dB)	S11_Phase (deg)	S21_Mag (dB)	S21_Phase (deg)	S12_Mag (dB)	S12_Phase (deg)	S22_Mag (dB)	S22_Phase (deg)
#  GHZ   S   DB   R 50								
 								
0.01	-10.2925	-119.4175	17.93	-155.645	-24.053	25.948	-6.6765	152.1505
0.11	-9.8775	-179.0065	18.137	170.214	-23.107	-5.979	-9.7665	168.4645
0.21	-9.9675	175.0955	18.084	160.332	-23.115	-14.294	-9.8105	160.3415
0.31	-10.18	169.842	18.044	150.921	-23.168	-22.216	-9.969	150.923
0.41	-10.165	165.339	18.003	141.535	-23.205	-29.504	-10.241	141.507
0.51	-10.063	160.344	17.966	132.119	-23.225	-37.075	-10.746	131.379
0.61	-10.0295	155.7805	17.95	122.902	-23.271	-44.486	-11.2805	121.6335
0.71	-10.1665	150.8825	17.92	113.482	-23.287	-52.059	-11.9145	111.9045
0.81	-10.2925	147.1195	17.915	104.063	-23.313	-59.523	-12.6695	102.4845
0.91	-10.4715	144.0385	17.901	94.797	-23.355	-66.854	-13.6625	92.6225
1.01	-10.4495	140.9015	17.894	85.416	-23.363	-74.509	-14.9475	81.9745
1.11	-10.5365	137.1275	17.853	75.897	-23.432	-82.162	-16.4095	70.5595
1.21	-10.772	133.323	17.811	66.557	-23.484	-89.518	-18.271	57.629
1.31	-11.0205	129.8835	17.749	57.056	-23.524	-97.213	-20.3505	42.1175
1.41	-11.167	127.16	17.728	47.454	-23.599	-105.081	-22.774	21.984
1.51	-11.257	123.996	17.687	38.016	-23.686	-112.717	-25.446	-10.641
1.61	-11.289	120.051	17.613	28.582	-23.75	-120.32	-25.934	-56.921
1.71	-11.309	116.011	17.542	19.3	-23.843	-128.079	-23.439	-93.693
1.81	-11.354	112.766	17.46	9.889	-23.964	-135.786	-20.346	-116.703
1.91	-11.3315	109.3695	17.395	0.5	-24.046	-143.54	-17.9495	-133.1035
2.01	-11.3185	105.7435	17.321	-8.953	-24.137	-151.4	-16.1685	-145.1925
2.109	-11.2785	101.3795	17.267	-18.288	-24.25	-158.918	-14.7635	-156.5605
2.209	-11.2215	96.4815	17.217	-27.588	-24.359	-166.702	-13.5735	-166.5785
2.309	-11.2745	91.5035	17.125	-36.87	-24.432	-174.363	-12.5655	-175.9255
2.409	-11.333	85.922	17.045	-46.183	-24.565	177.906	-11.792	175.57
2.509	-11.4325	79.7505	16.964	-55.597	-24.676	170.088	-11.1405	167.5195
2.609	-11.6455	72.7995	16.91	-64.956	-24.804	162.459	-10.6415	159.7995
2.709	-11.8785	64.6015	16.873	-74.355	-24.868	154.525	-10.2195	152.5525
2.809	-12.0355	55.9865	16.805	-83.728	-24.999	146.797	-9.8315	145.3215
2.909	-12.338	46.584	16.751	-93.216	-25.062	138.924	-9.517	138.087
3.009	-12.6645	36.7385	16.685	-102.825	-25.197	131.328	-9.3005	130.6435
3.109	-13.009	26.932	16.641	-112.448	-25.24	123.19	-9.234	123.549
3.209	-13.507	16.426	16.638	-121.94	-25.314	115.661	-9.171	116.482
3.309	-14.0545	4.0525	16.619	-131.889	-25.356	107.356	-9.1405	109.3155
3.409	-14.754	-8.946	16.57	-141.595	-25.386	99.551	-9.157	102.638
3.509	-15.5485	-23.3945	16.512	-151.639	-25.486	91.303	-9.2365	95.8215
3.609	-16.503	-40.454	16.476	-161.824	-25.5	83.109	-9.38	89.389
3.709	-17.2705	-60.3495	16.427	-171.964	-25.618	75.058	-9.5895	83.3775
3.809	-17.485	-82.134	16.385	177.685	-25.673	66.503	-9.741	77.158
3.909	-17.265	-103.969	16.322	167.3	-25.717	58.187	-9.901	70.611
4.009	-16.6805	-125.5155	16.26	156.831	-25.817	49.748	-10.0705	64.0935
4.109	-15.8765	-144.5265	16.164	146.241	-25.904	41.129	-10.2945	57.3205
4.209	-15.1155	-161.2475	16.067	135.639	-26.023	32.651	-10.5675	50.4085
4.309	-14.417	-176.392	15.937	124.935	-26.128	24.107	-10.796	43.366
4.409	-13.7095	169.2085	15.82	114.214	-26.26	15.418	-11.0355	35.8375
4.509	-13.064	155.952	15.694	103.353	-26.324	6.804	-11.199	27.895
4.609	-12.483	142.469	15.542	92.366	-26.459	-1.923	-11.373	19.62
4.709	-11.9905	130.7565	15.38	81.469	-26.631	-10.72	-11.5485	11.2035
4.809	-11.6405	119.3855	15.252	70.34	-26.748	-19.892	-11.6075	1.6615
4.909	-11.4145	108.8095	15.08	59.19	-26.906	-28.852	-11.7205	-8.2015
5.009	-11.3015	98.0675	14.921	47.822	-27.051	-37.934	-11.7985	-18.8315
5.109	-11.311	87.093	14.763	36.257	-27.209	-47.267	-11.91	-30.017
5.209	-11.4875	76.1735	14.578	24.665	-27.411	-56.703	-11.9915	-40.9425
5.309	-11.889	64.515	14.391	12.776	-27.588	-66.14	-12.02	-52.323
5.409	-12.391	51.333	14.171	0.793	-27.854	-76.21	-11.986	-63.708
5.509	-13.0515	36.9685	13.945	-11.458	-28.129	-86.363	-11.8585	-75.5075
5.609	-13.77	20.29	13.716	-23.986	-28.443	-96.169	-11.746	-87.171
5.709	-14.6315	1.6525	13.416	-36.727	-28.737	-107.013	-11.6555	-98.1745
5.809	-15.4155	-21.0395	13.118	-49.762	-29.17	-117.72	-11.5425	-108.8555
5.909	-15.9055	-48.4035	12.776	-63.065	-29.648	-128.691	-11.4115	-118.8915
6.009	-15.637	-78.789	12.357	-76.632	-30.216	-139.951	-11.271	-128.093
6.108	-14.4225	-108.9155	11.888	-90.491	-30.874	-151.741	-11.0685	-137.3305
6.208	-12.7145	-134.7855	11.328	-104.5	-31.554	-163.627	-10.9115	-145.9845
6.308	-10.87	-156.825	10.683	-118.709	-32.407	-175.183	-10.704	-154.645
6.408	-9.1365	-175.1235	9.916	-132.918	-33.408	173.105	-10.4865	-162.8685
6.508	-7.663	168.864	9.084	-147.023	-34.486	161.016	-10.185	-170.619
6.608	-6.4225	154.7055	8.148	-161.087	-35.49	149.812	-9.8255	-178.7345
6.708	-5.4065	141.8725	7.14	-174.665	-36.72	136.698	-9.4295	173.6955
6.808	-4.62	130.142	6.02	172.148	-38.055	124.802	-8.984	165.613
6.908	-3.976	119.094	4.848	159.142	-39.401	112.463	-8.534	157.03
7.008	-3.4685	108.9335	3.611	146.782	-40.777	98.434	-8.1245	148.6675
7.108	-3.033	99.312	2.362	134.911	-42.424	83.953	-7.709	140.065
7.208	-2.681	90.355	1.064	123.474	-44.041	70.079	-7.351	131.544
7.308	-2.386	82.049	-0.236	112.574	-45.308	54.364	-7.014	123.161
7.408	-2.107	74.483	-1.537	102.222	-47.249	36.991	-6.659	115.097
7.508	-1.8875	67.0105	-2.841	92.283	-48.669	18.455	-6.2705	107.0485
7.608	-1.72	59.92	-4.163	82.577	-49.811	3.568	-5.922	98.76
7.708	-1.554	53.173	-5.443	73.187	-51.178	-9.204	-5.583	90.404
7.808	-1.4425	46.6165	-6.748	64.019	-51.611	-22.621	-5.2975	82.3885
7.908	-1.361	40.443	-8.037	55.073	-51.729	-34.541	-5.052	74.765
8.008	-1.2875	34.2395	-9.353	46.323	-51.519	-37.055	-4.7885	67.6105
8.108	-1.232	28.227	-10.639	37.793	-50.448	-47.715	-4.558	60.5
8.208	-1.181	22.426	-11.912	29.505	-49.565	-55.612	-4.302	53.526
8.308	-1.1675	16.9335	-13.223	21.611	-49.013	-64.324	-4.0915	46.5355
8.408	-1.145	11.561	-14.469	13.703	-48.805	-70.891	-3.927	39.86
8.508	-1.096	6.404	-15.734	6.123	-48.414	-81.271	-3.741	33.414
8.608	-1.05	1.256	-16.945	-1.52	-47.915	-88.526	-3.6	27.142
8.708	-0.995	-3.738	-18.142	-8.912	-47.593	-94.537	-3.453	21.201
8.808	-0.9805	-8.4335	-19.332	-16.061	-47.261	-98.619	-3.3045	15.4075
8.908	-0.9555	-12.5815	-20.516	-22.931	-46.953	-106.529	-3.1655	9.8445
9.008	-0.9715	-17.1265	-21.697	-30.148	-46.85	-112.27	-3.0395	4.1415
9.108	-0.965	-21.373	-22.788	-36.844	-46.634	-116.737	-2.923	-1.413
9.208	-0.9715	-25.7235	-23.909	-43.858	-46.304	-122.81	-2.8305	-6.6505
9.308	-0.9675	-29.6695	-24.996	-50.383	-46.423	-125.733	-2.7445	-11.7175
9.408	-0.9385	-33.5085	-26.081	-57.044	-45.938	-132.447	-2.6655	-16.5645
9.508	-0.9415	-37.2995	-27.138	-63.334	-46.019	-137.138	-2.5915	-21.2885
9.608	-0.9145	-40.8635	-28.199	-70.09	-45.515	-142.28	-2.4985	-26.0145
9.708	-0.905	-44.663	-29.152	-76.663	-45.752	-145.612	-2.445	-31.028
9.808	-0.882	-48.087	-30.121	-82.561	-45.759	-149.386	-2.387	-35.895
9.908	-0.842	-51.703	-31.037	-90.159	-45.759	-155.302	-2.334	-40.674
10.007	-0.8265	-54.8425	-31.911	-96.747	-45.601	-160.79	-2.3005	-45.2015
10.107	-0.8105	-58.4315	-32.626	-102.414	-45.199	-165.804	-2.2365	-49.6075
10.207	-0.844	-62.1	-33.509	-110.051	-44.931	-169.503	-2.202	-54.105
10.307	-0.8485	-65.2395	-34.411	-116.191	-45.306	-172.013	-2.1655	-58.7755
10.407	-0.8575	-68.9045	-35.051	-123.908	-45.077	-180.451	-2.1305	-63.4995
10.507	-0.8525	-72.4175	-35.707	-132.031	-44.757	177.41	-2.1395	-68.2425
10.607	-0.8755	-75.9435	-36.386	-139.002	-44.238	172.586	-2.1925	-72.6675
10.707	-0.868	-79.276	-37.017	-146.601	-43.987	165.573	-2.209	-76.828
10.807	-0.867	-82.717	-37.661	-154.711	-44.056	159.38	-2.256	-80.75
10.907	-0.8755	-86.2795	-38.48	-163.081	-44.445	152.931	-2.2795	-84.6795
11.007	-0.8775	-89.6625	-39.554	-168.842	-45.042	144.53	-2.2865	-88.6595
11.107	-0.8865	-93.2645	-40.354	-172.683	-45.709	140.341	-2.2425	-92.9355
11.207	-0.91	-96.968	-40.807	-177.633	-46.208	140.61	-2.21	-97.313
11.307	-0.9185	-100.7845	-40.88	177.773	-46.282	139.358	-2.1645	-101.7265
11.407	-0.958	-104.486	-41.031	171.589	-46.083	139.005	-2.158	-106.35
11.507	-1.0115	-108.2695	-40.917	164.893	-45.384	135.288	-2.1535	-111.0185
11.607	-1.037	-112.381	-41.052	156.325	-44.852	129.597	-2.169	-115.706
11.707	-1.0605	-116.2415	-41.113	147.045	-44.464	121.208	-2.2495	-120.5485
11.807	-1.1075	-120.1505	-41.786	136.932	-44.789	114.807	-2.2985	-125.0985
11.907	-1.1535	-124.2635	-42.056	130.841	-44.96	109.232	-2.3635	-129.1475
12.007	-1.191	-128.322	-42.64	126.485	-45.118	104.381	-2.391	-133.126
12.107	-1.221	-132.366	-43.085	119.721	-45.341	99.689	-2.438	-137.183
12.207	-1.211	-136.435	-42.908	114.088	-45.704	96.409	-2.46	-141.5
12.307	-1.223	-140.66	-43.379	105.873	-45.229	92.792	-2.498	-146.17
12.407	-1.2615	-144.9265	-43.258	102.113	-45.245	86.241	-2.5235	-150.6765
12.507	-1.2855	-149.2775	-43.224	93.761	-45.181	82.288	-2.6125	-155.0715
12.607	-1.329	-153.232	-43.158	85.907	-44.513	77.667	-2.65	-159.196
12.707	-1.3245	-157.4635	-43.065	79.169	-44.307	68.806	-2.7025	-163.0215
12.807	-1.334	-161.696	-43.033	68.929	-44.003	60.962	-2.749	-167.317
12.907	-1.3465	-165.7895	-42.982	58.842	-44.273	51.262	-2.7505	-171.2665
13.007	-1.3585	-170.0345	-43.401	49.606	-44.038	41.331	-2.8105	-175.8355
13.107	-1.343	-174.407	-43.816	36.521	-44.203	30.142	-2.861	-179.886
13.207	-1.319	-178.529	-44.116	25.696	-44.494	23.127	-2.91	176.438
13.307	-1.301	177.662	-44.49	16.641	-44.8	12.132	-2.9	173.082
13.407	-1.299	173.417	-45.095	6.099	-45.55	1.277	-2.901	169.736
13.507	-1.2755	169.3405	-46.055	-5.118	-45.931	-6.61	-2.8855	166.0955
13.607	-1.2145	165.5265	-46.869	-16.01	-46.628	-16.956	-2.8475	162.3095
13.707	-1.1955	161.7565	-47.309	-23.349	-47.426	-24.904	-2.8525	158.4085
13.807	-1.1765	158.0775	-48.538	-32.864	-48.05	-33.464	-2.8845	154.7535
13.907	-1.1565	154.4245	-49.143	-41.858	-48.267	-40.071	-2.9175	151.2535
14.007	-1.1445	150.6875	-49.726	-48.666	-49.163	-45.384	-2.9385	148.0065
14.106	-1.1195	147.2365	-50.611	-58.671	-49.723	-53.759	-2.8885	144.8305
14.206	-1.138	143.553	-51.355	-67.02	-50.141	-60.293	-2.828	141.115
14.306	-1.1435	140.4265	-51.66	-78.994	-50.412	-71.526	-2.8185	137.4795
14.406	-1.1245	137.5795	-51.921	-85.068	-50.876	-80.276	-2.8285	133.8005
14.506	-1.097	134.46	-51.892	-95.359	-52.412	-87.933	-2.844	130.662
14.606	-1.083	131.504	-53.469	-104.254	-52.69	-96.698	-2.862	127.846
14.706	-1.034	128.521	-53.785	-113.345	-53.476	-103.722	-2.851	124.953
14.806	-0.9855	125.6815	-53.41	-124.89	-53.071	-109.109	-2.8215	121.7395
14.906	-0.949	122.884	-53.056	-127.677	-53.867	-118.061	-2.824	118.146
15.006	-0.909	120.092	-53.798	-139.258	-53.781	-128.567	-2.859	114.761
15.106	-0.8755	117.8585	-53.793	-143.082	-53.985	-135.945	-2.9295	111.8005
15.206	-0.8875	115.4395	-53.592	-154.48	-53.87	-136.425	-3.0115	109.1405
15.306	-0.9085	112.9085	-53.188	-151.845	-53.887	-146.237	-3.0335	106.3735
15.406	-0.8915	110.5535	-53.196	-164.708	-54.661	-149.586	-3.0355	103.3065
15.506	-0.859	108.346	-51.809	-162.569	-53.956	-158.545	-3.07	99.739
15.606	-0.87	106.046	-52.57	-177.357	-53.169	-166.898	-3.159	96.068
15.706	-0.8545	103.9375	-50.832	170.895	-53.779	-171.41	-3.2905	92.8615
15.806	-0.8365	101.8665	-50.112	170.823	-52.765	177.402	-3.4205	90.1125
15.906	-0.812	99.861	-50.555	162.347	-52.535	171.798	-3.554	87.94
16.006	-0.839	97.473	-49.576	153.537	-52.931	161.577	-3.697	85.61
16.106	-0.832	95.551	-49.252	145.411	-52.368	152.759	-3.885	83.232
16.206	-0.7895	93.9825	-48.676	135.986	-52.289	143.393	-4.1345	81.3805
16.306	-0.7555	92.2945	-48.876	127.201	-52.488	135.369	-4.2915	80.2905
16.406	-0.7455	90.3855	-49.359	115.333	-53.946	124.291	-4.2775	80.0405
16.506	-0.7295	88.6285	-50.179	108.609	-54.934	122.486	-4.0935	79.3725
16.606	-0.699	86.79	-50.946	105.746	-55.753	119.528	-3.847	77.635
16.706	-0.7275	85.1265	-52.101	102.58	-56.157	126.4	-3.6215	74.5505
16.806	-0.7145	83.1605	-51.678	107.228	-56.163	127.704	-3.5145	71.2675
16.906	-0.71	81.355	-51.849	114.371	-54.788	132.359	-3.482	67.733
17.006	-0.701	79.949	-50.846	116.309	-53.717	133.372	-3.491	64.744
17.106	-0.694	77.98	-50.283	115.808	-53.35	126.746	-3.471	61.926
17.206	-0.6775	76.0735	-49.426	113.016	-51.704	123.621	-3.4095	59.0945
17.306	-0.6235	74.5175	-48.002	110.501	-50.473	120.172	-3.3915	55.9125
17.406	-0.63	72.511	-47.176	106.47	-49.389	115.466	-3.406	52.434
17.506	-0.556	70.764	-45.957	100.486	-48.317	112.067	-3.494	49.259
17.606	-0.517	68.977	-45.177	92.414	-47.558	103.928	-3.64	46.534
17.706	-0.5435	67.1375	-44.237	89.559	-46.361	96.329	-3.8065	44.0925
17.806	-0.55	65.33	-43.239	80.899	-45.485	91.684	-3.922	41.921
17.906	-0.5525	63.5205	-42.083	74.175	-44.563	82.78	-4.0015	39.4785
18.005	-0.5545	61.5555	-41.282	68.502	-43.682	75.217	-4.1385	36.5125
18.105	-0.6015	59.5815	-40.131	59.296	-42.421	65.664	-4.3255	34.0845
18.205	-0.625	57.59	-39.109	50.93	-41.306	56.523	-4.539	31.985
18.305	-0.667	55.39	-37.839	42.022	-40.338	46.648	-4.768	31.072
18.405	-0.683	53.377	-36.831	30.941	-39.21	35.995	-4.901	30.218
18.505	-0.6775	51.5415	-35.609	19.901	-38.044	24.885	-4.9335	29.3155
18.605	-0.7065	49.0585	-34.433	7.374	-36.926	10.882	-4.9135	27.5945
18.705	-0.775	46.579	-33.168	-6.18	-35.763	-3.299	-4.952	25.664
18.805	-0.861	44.293	-31.726	-21.9	-34.318	-18.009	-5.006	24.37
18.905	-0.926	42.566	-30.255	-40.369	-32.653	-37.534	-4.969	23.584
19.005	-1.0645	40.7195	-28.881	-64.625	-31.312	-61.275	-4.8835	22.8725
19.105	-1.1885	39.1075	-28.306	-93.324	-30.756	-90.881	-4.7405	21.5485
19.205	-1.1665	38.1695	-28.979	-123.062	-31.423	-120.671	-4.6135	19.8245
19.305	-1.0885	36.2955	-30.424	-147.828	-32.939	-146.249	-4.4845	17.6605
19.405	-1.0305	33.9625	-32.176	-168.18	-34.746	-166.462	-4.3115	15.3695
19.505	-1.0015	31.0855	-33.907	176.493	-36.33	176.693	-4.1425	12.8405
19.605	-1.002	28.359	-35.286	163.457	-37.809	164.031	-3.913	10.48
19.705	-1.032	25.269	-36.428	152.101	-39.099	151.497	-3.655	8.027
19.805	-1.1305	22.2325	-37.444	140.983	-40.361	140.208	-3.4235	4.7485
19.905	-1.1525	19.3015	-38.576	132.247	-41.253	131.641	-3.2325	0.7035
20.005	-1.215	16.48	-39.418	124.231	-42.108	122.182	-3.145	-3.385
20.105	-1.274	13.476	-39.88	115.294	-43.014	114.216	-3.126	-6.803
20.205	-1.35	10.157	-40.618	106.617	-43.426	105.449	-3.057	-9.962
20.305	-1.3925	7.3565	-41.099	98.711	-43.986	98.931	-2.9515	-13.0335
20.405	-1.452	4.438	-41.414	91.743	-44.672	90.352	-2.833	-16.738
20.505	-1.532	1.452	-41.811	85.132	-45.171	85.033	-2.692	-20.646
20.605	-1.603	-1.597	-42.252	78.73	-45.492	76.953	-2.649	-25.223
20.705	-1.6705	-4.4325	-42.378	69.767	-46.003	70.36	-2.6865	-29.2575
20.805	-1.736	-7.484	-43.176	64.716	-46.499	61.196	-2.731	-32.59
20.905	-1.78	-10.959	-43.718	58.864	-47.259	57.412	-2.726	-35.447
21.005	-1.86	-14.35	-44.267	55.099	-47.686	54.307	-2.664	-38.779
21.105	-1.9415	-17.2285	-44.542	52.021	-48.306	48.791	-2.5615	-42.8025
21.205	-2.056	-20.59	-44.561	47.837	-48.239	45.332	-2.484	-47.379
21.305	-2.0795	-23.7615	-44.61	44.426	-48.788	42.623	-2.4705	-51.7325
21.405	-2.114	-26.751	-44.885	43.352	-48.156	37.538	-2.49	-55.054
21.505	-2.1305	-29.7145	-44.925	33.781	-48.614	34.736	-2.4975	-57.7905
21.605	-2.196	-33.062	-44.589	33.416	-49.067	31.054	-2.495	-60.649
21.705	-2.243	-36.486	-44.92	29.973	-49.172	25.436	-2.455	-64.208
21.805	-2.29	-39.025	-45.795	22.769	-49.198	19.722	-2.451	-68.323
21.905	-2.3535	-42.1885	-45.383	22.95	-49.693	19.041	-2.4615	-72.5205
22.005	-2.4455	-45.3675	-45.743	19.028	-49.714	19.421	-2.4855	-76.1915
22.104	-2.4955	-48.7895	-45.803	19.926	-50.249	14.334	-2.5345	-79.0775
22.204	-2.5445	-51.4205	-45.842	13.612	-50.507	8.296	-2.4885	-81.3625
22.304	-2.571	-54.574	-46.32	13.367	-50.117	12.21	-2.456	-83.915
22.404	-2.646	-57.983	-46.804	13.731	-50.386	10.693	-2.439	-87.323
22.504	-2.6525	-61.1175	-46.537	8.488	-50.381	6.76	-2.5195	-90.8545
22.604	-2.677	-64.212	-46.201	10.532	-50.037	3.626	-2.622	-94.431
22.704	-2.7115	-67.4165	-46.255	3.034	-50.916	2.552	-2.6915	-97.2805
22.804	-2.714	-70.446	-46.408	0.761	-50.36	-1.235	-2.677	-99.624
22.904	-2.718	-73.349	-46.538	-1.408	-50.629	-2.427	-2.59	-101.811
23.004	-2.7765	-75.9595	-46.682	-3.837	-50.903	-7.351	-2.4515	-104.3805
23.104	-2.816	-78.817	-46.715	-5.768	-51.29	-8.815	-2.423	-107.307
23.204	-2.796	-81.695	-46.86	-11.271	-51.175	-11.625	-2.445	-110.02
23.304	-2.7755	-84.5355	-46.613	-8.907	-50.782	-10.935	-2.5215	-112.1185
23.404	-2.7815	-87.2585	-47.164	-13.561	-51.028	-12.738	-2.6065	-113.6715
23.504	-2.8365	-91.0065	-46.254	-13.619	-50.968	-17.893	-2.6025	-116.2425
23.604	-2.871	-93.659	-46.754	-17.053	-51.198	-23.816	-2.504	-118.506
23.704	-2.811	-96.263	-46.591	-19.301	-50.977	-23.271	-2.394	-121.437
23.804	-2.8555	-98.8905	-46.223	-23.67	-50.574	-25.21	-2.3845	-124.2365
23.904	-2.829	-102.154	-46.929	-24.322	-50.428	-25.483	-2.388	-126.082
24.004	-2.7715	-104.7155	-46.304	-26.436	-50.456	-27.307	-2.4025	-127.0015
24.104	-2.738	-107.57	-46.448	-24.919	-50.437	-29.122	-2.416	-127.838
24.204	-2.7545	-110.1605	-47.117	-28.352	-50.516	-28.913	-2.3975	-129.7045
24.304	-2.7	-113.307	-46.808	-31.382	-50.643	-32.475	-2.326	-132.288
24.404	-2.674	-115.97	-46.213	-30.485	-50.969	-35.43	-2.33	-135.103
24.504	-2.7095	-118.6795	-46.276	-35.223	-50.048	-37.19	-2.3495	-136.9325
24.604	-2.744	-121.705	-46.61	-33.821	-50.348	-36.686	-2.339	-138.057
24.704	-2.752	-124.682	-45.506	-33.581	-49.591	-33.194	-2.275	-138.541
24.804	-2.734	-127.329	-45.703	-38.455	-49.344	-38.408	-2.214	-139.499
24.904	-2.7565	-130.5795	-45.177	-42.705	-48.73	-41.497	-2.2015	-141.7215
25.004	-2.767	-134.141	-45.473	-45.89	-49.188	-46.362	-2.26	-144.019
25.104	-2.777	-137.076	-45.207	-45.586	-49.269	-49.067	-2.355	-146.115
25.204	-2.755	-139.777	-45.288	-48.051	-49.123	-52.489	-2.419	-147.135
25.304	-2.7665	-143.4855	-45.116	-52.132	-48.931	-53.935	-2.4285	-147.7145
25.404	-2.8075	-147.4305	-45.326	-52.691	-49.158	-58.064	-2.3715	-148.6805
25.504	-2.799	-150.612	-45.147	-55.12	-49.086	-57.196	-2.349	-150.496
25.604	-2.8625	-153.6055	-45.619	-58.135	-49.095	-60.876	-2.4805	-152.8045
25.704	-2.8695	-157.5745	-45.887	-58.265	-49.716	-58.107	-2.6205	-154.6275
25.804	-2.8675	-161.6345	-45.867	-57.463	-50.01	-60.088	-2.7705	-155.8705
25.904	-2.9025	-165.5715	-45.823	-51.354	-49.284	-55.087	-2.8355	-156.5995
26.003	-2.9985	-169.8665	-44.87	-49.28	-49.068	-50.898	-2.7875	-157.8065
26.103	-3.104	-174.306	-44.327	-51.385	-47.761	-52.175	-2.709	-159.506
26.203	-3.13	-179.141	-43.311	-49.675	-47.526	-51.045	-2.746	-161.756
26.303	-3.228	175.85	-42.092	-52.014	-45.707	-57.29	-2.849	-163.522
26.403	-3.383	170.655	-41.349	-53.828	-45.02	-56.84	-3.023	-164.488
26.503	-3.5315	164.7875	-39.76	-58.69	-44.14	-63.221	-3.1765	-165.2045
26.603	-3.6655	159.4575	-39.051	-67.434	-43.242	-70.907	-3.2785	-166.0465
26.703	-3.785	153.592	-38.852	-72.204	-42.577	-77.85	-3.245	-167.915
26.803	-4.028	147.033	-38.339	-77.89	-42.123	-81.081	-3.337	-170.564
26.903	-4.2965	140.1205	-37.217	-87.125	-41.868	-88.604	-3.3975	-172.5105
27.003	-4.5805	133.2775	-37.162	-89.792	-41.176	-95.232	-3.4995	-173.7635
27.103	-4.9875	125.8725	-36.691	-95.387	-40.911	-102.262	-3.6185	-173.8825
27.203	-5.374	117.514	-36.322	-104.714	-40.387	-106.039	-3.652	-175.187
27.303	-5.807	109.001	-35.725	-109.973	-39.977	-111.873	-3.614	-176.36
27.403	-6.394	100.42	-35.152	-117.953	-39.319	-118.45	-3.649	-179.524
27.503	-6.869	91.081	-34.581	-125.405	-38.859	-127.262	-3.682	177.738
27.603	-7.2175	81.5925	-34.062	-134.48	-38.284	-137.955	-3.8155	175.5925
27.703	-7.5335	70.9165	-33.614	-145.351	-38.083	-145.159	-3.8655	174.7415
27.803	-7.9355	59.1405	-33.766	-154.758	-37.497	-154.936	-3.9415	173.7055
27.903	-8.3175	45.4675	-33.651	-162.395	-37.827	-165.272	-3.8775	172.0095
28.003	-8.612	32.451	-33.675	-169.775	-37.404	-176.303	-3.95	169.194
28.103	-8.9465	18.9975	-33.591	177.885	-37.496	174.554	-4.1745	165.1435
28.203	-9.2475	4.6005	-33.664	164.696	-37.923	166.269	-4.4325	162.2005
28.303	-9.344	-9.276	-34.254	159.511	-37.974	156.681	-4.655	159.834
28.403	-9.4045	-22.6795	-34.686	151.122	-38.156	150.144	-4.7505	157.7845
28.503	-9.375	-36.606	-34.878	145.099	-38.204	139.726	-4.624	155.527
28.603	-9.33	-49.345	-34.822	134.784	-38.482	130.72	-4.577	152.086
28.703	-9.179	-60.299	-34.758	124.478	-38.45	123.139	-4.7	148.351
28.803	-9.2955	-70.3385	-35.147	119.363	-38.113	114.953	-4.9365	144.0575
28.903	-9.2215	-80.7935	-34.956	106.951	-38.407	107.253	-5.3205	140.5095
29.003	-9.3645	-89.1225	-35.357	100.24	-38.664	100.308	-5.5395	137.9425
29.103	-9.671	-96.715	-34.95	90.395	-38.285	88.373	-5.677	134.183
29.203	-10.07	-105.488	-34.773	81.453	-38.313	80.544	-5.678	129.757
29.303	-10.3465	-113.1465	-34.46	70.953	-37.922	70.987	-5.6965	124.4925
29.403	-10.9725	-119.7875	-34.199	60.311	-37.755	59.162	-5.8805	118.4655
29.503	-11.8715	-125.4075	-33.828	52.69	-37.124	53.587	-6.2965	114.5955
29.603	-12.8935	-130.9695	-33.338	41.952	-37.203	43.892	-6.6235	110.4445
29.703	-13.676	-134.344	-33.033	33.29	-36.075	33.811	-6.79	106.561
29.803	-14.5625	-134.9995	-32.176	22.573	-35.897	22.131	-6.9345	101.1525
29.903	-15.4685	-136.7745	-31.301	10.381	-34.942	13.133	-7.0735	94.7495
30.002	-16.374	-140.032	-30.63	0.28	-34.298	1.089	-7.302	86.981
30.102	-16.9375	-144.0295	-29.87	-11.232	-33.498	-10.547	-7.6665	80.7315
30.202	-18.3835	-140.3795	-29.03	-21.344	-32.452	-21.494	-7.9925	73.1345
30.302	-19.924	-141.576	-27.844	-31.958	-31.687	-31.957	-8.275	67.396
30.402	-21.985	-148.746	-26.797	-43.381	-30.458	-43.468	-8.506	61.818
30.502	-24.523	-147.575	-25.65	-54.828	-29.41	-54.633	-8.635	55.251
30.602	-34.2395	-142.6625	-24.569	-68.034	-28.35	-68.411	-8.9265	46.6215
30.702	-38.1735	7.9905	-23.516	-82.746	-27.313	-81.404	-9.2765	37.5705
30.802	-28.142	6.343	-22.353	-96.959	-26.392	-97.038	-9.892	28.623
30.902	-23.5675	-0.2535	-21.465	-112.375	-25.664	-111.755	-10.6015	21.4335
31.002	-20.555	-3.958	-20.885	-127.842	-24.975	-126.875	-11.081	16.984
31.102	-19.279	-4.416	-20.27	-142.799	-24.499	-142.608	-11.29	12.295
31.202	-18.709	-2.591	-19.973	-158.228	-24.212	-156.937	-11.392	6.695
31.302	-17.2385	-3.1495	-19.736	-171.853	-23.99	-171.837	-11.4945	0.6035
31.402	-15.798	-3.045	-19.521	174.372	-23.907	175.057	-11.709	-6.035
31.502	-14.7385	-3.4955	-19.34	161.754	-23.803	162.576	-11.9665	-11.0285
31.602	-13.921	-6.942	-19.224	149.292	-23.739	150.122	-12.368	-15.426
31.702	-13.146	-8.25	-19.073	137.051	-23.617	138.005	-12.257	-19.179
31.802	-12.4255	-7.9505	-18.807	125.133	-23.484	125.328	-11.9865	-23.5935
31.902	-11.873	-7.372	-18.709	113.141	-23.386	113.103	-11.562	-31.23
32.002	-11.2585	-8.2665	-18.627	99.162	-23.266	99.799	-11.5015	-40.3385
32.102	-10.628	-8.525	-18.535	85.656	-23.354	85.886	-11.605	-50.163
32.202	-9.957	-8.336	-18.768	72.583	-23.536	73.476	-11.988	-58.444
32.302	-9.5195	-9.7575	-18.952	59.772	-23.807	60.904	-12.5765	-66.0085
32.402	-9.06	-11.163	-19.333	47.505	-24.118	48.421	-12.847	-71.514
32.502	-8.5445	-12.5985	-19.831	35.334	-24.735	35.936	-13.2665	-79.0165
32.602	-8.1345	-12.8265	-20.241	24.041	-25.273	24.791	-13.8855	-86.6225
32.702	-7.828	-15.365	-21.04	11.725	-25.996	13.724	-15.116	-95.853
32.802	-7.5775	-18.4215	-21.755	0.852	-26.801	2.064	-16.8135	-104.5685
32.902	-7.231	-21.178	-22.451	-9.428	-27.611	-7.598	-19.841	-107.299
33.002	-7.332	-22.038	-23.575	-19.181	-28.597	-17.727	-22.914	-99.814
33.102	-7.22	-24.107	-24.559	-26.902	-29.614	-24.491	-24.569	-76.662
33.202	-7.102	-25.657	-25.551	-34.515	-30.724	-31.001	-23.464	-63.18
33.302	-6.929	-26.658	-26.428	-38.132	-31.924	-35.717	-22.565	-54.878
33.402	-6.877	-28.237	-27.24	-43.673	-32.418	-37.924	-22.528	-50.614
33.502	-6.979	-30.718	-27.942	-47.056	-33.099	-42.408	-21.391	-40.691
33.602	-7.062	-32.821	-28.483	-46.304	-33.725	-43.552	-19.397	-35.257
33.702	-7.104	-32.833	-28.723	-48.381	-33.745	-44.31	-17.468	-37.923
33.802	-7.2685	-34.1935	-28.48	-51.101	-33.443	-46.753	-16.0845	-44.2425
33.902	-7.583	-36.23	-28.501	-55.665	-33.212	-51.142	-15.331	-50.102
34.002	-7.76	-36.72	-28.088	-61.277	-32.725	-57.407	-14.847	-55.775
34.101	-7.938	-36.455	-27.733	-66.148	-32.479	-65.445	-14.644	-58.581
34.201	-8.337	-35.341	-27.524	-74.683	-32.207	-70.669	-14.314	-61.636
34.301	-8.589	-34.733	-27.473	-82.966	-32.16	-79.973	-13.758	-65.428
34.401	-8.7175	-32.3105	-27.47	-90.853	-32.425	-87.648	-13.6925	-70.2145
34.501	-8.42	-28.731	-27.608	-98.178	-32.484	-96.463	-13.701	-75.323
34.601	-8.3515	-27.7375	-28.105	-105.894	-32.662	-103.598	-14.2735	-78.7855
34.701	-8.053	-27.273	-28.384	-112.649	-33.279	-110.338	-14.626	-77.287
34.801	-7.6765	-26.8265	-28.561	-116.892	-33.77	-114.754	-14.5865	-75.6535
34.901	-7.382	-25.41	-29.093	-118.874	-33.649	-118.424	-13.957	-75.836
35.001	-7.062	-26.162	-28.743	-122.684	-33.357	-119.111	-13.617	-80.398
35.101	-6.6555	-27.0625	-28.072	-124.915	-32.845	-123.505	-13.2315	-85.6235
35.201	-6.3335	-28.7325	-27.355	-129.407	-32.363	-127.332	-13.4555	-90.4645
35.301	-6.184	-29.737	-26.669	-135.626	-31.422	-135.272	-13.786	-93.587
35.401	-6.187	-31.238	-25.917	-143.668	-30.69	-143.348	-13.92	-93.577
35.501	-6.027	-33.196	-25.038	-154.64	-30.153	-152.071	-13.962	-95.086
35.601	-5.9565	-33.5235	-24.639	-163.971	-29.637	-162.824	-13.9425	-96.6505
35.701	-5.791	-34.008	-24.024	-176.08	-29.233	-175.867	-14.178	-100.588
35.801	-5.5935	-35.8485	-23.721	169.94	-29.03	171.053	-14.5605	-103.0695
35.901	-5.4275	-37.4595	-23.726	158.782	-28.99	159.249	-15.7035	-103.3445
36.001	-5.3115	-39.3555	-23.8	146.626	-29.215	146.333	-16.1565	-100.1465
36.101	-5.362	-41.957	-23.94	134.032	-29.717	134.614	-15.89	-95.995
36.201	-5.285	-44.283	-24.292	121.108	-29.97	123.408	-15.3	-98.566
36.301	-5.2085	-45.7065	-24.764	111.899	-30.657	112.19	-14.9315	-102.9715
36.401	-5.17	-47.752	-25.301	102.245	-31.32	103.116	-15.163	-109.222
36.501	-5.142	-50.35	-25.568	91.859	-31.558	92.697	-15.778	-114.065
36.601	-5.215	-54.209	-26.026	79.683	-32.108	84.128	-16.477	-116.582
36.701	-5.27	-57.156	-26.879	72.53	-32.718	76.309	-17.053	-115.246
36.801	-5.484	-58.664	-27.065	62.674	-33.372	66.817	-17.199	-114.667
36.901	-5.653	-61.637	-27.575	56.433	-34.221	60.607	-17.33	-115.241
37.001	-5.7575	-65.7625	-28.177	45.695	-34.503	51.919	-17.3175	-115.9125
37.101	-6.01	-68.92	-28.541	37.881	-35.056	42.894	-17.642	-115.731
37.201	-6.3205	-72.4825	-29.216	31.896	-35.855	34.803	-17.8495	-112.9595
37.301	-6.696	-76.966	-29.367	24.887	-36.327	29.176	-17.52	-111.459
37.401	-6.943	-81.345	-29.273	19.533	-37.004	23.318	-16.782	-114.077
37.501	-7.2785	-85.2465	-29.648	12.786	-37.043	14.596	-16.3985	-120.2025
37.601	-7.77	-89.599	-29.253	0.769	-37.575	5.37	-16.719	-127.252
37.701	-8.065	-96.69	-29.303	-8.339	-37.768	-5.559	-17.221	-131.053
37.801	-8.431	-102.756	-29.587	-22.354	-38.95	-18.973	-17.947	-134.39
37.901	-8.8375	-109.7875	-29.973	-34.947	-39.766	-27.495	-17.8955	-133.1705
38.001	-9.724	-118.678	-30.37	-50.884	-40	-46.354	-17.339	-135.401
38.1	-10.2315	-127.9125	-30.713	-65.537	-40.708	-62.953	-16.3605	-137.4975
38.2	-11.057	-137.345	-31.269	-86.881	-43.147	-85.849	-15.519	-147.354
38.3	-11.984	-145.877	-33.294	-103.702	-44.083	-103.228	-15.211	-154.52
38.4	-12.17	-161.02	-34.338	-125.709	-48.052	-124.606	-14.865	-160.518
38.5	-12.519	-174.493	-35.141	-143.68	-49.834	-165.297	-15.098	-165.074
38.6	-12.8215	170.3245	-37.694	-167.484	-49.638	163.582	-14.7915	-170.2705
38.7	-13.3395	152.4825	-37.586	-179.307	-52.15	124.146	-14.3435	-177.0515
38.8	-12.7	139.577	-38.751	167.221	-52.903	110.057	-14.093	174.344
38.9	-12.6835	127.7275	-41.952	154.705	-54.113	93.772	-14.0865	164.9025
39	-12.376	115.403	-40.724	150.137	-53.652	93.323	-14.226	154.863
39.1	-11.7275	102.9775	-39.47	160.64	-53.688	101.625	-14.7345	145.5595
39.2	-11.209	94.672	-36.956	158.88	-50.945	135.418	-14.971	139.872
39.3	-10.9695	84.3715	-35.324	149.505	-47.999	128.944	-15.1905	134.0435
39.4	-10.5705	75.9035	-33.869	144.524	-44.782	124.563	-15.4265	127.1605
39.5	-10.3375	69.2285	-32.639	134.968	-42.553	113.836	-15.5625	124.4965
39.6	-10.033	63.594	-30.621	120.86	-40.578	102.154	-15.909	117.869
39.7	-10.1105	57.2055	-29.394	108.715	-39.089	92.006	-16.7355	116.3955
39.8	-9.563	52.782	-28.514	100.316	-38.622	81.579	-17.228	115.857
39.9	-9.3715	47.5505	-28.096	90.026	-38.279	73.964	-17.5025	117.7005
40	-9.4435	43.5285	-28.023	80.201	-37.943	64.011	-17.4435	118.4455
