! Analog Devices, Inc."								
! Device:	ADL8154ACPZN							
! Description:	"10 MHz to 6 GHz, Wideband, Low Noise Amplifier"							
! Conditions:	Vdd = 5.0 V							
!		IDQ = 125 mA						
!		Pin = -25 dBm						
!		Operating Temperature = +25 C (at package bottom)       						
! Product validation unit SN30 soldered down to Evaluation Board as shown on ADL8154-EVALZ User Guide. Board loss de-embedded from S21 magnitude.  All other RF measurements reference to RF coaxial connector.								
! Frequency (GHz)	S11_Mag (dB)	S11_Phase (deg)	S21_Mag (dB)	S21_Phase (deg)	S12_Mag (dB)	S12_Phase (deg)	S22_Mag (dB)	S22_Phase (deg)
#  GHZ   S   DB   R 50								
 								
0.01	-10.1135	-116.8955	18.059	-154.752	-23.812	27.581	-6.5125	153.4245
0.11	-9.6465	-179.1235	18.269	170.546	-23.066	-5.867	-9.4745	168.8345
0.21	-9.7375	174.8165	18.223	160.757	-23.065	-14.405	-9.5615	161.0935
0.31	-9.95	169.445	18.186	151.545	-23.123	-21.684	-9.664	152.091
0.41	-9.999	164.868	18.146	142.276	-23.122	-29.347	-9.946	143.08
0.51	-9.937	159.591	18.112	133.044	-23.124	-36.508	-10.404	133.202
0.61	-9.8845	154.7965	18.107	123.994	-23.19	-43.992	-10.8965	123.9615
0.71	-10.0155	149.7355	18.081	114.765	-23.243	-51.301	-11.4855	114.5875
0.81	-10.1495	146.0105	18.082	105.492	-23.275	-59.089	-12.1885	105.9645
0.91	-10.3925	142.7815	18.072	96.366	-23.282	-66.215	-13.0895	96.7845
1.01	-10.4365	139.5365	18.072	87.177	-23.293	-73.5	-14.2925	86.8485
1.11	-10.5605	135.7205	18.041	77.786	-23.338	-81.17	-15.6155	76.6255
1.21	-10.827	131.931	18.008	68.592	-23.388	-88.625	-17.339	65.529
1.31	-11.1415	128.6035	17.956	59.262	-23.452	-96.077	-19.3525	52.6615
1.41	-11.347	125.926	17.94	49.824	-23.508	-104.082	-21.741	37.428
1.51	-11.493	122.942	17.907	40.524	-23.564	-111.463	-25.122	14.361
1.61	-11.59	119.374	17.846	31.195	-23.65	-119.36	-28.258	-31.039
1.71	-11.627	115.569	17.783	22.04	-23.715	-126.792	-26.702	-84.165
1.81	-11.715	112.803	17.712	12.745	-23.791	-134.39	-22.693	-114.453
1.91	-11.7285	109.6485	17.655	3.479	-23.863	-142.063	-19.6025	-132.7815
2.01	-11.7185	106.3945	17.591	-5.822	-23.947	-149.868	-17.4475	-145.6715
2.109	-11.6605	102.7715	17.545	-15.071	-24.065	-157.824	-15.7665	-157.1255
2.209	-11.6175	98.3395	17.504	-24.255	-24.179	-165.255	-14.4235	-167.4155
2.309	-11.6515	93.6815	17.415	-33.442	-24.231	-172.767	-13.3135	-176.4435
2.409	-11.669	88.668	17.342	-42.645	-24.357	179.322	-12.417	175.218
2.509	-11.7395	83.0375	17.268	-51.938	-24.451	171.742	-11.7015	167.4105
2.609	-11.9315	76.5635	17.222	-61.159	-24.577	163.935	-11.1235	159.6915
2.709	-12.1325	68.8445	17.191	-70.432	-24.656	156.396	-10.6245	152.4565
2.809	-12.2495	60.8915	17.125	-79.642	-24.737	148.656	-10.2305	145.3595
2.909	-12.494	51.904	17.084	-89.021	-24.851	140.73	-9.851	138.128
3.009	-12.7815	42.7055	17.023	-98.505	-24.914	132.855	-9.6005	130.7565
3.109	-13.107	33.636	16.99	-107.987	-24.99	125.231	-9.505	123.653
3.209	-13.56	23.685	16.993	-117.324	-25.032	117.374	-9.396	116.41
3.309	-14.0715	12.2705	16.982	-127.102	-25.087	109.186	-9.3335	109.1515
3.409	-14.768	0.554	16.946	-136.654	-25.122	101.448	-9.343	102.282
3.509	-15.5725	-12.7295	16.9	-146.551	-25.241	93.315	-9.4195	95.4125
3.609	-16.661	-27.892	16.878	-156.579	-25.277	85.202	-9.577	88.842
3.709	-17.6705	-46.2735	16.845	-166.569	-25.296	76.929	-9.7805	82.6885
3.809	-18.238	-67.493	16.819	-176.774	-25.367	68.656	-9.935	76.403
3.909	-18.397	-90.042	16.774	172.968	-25.425	60.223	-10.102	69.714
4.009	-18.0815	-113.5495	16.73	162.619	-25.499	51.905	-10.2945	63.0995
4.109	-17.3365	-134.8895	16.65	152.131	-25.57	43.426	-10.5615	56.2805
4.209	-16.5255	-153.0595	16.57	141.621	-25.69	34.574	-10.8805	49.3075
4.309	-15.756	-169.462	16.455	131	-25.776	26.1	-11.148	42.456
4.409	-14.9615	175.0855	16.353	120.37	-25.896	17.492	-11.4015	35.1635
4.509	-14.216	160.821	16.239	109.601	-25.996	8.631	-11.572	27.448
4.609	-13.521	146.827	16.1	98.706	-26.083	0.01	-11.753	19.322
4.709	-12.9325	134.8295	15.948	87.895	-26.262	-8.739	-11.9545	11.1215
4.809	-12.4835	123.2075	15.826	76.885	-26.353	-17.727	-12.0175	1.9445
4.909	-12.1785	112.6225	15.663	65.863	-26.571	-26.941	-12.1315	-7.5525
5.009	-11.9925	101.9105	15.513	54.618	-26.673	-35.781	-12.1985	-17.8015
5.109	-11.938	91.082	15.367	43.212	-26.85	-45.01	-12.277	-28.701
5.209	-12.0715	80.3305	15.194	31.779	-26.992	-54.704	-12.3445	-39.5155
5.309	-12.419	69.19	15.02	20.079	-27.2	-64.095	-12.347	-50.973
5.409	-12.892	56.616	14.82	8.286	-27.401	-74.195	-12.319	-62.504
5.509	-13.5335	42.9025	14.614	-3.774	-27.673	-83.853	-12.2145	-74.3835
5.609	-14.281	27.354	14.407	-16.11	-27.926	-94.213	-12.092	-86.301
5.709	-15.1955	9.7855	14.137	-28.655	-28.261	-104.756	-11.9915	-97.4105
5.809	-16.1265	-11.5785	13.873	-41.476	-28.633	-115.185	-11.8645	-108.4045
5.909	-16.8995	-38.2245	13.574	-54.564	-29.066	-126.411	-11.7445	-118.8115
6.009	-16.964	-69.468	13.205	-67.966	-29.577	-137.488	-11.64	-128.501
6.108	-15.8495	-101.8315	12.789	-81.67	-30.156	-149.289	-11.4895	-138.2125
6.208	-13.9945	-129.8085	12.292	-95.574	-30.815	-161.145	-11.4075	-147.0945
6.308	-11.904	-152.845	11.713	-109.756	-31.635	-173.257	-11.28	-155.689
6.408	-9.9455	-171.4365	11.018	-124.016	-32.511	175.304	-11.1085	-163.8015
6.508	-8.283	172.319	10.252	-138.269	-33.441	162.928	-10.847	-171.274
6.608	-6.8925	158.0125	9.374	-152.51	-34.531	150.333	-10.4895	-179.0265
6.708	-5.7555	145.0245	8.42	-166.325	-35.67	137.563	-10.1025	173.8005
6.808	-4.887	133.168	7.338	180.207	-37.105	125.808	-9.644	166.268
6.908	-4.179	121.954	6.202	166.884	-38.306	112.525	-9.149	158.206
7.008	-3.6205	111.6765	4.989	154.197	-39.912	98.951	-8.6835	150.3585
7.108	-3.151	101.939	3.757	142.034	-41.191	85.839	-8.196	142.037
7.208	-2.769	92.901	2.467	130.337	-42.862	72.895	-7.766	133.812
7.308	-2.45	84.555	1.173	119.204	-44.267	58.543	-7.367	125.61
7.408	-2.161	76.929	-0.136	108.657	-45.645	41	-6.963	117.661
7.508	-1.9265	69.4035	-1.438	98.533	-47.445	23.819	-6.5435	109.7435
7.608	-1.745	62.278	-2.767	88.651	-48.596	9.239	-6.152	101.581
7.708	-1.574	55.502	-4.052	79.115	-49.738	-3.75	-5.77	93.367
7.808	-1.4605	48.9465	-5.358	69.847	-51.007	-12.986	-5.4395	85.3995
7.908	-1.376	42.673	-6.659	60.824	-50.922	-27.676	-5.151	77.778
8.008	-1.2925	36.4665	-7.968	51.965	-51.268	-32.54	-4.8665	70.5485
8.108	-1.237	30.382	-9.256	43.396	-50.859	-40.544	-4.634	63.405
8.208	-1.184	24.548	-10.539	34.973	-50.283	-46.384	-4.38	56.459
8.308	-1.1765	18.9925	-11.833	26.99	-49.501	-55.389	-4.1545	49.6035
8.408	-1.155	13.582	-13.118	19.037	-48.894	-65.582	-3.959	42.932
8.508	-1.105	8.335	-14.358	11.421	-48.672	-70.576	-3.76	36.468
8.608	-1.059	3.133	-15.585	3.659	-47.881	-79.715	-3.605	30.106
8.708	-1.006	-1.914	-16.782	-3.647	-47.5	-87.315	-3.459	24.041
8.808	-0.9985	-6.6685	-18.001	-10.857	-46.953	-93.203	-3.3105	18.1835
8.908	-0.9795	-10.8915	-19.172	-17.71	-46.969	-99.551	-3.1685	12.5355
9.008	-0.9955	-15.5135	-20.385	-24.934	-46.8	-106.981	-3.0305	6.7535
9.108	-0.997	-19.81	-21.502	-31.765	-46.455	-111.913	-2.904	1.118
9.208	-1.0015	-24.2395	-22.656	-38.478	-46.262	-115.021	-2.8065	-4.2545
9.308	-1.0045	-28.2875	-23.729	-45.162	-45.831	-122.538	-2.7225	-9.3835
9.408	-0.9795	-32.2065	-24.837	-51.77	-45.834	-125.777	-2.6575	-14.3205
9.508	-0.9825	-36.0735	-25.938	-58.295	-45.41	-133.528	-2.5895	-19.1325
9.608	-0.9645	-39.7145	-26.965	-64.146	-45.379	-136.735	-2.5005	-23.8975
9.708	-0.962	-43.579	-27.93	-71.754	-45.122	-142.044	-2.447	-28.997
9.808	-0.951	-47.082	-28.94	-77.831	-44.969	-146.507	-2.393	-33.942
9.908	-0.917	-50.739	-29.803	-84.511	-44.804	-151.143	-2.356	-38.807
10.007	-0.9135	-53.9745	-30.777	-91.082	-44.676	-157.126	-2.3445	-43.3515
10.107	-0.9125	-57.6335	-31.609	-98.262	-44.359	-162.691	-2.2995	-47.7295
10.207	-0.949	-61.318	-32.505	-105.355	-44.176	-166.515	-2.278	-52.204
10.307	-0.9755	-64.5145	-33.349	-112.799	-44.121	-172.858	-2.2455	-56.8625
10.407	-1.0015	-68.1945	-34.258	-120.469	-44.032	-177.332	-2.2215	-61.5285
10.507	-1.0095	-71.6795	-35.033	-128.552	-44.108	176.77	-2.2495	-66.1545
10.607	-1.0525	-75.1335	-35.781	-135.249	-43.777	170.271	-2.3315	-70.3765
10.707	-1.062	-78.423	-36.557	-143.605	-43.846	164.238	-2.36	-74.225
10.807	-1.071	-81.752	-37.538	-151.416	-44.099	156.477	-2.398	-77.832
10.907	-1.0865	-85.1775	-38.5	-156.427	-44.542	146.985	-2.3775	-81.5735
11.007	-1.0965	-88.4255	-39.313	-162.289	-45.23	143.022	-2.3525	-85.5215
11.107	-1.1115	-91.8575	-40.07	-166.851	-46.052	141.206	-2.2955	-89.7725
11.207	-1.132	-95.424	-40.455	-171.038	-46.343	139.822	-2.265	-94.069
11.307	-1.1305	-99.0615	-40.693	-176.123	-46.278	140.708	-2.2075	-98.4015
11.407	-1.162	-102.597	-40.801	177.822	-46.308	137.588	-2.185	-102.976
11.507	-1.2095	-106.2495	-40.927	170.445	-45.585	135.427	-2.1605	-107.6135
11.607	-1.224	-110.188	-41.093	161.319	-45.317	130.447	-2.159	-112.305
11.707	-1.2385	-113.8895	-41.467	152.688	-44.835	122.233	-2.2345	-117.1005
11.807	-1.2715	-117.6595	-41.922	142.96	-45.129	116.579	-2.2775	-121.4475
11.907	-1.2995	-121.6335	-42.748	138.987	-45.631	109.764	-2.3245	-125.3755
12.007	-1.322	-125.578	-42.849	132.626	-45.818	109.181	-2.331	-129.29
12.107	-1.331	-129.526	-43.34	129.53	-45.808	105.545	-2.351	-133.384
12.207	-1.308	-133.533	-43.035	122.729	-45.85	101.626	-2.361	-137.776
12.307	-1.299	-137.66	-43.424	116.595	-45.778	98.306	-2.401	-142.451
12.407	-1.3145	-141.8605	-43.377	108.659	-45.838	93.851	-2.4225	-146.8975
12.507	-1.3165	-146.1565	-43.224	103.69	-45.403	89.841	-2.5085	-151.1995
12.607	-1.345	-150.121	-43.083	96.376	-44.931	82.963	-2.521	-155.294
12.707	-1.3295	-154.3955	-43.318	87.829	-44.507	77.787	-2.5485	-159.1525
12.807	-1.334	-158.615	-43.19	78.195	-44.259	70.041	-2.578	-163.531
12.907	-1.3515	-162.6775	-43.255	69.1	-44.121	61.783	-2.5745	-167.5585
13.007	-1.3585	-166.8515	-42.904	59.304	-43.958	51.696	-2.6385	-172.1595
13.107	-1.324	-171.19	-43.372	48.535	-43.967	43.358	-2.694	-176.183
13.207	-1.302	-175.276	-43.545	37.372	-43.831	34.551	-2.747	-179.766
13.307	-1.283	-179.087	-43.622	27.78	-44.142	25.416	-2.74	176.957
13.407	-1.274	176.672	-44.23	16.957	-44.587	14.042	-2.739	173.589
13.507	-1.2425	172.5575	-44.733	5.123	-44.911	3.402	-2.7295	170.0485
13.607	-1.1805	168.7065	-46.05	-5.187	-45.471	-7.201	-2.6975	166.3385
13.707	-1.1575	164.9125	-46.327	-14.179	-45.988	-13.435	-2.7025	162.5535
13.807	-1.1405	161.2085	-46.812	-21.169	-46.454	-21.641	-2.7245	159.0145
13.907	-1.1205	157.5135	-47.378	-33.036	-47.199	-30.107	-2.7385	155.6005
14.007	-1.1115	153.7305	-48.24	-42.496	-47.804	-38.605	-2.7245	152.3885
14.106	-1.0905	150.2435	-48.656	-53.056	-48.15	-47.171	-2.6555	149.1605
14.206	-1.107	146.55	-49.369	-60.687	-48.515	-59.405	-2.582	145.38
14.306	-1.1055	143.3945	-50.119	-68.551	-49.216	-67.425	-2.5725	141.7655
14.406	-1.0875	140.4435	-50.151	-81.101	-50.193	-74.585	-2.5705	138.0915
14.506	-1.056	137.222	-51.53	-86.454	-50.78	-79.501	-2.576	134.944
14.606	-1.045	134.108	-51.787	-93.034	-51.126	-87.612	-2.579	132.045
14.706	-1.007	131.025	-52.257	-103.093	-51.477	-98.208	-2.567	129.036
14.806	-0.9675	128.0925	-51.711	-112.885	-52.028	-102.201	-2.5445	125.7135
14.906	-0.936	125.196	-52.82	-125.968	-52.937	-113.612	-2.555	122.091
15.006	-0.899	122.307	-52.764	-131.99	-53.048	-118.721	-2.587	118.666
15.106	-0.8735	119.9935	-52.74	-135.421	-53.334	-123.501	-2.6445	115.6275
15.206	-0.8855	117.4715	-52.307	-147.01	-53.462	-131.317	-2.7175	112.8665
15.306	-0.9125	114.8615	-52.48	-153.33	-53.233	-139.277	-2.7355	109.9485
15.406	-0.9025	112.4505	-52.289	-160.91	-53.336	-143.646	-2.7385	106.7535
15.506	-0.88	110.14	-52.235	-164.299	-53.626	-149.009	-2.775	103.17
15.606	-0.894	107.787	-51.511	-176.032	-52.96	-161.897	-2.851	99.546
15.706	-0.8845	105.5975	-50.832	-175.215	-53.059	-165.807	-2.9525	96.3565
15.806	-0.8775	103.4705	-50.922	178.759	-52.528	-169.684	-3.0385	93.5735
15.906	-0.867	101.443	-50.665	167.41	-52.609	-179.159	-3.12	91.201
16.006	-0.894	99.041	-49.838	165.068	-52.087	170.747	-3.215	88.463
16.106	-0.883	97.129	-49.12	157.082	-52.325	162.318	-3.383	85.403
16.206	-0.8365	95.5195	-48.729	149.168	-51.828	155.781	-3.6585	82.6385
16.306	-0.8045	93.7555	-48.467	140.339	-52.225	140.376	-3.9445	80.7595
16.406	-0.7885	91.8105	-48.724	128.383	-52.16	135.113	-4.1115	80.5275
16.506	-0.7805	89.9905	-49.003	116.407	-53.899	119.618	-4.0335	80.6195
16.606	-0.756	88.131	-49.787	111.137	-55.435	119.562	-3.782	79.701
16.706	-0.7915	86.4365	-50.645	103.834	-55.548	127.094	-3.5065	77.0685
16.806	-0.7785	84.4925	-51.426	102.908	-56.549	129.985	-3.3415	73.9395
16.906	-0.777	82.698	-51.59	107.757	-55.368	129.601	-3.259	70.469
17.006	-0.772	81.312	-51.312	109.496	-54.796	131.956	-3.231	67.469
17.106	-0.761	79.345	-50.747	111.72	-53.844	131.155	-3.187	64.633
17.206	-0.7515	77.4275	-49.78	113.356	-52.503	129.411	-3.1145	61.8225
17.306	-0.7025	75.9125	-49.077	107.777	-51.433	123.619	-3.0855	58.6985
17.406	-0.714	73.942	-48.292	105.871	-50.232	122.747	-3.084	55.275
17.506	-0.639	72.244	-47.089	104.342	-49.297	114.85	-3.156	52.141
17.606	-0.602	70.508	-45.812	100.998	-48.481	111.24	-3.28	49.436
17.706	-0.6275	68.7085	-44.98	95.594	-47.639	105.482	-3.4235	47.0315
17.806	-0.639	66.962	-44.239	89.772	-46.439	97.624	-3.509	44.852
17.906	-0.6325	65.2195	-42.861	82.984	-45.537	87.944	-3.5435	42.3695
18.005	-0.6345	63.3385	-42.326	76.146	-44.61	84.116	-3.6255	39.2235
18.105	-0.6735	61.4195	-41.206	69.63	-43.584	76.702	-3.7605	36.4315
18.205	-0.693	59.53	-39.941	62.655	-42.203	66.631	-3.958	33.868
18.305	-0.722	57.415	-38.751	53.49	-41.118	59.996	-4.203	32.461
18.405	-0.726	55.417	-37.866	44.425	-39.871	48.861	-4.39	31.226
18.505	-0.7195	53.6255	-36.383	34.356	-38.703	38.395	-4.5025	30.1575
18.605	-0.7325	51.1405	-35.183	22.147	-37.362	25.527	-4.5535	28.5295
18.705	-0.79	48.643	-33.918	7.892	-36.189	10.705	-4.629	26.728
18.805	-0.87	46.377	-32.307	-6.578	-34.776	-3.821	-4.711	25.493
18.905	-0.924	44.517	-30.718	-23.685	-33.02	-21.118	-4.72	24.683
19.005	-1.0725	42.4335	-29.02	-46.18	-31.409	-43.817	-4.6915	24.0775
19.105	-1.2435	40.6985	-27.976	-74.97	-30.35	-72.662	-4.5985	22.8655
19.205	-1.2755	40.0765	-28.121	-106.293	-30.467	-104.623	-4.5395	21.2165
19.305	-1.1805	38.5855	-29.417	-134.614	-31.742	-133.227	-4.4815	19.4695
19.405	-1.1015	36.3815	-31.212	-156.962	-33.578	-155.929	-4.3365	17.7635
19.505	-1.0505	33.5455	-32.822	-174.337	-35.327	-174.546	-4.1565	15.8495
19.605	-1.04	30.82	-34.402	170.957	-36.955	171.132	-3.894	13.963
19.705	-1.059	27.715	-35.786	158.063	-38.213	158.083	-3.597	11.856
19.805	-1.1495	24.6625	-36.984	147.71	-39.611	146.289	-3.3285	8.7665
19.905	-1.1715	21.6995	-38.155	136.803	-40.659	136.478	-3.1045	4.8325
20.005	-1.239	18.857	-38.907	128.706	-41.421	127.033	-3	0.873
20.105	-1.301	15.838	-39.811	120.648	-42.56	118.559	-2.968	-2.468
20.205	-1.37	12.53	-40.338	111.456	-43.36	110.963	-2.889	-5.504
20.305	-1.4035	9.6835	-41.28	105.365	-43.913	103.019	-2.7815	-8.5795
20.405	-1.462	6.744	-41.375	97.859	-44.456	93.726	-2.662	-12.296
20.505	-1.542	3.687	-41.798	91.687	-45.155	88.799	-2.517	-16.164
20.605	-1.616	0.598	-42.424	84.979	-45.685	82.725	-2.475	-20.716
20.705	-1.6875	-2.2755	-42.464	80.162	-45.765	76.725	-2.5035	-24.6605
20.805	-1.752	-5.337	-42.364	72.169	-45.988	68.691	-2.546	-27.94
20.905	-1.802	-8.862	-43.064	64.388	-46.331	62.137	-2.535	-30.784
21.005	-1.877	-12.296	-43.755	59.438	-47.252	54.949	-2.472	-34.156
21.105	-1.9645	-15.2415	-44.143	56.91	-48.041	53.554	-2.3695	-38.0975
21.205	-2.082	-18.669	-44.312	49.888	-48.098	48.113	-2.293	-42.646
21.305	-2.1015	-21.9195	-44.521	47.077	-48.174	43.285	-2.2835	-46.9085
21.405	-2.142	-24.956	-44.513	48.085	-48.298	42.598	-2.307	-50.089
21.505	-2.1665	-28.0335	-44.842	42.53	-48.729	38.377	-2.3195	-52.8185
21.605	-2.234	-31.449	-44.959	39.499	-48.818	32.464	-2.323	-55.777
21.705	-2.282	-34.946	-45.215	35.078	-49.241	30.146	-2.289	-59.559
21.805	-2.335	-37.551	-45.452	30.845	-49.383	26.077	-2.302	-63.829
21.905	-2.3985	-40.8085	-45.639	28.366	-49.614	22.819	-2.3265	-68.1135
22.005	-2.4885	-44.0675	-45.704	22.712	-49.458	22.109	-2.3615	-71.7955
22.104	-2.5435	-47.5585	-46.148	23.169	-49.908	17.529	-2.4035	-74.6545
22.204	-2.5955	-50.3085	-45.663	21.067	-49.809	17.852	-2.3555	-77.0275
22.304	-2.619	-53.569	-46.035	19.405	-50.047	9.591	-2.32	-79.67
22.404	-2.697	-57.083	-46.139	11.976	-49.689	10.058	-2.31	-83.234
22.504	-2.7055	-60.2355	-47.096	10.925	-50.642	5.355	-2.3985	-86.8115
22.604	-2.739	-63.463	-46.526	9.889	-50.608	4.486	-2.507	-90.406
22.704	-2.7715	-66.7035	-46.614	10.345	-50.241	1.497	-2.5765	-93.2675
22.804	-2.773	-69.838	-46.475	3.511	-50.619	-2.421	-2.552	-95.685
22.904	-2.77	-72.791	-46.435	2.209	-50.827	-2.358	-2.465	-98.025
23.004	-2.8345	-75.5125	-46.076	0.783	-50.458	-5.107	-2.3345	-100.7565
23.104	-2.876	-78.435	-46.072	-4.156	-50.373	-5.093	-2.32	-103.838
23.204	-2.858	-81.391	-46.405	-2.903	-50.639	-8.7	-2.357	-106.601
23.304	-2.8365	-84.2005	-46.294	-6.206	-50.099	-9.064	-2.4335	-108.7685
23.404	-2.8445	-86.9895	-46.391	-9.614	-50.542	-12.751	-2.5155	-110.4135
23.504	-2.8905	-90.7755	-46.641	-13.26	-51.225	-17.993	-2.5005	-113.1045
23.604	-2.926	-93.454	-46.687	-14.749	-51.045	-18.264	-2.398	-115.477
23.704	-2.87	-96.047	-46.752	-17.765	-50.894	-20.369	-2.297	-118.445
23.804	-2.9105	-98.7205	-46.617	-18.818	-50.912	-27.324	-2.2885	-121.1785
23.904	-2.875	-101.941	-46.8	-21.309	-50.512	-22.847	-2.291	-122.961
24.004	-2.8195	-104.5045	-47.12	-21.764	-50.718	-21.959	-2.3015	-123.8665
24.104	-2.791	-107.343	-46.103	-20.807	-50.98	-23.273	-2.301	-124.771
24.204	-2.8005	-109.9195	-47.179	-25.609	-50.539	-27.481	-2.2885	-126.7585
24.304	-2.743	-113.006	-46.509	-27.159	-50.727	-30.919	-2.225	-129.401
24.404	-2.723	-115.577	-46.969	-28.432	-50.864	-32.943	-2.238	-132.273
24.504	-2.7575	-118.1885	-46.654	-28.061	-51.058	-33.691	-2.2625	-134.1145
24.604	-2.778	-121.138	-46.47	-28.425	-50.537	-34.658	-2.256	-135.223
24.704	-2.778	-123.999	-46.254	-31.831	-49.791	-37.297	-2.18	-135.746
24.804	-2.763	-126.609	-45.684	-32.524	-50.032	-36.713	-2.127	-136.78
24.904	-2.7775	-129.7235	-45.48	-37.834	-49.434	-36.786	-2.1205	-139.0585
25.004	-2.785	-133.083	-45.622	-40.221	-49.19	-43.082	-2.184	-141.352
25.104	-2.785	-135.825	-45.606	-40.469	-49.635	-47.048	-2.276	-143.416
25.204	-2.751	-138.351	-45.649	-44.482	-49.396	-48.543	-2.33	-144.341
25.304	-2.7445	-141.9385	-44.77	-48.004	-48.63	-53.583	-2.3315	-144.8675
25.404	-2.7795	-145.7295	-45.322	-48.458	-48.938	-52.921	-2.2735	-145.8635
25.504	-2.765	-148.725	-45.788	-50.776	-49.109	-52.895	-2.259	-147.653
25.604	-2.8225	-151.5395	-45.752	-51.262	-49.874	-54.943	-2.4025	-149.9675
25.704	-2.8205	-155.2655	-45.812	-47.98	-49.711	-53.498	-2.5415	-151.7585
25.804	-2.8105	-159.0345	-45.334	-50.573	-49.571	-55.331	-2.6915	-153.0045
25.904	-2.8355	-162.6705	-44.912	-49.465	-49.236	-55.266	-2.7505	-153.7675
26.003	-2.9155	-166.5685	-44.497	-47.803	-48.019	-51.639	-2.7035	-155.0295
26.103	-3.002	-170.62	-43.857	-48.681	-47.855	-55.984	-2.629	-156.792
26.203	-3.005	-175.046	-43.09	-52.706	-46.989	-55.761	-2.675	-159.022
26.303	-3.078	-179.591	-42.069	-54.469	-46.378	-57.198	-2.777	-160.792
26.403	-3.195	175.711	-41.52	-59.006	-45.253	-61.128	-2.945	-161.744
26.503	-3.3025	170.2565	-40.402	-61.181	-44.56	-66.414	-3.0845	-162.4325
26.603	-3.3845	165.3705	-40.297	-69.459	-44.053	-73.905	-3.1915	-163.3605
26.703	-3.464	159.869	-41.161	-75.608	-44.8	-81.125	-3.162	-165.208
26.803	-3.662	153.673	-40.329	-76.626	-44.028	-78.907	-3.262	-167.855
26.903	-3.8945	147.2035	-40.154	-75.727	-43.766	-80.766	-3.3385	-169.7035
27.003	-4.1365	140.8955	-39.396	-79.081	-43.226	-87.431	-3.4585	-170.8055
27.103	-4.4995	134.0125	-38.417	-78.685	-42.659	-87.013	-3.5785	-170.8885
27.203	-4.861	126.366	-37.598	-89.06	-40.998	-90.195	-3.637	-172.129
27.303	-5.251	118.605	-36.521	-91.4	-40.512	-95.784	-3.619	-173.252
27.403	-5.756	110.679	-35.336	-100.903	-39.725	-106.969	-3.656	-176.349
27.503	-6.169	101.987	-34.75	-110.266	-38.888	-114.868	-3.679	-179.002
27.603	-6.5095	92.9085	-34.129	-121.356	-38.373	-124.993	-3.8205	-181.0745
27.703	-6.8585	82.6915	-33.739	-129.024	-37.586	-135.783	-3.8705	178.0765
27.803	-7.2505	71.4695	-33.396	-138.067	-37.759	-143.28	-3.9445	177.0915
27.903	-7.7015	58.1675	-32.938	-148.811	-37.199	-151.745	-3.8805	175.4665
28.003	-8.068	45.367	-32.981	-156.739	-36.986	-163.973	-3.958	172.64
28.103	-8.4545	31.9535	-33.055	-168.243	-37.227	-172.924	-4.1685	168.6605
28.203	-8.8295	17.4725	-33.184	181.653	-37.237	176.283	-4.4355	165.7575
28.303	-9.056	2.806	-33.6	170.588	-37.621	166.649	-4.648	163.539
28.403	-9.2325	-11.2695	-33.416	163.22	-37.818	158.826	-4.7545	161.4925
28.503	-9.297	-25.877	-34.11	152.802	-37.712	151.288	-4.632	159.214
28.603	-9.317	-39.326	-33.894	147.694	-37.974	143.04	-4.587	155.646
28.703	-9.186	-50.992	-34.341	139.436	-38	137.981	-4.732	151.853
28.803	-9.2935	-61.4365	-34.261	130.402	-38.331	127.803	-4.9875	147.5155
28.903	-9.2225	-72.5965	-34.691	121.369	-38.315	120.477	-5.3785	143.8535
29.003	-9.3385	-81.4285	-34.201	115.68	-37.999	110.148	-5.5925	141.2465
29.103	-9.592	-89.232	-34.073	103.546	-37.813	101.782	-5.704	137.436
29.203	-10	-98.041	-33.927	96.288	-37.979	91.825	-5.693	132.909
29.303	-10.2565	-106.1215	-33.775	85.154	-37.413	81.712	-5.7035	127.5865
29.403	-10.8955	-112.6865	-33.203	71.876	-37.14	70.875	-5.8845	121.6035
29.503	-11.7655	-117.9455	-33.226	67.065	-36.914	63.905	-6.2985	117.6495
29.603	-12.7535	-122.3705	-33.269	58.696	-36.54	54.669	-6.5945	113.5565
29.703	-13.394	-125.3	-32.617	50.214	-36.192	44.914	-6.749	109.759
29.803	-14.0765	-125.4415	-32.405	38.467	-35.522	35.019	-6.8635	104.1395
29.903	-14.7425	-126.8675	-31.75	27.068	-35.34	27.013	-6.9735	97.5925
30.002	-15.299	-130.156	-31.054	16.616	-34.674	13.691	-7.18	89.741
30.102	-15.5805	-134.5685	-30.326	6.578	-34.113	4.516	-7.4915	83.2285
30.202	-16.4425	-133.6895	-29.6	-4.005	-33.339	-4.245	-7.7705	75.6805
30.302	-17.579	-139.282	-28.607	-11.574	-31.896	-12.828	-7.975	69.879
30.402	-19.194	-150.661	-27.399	-22.045	-31.073	-23.581	-8.09	64.062
30.502	-21.325	-159.207	-26.118	-33.694	-30.061	-35.361	-8.081	57.448
30.602	-27.2905	175.8545	-25.269	-45.964	-28.845	-48.421	-8.2695	48.7855
30.702	-30.2355	101.5425	-23.882	-58.596	-27.703	-60.265	-8.4835	39.9475
30.802	-25.502	49.266	-22.651	-73.283	-26.693	-74.383	-8.957	31.2
30.902	-21.3365	24.3815	-21.519	-88.243	-25.641	-89.838	-9.5415	24.0905
31.002	-18.395	11.786	-20.75	-103.12	-24.844	-104.793	-9.946	19.531
31.102	-16.999	4.978	-20.042	-118.707	-24.156	-120.141	-10.108	14.457
31.202	-16.402	1.217	-19.498	-134.338	-23.765	-136.185	-10.203	8.698
31.302	-15.4045	-3.1825	-19.234	-149.111	-23.489	-150.897	-10.3115	2.8585
31.402	-14.466	-5.186	-18.951	-162.825	-23.342	-164.454	-10.54	-2.99
31.502	-13.7995	-6.6595	-18.706	-175.803	-23.17	-178.033	-10.7565	-7.5255
31.602	-13.302	-10.381	-18.479	171.806	-23.042	169.809	-11.081	-11.031
31.702	-12.804	-12.002	-18.305	159.828	-22.866	157.809	-10.913	-14.109
31.802	-12.3765	-11.6755	-17.891	148.386	-22.493	146.222	-10.6295	-17.8685
31.902	-12.177	-10.72	-17.501	135.458	-22.262	133.083	-10.256	-24.112
32.002	-11.8515	-10.1935	-17.129	122.155	-21.915	119.945	-10.1965	-31.4075
32.102	-11.421	-8.58	-16.899	107.557	-21.685	105.351	-10.27	-39.268
32.202	-10.781	-6.321	-16.769	93.562	-21.611	91.37	-10.477	-45.404
32.302	-10.2825	-6.2395	-16.922	78.806	-21.791	76.717	-10.8135	-51.5135
32.402	-9.727	-6.716	-17.086	65.029	-22.005	63.099	-10.886	-56.849
32.502	-9.1045	-7.6625	-17.464	51.608	-22.47	49.263	-11.0735	-64.5795
32.602	-8.6105	-7.4995	-17.846	38.297	-22.939	35.541	-11.4745	-72.5085
32.702	-8.243	-9.832	-18.415	23.9	-23.456	22.285	-12.388	-82.259
32.802	-7.9635	-12.8635	-19.179	10.776	-24.316	8.575	-13.7085	-91.0275
32.902	-7.634	-15.601	-20.028	-1.973	-25.116	-2.802	-15.853	-95.552
33.002	-7.711	-16.143	-21.112	-12.984	-26.354	-14.482	-18.052	-94.07
33.102	-7.576	-18.144	-22.183	-23.493	-27.296	-23.221	-20.019	-85.09
33.202	-7.446	-19.575	-23.34	-31.92	-28.659	-31.915	-20.532	-76.652
33.302	-7.265	-20.462	-24.306	-38.803	-29.795	-39.65	-21.055	-67.44
33.402	-7.183	-21.883	-25.531	-45.671	-31.016	-45.938	-21.862	-61.108
33.502	-7.255	-24.092	-26.656	-50.688	-32.119	-48.861	-21.69	-44.565
33.602	-7.286	-26.197	-27.295	-52.181	-32.995	-50.947	-19.975	-33.901
33.702	-7.3	-26.378	-27.954	-53.735	-33.625	-49.227	-18.125	-31.972
33.802	-7.4505	-27.9625	-28.042	-56.904	-33.601	-53.511	-16.7445	-35.3225
33.902	-7.754	-29.972	-28.465	-58.554	-33.783	-56.163	-15.927	-38.232
34.002	-7.921	-30.685	-28.553	-62.575	-33.529	-59.712	-15.186	-41.71
34.101	-8.118	-30.373	-28.557	-68.046	-33.567	-66.099	-14.59	-43.724
34.201	-8.518	-29.12	-28.256	-72.205	-33.416	-69.876	-13.957	-47.376
34.301	-8.736	-28.516	-27.955	-81.053	-32.876	-77.902	-13.251	-52.655
34.401	-8.8415	-26.5535	-28.014	-88.653	-33.032	-85.858	-13.1675	-58.5535
34.501	-8.563	-23.205	-28.267	-96.203	-33.072	-95.514	-13.238	-63.936
34.601	-8.5165	-22.3965	-28.491	-107.013	-33.513	-104.204	-13.7985	-66.2255
34.701	-8.284	-21.984	-29.366	-113.601	-34.167	-109.53	-13.994	-64.143
34.801	-7.9535	-21.4635	-30.344	-118.003	-35.058	-114.522	-13.7895	-61.9745
34.901	-7.656	-19.967	-30.756	-118.914	-35.47	-116.343	-12.983	-62.916
35.001	-7.323	-20.723	-31.113	-118.223	-36.017	-116.75	-12.685	-67.679
35.101	-6.9625	-21.8135	-31.017	-118.192	-35.803	-116.503	-12.3485	-73.0145
35.201	-6.6425	-23.5775	-30.325	-117.225	-34.97	-114.106	-12.5235	-77.3765
35.301	-6.518	-24.551	-29.548	-120.039	-33.963	-118.389	-12.745	-80.368
35.401	-6.543	-25.799	-28.385	-124.353	-32.929	-124.936	-12.674	-81.775
35.501	-6.393	-27.84	-27.013	-131.018	-31.959	-131.649	-12.61	-84.687
35.601	-6.3485	-27.8705	-25.826	-139.209	-31.006	-139.747	-12.5245	-88.4065
35.701	-6.145	-28.307	-24.82	-149.576	-30.13	-152.063	-12.707	-94.165
35.801	-5.9635	-30.2555	-24.227	-163.678	-29.545	-164.175	-13.1565	-98.7835
35.901	-5.7905	-31.9595	-23.781	-175.72	-29.119	-177.627	-14.3115	-100.9415
36.001	-5.6915	-33.9715	-23.407	171.774	-28.735	169.914	-15.0275	-99.1365
36.101	-5.748	-36.556	-23.257	159.308	-28.815	157.155	-15.058	-95.385
36.201	-5.663	-38.704	-23.248	146.282	-28.954	145.997	-14.707	-96.511
36.301	-5.5785	-40.3165	-23.315	133.244	-29.341	133.427	-14.5075	-99.7235
36.401	-5.56	-42.427	-23.747	122.213	-29.625	121.128	-14.8	-104.03
36.501	-5.552	-45.035	-23.961	110.429	-29.911	109.999	-15.396	-107.125
36.601	-5.614	-48.728	-24.18	97.554	-30.315	96.606	-16.015	-107.443
36.701	-5.669	-51.792	-24.716	85.834	-30.948	85.954	-16.298	-105.389
36.801	-5.855	-52.909	-25.43	74.865	-31.867	74.453	-16.097	-106
36.901	-6.04	-56.126	-26.3	64.956	-32.952	66.589	-16.157	-108.934
37.001	-6.1105	-60.2645	-27.236	54.058	-33.961	56.776	-16.2935	-111.3235
37.101	-6.34	-63.472	-28.357	51.27	-35.014	52.151	-16.8	-111.97
37.201	-6.6255	-67.1685	-29.012	47.906	-36.114	46.403	-16.9345	-109.0585
37.301	-7.03	-71.65	-29.337	41.922	-36.424	44.95	-16.502	-107.853
37.401	-7.252	-75.911	-29.596	39.969	-37.05	42.156	-15.655	-110.843
37.501	-7.5675	-79.8455	-29.113	34.012	-36.82	35.194	-15.2255	-116.9815
37.601	-8.034	-83.956	-29.286	30.329	-36.796	28.576	-15.487	-123.486
37.701	-8.295	-90.973	-28.645	19.508	-37.032	19.419	-15.99	-127.808
37.801	-8.559	-96.701	-28.401	10.278	-36.714	10.276	-16.765	-130.735
37.901	-8.8985	-103.5555	-28.326	-2.523	-36.84	0.7	-17.0555	-129.9315
38.001	-9.669	-111.953	-28.215	-17.127	-37.307	-12.873	-16.83	-130.83
38.1	-10.0645	-120.7185	-28.395	-31.857	-37.851	-30.198	-16.1115	-130.8535
38.2	-10.672	-129.471	-28.962	-48.254	-39.139	-48.012	-15.32	-138.64
38.3	-11.378	-137.325	-29.845	-65.61	-40.503	-67.956	-14.915	-144.893
38.4	-11.441	-151.854	-30.641	-86.893	-42.697	-79.122	-14.39	-150.562
38.5	-11.607	-164.216	-32.156	-103.281	-46.284	-109.081	-14.468	-155.233
38.6	-11.8335	-177.9245	-34.082	-118.497	-48.26	-127.425	-14.1775	-160.7455
38.7	-12.3435	166.7165	-36.868	-129.277	-54.816	-137.981	-13.7865	-166.6475
38.8	-11.756	154.057	-37.595	-138.486	-64.152	-173.08	-13.487	-174.671
38.9	-11.7455	143.3795	-38.567	-146.573	-63.111	161.536	-13.4575	177.1775
39	-11.485	131.565	-38.791	-157.985	-63.942	-109.803	-13.616	167.823
39.1	-11.0035	119.7075	-37.696	-167.928	-62.34	-175.341	-14.1675	159.9215
39.2	-10.539	110.916	-35.864	-165.642	-55.686	-167.065	-14.441	154.34
39.3	-10.3975	101.1785	-35.52	183.171	-50.378	163.089	-14.7485	147.8485
39.4	-10.0315	92.5055	-33.324	177.731	-45.719	152.989	-15.2155	140.2535
39.5	-9.8195	85.1805	-32.077	161.237	-43.591	135.925	-15.3685	136.8815
39.6	-9.565	78.907	-30.995	143.327	-41.319	119.253	-16.038	129.873
39.7	-9.7025	72.1895	-29.928	133.86	-39.948	112.675	-16.9445	128.3645
39.8	-9.151	66.762	-28.874	119.696	-38.948	94.316	-17.396	128.728
39.9	-9.0405	61.0255	-28.607	107.324	-38.202	87.389	-17.4495	131.9195
40	-9.0805	57.2075	-28.381	101.835	-38.564	78.729	-16.9815	132.4365
