! Analog Devices, Inc."								
! Device:	ADL8154ACPZN							
! Description:	"10 MHz to 6 GHz, Wideband, Low Noise Amplifier"							
! Conditions:	Vdd = 5.0 V							
!		IDQ = 125 mA						
!		Pin = -25 dBm						
!		Operating Temperature = -55 C (at package bottom)       						
! Product validation unit SN30 soldered down to Evaluation Board as shown on ADL8154-EVALZ User Guide. Board loss de-embedded from S21 magnitude.  All other RF measurements reference to RF coaxial connector.								
! Frequency (GHz)	S11_Mag (dB)	S11_Phase (deg)	S21_Mag (dB)	S21_Phase (deg)	S12_Mag (dB)	S12_Phase (deg)	S22_Mag (dB)	S22_Phase (deg)
#  GHZ   S   DB   R 50								
 								
0.01	-9.7665	-114.7345	18.237	-153.111	-23.832	28.549	-6.3135	154.1375
0.11	-9.2315	-178.9375	18.458	170.894	-22.971	-5.375	-9.1205	169.7245
0.21	-9.3735	174.6895	18.415	161.256	-22.954	-13.848	-9.1975	162.1485
0.31	-9.582	169.513	18.386	152.195	-23.062	-21.556	-9.339	153.682
0.41	-9.638	164.277	18.358	143.028	-22.947	-28.498	-9.601	144.479
0.51	-9.54	159.126	18.326	133.969	-23.007	-36.011	-10.013	135.387
0.61	-9.4865	154.1445	18.326	125.07	-23.083	-43.336	-10.4335	126.7185
0.71	-9.6575	148.8785	18.299	115.962	-23.081	-50.501	-10.9735	117.8395
0.81	-9.8185	144.8675	18.307	106.846	-23.089	-57.808	-11.6265	109.6245
0.91	-10.0335	141.3375	18.307	97.876	-23.119	-65.083	-12.4415	101.1175
1.01	-10.1045	138.1565	18.316	88.844	-23.134	-72.368	-13.5625	92.2205
1.11	-10.2595	134.3555	18.295	79.613	-23.159	-79.733	-14.7975	83.3975
1.21	-10.566	130.424	18.267	70.563	-23.176	-87.36	-16.353	74.32
1.31	-10.9285	126.9725	18.224	61.356	-23.246	-94.807	-18.1545	64.2645
1.41	-11.197	124.539	18.22	52.051	-23.301	-102.522	-20.382	53.436
1.51	-11.385	121.579	18.2	42.896	-23.329	-110.098	-23.763	39.228
1.61	-11.514	118.287	18.153	33.705	-23.388	-117.667	-29.302	11.522
1.71	-11.604	114.769	18.094	24.668	-23.459	-124.874	-33.175	-68.453
1.81	-11.717	112.426	18.037	15.511	-23.528	-132.646	-26.166	-118.29
1.91	-11.7655	109.8575	17.993	6.352	-23.609	-140.282	-21.6805	-137.9695
2.01	-11.7795	107.0875	17.938	-2.847	-23.708	-147.936	-18.9235	-149.8785
2.109	-11.7715	103.7255	17.907	-11.966	-23.771	-155.439	-16.8995	-160.6605
2.209	-11.7225	99.6955	17.875	-21.055	-23.847	-163.222	-15.2625	-170.4475
2.309	-11.7565	95.5685	17.801	-30.139	-23.905	-170.823	-13.9735	-179.2075
2.409	-11.758	91.012	17.739	-39.245	-24.012	-178.21	-13.003	172.871
2.509	-11.8045	85.7465	17.674	-48.438	-24.12	173.965	-12.2015	165.2535
2.609	-11.9815	79.8045	17.637	-57.566	-24.194	166.235	-11.5815	157.9875
2.709	-12.1745	72.4375	17.614	-66.757	-24.275	158.628	-11.0405	151.0545
2.809	-12.2945	65.4205	17.536	-75.651	-24.358	150.412	-10.7235	144.5685
2.909	-12.499	56.41	17.536	-85.033	-24.468	143.272	-10.153	137.427
3.009	-12.7555	47.6505	17.488	-94.418	-24.53	135.379	-9.8415	129.9695
3.109	-13.028	38.992	17.467	-103.767	-24.605	127.607	-9.72	122.735
3.209	-13.431	29.492	17.485	-113.021	-24.609	119.719	-9.584	115.376
3.309	-13.9015	18.7015	17.488	-122.692	-24.638	111.959	-9.4925	108.0045
3.409	-14.556	7.539	17.467	-132.122	-24.71	104.148	-9.477	101.071
3.509	-15.3245	-4.6165	17.437	-141.896	-24.752	96.001	-9.5105	94.0865
3.609	-16.363	-18.378	17.434	-151.809	-24.802	87.823	-9.661	87.309
3.709	-17.4335	-35.0175	17.422	-161.678	-24.789	79.378	-9.8795	80.8595
3.809	-18.174	-55.028	17.417	-171.788	-24.863	71.603	-10.053	74.264
3.909	-18.571	-77.04	17.394	178.045	-24.877	62.799	-10.246	67.369
4.009	-18.5855	-101.2075	17.373	167.754	-24.948	54.476	-10.4785	60.4875
4.109	-18.0485	-123.7385	17.316	157.319	-25.011	45.93	-10.7935	53.4325
4.209	-17.2905	-143.2605	17.26	146.871	-25.091	37.339	-11.1565	46.1845
4.309	-16.491	-160.623	17.166	136.29	-25.165	28.756	-11.488	39.002
4.409	-15.6645	-176.9255	17.082	125.706	-25.233	20.037	-11.8185	31.3965
4.509	-14.87	168.308	16.988	114.953	-25.365	11.134	-12.043	23.608
4.609	-14.132	153.565	16.863	104.096	-25.442	2.462	-12.27	15.626
4.709	-13.4735	141.1865	16.725	93.325	-25.589	-6.295	-12.5045	7.5995
4.809	-12.9675	129.3975	16.616	82.362	-25.694	-15.505	-12.5525	-1.3895
4.909	-12.5955	118.6055	16.465	71.418	-25.843	-24.202	-12.6275	-10.7215
5.009	-12.3585	107.8845	16.325	60.268	-26.013	-33.352	-12.6695	-20.8595
5.109	-12.259	96.828	16.189	48.976	-26.098	-42.584	-12.714	-31.658
5.209	-12.3365	86.2725	16.03	37.694	-26.27	-51.797	-12.7435	-42.3315
5.309	-12.658	75.29	15.873	26.143	-26.485	-61.246	-12.684	-53.599
5.409	-13.112	62.827	15.694	14.513	-26.657	-70.829	-12.573	-64.895
5.509	-13.7315	49.4995	15.512	2.641	-26.872	-80.974	-12.3785	-76.7785
5.609	-14.456	34.391	15.337	-9.496	-27.134	-91.275	-12.194	-88.867
5.709	-15.3685	17.4995	15.102	-21.842	-27.374	-101.658	-12.0495	-100.1735
5.809	-16.3565	-2.8325	14.876	-34.467	-27.686	-112.609	-11.8785	-111.5585
5.909	-17.3095	-28.8305	14.626	-47.381	-28.08	-123.295	-11.7425	-122.3425
6.009	-17.573	-60.114	14.315	-60.594	-28.456	-134.753	-11.614	-132.556
6.108	-16.6305	-93.8025	13.964	-74.188	-28.944	-146.447	-11.4945	-142.7895
6.208	-14.7275	-122.8985	13.542	-88.033	-29.552	-158.269	-11.4685	-152.3625
6.308	-12.498	-146.963	13.041	-102.23	-30.315	-170.776	-11.423	-161.476
6.408	-10.3635	-166.2525	12.425	-116.59	-31.144	176.76	-11.3955	-169.9565
6.508	-8.564	177.036	11.733	-131.025	-32.099	164.52	-11.268	-177.372
6.608	-7.0475	162.4265	10.925	-145.536	-33.111	152.598	-11.0425	175.3245
6.708	-5.8105	149.0745	10.034	-159.707	-34.273	140.01	-10.7175	168.9465
6.808	-4.859	136.786	9.004	-173.578	-35.494	127.117	-10.28	162.175
6.908	-4.084	125.222	7.908	172.692	-36.76	114.177	-9.781	154.845
7.008	-3.4885	114.5945	6.719	159.559	-38.049	101.487	-9.2815	147.6475
7.108	-2.989	104.647	5.502	147	-39.648	89.046	-8.745	140.002
7.208	-2.591	95.392	4.218	134.895	-41.209	76.366	-8.261	132.276
7.308	-2.259	86.922	2.92	123.433	-42.576	61.514	-7.802	124.532
7.408	-1.951	79.147	1.612	112.553	-44.021	47.542	-7.332	116.971
7.508	-1.7115	71.5605	0.298	102.155	-45.611	32.195	-6.8375	109.2985
7.608	-1.527	64.312	-1.045	92.071	-47.023	20.091	-6.391	101.283
7.708	-1.345	57.486	-2.34	82.398	-48.038	5.738	-5.968	93.221
7.808	-1.2215	50.8645	-3.653	72.971	-49.391	-5.334	-5.5985	85.4175
7.908	-1.124	44.56	-4.946	63.823	-50.226	-16.683	-5.278	77.927
8.008	-1.0415	38.2205	-6.261	54.816	-50.245	-27.724	-4.9545	70.8405
8.108	-0.981	32.063	-7.552	46.005	-49.538	-31.89	-4.676	63.859
8.208	-0.932	26.147	-8.841	37.516	-49.106	-42.85	-4.383	56.992
8.308	-0.9205	20.5085	-10.135	29.378	-48.775	-51.947	-4.1355	50.1195
8.408	-0.902	14.985	-11.413	21.283	-48.557	-61.248	-3.929	43.49
8.508	-0.852	9.637	-12.678	13.45	-48.131	-68.318	-3.719	37.044
8.608	-0.816	4.289	-13.928	5.67	-47.804	-75.158	-3.56	30.816
8.708	-0.767	-0.844	-15.115	-1.717	-47.494	-81.881	-3.384	24.857
8.808	-0.7645	-5.7435	-16.343	-9.02	-47.051	-87.114	-3.2145	18.9985
8.908	-0.7555	-10.0605	-17.543	-15.925	-46.906	-96.616	-3.0595	13.3645
9.008	-0.7835	-14.7855	-18.733	-23.242	-46.606	-102.204	-2.9165	7.5965
9.108	-0.793	-19.228	-19.883	-30.077	-46.298	-106.004	-2.787	1.996
9.208	-0.8085	-23.7315	-21.039	-36.864	-46.087	-114.797	-2.6825	-3.3125
9.308	-0.8205	-27.8655	-22.125	-43.587	-45.92	-115.778	-2.5795	-8.4585
9.408	-0.8075	-31.8715	-23.21	-50.058	-45.344	-124.16	-2.4895	-13.4295
9.508	-0.8225	-35.8545	-24.318	-56.691	-45.247	-127.66	-2.4095	-18.3485
9.608	-0.8175	-39.5765	-25.393	-62.894	-45.274	-133.452	-2.3185	-23.2615
9.708	-0.822	-43.502	-26.417	-69.546	-45.352	-137.794	-2.268	-28.445
9.808	-0.824	-47.092	-27.368	-76.156	-44.784	-143.063	-2.214	-33.502
9.908	-0.805	-50.808	-28.367	-83.654	-44.642	-147.296	-2.165	-38.499
10.007	-0.8085	-54.0645	-29.246	-89.827	-43.99	-152.136	-2.1485	-43.2035
10.107	-0.8145	-57.7525	-30.136	-97.041	-43.942	-159.158	-2.0995	-47.8245
10.207	-0.868	-61.505	-30.993	-104.526	-43.727	-164.385	-2.088	-52.514
10.307	-0.9015	-64.7075	-31.885	-111.202	-43.417	-165.772	-2.0805	-57.4495
10.407	-0.9395	-68.3835	-32.692	-119.702	-42.955	-174.062	-2.0915	-62.3845
10.507	-0.9585	-71.9295	-33.442	-128.329	-42.708	176.487	-2.1785	-67.2945
10.607	-1.0055	-75.3985	-34.493	-137.674	-42.481	167.522	-2.3435	-71.5855
10.707	-1.024	-78.704	-35.637	-146.003	-42.499	157.738	-2.476	-75.174
10.807	-1.048	-82.041	-37.037	-153.574	-42.877	147.388	-2.564	-78.03
10.907	-1.0765	-85.4535	-38.319	-157.181	-44.457	140.219	-2.5055	-81.0995
11.007	-1.0925	-88.6995	-38.979	-160.061	-45.498	137.026	-2.4145	-84.8865
11.107	-1.1155	-92.1055	-39.688	-164.634	-46.377	135.473	-2.3225	-89.2595
11.207	-1.145	-95.674	-39.907	-168.936	-46.226	138.876	-2.285	-93.685
11.307	-1.1615	-99.2965	-40.314	-174.987	-46.363	137.352	-2.2295	-98.0675
11.407	-1.208	-102.824	-40.339	178.843	-46.375	136.584	-2.217	-102.615
11.507	-1.2655	-106.4295	-40.466	170.466	-45.586	132.543	-2.2165	-107.1955
11.607	-1.294	-110.335	-40.99	161.998	-45.155	128.126	-2.222	-111.738
11.707	-1.3165	-113.9855	-41.104	153.974	-44.94	121.245	-2.3055	-116.4825
11.807	-1.3605	-117.6645	-42.021	145.165	-45.441	114.352	-2.3595	-120.7505
11.907	-1.4005	-121.5585	-42.299	138.266	-46.03	109.092	-2.4005	-124.5415
12.007	-1.434	-125.43	-42.725	135.189	-46.008	106.516	-2.404	-128.41
12.107	-1.455	-129.272	-43.074	129.762	-46.487	106.056	-2.43	-132.381
12.207	-1.434	-133.168	-43.321	125.349	-46.212	103.302	-2.435	-136.723
12.307	-1.43	-137.205	-43.303	118.85	-45.753	97.916	-2.461	-141.374
12.407	-1.4475	-141.3095	-43.57	113.877	-45.927	95.336	-2.4785	-145.8315
12.507	-1.4485	-145.5325	-43.556	105.879	-45.778	92.459	-2.5535	-150.1665
12.607	-1.471	-149.401	-43.314	99.119	-45.265	86.423	-2.567	-154.279
12.707	-1.4495	-153.5985	-43.29	91.469	-45.226	81.147	-2.5975	-158.1525
12.807	-1.441	-157.814	-43.157	85.057	-44.688	75.509	-2.629	-162.51
12.907	-1.4455	-161.8455	-43.01	76.696	-44.3	68.843	-2.6225	-166.5185
13.007	-1.4415	-166.0095	-42.614	65.728	-43.914	61.294	-2.6765	-171.1565
13.107	-1.403	-170.365	-42.72	56.765	-43.674	52.395	-2.732	-175.264
13.207	-1.371	-174.479	-42.906	47.495	-43.435	43.554	-2.793	-178.925
13.307	-1.331	-178.282	-42.957	35.878	-43.128	34.222	-2.801	177.781
13.407	-1.315	177.485	-43.136	25.3	-43.624	24.16	-2.82	174.501
13.507	-1.2615	173.3925	-43.656	12.536	-43.774	12.098	-2.8085	171.0265
13.607	-1.1785	169.5545	-44.21	3.252	-44.178	1.377	-2.7705	167.4295
13.707	-1.1275	165.7945	-44.767	-10.646	-44.822	-8.243	-2.7535	163.7185
13.807	-1.0845	162.0605	-45.506	-17.237	-45.285	-15.803	-2.7465	160.1605
13.907	-1.0395	158.3265	-46.011	-26.437	-45.842	-24.403	-2.7405	156.6465
14.007	-1.0025	154.5395	-46.741	-34.512	-46.409	-32.944	-2.7215	153.2525
14.106	-0.9505	150.9905	-46.953	-42.288	-47.025	-37.292	-2.6545	149.8925
14.206	-0.952	147.173	-47.335	-56.93	-47.344	-49.527	-2.583	146.045
14.306	-0.9315	143.8655	-48.106	-63.974	-47.716	-57.921	-2.5695	142.3925
14.406	-0.9005	140.8025	-49.168	-77.565	-48.046	-70.748	-2.5645	138.7175
14.506	-0.867	137.495	-49.319	-84.622	-49.361	-76.07	-2.56	135.565
14.606	-0.858	134.346	-49.631	-95.317	-49.744	-81.571	-2.551	132.743
14.706	-0.817	131.274	-50.449	-103.142	-50.177	-90.032	-2.517	129.742
14.806	-0.7695	128.3395	-50.641	-113.407	-50.726	-96.577	-2.4655	126.4315
14.906	-0.74	125.477	-51.108	-117.491	-51.256	-106.681	-2.439	122.77
15.006	-0.693	122.642	-51.357	-131.064	-51.448	-113.142	-2.443	119.302
15.106	-0.6545	120.3895	-52.045	-130.291	-51.594	-120.335	-2.4795	116.2605
15.206	-0.6555	117.8995	-51.999	-142.565	-52.211	-123.592	-2.5285	113.4825
15.306	-0.6745	115.3155	-52.041	-145.254	-52.334	-134.708	-2.5195	110.5825
15.406	-0.6535	112.8935	-51.902	-148.468	-52.93	-139.167	-2.4865	107.4105
15.506	-0.617	110.607	-51.282	-160.53	-52.911	-147.329	-2.486	103.817
15.606	-0.624	108.242	-51.419	-164.782	-52.521	-154.025	-2.526	100.172
15.706	-0.6065	106.0425	-51.42	-172.953	-52.194	-160.83	-2.5915	96.9655
15.806	-0.5925	103.8885	-51.082	-177.401	-52.04	-165.72	-2.6445	94.1385
15.906	-0.568	101.81	-49.973	174.042	-52.642	-171.102	-2.694	91.684
16.006	-0.596	99.34	-49.926	167.046	-51.737	-179.933	-2.753	88.807
16.106	-0.59	97.341	-49.048	163.094	-51.49	172.1	-2.875	85.518
16.206	-0.5505	95.6605	-48.233	156.182	-51.055	164.495	-3.1085	82.2515
16.306	-0.5285	93.8955	-48.098	146.686	-51.077	153.185	-3.4005	79.3895
16.406	-0.5295	91.9695	-47.205	135.613	-50.982	140.888	-3.7345	78.1415
16.506	-0.5255	90.2205	-47.356	124.549	-51.392	130.247	-3.9465	78.5095
16.606	-0.499	88.448	-47.83	114.824	-52.081	117.264	-3.843	79.232
16.706	-0.5255	86.8355	-48.884	103.294	-54.309	112.63	-3.5125	78.0805
16.806	-0.5085	84.8765	-49.92	98.236	-55.952	113.615	-3.2375	75.6605
16.906	-0.5	83.079	-50.829	100.57	-55.567	121.191	-3.064	72.435
17.006	-0.494	81.696	-51.042	99.097	-55.24	129.087	-2.966	69.506
17.106	-0.484	79.734	-50.681	104.354	-54.334	130.417	-2.871	66.603
17.206	-0.4685	77.8125	-49.977	106.756	-53.04	126.866	-2.7575	63.6905
17.306	-0.4115	76.2795	-49.645	105.477	-52.318	125.754	-2.7065	60.4535
17.406	-0.416	74.275	-48.556	105.65	-50.97	126.342	-2.686	56.935
17.506	-0.342	72.507	-47.573	105.752	-49.88	121.105	-2.735	53.728
17.606	-0.302	70.723	-46.771	98.897	-48.588	114.213	-2.84	50.94
17.706	-0.3295	68.8835	-45.512	95.994	-47.82	109.272	-2.9555	48.3045
17.806	-0.334	67.146	-44.098	89.365	-47.13	102.427	-3.034	45.763
17.906	-0.3255	65.3535	-43.377	83.991	-46.018	97.426	-3.0855	42.9355
18.005	-0.3185	63.4005	-42.225	78.305	-44.436	89.623	-3.2025	39.6015
18.105	-0.3575	61.4085	-41.239	69.941	-43.362	83.303	-3.3745	36.8005
18.205	-0.384	59.378	-40.021	64.725	-42.301	73.596	-3.561	34.305
18.305	-0.425	57.163	-38.97	54.743	-41.011	65.058	-3.773	32.78
18.405	-0.446	55.119	-37.616	46.109	-40.059	54.884	-3.931	31.133
18.505	-0.4345	53.3545	-36.254	36.592	-38.596	44.712	-4.0465	29.3905
18.605	-0.4465	50.8915	-35.033	23.794	-37.136	33.27	-4.1645	27.2395
18.705	-0.493	48.362	-33.563	12.318	-35.715	19.283	-4.331	25.37
18.805	-0.551	45.967	-31.918	-2.853	-34.172	3.699	-4.432	24.372
18.905	-0.589	43.927	-30.25	-20.313	-32.52	-14.703	-4.392	23.619
19.005	-0.7335	41.5355	-28.567	-41.082	-30.795	-36.614	-4.2975	22.5795
19.105	-0.9555	39.5115	-27.16	-68.133	-29.405	-63.629	-4.1785	20.4165
19.205	-1.0355	39.1315	-26.757	-100.735	-29.026	-96.576	-4.2445	17.7955
19.305	-0.9095	37.9085	-27.731	-132.205	-30.093	-128.124	-4.3645	16.0695
19.405	-0.7865	35.6535	-29.592	-157.21	-31.929	-153.402	-4.2905	15.0125
19.505	-0.7135	32.6925	-31.449	-176.051	-33.832	-173.316	-4.1025	13.6125
19.605	-0.691	29.857	-33.06	169.545	-35.478	171.357	-3.801	11.964
19.705	-0.696	26.665	-34.561	155.865	-36.98	157.588	-3.461	9.924
19.805	-0.7765	23.5235	-35.783	144.786	-38.383	145.768	-3.1545	6.8645
19.905	-0.7835	20.4765	-37.072	132.426	-39.731	135.136	-2.9075	2.9185
20.005	-0.832	17.549	-37.918	125.32	-40.606	124.719	-2.771	-1.039
20.105	-0.884	14.436	-38.714	115.498	-41.637	117.779	-2.71	-4.435
20.205	-0.95	11.014	-39.463	107.317	-42.37	109.018	-2.612	-7.57
20.305	-0.9805	8.1255	-40.148	100.818	-43.199	100.339	-2.4875	-10.6455
20.405	-1.034	5.132	-40.771	93.897	-43.678	92.694	-2.361	-14.334
20.505	-1.1	2.077	-41.292	85.046	-44.361	86.19	-2.211	-18.104
20.605	-1.16	-1.04	-41.531	80.292	-44.97	78.133	-2.154	-22.51
20.705	-1.2125	-3.9355	-41.799	73.853	-44.989	74.489	-2.1725	-26.3135
20.805	-1.262	-7.072	-42.207	68.552	-45.606	65.936	-2.193	-29.482
20.905	-1.301	-10.652	-42.806	59.928	-45.891	59.694	-2.18	-32.213
21.005	-1.371	-14.16	-43.689	57.9	-46.89	53.985	-2.122	-35.429
21.105	-1.4395	-17.1625	-43.593	51.695	-47.13	51.099	-2.0195	-39.2755
21.205	-1.54	-20.593	-43.632	48.851	-47.552	46.943	-1.946	-43.68
21.305	-1.5525	-23.9025	-43.739	46.422	-47.604	44.106	-1.9285	-47.8615
21.405	-1.581	-26.986	-43.982	40.908	-47.58	37.988	-1.944	-51.015
21.505	-1.5875	-30.1255	-44.047	39.197	-47.643	35.316	-1.9575	-53.6605
21.605	-1.65	-33.609	-44.102	33.999	-48.033	30.587	-1.979	-56.53
21.705	-1.695	-37.187	-44.786	30.96	-48.453	27.385	-1.954	-60.162
21.805	-1.74	-39.916	-44.925	26.445	-48.463	23.071	-1.974	-64.322
21.905	-1.8015	-43.1945	-45.061	21.312	-49.511	18.843	-1.9935	-68.5765
22.005	-1.8865	-46.4935	-44.993	21.098	-49.31	17	-2.0165	-72.2845
22.104	-1.9395	-50.0825	-45.415	15.596	-49.509	16.731	-2.0705	-75.2465
22.204	-1.9825	-52.8935	-45.189	16.807	-49.826	12.611	-2.0325	-77.6955
22.304	-2.005	-56.196	-45.526	12.688	-49.43	9.612	-2.009	-80.351
22.404	-2.074	-59.754	-45.69	9.816	-49.77	6.968	-2.009	-83.92
22.504	-2.0795	-63.0715	-46.169	8.391	-50.185	3.579	-2.1015	-87.5695
22.604	-2.107	-66.356	-46.06	4.574	-50.4	0.718	-2.208	-91.302
22.704	-2.1425	-69.6875	-45.966	3.372	-50.68	-1.743	-2.2785	-94.3355
22.804	-2.153	-72.879	-46.076	-0.803	-49.917	-4.514	-2.266	-96.874
22.904	-2.163	-75.862	-46.333	-1.76	-49.95	-1.971	-2.184	-99.321
23.004	-2.2195	-78.5785	-46.254	-1.285	-50.563	-7.546	-2.0575	-102.1185
23.104	-2.255	-81.587	-46.211	-5.133	-49.436	-8.404	-2.037	-105.29
23.204	-2.236	-84.603	-46.185	-7.558	-49.82	-8.584	-2.071	-108.206
23.304	-2.2175	-87.5695	-45.612	-9.864	-50.592	-13.383	-2.1465	-110.5215
23.404	-2.2285	-90.4215	-46.311	-11.728	-49.996	-13.441	-2.2295	-112.2995
23.504	-2.2805	-94.2825	-46.105	-14.316	-50.248	-18.268	-2.2255	-115.1255
23.604	-2.317	-97.049	-45.807	-18.963	-50.006	-23.314	-2.124	-117.565
23.704	-2.265	-99.634	-46.308	-21.27	-50.823	-22.768	-2.017	-120.636
23.804	-2.2995	-102.3595	-46.15	-21.713	-49.75	-27.469	-2.0025	-123.5275
23.904	-2.268	-105.54	-46.555	-24.482	-49.767	-27.799	-1.999	-125.511
24.004	-2.2055	-108.1275	-46.918	-30.188	-50.287	-30.117	-2.0125	-126.5185
24.104	-2.167	-110.997	-46.94	-28.274	-50.293	-30.157	-2.024	-127.499
24.204	-2.1875	-113.6165	-46.239	-27.715	-50.343	-28.677	-2.0115	-129.4785
24.304	-2.131	-116.709	-46.628	-32.771	-50.368	-28.892	-1.945	-132.162
24.404	-2.106	-119.321	-46.896	-30.681	-50.304	-35.221	-1.953	-135.097
24.504	-2.1315	-121.9575	-46.529	-35.432	-50.435	-36.419	-1.9705	-137.0365
24.604	-2.157	-124.929	-46.246	-35.54	-50.013	-37.673	-1.965	-138.225
24.704	-2.155	-127.783	-46.017	-32.798	-50.322	-37.742	-1.894	-138.747
24.804	-2.134	-130.33	-46.019	-35.6	-49.41	-39.577	-1.843	-139.729
24.904	-2.1495	-133.5025	-45.263	-37.671	-48.869	-42.01	-1.8375	-141.9325
25.004	-2.166	-136.897	-44.821	-44.373	-48.859	-45.432	-1.896	-144.235
25.104	-2.187	-139.565	-45.269	-40.183	-49.411	-45.883	-1.989	-146.293
25.204	-2.171	-141.943	-44.927	-45.709	-48.725	-45.29	-2.05	-147.291
25.304	-2.1865	-145.3085	-45.349	-48.988	-48.885	-51.849	-2.0505	-147.8385
25.404	-2.2255	-148.8095	-45.187	-47.52	-48.692	-51.88	-1.9975	-148.8075
25.504	-2.208	-151.505	-44.903	-50.86	-48.483	-52.48	-1.979	-150.612
25.604	-2.2595	-154.0845	-45.147	-49.946	-48.716	-54.256	-2.1255	-152.9145
25.704	-2.2545	-157.5995	-44.331	-52.25	-48.632	-53.668	-2.2705	-154.7085
25.804	-2.2395	-161.1725	-44.781	-50.252	-48.785	-56.49	-2.4265	-155.9645
25.904	-2.2625	-164.5875	-44.622	-52.328	-48.051	-56.697	-2.4975	-156.7355
26.003	-2.3335	-168.2705	-43.718	-52.6	-47.361	-52.148	-2.4535	-158.0055
26.103	-2.421	-172.037	-43.16	-53.123	-47.296	-56.964	-2.391	-159.782
26.203	-2.427	-176.125	-42.595	-54.716	-46.534	-58.538	-2.44	-162.086
26.303	-2.482	-180.263	-41.926	-58.38	-46.062	-61.329	-2.543	-163.957
26.403	-2.567	175.431	-41.03	-59.383	-45.176	-62.696	-2.721	-165.027
26.503	-2.6545	170.4265	-40.314	-62.501	-43.7	-60.452	-2.8695	-165.8615
26.603	-2.7045	165.8675	-39.191	-65.91	-43.45	-71.339	-2.9975	-166.9255
26.703	-2.721	160.79	-39.237	-72.308	-43.014	-75.492	-2.985	-168.958
26.803	-2.855	155.002	-38.375	-80.27	-42.73	-82.001	-3.102	-171.816
26.903	-3.0095	148.7615	-37.973	-83.704	-42.481	-85.798	-3.1935	-173.8835
27.003	-3.1585	142.5215	-37.531	-85.87	-41.771	-88.064	-3.3305	-175.3165
27.103	-3.4305	135.6135	-36.778	-89.695	-40.914	-92.475	-3.4905	-175.5715
27.203	-3.711	127.751	-35.577	-93.882	-39.992	-98.515	-3.573	-176.839
27.303	-4.089	119.695	-34.99	-100.911	-39.327	-102.008	-3.575	-178.06
27.403	-4.62	111.688	-34.232	-110.054	-38.361	-113.41	-3.627	178.843
27.503	-5.093	103.391	-33.804	-119.648	-37.908	-123.323	-3.661	176.05
27.603	-5.5265	95.2295	-33.663	-130.676	-37.973	-132.788	-3.8025	173.8135
27.703	-5.8715	86.2925	-33.457	-139.519	-37.758	-142.977	-3.8505	172.8125
27.803	-6.2655	76.6745	-33.271	-146.314	-37.239	-146.259	-3.9185	171.5165
27.903	-6.6565	64.9825	-33.293	-151.636	-37.455	-154.027	-3.8465	169.6355
28.003	-6.949	53.27	-33.496	-160.227	-37.178	-162.855	-3.902	166.734
28.103	-7.2645	41.0025	-32.811	-168.748	-37.194	-172.231	-4.1015	162.4275
28.203	-7.6245	27.1545	-32.936	-177.643	-36.888	-179.37	-4.3725	159.0865
28.303	-7.811	12.778	-32.914	171.431	-37.188	172.451	-4.582	156.422
28.403	-7.9785	-1.6135	-32.988	163.702	-36.939	161.315	-4.6975	154.0645
28.503	-8.101	-16.742	-33.193	155.149	-36.881	154.172	-4.593	151.602
28.603	-8.125	-30.811	-33.375	149.02	-36.951	147.853	-4.566	147.964
28.703	-8.05	-43.757	-33.458	139.91	-36.89	138.609	-4.678	144.01
28.803	-8.1275	-54.9985	-32.754	131.407	-36.802	130.893	-4.9215	139.5015
28.903	-8.0505	-67.0055	-32.948	121.736	-36.687	120.611	-5.2895	135.6835
29.003	-8.0275	-76.7705	-33.113	117.198	-36.743	111.875	-5.5165	132.8795
29.103	-8.09	-85.909	-32.777	104.342	-36.538	104.569	-5.624	128.914
29.203	-8.238	-96.209	-32.453	95.889	-36.453	94.549	-5.6	124.426
29.303	-8.2965	-106.0485	-32.181	85.892	-35.923	84.926	-5.5765	118.9475
29.403	-8.6355	-115.0595	-32.011	73.997	-35.669	74.574	-5.7165	112.8055
29.503	-9.1655	-123.4235	-31.97	64.976	-35.426	64.02	-6.1035	108.6095
29.603	-9.8965	-132.7225	-31.488	55.127	-35.369	54.243	-6.3795	104.3615
29.703	-10.513	-140.843	-31.593	44.975	-35.065	45.091	-6.558	100.586
29.803	-11.4735	-147.3825	-30.997	34.278	-34.689	34.767	-6.6615	95.5435
29.903	-12.6935	-154.8565	-30.794	23.971	-34.466	25.006	-6.7195	89.5485
30.002	-14.113	-162.262	-30.311	12.942	-34.175	14.016	-6.85	82.305
30.102	-15.3875	-166.9015	-30.196	2.944	-33.662	3.777	-7.0615	76.1935
30.202	-17.6285	-164.1595	-29.83	-7.613	-33.233	-6.615	-7.2215	69.1635
30.302	-19.146	-163.3	-29.343	-15.059	-32.667	-13.52	-7.305	63.828
30.402	-19.861	-169.261	-28.332	-21.774	-31.836	-20.427	-7.325	58.476
30.502	-20.475	-174.899	-26.993	-28.193	-30.964	-27.965	-7.234	52.535
30.602	-22.7495	158.2735	-25.81	-38.52	-29.585	-36.691	-7.2915	44.4855
30.702	-22.7705	120.5325	-24.267	-49.448	-28.264	-48.111	-7.3575	36.2765
30.802	-21.333	85.251	-22.911	-60.987	-26.903	-60.854	-7.637	27.935
30.902	-19.4025	54.7325	-21.543	-75.227	-25.593	-75.05	-7.9775	20.5535
31.002	-16.987	33.093	-20.398	-89.103	-24.535	-89.537	-8.212	15.008
31.102	-15.556	19.694	-19.306	-104.462	-23.468	-104.15	-8.295	8.839
31.202	-14.972	9.796	-18.403	-120.099	-22.631	-120.01	-8.397	1.989
31.302	-14.1815	0.5355	-17.704	-135.577	-21.958	-135.508	-8.5995	-5.0775
31.402	-13.577	-5.67	-17.092	-150.645	-21.517	-150.567	-9.02	-12.093
31.502	-13.2715	-9.3995	-16.65	-165.986	-21.041	-165.838	-9.5805	-16.9925
31.602	-13.218	-14.415	-16.191	179.078	-20.737	-181.025	-10.312	-19.604
31.702	-12.983	-15.988	-15.958	164.197	-20.548	164.12	-10.492	-20.112
31.802	-12.7485	-14.4945	-15.774	150.487	-20.436	150.479	-10.3155	-20.6025
31.902	-12.512	-12.178	-15.682	137.687	-20.405	137.082	-9.853	-23.998
32.002	-12.0315	-11.7795	-15.511	124.6	-20.289	124.337	-9.6095	-29.1575
32.102	-11.45	-10.969	-15.253	111.499	-20.065	111.136	-9.444	-34.909
32.202	-10.79	-9.913	-15.053	98.512	-19.915	98.222	-9.38	-39.475
32.302	-10.3935	-10.6735	-15.007	84.848	-19.909	84.204	-9.2955	-43.9875
32.402	-9.979	-11.48	-14.999	71.743	-19.907	71.173	-8.997	-48.91
32.502	-9.4495	-12.2955	-15.014	58.05	-20.038	57.671	-8.8375	-56.1745
32.602	-9.0515	-11.6935	-15.09	44.63	-20.11	44.032	-8.8225	-64.3435
32.702	-8.667	-13.703	-15.274	29.515	-20.362	29.648	-9.241	-74.031
32.802	-8.4065	-16.6625	-15.585	15.464	-20.711	14.748	-9.8765	-83.7865
32.902	-8.082	-19.248	-15.913	1.057	-21.161	1.011	-11.08	-91.413
33.002	-8.216	-19.918	-16.652	-12.925	-21.875	-13.158	-12.49	-98.505
33.102	-8.155	-21.564	-17.23	-26.91	-22.661	-27.009	-14.343	-103.317
33.202	-8.082	-22.771	-18.229	-40.576	-23.578	-40.474	-16.275	-107.318
33.302	-7.966	-23.008	-19.188	-53.319	-24.809	-53.315	-19.244	-106.911
33.402	-7.946	-23.32	-20.426	-65.279	-25.924	-64.509	-23.272	-99.23
33.502	-8.036	-24.324	-21.78	-75.753	-27.626	-75.888	-25.66	-55.212
33.602	-7.958	-25.053	-23.379	-83.745	-29.163	-83.568	-21.461	-28.604
33.702	-7.799	-24.047	-24.763	-90.69	-30.977	-88.445	-18.159	-27.297
33.802	-7.6705	-24.9715	-25.958	-93.459	-32.078	-92.847	-16.2825	-32.7385
33.902	-7.739	-27.467	-27.144	-97.304	-33.451	-95.067	-15.217	-36.932
34.002	-7.702	-29.228	-28.29	-98.893	-34.166	-96.609	-14.413	-40.641
34.101	-7.79	-30.378	-28.988	-101.455	-34.954	-95.194	-13.753	-42.838
34.201	-8.204	-30.807	-29.448	-103.871	-35.308	-95.712	-13.061	-47.166
34.301	-8.573	-31.178	-29.627	-101.631	-35.038	-97.002	-12.425	-53.184
34.401	-8.8565	-29.2285	-29.506	-103.791	-34.991	-97.93	-12.4575	-59.5225
34.501	-8.698	-25.683	-29.251	-107.854	-34.691	-99.237	-12.641	-65.352
34.601	-8.7375	-24.1875	-28.915	-112.621	-34.147	-108.479	-13.5315	-68.3565
34.701	-8.516	-23.477	-28.064	-123.257	-33.471	-117.571	-14.182	-64.655
34.801	-8.2215	-22.3295	-28.438	-136.223	-33.817	-131.339	-14.1695	-58.9525
34.901	-7.886	-19.956	-29.242	-147.273	-34.736	-143.668	-13.174	-56.06
35.001	-7.457	-19.834	-30.76	-156.282	-36.865	-147.022	-12.44	-58.427
35.101	-6.8855	-20.6835	-32.544	-158.541	-37.757	-149.126	-11.7695	-63.0495
35.201	-6.3825	-22.8575	-33.877	-153.834	-39.047	-145.221	-11.6565	-66.6335
35.301	-6.111	-24.648	-33.797	-150.843	-38.896	-141.52	-11.561	-68.923
35.401	-6.051	-27.263	-33.63	-142.95	-38.897	-131.722	-11.099	-70.327
35.501	-5.91	-30.443	-32.544	-139.044	-37.344	-128.562	-10.685	-74.33
35.601	-5.9075	-31.7815	-30.935	-135.205	-35.451	-129.607	-10.2785	-79.3545
35.701	-5.803	-33.073	-29.255	-139.453	-34.029	-135.513	-10.289	-86.271
35.801	-5.7315	-35.4185	-27.455	-147.415	-32.254	-142.893	-10.5405	-92.6625
35.901	-5.6705	-37.2095	-25.75	-157.203	-30.865	-154.433	-11.4425	-97.3225
36.001	-5.6455	-39.2525	-24.666	-167.863	-29.613	-166.734	-12.1885	-98.9385
36.101	-5.78	-41.859	-23.573	177.267	-28.861	-180.945	-12.646	-98.342
36.201	-5.759	-44.078	-22.752	163.071	-28.361	164.756	-12.866	-100.103
36.301	-5.6985	-45.3575	-22.449	148.637	-28.292	149.794	-13.1345	-102.3065
36.401	-5.677	-47.377	-22.277	133.815	-28.118	135.061	-13.645	-104.793
36.501	-5.645	-49.906	-22.374	119.33	-28.282	121.105	-14.387	-105.885
36.601	-5.693	-53.8	-22.505	105.342	-28.529	107.347	-15.086	-104.938
36.701	-5.725	-57.076	-22.789	93.593	-29.061	94.522	-15.504	-102.651
36.801	-5.944	-58.413	-22.864	79.708	-29.468	80.345	-15.721	-100.347
36.901	-6.126	-61.616	-23.767	64.799	-30.296	67.788	-15.932	-98.513
37.001	-6.1955	-65.7155	-24.685	52.61	-31.61	53.337	-15.8045	-96.8615
37.101	-6.409	-68.938	-26.188	42.17	-33.176	44.038	-15.899	-93.422
37.201	-6.6695	-72.7975	-27.416	34.025	-34.783	37.821	-15.4025	-88.4535
37.301	-7.027	-77.734	-28.766	29.231	-36.496	31.238	-14.341	-87.912
37.401	-7.256	-82.374	-30.278	26.492	-38.351	30.917	-13.237	-92.639
37.501	-7.5645	-86.8555	-30.854	27.189	-38.779	35.448	-12.7255	-100.1085
37.601	-8.05	-91.233	-30.936	33.01	-38.555	41.077	-12.957	-107.362
37.701	-8.312	-98.208	-29.445	31.868	-37.412	39.479	-13.385	-112.191
37.801	-8.613	-103.899	-28.497	24.277	-36.655	32.745	-14.056	-115.557
37.901	-8.9025	-110.6545	-27.762	13.278	-36.821	17.713	-14.3465	-116.5155
38.001	-9.594	-118.964	-27.233	0.111	-36.548	7.779	-14.269	-119.122
38.1	-9.8985	-127.3535	-27.543	-10.416	-36.759	-3.718	-13.8665	-120.5865
38.2	-10.421	-135.491	-27.277	-23.52	-37.011	-18.244	-13.55	-127.518
38.3	-10.989	-142.915	-27.667	-40.883	-38.161	-33.961	-13.327	-132.83
38.4	-10.822	-156.284	-28.683	-59.196	-39.291	-50.682	-12.889	-138.572
38.5	-10.805	-167.592	-29.744	-76.55	-42.286	-63.21	-12.921	-145.18
38.6	-10.8835	-179.7275	-32.174	-93.211	-45.272	-68.607	-12.9275	-153.7635
38.7	-11.1785	166.2715	-34.026	-107.651	-51.468	-93.565	-13.1365	-162.2175
38.8	-10.58	154.978	-36.297	-116.057	-55.978	-88.389	-13.588	-170.644
38.9	-10.5275	145.0685	-39.627	-131.013	-61.357	-90.885	-14.1545	-178.1415
39	-10.278	134.613	-39.411	-127.611	-64.67	-18.386	-14.767	174.377
39.1	-9.8325	123.5125	-39.343	-146.228	-67.607	18.101	-15.6295	168.3335
39.2	-9.424	114.977	-37.883	-158.457	-62.907	-180.093	-15.952	164.423
39.3	-9.2815	106.2515	-37.356	-166.12	-55.332	159.515	-16.2115	159.0185
39.4	-9.0065	97.8795	-36.546	173.052	-52.675	151.815	-16.6085	151.8605
39.5	-8.8395	91.2655	-34.511	169.028	-46.147	133.973	-16.8595	147.4215
39.6	-8.601	85.395	-31.848	147.459	-42.533	118.411	-17.888	140.987
39.7	-8.6795	79.3745	-30.593	124.484	-40.304	99.429	-18.8555	143.5815
39.8	-8.21	73.505	-29.246	106.844	-38.803	86.119	-18.985	147.525
39.9	-8.1345	67.7425	-28.596	93.316	-38.35	74.049	-18.4085	152.1335
40	-8.1835	63.2785	-28.645	82.415	-38.006	60.749	-17.2755	151.5085
