!Keysight Technologies,N5242A,MY47200155,A.10.49.08
!Date: Thursday, October 19, 2023 15:29:46
!Correction: S11(Full 2 Port(1,2)) 
!S21(Full 2 Port(1,2)) 
!S12(Full 2 Port(1,2)) 
!S22(Full 2 Port(1,2)) 
!S2P File: Measurements: S11, S21, S12, S22:
# Hz S  dB   R 50
10000000 -34.748833 155.80229 22.275686 173.22182 -24.795202 -4.1667914 -22.598806 157.50487
20000000 -45.619362 105.06654 22.252024 175.59718 -24.509298 -4.8863001 -24.507189 168.65988
30000000 -50.588413 80.602165 22.216351 175.90297 -24.558542 -3.2165687 -24.726631 171.7756
40000000 -48.078651 -14.95597 22.183468 175.74648 -24.45188 -1.2970953 -25.135708 176.15816
50000000 -46.803139 -33.080227 22.165697 175.52206 -24.460165 -2.0134623 -25.18351 -179.76187
60000000 -45.389793 -47.61396 22.168814 175.12263 -24.388735 -1.9664924 -25.305862 -177.63893
70000000 -43.698231 -59.406563 22.176418 174.60359 -24.402859 -1.8200288 -25.251837 -174.32481
80000000 -42.430321 -63.19886 22.183006 174.04671 -24.483711 -1.8538773 -25.110117 -172.39439
90000000 -41.577312 -62.283695 22.183683 173.51331 -24.413996 -1.9578594 -25.028343 -169.91286
100000000 -40.413067 -65.813576 22.187563 172.93958 -24.439594 -2.2209659 -24.882278 -168.88948
150000000 -37.046524 -73.174423 22.175009 169.90855 -24.405573 -2.5898125 -24.574917 -161.76343
200000000 -34.85371 -74.395607 22.166033 166.87367 -24.394632 -3.1358249 -24.114681 -158.1891
250000000 -33.559307 -81.507507 22.144941 163.72845 -24.374464 -4.1155443 -23.308897 -154.86061
300000000 -31.731461 -88.428734 22.103872 160.63864 -24.371103 -4.7242179 -22.592989 -153.88467
350000000 -30.557676 -98.450165 22.090733 157.46458 -24.357834 -5.4209795 -22.011024 -153.47032
400000000 -28.948513 -97.61116 22.037951 154.39923 -24.328825 -6.2888556 -21.37483 -152.75528
450000000 -28.607456 -103.60093 22.019808 151.23453 -24.334133 -7.0246701 -20.815777 -152.14804
500000000 -27.518753 -106.6342 21.980288 148.21944 -24.313398 -7.6956973 -20.187901 -151.43803
550000000 -26.871767 -105.5119 21.909513 145.08049 -24.322939 -8.631732 -19.71664 -152.27885
600000000 -26.360125 -112.28698 21.902565 141.96257 -24.274265 -9.4454346 -19.191628 -152.15266
650000000 -25.647135 -114.37537 21.844122 138.95018 -24.268099 -10.111403 -18.737144 -153.43303
700000000 -25.01713 -116.17268 21.772961 135.88478 -24.252396 -10.90694 -18.281351 -154.68526
750000000 -24.390587 -118.45178 21.712666 132.87254 -24.239071 -11.676375 -17.916031 -155.5592
800000000 -24.084187 -121.34586 21.656628 129.81462 -24.216883 -12.512836 -17.562172 -157.34412
850000000 -23.469007 -122.25367 21.579599 126.83648 -24.184277 -13.444952 -17.186739 -158.51813
900000000 -23.254097 -126.78421 21.541927 123.80961 -24.15431 -14.314219 -16.860844 -159.8399
950000000 -22.737976 -127.77925 21.459217 120.92929 -24.140179 -15.051434 -16.539396 -161.10379
1000000000 -22.459457 -127.90752 21.363651 117.96858 -24.117537 -15.76551 -16.27957 -162.80081
1050000000 -22.180933 -130.92351 21.300186 115.00455 -24.059937 -16.742634 -15.973866 -164.51602
1100000000 -21.93 -132.71915 21.222408 112.09805 -24.04248 -17.500097 -15.745997 -165.95729
1150000000 -21.493059 -134.71964 21.143602 109.24969 -23.996738 -18.296593 -15.568719 -167.8353
1200000000 -21.268179 -133.65337 21.022633 106.40297 -23.981457 -19.13674 -15.290828 -169.40115
1250000000 -21.026384 -137.57376 20.968182 103.53101 -23.924419 -20.035658 -15.105689 -171.1436
1300000000 -20.790266 -138.56987 20.870543 100.72707 -23.899694 -20.962069 -14.906823 -172.86855
1350000000 -20.449575 -139.56244 20.776989 97.988556 -23.849649 -21.866268 -14.747363 -174.46013
1400000000 -20.203627 -140.99161 20.681171 95.189384 -23.840311 -22.604315 -14.589681 -176.20348
1450000000 -19.843575 -141.47217 20.572275 92.456306 -23.778784 -23.5294 -14.500358 -177.82169
1500000000 -19.674498 -144.34302 20.505577 89.705307 -23.760153 -24.293833 -14.362866 -179.67189
1550000000 -19.318026 -144.62492 20.388573 87.045151 -23.717857 -25.373253 -14.270074 178.65079
1600000000 -19.039076 -146.41885 20.298386 84.383606 -23.658211 -26.180939 -14.144682 176.81905
1650000000 -18.809065 -147.43701 20.189171 81.700966 -23.618731 -27.069378 -14.053658 174.95299
1700000000 -18.58287 -150.06079 20.116146 79.038086 -23.587614 -27.924437 -13.984098 173.09625
1750000000 -18.284369 -151.1158 19.999529 76.460732 -23.549049 -28.926893 -13.889635 171.10689
1800000000 -17.978716 -152.26155 19.887943 73.887802 -23.490711 -30.06595 -13.840293 169.26845
1850000000 -17.785711 -153.88243 19.79215 71.276024 -23.464659 -30.83742 -13.763361 167.104
1900000000 -17.628468 -156.07227 19.701811 68.68325 -23.404886 -31.849552 -13.70641 165.22762
1950000000 -17.342382 -157.60306 19.599627 66.20401 -23.381689 -32.758614 -13.649543 163.2312
2000000000 -17.228777 -159.58926 19.504011 63.64024 -23.311861 -33.724396 -13.630701 161.23579
2050000000 -16.956823 -161.30774 19.400969 61.170998 -23.254768 -34.758667 -13.570065 159.09766
2100000000 -16.858292 -163.33617 19.316225 58.592342 -23.210545 -35.811272 -13.524763 157.27309
2150000000 -16.700583 -165.44414 19.225719 56.106266 -23.159718 -36.655731 -13.516248 155.24303
2200000000 -16.417583 -166.8773 19.111042 53.677925 -23.119423 -37.777084 -13.466807 152.99734
2250000000 -16.358017 -168.81465 19.021223 51.129044 -23.066589 -38.708927 -13.439521 151.0826
2300000000 -16.178524 -171.15164 18.928984 48.710419 -23.006395 -39.825283 -13.416001 148.92447
2350000000 -16.081244 -173.07224 18.832956 46.228493 -22.975065 -40.854031 -13.383183 146.75276
2400000000 -15.909649 -175.01782 18.737572 43.844185 -22.924721 -41.839203 -13.392359 144.51991
2450000000 -15.776074 -177.231 18.638115 41.392921 -22.865385 -42.892914 -13.320182 142.27675
2500000000 -15.718457 -179.68481 18.562 38.913406 -22.816553 -43.990597 -13.335035 140.09772
2550000000 -15.553968 178.26036 18.458996 36.513321 -22.770489 -45.05547 -13.287513 137.58762
2600000000 -15.477394 175.9209 18.369471 34.074738 -22.729403 -46.183319 -13.227899 135.49811
2650000000 -15.352109 173.43471 18.276548 31.671335 -22.651976 -47.181549 -13.224136 133.11005
2700000000 -15.20061 171.45071 18.177586 29.298216 -22.624794 -48.365955 -13.146592 130.62648
2750000000 -15.22415 168.92464 18.09358 26.857046 -22.574627 -49.439163 -13.130671 128.42804
2800000000 -15.064532 166.8364 17.99297 24.539572 -22.532124 -50.627224 -13.073312 125.98333
2850000000 -15.03918 164.60646 17.904392 22.108179 -22.472231 -51.743027 -13.044197 123.78815
2900000000 -14.936186 161.99901 17.814316 19.791231 -22.419304 -52.871601 -12.984276 121.24739
2950000000 -14.868117 159.868 17.717003 17.473595 -22.372803 -53.944363 -12.909475 119.15062
3000000000 -14.848541 157.14038 17.630758 15.064146 -22.31995 -55.127792 -12.868263 116.80162
3050000000 -14.738929 154.72241 17.538351 12.754049 -22.265413 -56.310749 -12.754705 114.47446
3100000000 -14.70079 152.38618 17.444391 10.42347 -22.21876 -57.544243 -12.711997 112.30657
3150000000 -14.61948 149.74127 17.353571 8.1232529 -22.169018 -58.671982 -12.62363 109.92439
3200000000 -14.586684 147.44194 17.257965 5.7901301 -22.125904 -59.915623 -12.547647 107.83348
3250000000 -14.520219 144.77214 17.173491 3.4990149 -22.078602 -60.977982 -12.474984 105.57973
3300000000 -14.42299 142.39845 17.078175 1.2268913 -22.033152 -62.219635 -12.39357 103.40778
3350000000 -14.380616 139.88219 16.985506 -1.0811808 -21.99159 -63.400131 -12.330774 101.29259
3400000000 -14.295646 137.4509 16.897045 -3.3475616 -21.956369 -64.652382 -12.24964 99.125237
3450000000 -14.231203 135.13205 16.803551 -5.601356 -21.882975 -65.774605 -12.162227 97.079117
3500000000 -14.165142 132.38156 16.715063 -7.8565865 -21.853632 -67.060417 -12.095197 94.992325
3550000000 -14.074225 130.03566 16.626223 -10.106222 -21.809378 -68.310692 -11.996994 92.927193
3600000000 -14.014345 127.56269 16.533546 -12.34493 -21.761219 -69.473404 -11.918326 90.905922
3650000000 -13.915006 124.96787 16.447855 -14.588379 -21.719616 -70.765862 -11.829393 88.881554
3700000000 -13.848536 122.41946 16.358318 -16.808197 -21.674755 -71.989799 -11.753687 86.869141
3750000000 -13.754011 119.85499 16.270401 -19.04262 -21.614851 -73.271721 -11.664348 84.894173
3800000000 -13.63921 117.44444 16.180214 -21.230061 -21.577667 -74.46656 -11.59112 82.991142
3850000000 -13.560166 114.88319 16.094328 -23.477621 -21.52359 -75.736099 -11.514277 81.015289
3900000000 -13.443895 112.22157 16.006485 -25.696484 -21.489649 -77.028221 -11.441152 79.134094
3950000000 -13.316857 109.76463 15.92038 -27.906933 -21.451122 -78.358154 -11.352232 77.110962
4000000000 -13.219878 107.21844 15.834339 -30.075096 -21.411175 -79.610069 -11.289328 75.270882
4050000000 -13.094954 104.61979 15.743872 -32.262936 -21.371058 -80.873993 -11.200073 73.157654
4100000000 -12.976407 101.93227 15.661648 -34.444393 -21.326765 -82.245338 -11.100683 71.330742
4150000000 -12.825801 99.363998 15.57639 -36.635689 -21.271069 -83.497765 -11.038917 69.37149
4200000000 -12.705947 96.969566 15.488 -38.769306 -21.25209 -84.676842 -10.952569 67.409599
4250000000 -12.579832 94.303398 15.405234 -40.93132 -21.218416 -86.067177 -10.889514 65.660049
4300000000 -12.428518 91.88427 15.319676 -43.142193 -21.185501 -87.281517 -10.806533 63.580898
4350000000 -12.313409 89.513786 15.235759 -45.327328 -21.123945 -88.617371 -10.735456 61.891956
4400000000 -12.183488 86.952919 15.149868 -47.464497 -21.087467 -90.020996 -10.682801 59.823837
4450000000 -12.066186 84.677383 15.066118 -49.665562 -21.067389 -91.370377 -10.60469 58.009106
4500000000 -11.930506 82.012459 14.98011 -51.840008 -21.034803 -92.661369 -10.564138 56.002987
4550000000 -11.80182 79.792412 14.897009 -54.004902 -20.976757 -94.083412 -10.492697 54.155838
4600000000 -11.653417 77.193016 14.814991 -56.201912 -20.956528 -95.363258 -10.438489 52.132374
4650000000 -11.503217 74.909058 14.72465 -58.334927 -20.92407 -96.771065 -10.367961 50.098179
4700000000 -11.385267 72.431953 14.638001 -60.476223 -20.884981 -98.150742 -10.324941 48.190739
4750000000 -11.217366 70.068695 14.553374 -62.644455 -20.858873 -99.472717 -10.259748 46.082523
4800000000 -11.081603 67.889084 14.470737 -64.76281 -20.818676 -100.85103 -10.203912 44.266006
4850000000 -10.933493 65.399124 14.388368 -66.909828 -20.8062 -102.21991 -10.169374 42.154419
4900000000 -10.801205 63.303978 14.301401 -69.038017 -20.77272 -103.62337 -10.098262 40.16629
4950000000 -10.658682 60.771416 14.221125 -71.175278 -20.744968 -104.98067 -10.064748 38.210987
5000000000 -10.520928 58.751465 14.131785 -73.300484 -20.723406 -106.21938 -9.9916029 36.118958
5050000000 -10.40358 56.323608 14.056086 -75.421608 -20.703972 -107.61848 -9.9679708 34.227367
5100000000 -10.248979 54.04084 13.966429 -77.544785 -20.662603 -109.11941 -9.8917065 32.107262
5150000000 -10.12758 51.787727 13.887506 -79.697395 -20.620119 -110.37773 -9.8262663 30.318882
5200000000 -9.985508 49.537689 13.803905 -81.794014 -20.625515 -111.82821 -9.782917 28.186014
5250000000 -9.853694 47.273006 13.71889 -83.937973 -20.583632 -113.17928 -9.6970596 26.179459
5300000000 -9.715971 45.029362 13.639317 -86.082443 -20.574877 -114.59443 -9.6344204 24.264664
5350000000 -9.5918283 42.812824 13.551441 -88.197067 -20.552206 -115.99364 -9.5733366 22.223257
5400000000 -9.4621572 40.568863 13.465436 -90.321968 -20.535803 -117.38741 -9.4997797 20.357222
5450000000 -9.3236866 38.453888 13.378495 -92.425934 -20.526867 -118.7805 -9.4377069 18.297489
5500000000 -9.2227821 36.210308 13.296582 -94.545921 -20.49865 -120.17782 -9.3519192 16.526861
5550000000 -9.075881 34.146473 13.20883 -96.648399 -20.496538 -121.5618 -9.2994194 14.525489
5600000000 -8.9615898 31.920326 13.124982 -98.750572 -20.4687 -122.90173 -9.2143812 12.636466
5650000000 -8.8388987 29.753622 13.036416 -100.85003 -20.451979 -124.29533 -9.1542406 10.743405
5700000000 -8.7314787 27.641708 12.954284 -102.93876 -20.447365 -125.7297 -9.078001 8.9051523
5750000000 -8.6252041 25.479404 12.864359 -105.02281 -20.435844 -127.13609 -9.0075254 7.0868163
5800000000 -8.4960117 23.325397 12.779764 -107.12869 -20.420506 -128.47098 -8.938345 5.197937
5850000000 -8.4082756 21.216225 12.690625 -109.18343 -20.40752 -129.87265 -8.8547335 3.5563731
5900000000 -8.2891684 19.174719 12.601226 -111.25375 -20.407455 -131.33427 -8.7983475 1.6406993
5950000000 -8.1942492 17.128901 12.518285 -113.34146 -20.397804 -132.70235 -8.6979847 -0.035515126
6000000000 -8.0813284 14.921955 12.429759 -115.39733 -20.403288 -134.03613 -8.6390076 -1.722626
6050000000 -7.9794931 12.924369 12.334954 -117.46555 -20.392027 -135.4758 -8.5468922 -3.4529865
6100000000 -7.8842263 10.758406 12.247812 -119.52988 -20.368464 -136.89229 -8.4772682 -5.0539246
6150000000 -7.7714896 8.7117786 12.158521 -121.57932 -20.373716 -138.23093 -8.4098806 -6.7838016
6200000000 -7.6947803 6.6752157 12.072953 -123.57901 -20.380438 -139.66489 -8.3247585 -8.2646675
6250000000 -7.576067 4.5954442 11.976375 -125.66577 -20.377058 -141.02898 -8.2637749 -9.8938856
6300000000 -7.4973292 2.6035163 11.889347 -127.68416 -20.36602 -142.32976 -8.1871376 -11.561891
6350000000 -7.3981409 0.53839993 11.800052 -129.71237 -20.354471 -143.70546 -8.1212368 -12.967411
6400000000 -7.3013363 -1.3475717 11.712166 -131.73985 -20.359842 -145.02832 -8.058259 -14.58357
6450000000 -7.2133918 -3.4518454 11.61943 -133.76085 -20.369053 -146.51926 -7.9855843 -15.999764
6500000000 -7.1191373 -5.3988752 11.528634 -135.79858 -20.349012 -147.74739 -7.9367886 -17.580477
6550000000 -7.0321355 -7.3661995 11.436756 -137.80565 -20.373629 -149.18651 -7.8749905 -18.986708
6600000000 -6.9431944 -9.3275232 11.346813 -139.8078 -20.379745 -150.49051 -7.8176079 -20.468546
6650000000 -6.8534374 -11.21851 11.257071 -141.79103 -20.373922 -151.82664 -7.7597737 -21.878574
6700000000 -6.7667294 -13.195236 11.163937 -143.80829 -20.370712 -153.21815 -7.7114339 -23.253017
6750000000 -6.6761479 -14.998701 11.075704 -145.80797 -20.390892 -154.65257 -7.669682 -24.740305
6800000000 -6.5965452 -16.934063 10.98032 -147.80266 -20.393003 -155.95036 -7.6188025 -26.125015
6850000000 -6.5035472 -18.756599 10.891055 -149.75842 -20.384193 -157.23264 -7.5737824 -27.392622
6900000000 -6.4194088 -20.631493 10.793122 -151.77847 -20.393419 -158.67552 -7.5382857 -28.878584
6950000000 -6.3473186 -22.46446 10.703118 -153.71523 -20.402285 -159.86049 -7.4948244 -30.11384
7000000000 -6.2573261 -24.242508 10.613085 -155.6978 -20.410463 -161.25732 -7.4664497 -31.461758
7050000000 -6.175581 -25.956472 10.523995 -157.66325 -20.406574 -162.59625 -7.4374747 -32.895348
7100000000 -6.0971999 -27.780622 10.427237 -159.64519 -20.425829 -164.00862 -7.4013867 -34.181381
7150000000 -6.0158529 -29.422016 10.339877 -161.5799 -20.428999 -165.29501 -7.3773713 -35.548172
7200000000 -5.9405727 -31.197937 10.24486 -163.57779 -20.435257 -166.62761 -7.3486328 -36.926098
7250000000 -5.8622193 -32.887585 10.151513 -165.49651 -20.464701 -167.86969 -7.3346457 -38.248909
7300000000 -5.781579 -34.546154 10.056936 -167.5047 -20.459789 -169.33716 -7.2995892 -39.754902
7350000000 -5.7024517 -36.209492 9.9672966 -169.40508 -20.458252 -170.46312 -7.286448 -40.923607
7400000000 -5.6205077 -37.775192 9.8782024 -171.36391 -20.446188 -171.81798 -7.2629347 -42.414986
7450000000 -5.556437 -39.460407 9.7819128 -173.30173 -20.484316 -173.30397 -7.2350216 -43.689861
7500000000 -5.4716306 -40.96619 9.693923 -175.23137 -20.494699 -174.52866 -7.2382164 -45.116138
7550000000 -5.4107127 -42.593643 9.6007957 -177.14182 -20.504492 -175.7686 -7.2011003 -46.497128
7600000000 -5.3353562 -44.140209 9.5038366 -179.05879 -20.521149 -176.98451 -7.1915216 -47.724594
7650000000 -5.2734056 -45.638706 9.4098244 178.97778 -20.538126 -178.47661 -7.1791158 -49.209801
7700000000 -5.1949639 -47.223118 9.3262892 177.11668 -20.556164 -179.6185 -7.1502886 -50.435673
7750000000 -5.1226935 -48.65007 9.2235403 175.2229 -20.549238 179.13693 -7.1559725 -51.879875
7800000000 -5.0681295 -50.234718 9.1296654 173.2995 -20.567026 177.76717 -7.1124883 -53.203999
7850000000 -4.988471 -51.667583 9.0454063 171.42714 -20.592079 176.49298 -7.1191478 -54.526878
7900000000 -4.9369178 -53.062149 8.9466782 169.52174 -20.590212 175.31885 -7.0872712 -56.021511
7950000000 -4.8671279 -54.646523 8.8553658 167.64676 -20.60116 173.86693 -7.0659599 -57.233906
8000000000 -4.8072276 -55.946663 8.762289 165.77629 -20.618658 172.64687 -7.0652595 -58.735298
8050000000 -4.7475219 -57.525063 8.6767435 163.89027 -20.626377 171.3465 -7.0114002 -59.936043
8100000000 -4.6871462 -58.795231 8.5838242 162.07301 -20.649103 170.17961 -7.0133147 -61.242249
8150000000 -4.6468844 -60.276497 8.4956369 160.17361 -20.652187 168.98198 -6.9714108 -62.59544
8200000000 -4.5707054 -61.64584 8.4028034 158.34499 -20.668064 167.74008 -6.9665484 -63.743164
8250000000 -4.5362163 -62.976284 8.3129883 156.47954 -20.671618 166.42131 -6.9306631 -65.185028
8300000000 -4.4862185 -64.467674 8.2207193 154.65625 -20.684288 165.17783 -6.8947787 -66.215057
8350000000 -4.4296966 -65.572884 8.1392183 152.86453 -20.681301 164.05113 -6.8965392 -67.508049
8400000000 -4.3874841 -67.007385 8.0486984 151.02786 -20.706495 162.81689 -6.8479567 -68.75956
8450000000 -4.3263822 -68.257973 7.9573979 149.24323 -20.692749 161.64136 -6.8344674 -69.857269
8500000000 -4.2987032 -69.561943 7.8735595 147.43707 -20.733446 160.46042 -6.7911868 -71.078941
8550000000 -4.2454662 -70.943336 7.7849736 145.66116 -20.731232 159.29587 -6.7704477 -72.135468
8600000000 -4.2229452 -72.087616 7.6960516 143.9267 -20.740719 157.97894 -6.7342148 -73.374176
8650000000 -4.1823173 -73.529312 7.6052179 142.06433 -20.763521 156.76434 -6.6818118 -74.387733
8700000000 -4.1291609 -74.667892 7.5264473 140.36006 -20.753466 155.73656 -6.6699681 -75.436028
8750000000 -4.1107726 -76.004684 7.4420447 138.65276 -20.760195 154.62279 -6.6179414 -76.568192
8800000000 -4.0585527 -77.282745 7.3595357 136.86787 -20.792356 153.37624 -6.5945816 -77.49958
8850000000 -4.0338306 -78.475098 7.2829261 135.09335 -20.774641 152.21977 -6.5446806 -78.576965
8900000000 -4.0026097 -79.856133 7.1919966 133.34825 -20.783207 151.08847 -6.5160871 -79.45816
8950000000 -3.973911 -80.948914 7.1063018 131.60931 -20.789873 150.01105 -6.4951258 -80.498878
9000000000 -3.9583142 -82.206093 7.023644 129.95473 -20.797123 148.8967 -6.4437237 -81.401665
9050000000 -3.9216416 -83.306053 6.9477453 128.22905 -20.804089 147.84253 -6.4294949 -82.277702
9100000000 -3.9037297 -84.51255 6.872292 126.55554 -20.789026 146.71953 -6.3904891 -83.213814
9150000000 -3.8737054 -85.729942 6.7916079 124.81575 -20.784056 145.54552 -6.3584781 -83.977379
9200000000 -3.8541698 -86.823082 6.7235489 123.15293 -20.775812 144.38454 -6.3314676 -84.796806
9250000000 -3.836725 -88.17775 6.6407351 121.41783 -20.778376 143.34723 -6.2897997 -85.645874
9300000000 -3.8152716 -89.246643 6.5678844 119.74377 -20.782368 142.24028 -6.2644238 -86.430275
9350000000 -3.802012 -90.452385 6.4928021 118.08163 -20.767576 141.04916 -6.2278662 -87.14859
9400000000 -3.7916851 -91.572227 6.4193063 116.46717 -20.764898 139.98692 -6.2060809 -87.939796
9450000000 -3.7691307 -92.800232 6.3611498 114.75203 -20.771267 138.80603 -6.1831331 -88.75174
9500000000 -3.7442997 -94.011024 6.2961359 113.11899 -20.756104 137.85027 -6.1464157 -89.49147
9550000000 -3.7290251 -95.192795 6.2308311 111.42727 -20.747871 136.66026 -6.1327705 -90.259918
9600000000 -3.7100694 -96.489288 6.1575632 109.6721 -20.752802 135.66045 -6.1066327 -90.9981
9650000000 -3.7047586 -97.582405 6.0926385 108.03929 -20.736603 134.45227 -6.0665512 -91.807434
9700000000 -3.6862545 -98.735519 6.0343795 106.36722 -20.719503 133.50764 -6.0638824 -92.538094
9750000000 -3.6890781 -99.892029 5.9628525 104.73545 -20.680117 132.39128 -6.0322356 -93.307793
9800000000 -3.6720374 -101.05416 5.9004545 103.07759 -20.670843 131.24243 -6.0412073 -94.010437
9850000000 -3.6599069 -102.26049 5.8502841 101.41163 -20.668602 130.39456 -6.0167627 -94.649384
9900000000 -3.6618524 -103.4533 5.7930684 99.786613 -20.615902 129.22026 -5.9860249 -95.461182
9950000000 -3.6521003 -104.70228 5.7374592 98.040001 -20.62245 127.97302 -6.0033536 -96.266983
10000000000 -3.6492391 -105.99677 5.6740174 96.329178 -20.596291 126.92075 -5.9685421 -96.971298
10050000000 -3.6426127 -107.14964 5.6203556 94.624321 -20.531862 125.87222 -5.9696712 -97.826569
10100000000 -3.6519911 -108.41154 5.5532327 92.987137 -20.540598 124.86823 -5.9640703 -98.567093
10150000000 -3.6236074 -109.60992 5.5122695 91.436981 -20.489981 123.64931 -5.9266334 -99.187492
10200000000 -3.6191938 -110.86781 5.4469466 89.630104 -20.471663 122.23726 -5.9694505 -100.34033
10250000000 -3.6084855 -112.23553 5.4083009 87.935448 -20.458893 121.11207 -5.9294925 -101.05704
10300000000 -3.6009467 -113.42081 5.3691583 86.242607 -20.439157 120.0825 -5.9177403 -101.83539
10350000000 -3.6087577 -114.82352 5.3046308 84.505455 -20.429415 118.84534 -5.9413357 -102.81215
10400000000 -3.591311 -115.9823 5.2550116 82.859291 -20.387592 117.59769 -5.9291191 -103.48823
10450000000 -3.6027174 -117.3741 5.204226 81.00116 -20.36581 116.45667 -5.9373322 -104.70905
10500000000 -3.59425 -118.61889 5.1630716 79.445389 -20.343647 115.60838 -5.94414 -105.25455
10550000000 -3.5980856 -119.86417 5.1136312 77.649864 -20.289284 114.29207 -5.9494181 -106.38541
10600000000 -3.5917668 -121.26623 5.0624518 75.923096 -20.277262 113.15088 -5.9529219 -107.54646
10650000000 -3.5789757 -122.40756 5.027607 74.231819 -20.252609 111.96062 -5.9543037 -108.2782
10700000000 -3.5796261 -123.92058 4.9849715 72.391594 -20.193783 110.57301 -5.9519048 -109.60652
10750000000 -3.5803955 -125.24722 4.9325957 70.670197 -20.186975 109.45437 -5.9822431 -110.40411
10800000000 -3.5953293 -126.61428 4.8938708 68.902809 -20.135597 108.15728 -5.9790444 -111.5661
10850000000 -3.5869358 -128.03827 4.8370538 67.122826 -20.116831 106.95664 -5.9706149 -112.80406
10900000000 -3.5938718 -129.30959 4.8064957 65.408432 -20.069887 105.83158 -6.0011377 -113.68903
10950000000 -3.5874758 -130.98854 4.7716169 63.54549 -20.034323 104.26299 -5.9584694 -115.06383
11000000000 -3.5914905 -132.24092 4.7260633 61.829987 -20.024582 103.23011 -6.0164771 -115.99359
11050000000 -3.5986059 -133.79707 4.6895719 59.950989 -19.972315 102.06982 -6.0035477 -117.33581
11100000000 -3.5874827 -135.2095 4.636384 58.151344 -19.947618 100.62685 -5.9970317 -118.55798
11150000000 -3.6055033 -136.6311 4.6023536 56.399967 -19.904795 99.510254 -6.051167 -119.59237
11200000000 -3.5970585 -138.13669 4.5607748 54.538128 -19.848364 98.193504 -6.0021009 -120.91716
11250000000 -3.6232023 -139.43756 4.519804 52.794239 -19.829288 96.961937 -6.0522561 -122.14538
11300000000 -3.6296976 -141.0648 4.4734001 50.920506 -19.794775 95.708115 -6.0397949 -123.58015
11350000000 -3.6217754 -142.35672 4.4450045 49.119995 -19.737717 94.136169 -6.0165958 -124.80773
11400000000 -3.6463394 -144.02779 4.40663 47.316101 -19.719072 93.14183 -6.0659409 -126.16426
11450000000 -3.6331527 -145.55286 4.3627067 45.444382 -19.636509 91.742325 -6.0306358 -127.33257
11500000000 -3.6653345 -147.11107 4.3294206 43.591042 -19.62257 90.35598 -6.0526538 -128.76128
11550000000 -3.6562266 -148.79295 4.2916684 41.691273 -19.578505 89.090813 -6.0364528 -130.10333
11600000000 -3.6815348 -150.14481 4.2642484 39.919197 -19.50647 87.639725 -6.0352583 -131.24176
11650000000 -3.6870449 -151.99734 4.2283797 37.996758 -19.491047 86.248039 -6.0447102 -132.90202
11700000000 -3.6868355 -153.47612 4.1950808 36.108829 -19.401257 84.953835 -6.0219488 -134.02258
11750000000 -3.7199848 -155.23021 4.1674833 34.258976 -19.377684 83.36451 -6.0378942 -135.57635
11800000000 -3.7073309 -156.97652 4.1309943 32.293701 -19.382364 82.053467 -6.0297565 -137.01625
11850000000 -3.7442303 -158.61456 4.1078911 30.443216 -19.289246 80.670799 -6.0298939 -138.287
11900000000 -3.7423415 -160.54749 4.0701137 28.467268 -19.277458 79.184227 -6.01859 -139.89264
11950000000 -3.7648461 -162.15791 4.0320029 26.484047 -19.221539 77.860657 -6.0160608 -141.11017
12000000000 -3.77737 -164.06119 4.0105524 24.662685 -19.154249 76.35746 -6.0052834 -142.75757
12050000000 -3.7833817 -165.81314 3.9734876 22.685291 -19.143959 74.793045 -6.0041089 -144.19403
12100000000 -3.8170714 -167.72469 3.945188 20.750288 -19.074039 73.484795 -6.0078034 -145.63464
12150000000 -3.8105862 -169.63054 3.9194903 18.756365 -19.056242 71.84977 -6.0047088 -147.2151
12200000000 -3.837023 -171.46049 3.8904212 16.823311 -18.986429 70.728996 -6.0110073 -148.64775
12250000000 -3.8435137 -173.54362 3.8573854 14.829751 -18.910591 68.997902 -5.981555 -150.36259
12300000000 -3.8647852 -175.48419 3.8318174 12.831347 -18.886717 67.54641 -5.9957614 -151.78819
12350000000 -3.8874297 -177.61212 3.8042819 10.765086 -18.840359 66.047829 -5.9945955 -153.41922
12400000000 -3.8956549 -179.52602 3.7718606 8.8049574 -18.773451 64.465919 -5.9908767 -155.16077
12450000000 -3.889761 178.35564 3.7427459 6.6794643 -18.746035 62.959091 -5.9955964 -156.67111
12500000000 -3.8851311 176.24687 3.7136981 4.6799059 -18.666191 61.33971 -5.9786792 -158.46387
12550000000 -3.8874104 173.99039 3.6879039 2.5787816 -18.6415 59.547958 -5.9903483 -160.24557
12600000000 -3.8981917 171.72786 3.6551905 0.41306913 -18.604269 58.068474 -5.9955068 -161.86215
12650000000 -3.910506 169.60225 3.6220663 -1.6416514 -18.535673 56.399578 -5.9936328 -163.888
12700000000 -3.8961394 167.40804 3.5871971 -3.7436037 -18.517502 54.836494 -6.0094075 -165.59076
12750000000 -3.900754 165.00948 3.5524755 -5.8997693 -18.443056 53.117741 -5.9988189 -167.46878
12800000000 -3.8762465 162.70625 3.528146 -8.0628786 -18.41333 51.190311 -6.0252838 -169.63754
12850000000 -3.8859832 160.34888 3.4912648 -10.324689 -18.393532 49.566196 -6.0316739 -171.4828
12900000000 -3.8692269 157.89468 3.4447718 -12.491663 -18.345493 47.891773 -6.010232 -173.68326
12950000000 -3.8324661 155.67636 3.41538 -14.727341 -18.291302 46.031567 -6.0399799 -175.79486
13000000000 -3.8157971 152.97466 3.3750303 -17.047287 -18.244732 44.314987 -6.0266051 -178.02945
13050000000 -3.7846544 150.63083 3.3286645 -19.240152 -18.208805 42.398571 -6.0077744 179.57368
13100000000 -3.7833254 148.12082 3.2786455 -21.594379 -18.206308 40.6889 -6.0584073 177.26357
13150000000 -3.7329895 145.6367 3.2167659 -23.849287 -18.157455 38.891537 -5.9967065 174.82399
13200000000 -3.70717 143.36163 3.1691005 -26.115492 -18.142599 36.913902 -6.0255742 172.41985
13250000000 -3.661772 140.52306 3.1105685 -28.519264 -18.122824 35.075737 -6.0074019 169.80931
13300000000 -3.6177168 138.21126 3.0509009 -30.8547 -18.105957 33.061657 -5.9664168 167.32773
13350000000 -3.5972209 135.57158 2.9812057 -33.259922 -18.117537 31.198881 -6.0222716 164.5235
13400000000 -3.5308726 133.19044 2.9080007 -35.544205 -18.08008 29.431416 -5.9266162 162.00424
13450000000 -3.5132825 130.71614 2.8382325 -37.906399 -18.079899 27.296558 -5.9543295 159.24777
13500000000 -3.425844 128.06371 2.7568867 -40.31205 -18.07811 25.369814 -5.9023085 156.28821
13550000000 -3.3962319 125.75147 2.6788943 -42.75375 -18.0721 23.240881 -5.8388886 153.69093
13600000000 -3.3390443 122.9762 2.5932045 -45.115974 -18.099768 21.259256 -5.8467865 150.57491
13650000000 -3.2777641 120.72133 2.5012536 -47.466125 -18.108505 19.441133 -5.7451916 148.15343
13700000000 -3.2429545 118.06848 2.4001803 -50.027763 -18.131565 17.317839 -5.734951 144.68562
13750000000 -3.1473796 115.69759 2.2868309 -52.445305 -18.16918 15.335542 -5.6173673 141.87421
13800000000 -3.1243794 113.30273 2.1803186 -54.72641 -18.16086 13.42558 -5.5625596 139.51189
13850000000 -3.050518 110.74644 2.0469472 -57.189713 -18.256636 11.182589 -5.5090036 136.0006
13900000000 -3.0050828 108.69043 1.9365388 -59.475246 -18.299852 9.3642969 -5.4033551 133.85304
13950000000 -2.9387026 106.10085 1.8190676 -61.936832 -18.346779 7.3023272 -5.3294487 130.63667
14000000000 -2.8626137 104.13905 1.6792885 -64.25602 -18.407675 5.4338927 -5.2204933 128.02533
14050000000 -2.822612 101.68594 1.5565084 -66.603188 -18.426804 3.5517097 -5.1560307 125.6861
14100000000 -2.7444301 99.500824 1.3876067 -68.916092 -18.533106 1.5010906 -5.0463042 122.55842
14150000000 -2.7200799 97.466568 1.2518653 -71.108223 -18.580854 -0.32541981 -4.9710093 120.48077
14200000000 -2.6515751 95.243767 1.0955769 -73.450165 -18.643984 -2.3894761 -4.8498492 117.61279
14250000000 -2.5963178 93.46994 0.95332861 -75.558556 -18.739986 -4.2502985 -4.75528 115.38513
14300000000 -2.5368712 91.177628 0.80269688 -77.82399 -18.805487 -6.0505695 -4.6779013 112.93839
14350000000 -2.4739461 89.224243 0.63748753 -80.121086 -18.919708 -8.1537771 -4.5311332 110.34093
14400000000 -2.4533534 87.297066 0.48035371 -82.207962 -19.012465 -9.7425604 -4.4638968 108.40737
14450000000 -2.3929834 85.431908 0.29589963 -84.406853 -19.110357 -11.611308 -4.3370042 106.04661
14500000000 -2.3746376 83.651779 0.11782347 -86.455467 -19.232878 -13.414916 -4.2587428 104.16279
14550000000 -2.3026896 81.794434 -0.04036507 -88.51088 -19.2929 -14.950371 -4.1619864 102.1695
14600000000 -2.2593243 80.162758 -0.21271825 -90.442741 -19.403507 -16.775349 -4.0400443 100.20085
14650000000 -2.2258742 78.300858 -0.38325882 -92.488586 -19.522467 -18.436394 -3.9900322 98.362923
14700000000 -2.1701396 76.739594 -0.54513967 -94.508675 -19.5961 -20.076178 -3.8752987 96.477905
14750000000 -2.1420434 75.093575 -0.72092742 -96.482536 -19.721704 -21.570383 -3.8069284 94.7407
14800000000 -2.0979779 73.45182 -0.90750974 -98.41452 -19.813438 -23.163809 -3.7248626 92.995636
14850000000 -2.0728378 71.93383 -1.0938584 -100.22327 -19.915392 -24.917099 -3.6373413 91.265388
14900000000 -2.0421298 70.484131 -1.2650321 -102.04676 -20.062523 -26.452961 -3.5802102 89.59082
14950000000 -2.0165009 69.162086 -1.433605 -103.79681 -20.158607 -27.767454 -3.4856203 88.133804
15000000000 -1.9683863 67.783821 -1.601289 -105.5331 -20.257257 -29.334921 -3.4360077 86.586189
15050000000 -1.9430871 66.424141 -1.7654965 -107.36786 -20.379835 -30.702534 -3.3685672 85.136475
15100000000 -1.9128807 65.001984 -1.9405113 -109.08899 -20.460197 -32.233795 -3.2876141 83.633896
15150000000 -1.901042 63.640377 -2.1052558 -110.97007 -20.59292 -33.762951 -3.2441897 82.094772
15200000000 -1.8916094 62.330605 -2.2834728 -112.54873 -20.678238 -34.963871 -3.1781347 80.855553
15250000000 -1.8550348 61.175369 -2.4484377 -114.22518 -20.797905 -36.457165 -3.130765 79.389626
15300000000 -1.8439366 59.867832 -2.6185231 -115.98058 -20.89653 -37.691666 -3.1056604 78.051834
15350000000 -1.7862473 58.634232 -2.7673614 -117.60213 -20.964537 -39.131313 -3.0165889 76.700104
15400000000 -1.7842575 57.443645 -2.9246333 -119.23024 -21.089987 -40.592449 -2.9823079 75.283211
15450000000 -1.7754493 56.151104 -3.1091528 -120.90649 -21.212782 -41.896919 -2.9510908 74.105133
15500000000 -1.7671249 55.235367 -3.2546453 -122.52731 -21.282114 -43.235855 -2.8996553 72.612816
15550000000 -1.752496 54.002384 -3.4111288 -124.15562 -21.386065 -44.607555 -2.8869436 71.200424
15600000000 -1.7170748 53.045055 -3.563767 -125.70419 -21.470324 -45.895233 -2.8124673 70.032211
15650000000 -1.7201065 51.803635 -3.7070246 -127.30302 -21.584297 -47.501251 -2.8009114 68.546104
15700000000 -1.6809925 50.693665 -3.8595269 -128.90044 -21.690811 -48.56517 -2.7616367 67.317848
15750000000 -1.6951629 49.752995 -4.0011153 -130.48848 -21.776493 -49.698086 -2.7150934 66.074043
15800000000 -1.6679167 48.41058 -4.1472349 -132.28281 -21.896324 -51.216198 -2.7073419 64.320732
15850000000 -1.6506388 47.604298 -4.2982311 -133.70027 -21.952322 -52.368652 -2.6316738 63.381432
15900000000 -1.6568207 46.308468 -4.4505863 -135.34605 -22.079714 -53.916187 -2.6477962 61.750675
15950000000 -1.6370833 45.408005 -4.5993605 -137.00389 -22.195864 -54.957211 -2.6060205 60.275841
16000000000 -1.6465933 44.40324 -4.7330847 -138.56285 -22.249878 -56.173737 -2.5483482 59.143307
16050000000 -1.5945593 43.428329 -4.8809977 -140.15247 -22.386282 -57.617508 -2.5465219 57.336189
16100000000 -1.6077991 42.410152 -5.0367913 -141.63026 -22.490038 -58.781853 -2.5036104 56.460079
16150000000 -1.5931437 41.185612 -5.1797338 -143.31709 -22.553816 -60.295696 -2.4829891 54.682991
16200000000 -1.5884403 40.474129 -5.3140574 -144.86101 -22.676792 -61.540367 -2.4578145 53.335346
16250000000 -1.5922958 39.283192 -5.4547262 -146.45624 -22.707762 -62.710445 -2.4383798 51.917259
16300000000 -1.5436656 38.472378 -5.5941219 -148.01729 -22.839674 -64.044426 -2.3941703 50.163349
16350000000 -1.5576252 37.293362 -5.7430925 -149.63597 -22.923973 -65.250595 -2.3886485 49.206493
16400000000 -1.5353597 36.155796 -5.8807912 -151.34384 -22.98613 -66.820923 -2.3356817 47.351444
16450000000 -1.5626483 35.297016 -6.0342793 -152.85965 -23.131504 -68.110107 -2.3056562 46.0005
16500000000 -1.55117 34.207119 -6.191709 -154.34302 -23.233032 -69.367744 -2.3129709 44.765205
16550000000 -1.5357157 33.487232 -6.3298883 -155.87299 -23.311369 -70.782494 -2.2430491 43.182617
16600000000 -1.5346909 32.309647 -6.4549022 -157.41383 -23.450525 -71.979027 -2.2365098 42.051891
16650000000 -1.5144919 31.318661 -6.6081252 -159.06548 -23.54318 -73.314384 -2.172852 40.511227
16700000000 -1.5297208 30.390713 -6.7503247 -160.58966 -23.70092 -74.646454 -2.1781363 39.260639
16750000000 -1.5041422 29.312969 -6.9039011 -162.18059 -23.814255 -75.833939 -2.1566591 37.916241
16800000000 -1.5256534 28.470772 -7.0715165 -163.7533 -23.928099 -77.040611 -2.078464 36.480961
16850000000 -1.507117 27.41234 -7.219172 -165.19513 -24.047588 -78.202377 -2.0905552 35.295277
16900000000 -1.4980278 26.678921 -7.3733668 -166.70673 -24.188742 -79.496391 -2.0136344 33.9067
16950000000 -1.4985951 25.671211 -7.5242453 -168.10278 -24.359316 -80.666901 -2.0171583 32.681095
17000000000 -1.4648503 24.79018 -7.6688414 -169.67337 -24.495474 -81.842659 -1.9790947 31.396355
17050000000 -1.4699024 23.776737 -7.8152084 -171.15163 -24.613163 -82.855148 -1.9168177 30.451025
17100000000 -1.4615923 22.816685 -7.9860511 -172.55199 -24.769049 -83.689964 -1.9329056 29.44121
17150000000 -1.481869 21.977869 -8.1567183 -174.04416 -24.874035 -84.692451 -1.8532815 28.425753
17200000000 -1.4701661 21.01441 -8.3135357 -175.29834 -25.014448 -85.922592 -1.8346381 27.259832
17250000000 -1.4613235 20.351498 -8.4560137 -176.5589 -25.210764 -86.766739 -1.8121166 26.382681
17300000000 -1.4621851 19.368397 -8.6089878 -177.92342 -25.298571 -87.437592 -1.7764425 25.597626
17350000000 -1.4397721 18.637468 -8.7438469 -179.20078 -25.443111 -88.467018 -1.7560679 24.642181
17400000000 -1.4413768 17.681463 -8.8833637 179.47343 -25.53919 -89.214272 -1.7029022 24.141605
17450000000 -1.4237753 16.861118 -9.0371094 178.1273 -25.688398 -90.012466 -1.6854436 22.9116
17500000000 -1.4561071 15.954658 -9.2016602 176.75745 -25.842264 -90.789574 -1.6616892 22.260233
17550000000 -1.4294702 15.113716 -9.3357592 175.68925 -25.923927 -91.463951 -1.6292351 21.697906
17600000000 -1.4420041 14.462147 -9.4975538 174.47487 -26.099535 -92.228188 -1.6067032 20.829674
17650000000 -1.4145405 13.536841 -9.6220846 173.35367 -26.220724 -92.748138 -1.5867834 20.562515
17700000000 -1.3954182 12.756441 -9.7623348 172.11528 -26.317926 -93.608932 -1.5453721 19.586262
17750000000 -1.3938392 11.865496 -9.8928728 170.99525 -26.459892 -94.267899 -1.5364264 19.242985
17800000000 -1.375288 11.172622 -10.028102 169.85838 -26.560936 -94.51535 -1.5048714 18.80076
17850000000 -1.396856 10.336073 -10.163402 168.68117 -26.701458 -95.177216 -1.4789619 18.179388
17900000000 -1.3710943 9.6241388 -10.281462 167.53552 -26.828035 -95.711098 -1.4897661 17.818317
17950000000 -1.4023248 9.023447 -10.424452 166.4904 -26.925325 -96.439812 -1.4177262 17.188583
18000000000 -1.3952295 8.1634207 -10.534473 165.45671 -27.084705 -97.240356 -1.4388965 16.968266
18050000000 -1.3887659 7.7136416 -10.646381 164.4904 -27.248121 -97.249527 -1.4066011 16.621145
18100000000 -1.3987902 6.7779803 -10.758645 163.27928 -27.357351 -97.780937 -1.3866342 16.068792
18150000000 -1.3967154 6.0456896 -10.869658 162.11977 -27.587635 -97.771347 -1.4028821 15.828669
18200000000 -1.4034505 5.2672768 -10.974567 161.04143 -27.648436 -97.595261 -1.3411533 15.564478
18250000000 -1.4112164 4.3897271 -11.125408 159.83327 -27.797604 -97.347908 -1.3922731 14.989754
18300000000 -1.4348127 3.8877335 -11.256032 158.86514 -27.866568 -96.754875 -1.3545314 14.727895
18350000000 -1.428069 3.0818536 -11.374277 157.93597 -27.842751 -96.496574 -1.3318437 14.511352
18400000000 -1.4128841 2.6843424 -11.452606 157.06334 -27.884233 -96.699257 -1.3821831 14.027204
18450000000 -1.3966234 1.9222641 -11.556842 156.20679 -27.843615 -96.588783 -1.3398044 13.741273
18500000000 -1.3629526 1.2717017 -11.631902 155.12692 -27.848024 -96.927177 -1.365008 13.168954
18550000000 -1.3762251 0.39222598 -11.700684 153.90948 -27.890192 -97.087273 -1.3562087 13.022604
18600000000 -1.3927249 -0.26087984 -11.806487 152.93063 -27.832155 -97.418816 -1.3205383 12.610687
18650000000 -1.4507153 -0.89034021 -11.916816 151.7198 -28.005413 -97.730209 -1.3606868 11.804899
18700000000 -1.444774 -1.4461608 -12.022038 150.78438 -27.989384 -97.547722 -1.3529971 11.635656
18750000000 -1.4601365 -1.8208877 -12.085159 149.90358 -27.935411 -97.373482 -1.3579942 10.934546
18800000000 -1.4821292 -2.5617571 -12.171049 148.93927 -27.978943 -97.147507 -1.4049487 10.704955
18850000000 -1.4637784 -2.9864929 -12.234329 147.92554 -27.888912 -97.07782 -1.3867446 10.284812
18900000000 -1.4965518 -3.5681913 -12.312305 146.89772 -27.870909 -97.462303 -1.4122981 9.2993431
18950000000 -1.4762245 -4.3743615 -12.365574 145.72823 -27.864695 -97.222137 -1.4307225 9.0613222
19000000000 -1.5206298 -4.9069948 -12.442985 144.69804 -27.744478 -97.469421 -1.4137837 8.2884216
19050000000 -1.5461842 -5.6729074 -12.542161 143.55568 -27.805988 -97.723015 -1.4920024 7.6062756
19100000000 -1.5725806 -5.9588594 -12.619037 142.58066 -27.66444 -96.950829 -1.4660841 7.2728043
19150000000 -1.5899748 -6.6338282 -12.668682 141.66594 -27.588957 -97.419052 -1.4922824 6.3335309
19200000000 -1.5681013 -7.2365694 -12.720825 140.60631 -27.449837 -97.36116 -1.534593 5.7952986
19250000000 -1.6226003 -7.8225594 -12.772368 139.52618 -27.336124 -97.393951 -1.5124565 5.0553608
19300000000 -1.6101825 -8.5105724 -12.826301 138.23225 -27.266987 -97.831108 -1.5909055 4.0731611
19350000000 -1.6619457 -8.9716377 -12.880691 137.35982 -27.137012 -97.581497 -1.564339 3.839941
19400000000 -1.6818061 -9.8067684 -12.955817 136.28035 -26.987005 -98.609047 -1.5895541 2.6927407
19450000000 -1.7191842 -10.237217 -12.995538 135.16139 -26.867315 -98.894669 -1.6278751 1.8393879
19500000000 -1.7566758 -10.927492 -13.023438 134.09587 -26.6299 -98.789177 -1.6049274 1.2408048
19550000000 -1.7549711 -11.344399 -13.072651 133.0128 -26.512096 -99.758286 -1.6670862 -0.28841439
19600000000 -1.7890345 -12.232639 -13.117376 132.01903 -26.336744 -100.30946 -1.6699789 -0.62581688
19650000000 -1.7868551 -12.995372 -13.140488 130.84253 -26.106661 -101.2194 -1.6831182 -1.8465157
19700000000 -1.85417 -13.786477 -13.182744 129.64108 -25.982941 -102.19292 -1.7086715 -2.9521725
19750000000 -1.8794577 -14.719451 -13.202065 128.38919 -25.745852 -102.9444 -1.7075421 -3.6315629
19800000000 -1.9153372 -15.146418 -13.25094 127.37053 -25.635799 -104.25835 -1.7100344 -5.299448
19850000000 -1.9484972 -16.190842 -13.297264 126.28889 -25.452446 -104.7452 -1.7247912 -5.7064371
19900000000 -1.9651828 -16.836123 -13.310881 125.0062 -25.270321 -106.2168 -1.7248619 -7.1974435
19950000000 -2.0186853 -17.762613 -13.31004 123.9219 -25.17449 -107.54376 -1.7183605 -8.3843708
20000000000 -2.024642 -18.491459 -13.321573 122.57356 -24.972313 -108.51167 -1.7536888 -9.2554531
