!Keysight Technologies,N5242A,MY47200155,A.10.49.08
!Date: Thursday, October 19, 2023 15:45:53
!Correction: S11(Full 2 Port(1,2)) 
!S21(Full 2 Port(1,2)) 
!S12(Full 2 Port(1,2)) 
!S22(Full 2 Port(1,2)) 
!S2P File: Measurements: S11, S21, S12, S22:
# Hz S  dB   R 50
10000000 -20.57559 168.52695 22.857819 172.80048 -25.118721 -3.6379449 -17.267315 163.12854
20000000 -22.129122 176.05014 22.869871 175.4407 -24.86199 -5.0429273 -18.135952 172.88058
30000000 -22.258123 175.37065 22.857153 175.72256 -24.916401 -3.5584924 -18.118933 175.52528
40000000 -21.938189 176.71927 22.846416 175.46593 -24.997854 -1.650874 -18.081343 177.24699
50000000 -21.89633 176.3708 22.836248 175.13814 -25.112032 -1.7411302 -18.018576 178.35532
60000000 -21.861792 176.39383 22.834652 174.646 -25.134466 -2.0836139 -18.01955 178.90123
70000000 -21.767521 176.38805 22.83733 174.04503 -25.023672 -1.7823246 -18.01112 179.76366
80000000 -21.765316 176.007 22.839323 173.41827 -25.005013 -1.7119696 -17.996161 -179.80458
90000000 -21.835611 176.05157 22.837097 172.80891 -25.07416 -2.087198 -17.936787 -178.91962
100000000 -21.843718 176.04616 22.837215 172.16196 -25.022076 -2.0317411 -17.904432 -178.67143
150000000 -21.870512 174.91264 22.813251 168.82338 -25.012577 -2.7652392 -17.799025 -176.89497
200000000 -22.03157 173.00627 22.789139 165.46577 -25.044168 -3.1990957 -17.624786 -176.07675
250000000 -22.200964 171.77069 22.753815 162.03828 -24.992102 -3.6352205 -17.452896 -174.9624
300000000 -22.537653 171.32729 22.706686 158.61147 -25.018373 -4.4781947 -17.323685 -174.21634
350000000 -22.663029 169.77882 22.663078 155.17377 -25.009623 -5.2491655 -17.137447 -173.61029
400000000 -23.01877 169.48376 22.604353 151.78577 -24.981291 -5.9172668 -16.929848 -173.14935
450000000 -23.152872 167.36017 22.550833 148.37788 -24.975163 -6.5468855 -16.684006 -173.21349
500000000 -23.392353 167.50859 22.488302 145.03351 -24.974728 -7.3723354 -16.443136 -173.06734
550000000 -23.750109 166.97649 22.410414 141.67801 -24.938597 -7.9102216 -16.246193 -173.73837
600000000 -23.891464 166.68933 22.351076 138.34276 -24.94031 -8.8247986 -16.011786 -173.83501
650000000 -24.304144 166.69035 22.270805 135.04117 -24.922913 -9.534976 -15.814464 -174.42949
700000000 -24.656481 167.13649 22.182768 131.76265 -24.892166 -10.260503 -15.582152 -174.99841
750000000 -25.098917 167.76266 22.093641 128.53142 -24.87236 -10.884898 -15.416593 -175.58913
800000000 -25.418192 168.04062 22.004438 125.30354 -24.84198 -11.642491 -15.207246 -176.61893
850000000 -25.82653 170.55177 21.909075 122.1132 -24.828339 -12.391915 -15.028996 -177.4819
900000000 -26.112682 170.62445 21.819683 118.93186 -24.804905 -13.060493 -14.853627 -178.46089
950000000 -26.426056 173.50246 21.717793 115.81362 -24.754683 -13.793867 -14.679698 -179.56079
1000000000 -26.87908 176.54185 21.608086 112.71361 -24.750061 -14.514014 -14.533854 179.13408
1050000000 -27.053303 178.94711 21.50378 109.61671 -24.695265 -15.260365 -14.358342 177.88361
1100000000 -27.317888 -177.85652 21.39637 106.57043 -24.67561 -15.980177 -14.241548 176.64178
1150000000 -27.219866 -174.25755 21.287258 103.54404 -24.632139 -16.738708 -14.135852 175.09235
1200000000 -27.494686 -169.03514 21.165846 100.57218 -24.594381 -17.460129 -13.992848 173.80673
1250000000 -27.26656 -166.52368 21.058336 97.593987 -24.534929 -18.207968 -13.89459 172.24608
1300000000 -27.124859 -162.89571 20.94319 94.653938 -24.511761 -19.066118 -13.784487 170.6738
1350000000 -26.822294 -158.87146 20.827776 91.757042 -24.474638 -19.792025 -13.698586 169.26347
1400000000 -26.461292 -155.96278 20.707123 88.851967 -24.42065 -20.56975 -13.604019 167.64973
1450000000 -25.978636 -152.78607 20.581944 86.002655 -24.371853 -21.499744 -13.542255 166.0374
1500000000 -25.549992 -151.6859 20.469389 83.157997 -24.314695 -22.196907 -13.442684 164.33757
1550000000 -24.996923 -149.49374 20.344046 80.366982 -24.286228 -23.122257 -13.405519 162.7641
1600000000 -24.474882 -148.35339 20.222902 77.594322 -24.218149 -23.890013 -13.320784 161.02066
1650000000 -24.032486 -147.59363 20.097057 74.844429 -24.190039 -24.792746 -13.270931 159.33615
1700000000 -23.476336 -147.74249 19.982653 72.096298 -24.127903 -25.59461 -13.230916 157.57474
1750000000 -23.01375 -147.90381 19.854351 69.383835 -24.065453 -26.433867 -13.162494 155.78604
1800000000 -22.455942 -148.07796 19.730021 66.716156 -24.001919 -27.296055 -13.120317 153.94016
1850000000 -22.05155 -148.75807 19.60528 64.048134 -23.9517 -28.245316 -13.081676 151.91847
1900000000 -21.694752 -150.19566 19.48562 61.388565 -23.893131 -29.239012 -13.050551 149.983
1950000000 -21.225285 -151.09662 19.364174 58.789845 -23.848923 -30.223625 -13.025373 147.92616
2000000000 -20.872408 -152.36623 19.243286 56.183205 -23.777723 -31.005566 -12.996113 146.05301
2050000000 -20.490002 -153.92657 19.123074 53.603409 -23.732767 -31.992306 -12.977143 143.83369
2100000000 -20.138361 -155.31314 19.006413 51.018509 -23.66007 -32.941925 -12.943596 141.89917
2150000000 -19.880726 -156.8295 18.887632 48.447876 -23.622719 -33.822693 -12.939531 139.83197
2200000000 -19.516855 -158.77284 18.764082 45.895706 -23.552719 -34.794174 -12.88931 137.617
2250000000 -19.295824 -160.38777 18.644302 43.354198 -23.495119 -35.798325 -12.864461 135.65373
2300000000 -19.010553 -162.67976 18.523817 40.864326 -23.443386 -36.766304 -12.820201 133.47728
2350000000 -18.805807 -164.40375 18.403025 38.355919 -23.381708 -37.873356 -12.777998 131.45689
2400000000 -18.554449 -166.4472 18.285088 35.903915 -23.323107 -38.978466 -12.767756 129.24835
2450000000 -18.348078 -168.58353 18.164274 33.422409 -23.267313 -40.062695 -12.703974 127.10526
2500000000 -18.189924 -170.63531 18.052507 30.943584 -23.198332 -40.955357 -12.688842 125.11021
2550000000 -17.939806 -172.91118 17.933052 28.497261 -23.149441 -42.030918 -12.635744 122.84623
2600000000 -17.77689 -174.9169 17.815977 26.048418 -23.094135 -43.138748 -12.590664 120.88973
2650000000 -17.582319 -177.48846 17.699095 23.630131 -23.030289 -44.258141 -12.570082 118.60569
2700000000 -17.35593 -179.60475 17.580664 21.223768 -22.979105 -45.241776 -12.511743 116.46788
2750000000 -17.265669 178.19406 17.468567 18.817991 -22.927876 -46.581181 -12.494388 114.28086
2800000000 -17.060917 175.82858 17.348404 16.455233 -22.867477 -47.599472 -12.444419 112.1078
2850000000 -16.940889 173.72925 17.234661 14.052358 -22.790749 -48.63488 -12.422929 110.06445
2900000000 -16.773375 171.10107 17.123121 11.712243 -22.74502 -49.756393 -12.359155 107.76659
2950000000 -16.649565 168.96521 17.00732 9.3883524 -22.703247 -50.934963 -12.309595 105.84665
3000000000 -16.536219 166.34174 16.895535 7.0276036 -22.621672 -52.127232 -12.277184 103.60693
3050000000 -16.381634 163.84712 16.784573 4.69449 -22.579544 -53.152718 -12.187075 101.64293
3100000000 -16.291849 161.59227 16.670851 2.372581 -22.521662 -54.35807 -12.164522 99.643906
3150000000 -16.154089 158.8911 16.560572 0.081531011 -22.465725 -55.444462 -12.101498 97.553177
3200000000 -16.060101 156.71037 16.446302 -2.2199492 -22.424398 -56.661842 -12.054455 95.691299
3250000000 -15.928592 154.12996 16.340931 -4.493906 -22.348499 -57.790157 -12.015296 93.62204
3300000000 -15.787988 151.85945 16.231478 -6.7724199 -22.312033 -59.103279 -11.956175 91.705467
3350000000 -15.684442 149.35086 16.120899 -9.0458393 -22.251793 -60.208656 -11.93312 89.691757
3400000000 -15.550165 147.01334 16.016325 -11.289154 -22.199942 -61.427834 -11.889282 87.750824
3450000000 -15.426356 144.61778 15.911213 -13.551772 -22.154898 -62.575703 -11.849837 85.850365
3500000000 -15.314119 141.94713 15.803957 -15.795017 -22.100866 -63.81514 -11.81629 83.836739
3550000000 -15.168527 139.77338 15.702299 -18.045527 -22.041063 -65.025421 -11.761632 81.860664
3600000000 -15.057626 137.25009 15.597062 -20.271484 -22.003534 -66.329903 -11.715142 79.947334
3650000000 -14.907125 134.70212 15.495259 -22.504379 -21.959036 -67.633797 -11.660388 77.997421
3700000000 -14.807619 132.26476 15.391682 -24.711222 -21.881626 -68.794975 -11.618732 76.025124
3750000000 -14.684493 129.65002 15.291883 -26.938663 -21.859089 -69.960442 -11.56767 74.03968
3800000000 -14.540566 127.1918 15.189841 -29.136051 -21.796835 -71.298256 -11.518533 72.221268
3850000000 -14.426519 124.61607 15.088973 -31.367638 -21.7309 -72.579613 -11.46425 70.246155
3900000000 -14.28165 121.96097 14.98945 -33.567696 -21.692299 -73.867592 -11.415423 68.366013
3950000000 -14.139918 119.54506 14.89116 -35.766159 -21.630274 -75.188606 -11.352979 66.507988
4000000000 -14.020013 116.83084 14.793845 -37.932789 -21.598755 -76.452271 -11.304029 64.657112
4050000000 -13.864736 114.13985 14.695321 -40.119801 -21.559118 -77.755989 -11.225902 62.654758
4100000000 -13.732484 111.49799 14.600754 -42.279823 -21.50094 -78.948242 -11.14881 60.926174
4150000000 -13.561619 108.81225 14.503651 -44.466778 -21.460878 -80.200882 -11.099225 59.001648
4200000000 -13.417093 106.29739 14.405839 -46.618179 -21.417093 -81.484505 -11.021631 57.046825
4250000000 -13.270309 103.62113 14.313623 -48.757252 -21.378613 -82.800728 -10.974279 55.300045
4300000000 -13.101844 101.06701 14.217248 -50.974228 -21.331511 -84.167046 -10.894786 53.237881
4350000000 -12.959465 98.505707 14.123734 -53.156738 -21.266611 -85.530609 -10.830448 51.484612
4400000000 -12.814745 95.82724 14.026453 -55.308174 -21.228762 -86.883194 -10.761908 49.370239
4450000000 -12.677401 93.348579 13.936232 -57.518963 -21.200407 -88.271866 -10.673602 47.578892
4500000000 -12.534871 90.543686 13.837345 -59.68895 -21.155735 -89.563789 -10.615957 45.521687
4550000000 -12.378137 88.173584 13.744953 -61.867538 -21.094875 -90.971367 -10.527143 43.717461
4600000000 -12.223833 85.437721 13.650026 -64.05835 -21.068254 -92.28952 -10.460328 41.760609
4650000000 -12.074019 82.955261 13.552247 -66.200859 -21.033205 -93.718887 -10.371149 39.894455
4700000000 -11.956342 80.298836 13.454859 -68.338943 -21.000978 -95.108994 -10.307115 38.103287
4750000000 -11.76541 77.756874 13.360218 -70.504356 -20.9639 -96.476891 -10.225776 36.107071
4800000000 -11.634493 75.355011 13.270369 -72.634193 -20.919748 -97.83757 -10.147348 34.504002
4850000000 -11.463544 72.634857 13.17711 -74.778076 -20.894541 -99.226753 -10.084106 32.534416
4900000000 -11.324405 70.306541 13.082477 -76.925461 -20.862007 -100.64185 -9.9903097 30.70846
4950000000 -11.178179 67.589615 12.989473 -79.062233 -20.838306 -102.10378 -9.9387732 28.905235
5000000000 -11.011724 65.28685 12.893446 -81.204185 -20.810022 -103.41438 -9.8455305 26.988714
5050000000 -10.869575 62.725048 12.80209 -83.318031 -20.771379 -104.79298 -9.7972212 25.223759
5100000000 -10.711664 60.314491 12.705231 -85.455971 -20.773504 -106.29082 -9.7032433 23.333309
5150000000 -10.571689 57.89312 12.614613 -87.610245 -20.734858 -107.66116 -9.621521 21.719879
5200000000 -10.410061 55.438007 12.519536 -89.708168 -20.705452 -109.05178 -9.553997 19.797766
5250000000 -10.259805 53.038757 12.423237 -91.843498 -20.672831 -110.43185 -9.4492121 18.022671
5300000000 -10.10903 50.542553 12.333052 -93.992874 -20.645332 -111.88856 -9.3739119 16.368267
5350000000 -9.9588032 48.246059 12.233177 -96.095932 -20.631035 -113.25882 -9.2903347 14.556641
5400000000 -9.8122473 45.844494 12.137416 -98.240601 -20.614365 -114.55887 -9.2054529 13.011365
5450000000 -9.6505117 43.516453 12.037568 -100.33992 -20.595995 -116.08938 -9.1263685 11.213584
5500000000 -9.5199642 41.235111 11.942035 -102.4493 -20.586214 -117.41483 -9.0356312 9.7688971
5550000000 -9.3715591 38.977524 11.84417 -104.56285 -20.562084 -118.8689 -8.9698753 8.0291147
5600000000 -9.2376776 36.70052 11.747457 -106.64848 -20.552406 -120.37005 -8.8867197 6.4441872
5650000000 -9.0940514 34.428223 11.647181 -108.73893 -20.530256 -121.73698 -8.8232546 4.8457079
5700000000 -8.9625835 32.314186 11.554859 -110.81747 -20.528629 -123.2378 -8.7531052 3.2984283
5750000000 -8.8371334 30.014324 11.454647 -112.90739 -20.508009 -124.52973 -8.68995 1.7649813
5800000000 -8.6920385 27.902308 11.357061 -115.00391 -20.495832 -126.01781 -8.6252832 0.13112104
5850000000 -8.5745792 25.73859 11.256365 -117.04478 -20.485506 -127.38798 -8.5524282 -1.2676319
5900000000 -8.4300432 23.628222 11.154785 -119.11326 -20.481718 -128.68144 -8.50735 -2.8799527
5950000000 -8.3186493 21.555984 11.058653 -121.18323 -20.46608 -130.0188 -8.417345 -4.3467031
6000000000 -8.1797533 19.378426 10.959014 -123.2188 -20.46697 -131.4297 -8.3728991 -5.8492393
6050000000 -8.065135 17.400692 10.852942 -125.27555 -20.45458 -132.95001 -8.2955742 -7.3058019
6100000000 -7.9466853 15.274665 10.753464 -127.31284 -20.454872 -134.36867 -8.2504663 -8.7248507
6150000000 -7.8262935 13.317244 10.651031 -129.33916 -20.445246 -135.75722 -8.1959953 -10.207244
6200000000 -7.728919 11.352621 10.553828 -131.31393 -20.463585 -137.0121 -8.136857 -11.481018
6250000000 -7.6040745 9.3781271 10.446076 -133.37349 -20.447218 -138.4566 -8.1025267 -12.879991
6300000000 -7.5000234 7.5032454 10.347996 -135.35934 -20.45986 -139.77692 -8.0459013 -14.297092
6350000000 -7.3888164 5.5566397 10.247042 -137.3638 -20.447731 -141.20418 -8.0143881 -15.551517
6400000000 -7.2898092 3.8015954 10.150628 -139.3614 -20.441648 -142.48515 -7.9766645 -17.005209
6450000000 -7.1902175 1.8363363 10.048274 -141.35884 -20.436491 -143.8511 -7.9414654 -18.254042
6500000000 -7.086854 0.0074429186 9.9471827 -143.36902 -20.4503 -145.17355 -7.9196277 -19.673361
6550000000 -6.9889398 -1.7994266 9.8446426 -145.3477 -20.459129 -146.63113 -7.8925786 -20.997007
6600000000 -6.8965988 -3.6194425 9.7465658 -147.31906 -20.468933 -147.86996 -7.8634591 -22.383135
6650000000 -6.7980881 -5.332871 9.6483173 -149.28395 -20.452169 -149.30022 -7.8381453 -23.74299
6700000000 -6.7071843 -7.1769214 9.5463362 -151.27306 -20.45266 -150.55095 -7.8189178 -25.065243
6750000000 -6.6150913 -8.8153582 9.4490547 -153.25681 -20.467987 -151.98705 -7.7961106 -26.495174
6800000000 -6.5305839 -10.562393 9.3430748 -155.22462 -20.449333 -153.32501 -7.7774901 -27.837797
6850000000 -6.4382663 -12.263097 9.2447433 -157.15356 -20.469961 -154.52733 -7.7540221 -29.079453
6900000000 -6.3594513 -14.016514 9.1391926 -159.12996 -20.471514 -155.96385 -7.7392097 -30.525496
6950000000 -6.2796698 -15.658308 9.0403347 -161.04527 -20.483076 -157.32295 -7.7189255 -31.786919
7000000000 -6.1998429 -17.307392 8.9436283 -162.99031 -20.487873 -158.55626 -7.7057533 -33.032501
7050000000 -6.1214976 -18.926544 8.8471003 -164.93059 -20.484888 -159.88075 -7.6939268 -34.425797
7100000000 -6.0462637 -20.57305 8.742836 -166.86873 -20.489351 -161.21144 -7.6739511 -35.648441
7150000000 -5.9653759 -22.12623 8.6473303 -168.76157 -20.49729 -162.58218 -7.670331 -36.959007
7200000000 -5.9009767 -23.753109 8.5456238 -170.7309 -20.501789 -163.90134 -7.6548719 -38.324024
7250000000 -5.8255062 -25.334805 8.4470062 -172.60912 -20.505941 -165.24193 -7.6485171 -39.556877
7300000000 -5.7565403 -26.898607 8.3459826 -174.58572 -20.511175 -166.60716 -7.6345186 -41.005718
7350000000 -5.6870685 -28.454035 8.2522507 -176.44514 -20.524412 -167.79907 -7.6323643 -42.165607
7400000000 -5.6068635 -29.977982 8.1576624 -178.38156 -20.510017 -169.13387 -7.6222916 -43.646275
7450000000 -5.5596714 -31.554972 8.0561333 179.70099 -20.526419 -170.48921 -7.5997877 -44.91283
7500000000 -5.4808083 -33.049679 7.9617558 177.79402 -20.53413 -171.78461 -7.6082458 -46.322464
7550000000 -5.4345465 -34.564465 7.8619809 175.89256 -20.555115 -173.12587 -7.5723376 -47.700893
7600000000 -5.3615837 -36.102154 7.7588506 174.01936 -20.543674 -174.37114 -7.5762048 -48.91917
7650000000 -5.3045812 -37.530811 7.6591587 172.07306 -20.563385 -175.73586 -7.5589533 -50.413403
7700000000 -5.2424412 -39.084702 7.5695558 170.2392 -20.564037 -176.9864 -7.527997 -51.623959
7750000000 -5.181489 -40.490566 7.4635682 168.35321 -20.601713 -178.28792 -7.5260339 -53.037189
7800000000 -5.1421175 -42.030426 7.3643546 166.45966 -20.596869 -179.49271 -7.482995 -54.314873
7850000000 -5.0644574 -43.480389 7.2742357 164.60486 -20.583088 179.2224 -7.483973 -55.551514
7900000000 -5.0335631 -44.848969 7.1700845 162.72955 -20.613016 177.93338 -7.4496698 -57.034843
7950000000 -4.9753656 -46.428452 7.074667 160.87537 -20.6311 176.57281 -7.4242477 -58.140007
8000000000 -4.9187889 -47.764023 6.9760718 159.03217 -20.621544 175.26181 -7.4243546 -59.574646
8050000000 -4.8765335 -49.306042 6.8841209 157.16869 -20.645388 174.03214 -7.3661885 -60.758125
8100000000 -4.8210187 -50.645355 6.7881494 155.35524 -20.635551 172.73563 -7.3671513 -61.965034
8150000000 -4.7927318 -52.129837 6.6948891 153.47624 -20.644146 171.57358 -7.3211226 -63.27557
8200000000 -4.7264962 -53.53376 6.5976319 151.66168 -20.655291 170.27043 -7.3163161 -64.391182
8250000000 -4.6990571 -54.864773 6.5032177 149.81363 -20.652071 168.97253 -7.2777705 -65.779633
8300000000 -4.6602674 -56.385349 6.4064589 147.99701 -20.67555 167.78377 -7.2435923 -66.764099
8350000000 -4.6084518 -57.604553 6.3194427 146.21313 -20.666969 166.59464 -7.2403769 -68.023453
8400000000 -4.5802798 -59.08503 6.2228417 144.39043 -20.68696 165.42343 -7.1848745 -69.249794
8450000000 -4.5246019 -60.416553 6.1244745 142.60634 -20.689228 164.16112 -7.1640649 -70.284218
8500000000 -4.5056911 -61.813412 6.0348639 140.80988 -20.682133 162.92183 -7.1190786 -71.485176
8550000000 -4.4549947 -63.253029 5.9380107 139.03252 -20.699419 161.67426 -7.0950198 -72.483315
8600000000 -4.4411182 -64.485916 5.8418875 137.30945 -20.705004 160.45546 -7.0563316 -73.698074
8650000000 -4.4074636 -65.983917 5.7454128 135.45691 -20.733912 159.17334 -7.0060968 -74.654823
8700000000 -4.3603249 -67.175957 5.6585045 133.76024 -20.722448 158.01955 -6.9969435 -75.679008
8750000000 -4.3482242 -68.584885 5.5679722 132.06815 -20.71954 156.87926 -6.9499965 -76.769554
8800000000 -4.303329 -69.92334 5.4803925 130.29277 -20.738958 155.76982 -6.9290438 -77.678314
8850000000 -4.2821922 -71.216927 5.3980937 128.53091 -20.720577 154.55331 -6.8840795 -78.782738
8900000000 -4.2576985 -72.639122 5.2986922 126.7673 -20.754162 153.37527 -6.8638067 -79.638329
8950000000 -4.2372093 -73.862732 5.2069693 125.0493 -20.754293 152.28041 -6.8489528 -80.706734
9000000000 -4.217926 -75.20874 5.1149845 123.39935 -20.764606 151.05266 -6.7993717 -81.607803
9050000000 -4.1853771 -76.403557 5.0321178 121.66815 -20.746147 149.82626 -6.79915 -82.548035
9100000000 -4.1690693 -77.734253 4.9479513 120.0021 -20.7425 148.78125 -6.7624221 -83.511078
9150000000 -4.1370082 -79.055649 4.8602562 118.27656 -20.754393 147.61543 -6.7374272 -84.364357
9200000000 -4.1211333 -80.265945 4.7833614 116.61973 -20.742607 146.45303 -6.7115817 -85.297058
9250000000 -4.0980234 -81.714355 4.6909842 114.87833 -20.753147 145.33231 -6.6803346 -86.218063
9300000000 -4.0833302 -82.892845 4.6073833 113.21078 -20.74263 144.16275 -6.66115 -87.128502
9350000000 -4.0621772 -84.195076 4.520226 111.56919 -20.7362 142.99698 -6.6287813 -87.898354
9400000000 -4.0567083 -85.378998 4.4368968 109.97942 -20.737667 141.87328 -6.6125584 -88.782257
9450000000 -4.0286112 -86.660492 4.3693786 108.30993 -20.734596 140.61623 -6.590023 -89.691025
9500000000 -4.0068841 -87.897285 4.2945399 106.70055 -20.722713 139.53474 -6.5595856 -90.520042
9550000000 -3.9931891 -89.149742 4.2203898 105.03344 -20.727465 138.6367 -6.5532494 -91.355576
9600000000 -3.9793653 -90.525574 4.1383934 103.31001 -20.711735 137.50058 -6.5347409 -92.195709
9650000000 -3.9736485 -91.739258 4.0651393 101.68945 -20.709585 136.30759 -6.5042191 -93.12561
9700000000 -3.9514742 -92.969009 3.9983308 100.04086 -20.701038 135.267 -6.5129943 -93.973442
9750000000 -3.9529765 -94.215736 3.9184146 98.419373 -20.682138 134.36247 -6.4938402 -94.884392
9800000000 -3.929503 -95.514107 3.8472157 96.773392 -20.685987 133.06052 -6.5050249 -95.771469
9850000000 -3.9102514 -96.733948 3.7837861 95.133095 -20.667547 132.06349 -6.4998813 -96.615753
9900000000 -3.9116256 -97.989502 3.717051 93.52639 -20.620258 130.88037 -6.4730377 -97.638779
9950000000 -3.892432 -99.280861 3.6526649 91.808983 -20.613482 129.76695 -6.4991279 -98.688423
10000000000 -3.8897405 -100.58355 3.579443 90.121017 -20.58293 128.588 -6.4700766 -99.624733
10050000000 -3.879714 -101.82099 3.5172617 88.449104 -20.554193 127.51736 -6.4690619 -100.69141
10100000000 -3.8888223 -103.06943 3.442178 86.854469 -20.531841 126.33131 -6.4638615 -101.66238
10150000000 -3.8633385 -104.33302 3.3910134 85.334671 -20.502924 125.31822 -6.4220285 -102.49511
10200000000 -3.8582876 -105.60202 3.3195086 83.566612 -20.498186 123.80614 -6.4631314 -103.87578
10250000000 -3.844811 -107.00951 3.27178 81.913177 -20.474081 122.72971 -6.42032 -104.72939
10300000000 -3.8357074 -108.19894 3.2209742 80.267975 -20.431025 121.59787 -6.4077945 -105.72045
10350000000 -3.8445535 -109.63556 3.1509545 78.577705 -20.41725 120.51134 -6.4271412 -106.90871
10400000000 -3.8303936 -110.87344 3.0948007 76.972137 -20.431801 119.46507 -6.4044771 -107.75993
10450000000 -3.8412418 -112.2946 3.0369902 75.154579 -20.395906 117.97828 -6.4138427 -109.18134
10500000000 -3.828521 -113.57871 2.9871194 73.656616 -20.364706 117.06371 -6.4080558 -109.89355
10550000000 -3.8334913 -114.85243 2.931906 71.893471 -20.316278 115.79684 -6.4088449 -111.24918
10600000000 -3.8261752 -116.31326 2.8757551 70.214874 -20.313227 114.66946 -6.3997135 -112.61683
10650000000 -3.8140717 -117.50589 2.831743 68.556541 -20.273779 113.53218 -6.3988128 -113.51376
10700000000 -3.8130972 -119.06599 2.7868059 66.756203 -20.20944 112.09476 -6.3783903 -115.12998
10750000000 -3.8113203 -120.43592 2.7278082 65.059593 -20.213345 111.04488 -6.3904328 -116.10381
10800000000 -3.824852 -121.87096 2.6786847 63.305691 -20.160717 109.73558 -6.3750582 -117.53253
10850000000 -3.8139327 -123.3447 2.6142175 61.565681 -20.142683 108.41714 -6.3526092 -118.9781
10900000000 -3.8187535 -124.57573 2.5755885 59.898144 -20.105152 107.30611 -6.3687673 -120.06312
10950000000 -3.8149383 -126.31592 2.5355549 58.054424 -20.073427 105.72731 -6.2907553 -121.65308
11000000000 -3.8179896 -127.57997 2.4842381 56.387196 -20.054125 104.73359 -6.3371 -122.73085
11050000000 -3.8285689 -129.19818 2.4423237 54.5373 -20.004959 103.46534 -6.2927213 -124.27211
11100000000 -3.8152561 -130.64063 2.383702 52.771042 -19.968729 102.14779 -6.2573695 -125.60645
11150000000 -3.8395989 -132.14636 2.3442876 51.026398 -19.949846 101.00275 -6.2833943 -126.83582
11200000000 -3.8225963 -133.81631 2.2952111 49.171406 -19.876015 99.532043 -6.2073054 -128.26787
11250000000 -3.8443351 -135.16628 2.2476795 47.470776 -19.860634 98.28965 -6.2350235 -129.61397
11300000000 -3.8473392 -136.89447 2.1912844 45.611198 -19.828531 97.016464 -6.1934147 -131.14583
11350000000 -3.8330653 -138.26549 2.1570492 43.841091 -19.77142 95.569366 -6.1471763 -132.39868
11400000000 -3.8595624 -140.01038 2.1084566 42.05946 -19.760223 94.38826 -6.1673732 -133.86563
11450000000 -3.8365941 -141.60515 2.0598509 40.213547 -19.700956 93.015869 -6.1115146 -135.06619
11500000000 -3.8693836 -143.24573 2.0192165 38.376682 -19.660902 91.546684 -6.1111231 -136.62068
11550000000 -3.8513577 -145.04489 1.9696226 36.50729 -19.629747 90.242996 -6.0681472 -137.95833
11600000000 -3.8704374 -146.42273 1.9329644 34.752472 -19.566788 88.808884 -6.0493655 -139.22745
11650000000 -3.8686807 -148.37834 1.8864954 32.851959 -19.560341 87.377945 -6.0263963 -140.87608
11700000000 -3.8602548 -149.89345 1.8426176 30.971691 -19.514671 85.917557 -5.9840088 -142.02383
11750000000 -3.8864219 -151.73979 1.8036581 29.14538 -19.442379 84.454788 -5.9698405 -143.605
11800000000 -3.8627298 -153.52345 1.753089 27.201784 -19.46023 83.076927 -5.9348283 -145.00072
11850000000 -3.8946536 -155.21034 1.7188112 25.382507 -19.395521 81.62677 -5.9209747 -146.29277
11900000000 -3.8811624 -157.15105 1.6701577 23.436766 -19.384838 80.21946 -5.8863921 -147.79756
11950000000 -3.8931799 -158.81142 1.6210988 21.505764 -19.334675 78.936974 -5.871726 -148.99893
12000000000 -3.8977406 -160.7532 1.5869989 19.712063 -19.278212 77.340996 -5.839962 -150.56985
12050000000 -3.8929975 -162.52174 1.5395117 17.766638 -19.277384 75.784721 -5.8228445 -151.87042
12100000000 -3.917788 -164.44583 1.4981394 15.874613 -19.221287 74.435944 -5.8122683 -153.27165
12150000000 -3.8965003 -166.39413 1.4563471 13.895492 -19.186695 72.872345 -5.7993503 -154.73611
12200000000 -3.9084456 -168.19023 1.4103202 12.000872 -19.147421 71.541504 -5.7962513 -156.12492
12250000000 -3.90377 -170.14587 1.3629267 10.057823 -19.095854 69.934494 -5.7616057 -157.67052
12300000000 -3.9148395 -172.02153 1.3248178 8.1219006 -19.083782 68.410919 -5.7739801 -158.99466
12350000000 -3.9272468 -174.08066 1.2828879 6.1313629 -19.022226 66.94899 -5.7663937 -160.51791
12400000000 -3.9239485 -175.88606 1.2378321 4.242341 -18.991468 65.402161 -5.7577009 -162.11156
12450000000 -3.9123936 -177.93355 1.1980755 2.1813776 -18.951567 63.885662 -5.7604666 -163.5365
12500000000 -3.89833 -179.86127 1.1537564 0.25296864 -18.880392 62.43502 -5.7400961 -165.13907
12550000000 -3.8990362 177.96931 1.1135712 -1.7866079 -18.867615 60.580822 -5.7554884 -166.77158
12600000000 -3.8965788 175.88646 1.0671996 -3.8720765 -18.841961 59.089428 -5.7650099 -168.22121
12650000000 -3.905292 173.89189 1.0195504 -5.8319368 -18.781609 57.503494 -5.7643223 -170.08797
12700000000 -3.8823662 171.86263 0.97026134 -7.8301196 -18.761375 55.955868 -5.7804952 -171.603
12750000000 -3.8863764 169.70126 0.92295521 -9.8858891 -18.719612 54.223583 -5.7784653 -173.22914
12800000000 -3.8528869 167.57173 0.8889913 -11.96409 -18.690712 52.362328 -5.8085294 -175.3131
12850000000 -3.8634899 165.52878 0.83913112 -14.084947 -18.677811 50.849449 -5.826942 -176.85934
12900000000 -3.8536444 163.27248 0.78185797 -16.173792 -18.640741 49.25782 -5.8231297 -178.88251
12950000000 -3.8101068 161.35551 0.74239391 -18.288771 -18.608101 47.494915 -5.8694448 179.20718
13000000000 -3.8084722 158.95973 0.69216514 -20.489449 -18.545506 45.849613 -5.877305 177.21848
13050000000 -3.774662 156.82742 0.63597494 -22.549925 -18.53858 44.016113 -5.8746181 174.99062
13100000000 -3.7894545 154.71664 0.57944047 -24.767712 -18.533314 42.258774 -5.9445 172.95064
13150000000 -3.7491879 152.42896 0.5165031 -26.895962 -18.487583 40.527027 -5.8954463 170.64719
13200000000 -3.7343998 150.51622 0.46536419 -29.063438 -18.459995 38.645344 -5.9419684 168.45526
13250000000 -3.7083342 147.88919 0.40522102 -31.354076 -18.453171 36.855556 -5.9505758 165.9716
13300000000 -3.675771 145.86119 0.33650687 -33.573799 -18.422588 35.019367 -5.9199977 163.68555
13350000000 -3.6759002 143.51834 0.26631656 -35.84354 -18.431679 33.11866 -6.0000434 161.04384
13400000000 -3.619262 141.32491 0.1893014 -37.984425 -18.397335 31.416162 -5.9264517 158.77409
13450000000 -3.6305463 139.20697 0.11538331 -40.204884 -18.401264 29.438242 -5.9816713 156.24446
13500000000 -3.5613337 136.76929 0.038346931 -42.477943 -18.413851 27.629665 -5.9464612 153.46054
13550000000 -3.5483286 134.79228 -0.040564854 -44.803486 -18.390427 25.610243 -5.9121189 151.04004
13600000000 -3.5204043 132.26172 -0.12375065 -47.029541 -18.411173 23.654989 -5.9501152 148.10786
13650000000 -3.4752388 130.25462 -0.21085462 -49.23214 -18.426023 21.919292 -5.8793378 145.90675
13700000000 -3.4758317 127.8604 -0.30794358 -51.676666 -18.436733 19.764236 -5.9050803 142.56981
13750000000 -3.3976636 125.69562 -0.41345924 -53.965355 -18.467932 17.93825 -5.8143854 139.91948
13800000000 -3.4059525 123.59002 -0.51221192 -56.12492 -18.447231 15.993841 -5.7947273 137.66724
13850000000 -3.3601339 121.13174 -0.62898618 -58.495934 -18.52562 13.819346 -5.7650695 134.20181
13900000000 -3.334466 119.292 -0.73032981 -60.709373 -18.548752 12.096305 -5.6921701 132.14485
13950000000 -3.2997942 116.79037 -0.83723027 -63.108532 -18.571903 10.037968 -5.6456432 128.88318
14000000000 -3.2440171 114.90709 -0.96827358 -65.369614 -18.629745 8.2386246 -5.5584488 126.30084
14050000000 -3.235225 112.61723 -1.0813947 -67.630913 -18.653912 6.3180847 -5.5241122 123.88308
14100000000 -3.1762221 110.41966 -1.2359583 -69.910385 -18.714733 4.1319857 -5.4323983 120.72064
14150000000 -3.176666 108.46638 -1.3638885 -72.061562 -18.770195 2.411545 -5.3784804 118.58741
14200000000 -3.1290998 106.19066 -1.5055418 -74.396523 -18.826193 0.41540357 -5.2734632 115.62151
14250000000 -3.0924473 104.44366 -1.6380556 -76.46209 -18.913679 -1.4823328 -5.2004738 113.33971
14300000000 -3.0564034 102.07519 -1.7769523 -78.733139 -18.981007 -3.4192419 -5.1428452 110.81271
14350000000 -3.0029547 100.1101 -1.9340161 -81.040489 -19.057205 -5.5425882 -5.0036802 108.13555
14400000000 -3.005121 98.092285 -2.0816214 -83.126709 -19.133392 -7.0499787 -4.9640622 106.10093
14450000000 -2.9568441 96.141174 -2.2531133 -85.334999 -19.212845 -9.1399155 -4.8444009 103.59565
14500000000 -2.9537957 94.315804 -2.4234958 -87.400421 -19.33252 -10.858602 -4.7880745 101.61344
14550000000 -2.8933072 92.316483 -2.5718117 -89.486732 -19.386372 -12.679285 -4.7051549 99.414284
14600000000 -2.8640532 90.555267 -2.73581 -91.484261 -19.474548 -14.525267 -4.5932603 97.297516
14650000000 -2.8362169 88.553787 -2.8992033 -93.538872 -19.593523 -16.248066 -4.5615954 95.255447
14700000000 -2.789206 86.845604 -3.0573788 -95.62516 -19.670496 -17.959391 -4.4501715 93.169807
14750000000 -2.7749598 84.995628 -3.2300003 -97.691536 -19.779957 -19.697315 -4.3938613 91.21479
14800000000 -2.7343853 83.214554 -3.4142475 -99.675079 -19.863941 -21.37825 -4.3136921 89.253128
14850000000 -2.7182758 81.458176 -3.6011395 -101.55844 -19.977488 -23.191826 -4.2333865 87.361671
14900000000 -2.6869111 79.789063 -3.7713721 -103.47801 -20.116468 -24.888346 -4.1820126 85.471291
14950000000 -2.670727 78.255463 -3.9486525 -105.29951 -20.209681 -26.405611 -4.0881038 83.878723
15000000000 -2.6163769 76.575592 -4.1199689 -107.14809 -20.32609 -28.084419 -4.0510063 82.122528
15050000000 -2.593164 75.026543 -4.2911286 -109.04971 -20.445459 -29.549223 -3.9855247 80.511566
15100000000 -2.559952 73.35981 -4.4703612 -110.8615 -20.551062 -31.122993 -3.9107668 78.829506
15150000000 -2.5400622 71.86628 -4.6462207 -112.78252 -20.668282 -32.778542 -3.8707898 77.104691
15200000000 -2.5361671 70.35527 -4.8418059 -114.44956 -20.788601 -34.187462 -3.811974 75.698158
15250000000 -2.4838469 69.019493 -5.0128646 -116.18492 -20.902321 -35.637444 -3.7731848 74.049217
15300000000 -2.4783227 67.604424 -5.1973166 -117.98151 -21.029839 -37.174347 -3.7538106 72.552109
15350000000 -2.4130793 66.142403 -5.3549547 -119.65946 -21.091055 -38.425922 -3.6685135 70.984985
15400000000 -2.4085994 64.798607 -5.5263605 -121.38068 -21.230965 -40.229149 -3.641036 69.365417
15450000000 -2.3937092 63.268276 -5.7204914 -123.10757 -21.366175 -41.474667 -3.6118422 68.033592
15500000000 -2.3750834 62.255753 -5.8871937 -124.7577 -21.469296 -43.131924 -3.5594125 66.34359
15550000000 -2.3577204 60.82045 -6.0670443 -126.4398 -21.600113 -44.407215 -3.5529966 64.778679
15600000000 -2.3088775 59.719151 -6.2369089 -128.06244 -21.690994 -45.753639 -3.4723117 63.463173
15650000000 -2.3079698 58.399937 -6.4051847 -129.66936 -21.814392 -47.40271 -3.4682078 61.841259
15700000000 -2.2539442 57.143158 -6.5835094 -131.29674 -21.946674 -48.682251 -3.42821 60.504253
15750000000 -2.2650132 56.191204 -6.7477942 -132.83411 -22.096642 -49.983353 -3.3820496 59.203506
15800000000 -2.229337 54.749359 -6.9196033 -134.59818 -22.216984 -51.399452 -3.3692167 57.358128
15850000000 -2.1995873 53.964607 -7.0980678 -136.01773 -22.301054 -52.329491 -3.2878599 56.39912
15900000000 -2.2046809 52.606331 -7.264194 -137.62396 -22.444614 -54.158092 -3.3078384 54.650356
15950000000 -2.1700602 51.685799 -7.4382915 -139.22079 -22.579945 -55.298386 -3.2583494 53.161446
16000000000 -2.1764932 50.671906 -7.5941634 -140.76268 -22.647579 -56.57951 -3.2044404 52.017265
16050000000 -2.1139529 49.667103 -7.7695441 -142.27657 -22.812038 -57.906097 -3.2011981 50.140709
16100000000 -2.121717 48.693985 -7.9477611 -143.67815 -22.941626 -58.867714 -3.160337 49.330425
16150000000 -2.0989447 47.459015 -8.1109028 -145.31535 -23.037361 -60.540928 -3.1371596 47.474861
16200000000 -2.0866182 46.812069 -8.2674427 -146.79823 -23.172661 -61.479485 -3.101012 46.151501
16250000000 -2.0851347 45.637268 -8.426136 -148.32001 -23.265165 -62.615509 -3.0838947 44.671391
16300000000 -2.024389 44.882751 -8.5884809 -149.79521 -23.358128 -63.898987 -3.025718 42.937298
16350000000 -2.0332701 43.802235 -8.754241 -151.3007 -23.491867 -65.227318 -3.0264757 42.046154
16400000000 -1.996918 42.738419 -8.9206266 -152.86844 -23.557217 -66.590271 -2.9629683 40.162632
16450000000 -2.0239725 42.001694 -9.0951405 -154.30524 -23.724783 -67.773186 -2.925981 38.949898
16500000000 -2.0034127 41.011372 -9.2680349 -155.60278 -23.876694 -68.947525 -2.9323933 37.734264
16550000000 -1.981791 40.500118 -9.4266415 -156.99796 -23.999498 -70.343773 -2.8473141 36.272469
16600000000 -1.9782389 39.440582 -9.5675344 -158.39221 -24.132856 -71.168831 -2.8427758 35.215675
16650000000 -1.942683 38.633713 -9.7340508 -159.91342 -24.238907 -72.62278 -2.7676251 33.765831
16700000000 -1.9623802 37.920826 -9.8798666 -161.23602 -24.388493 -73.831779 -2.7737312 32.685219
16750000000 -1.9292114 36.983601 -10.050288 -162.6987 -24.537813 -74.837547 -2.7478027 31.387274
16800000000 -1.9510028 36.370865 -10.225739 -164.10446 -24.64953 -76.133232 -2.6600783 30.148094
16850000000 -1.9274511 35.428463 -10.370569 -165.39619 -24.787937 -77.23465 -2.6764219 29.037689
16900000000 -1.9161836 34.934029 -10.535255 -166.7515 -24.919464 -78.359856 -2.5848627 27.791353
16950000000 -1.9147328 34.042923 -10.687523 -167.95398 -25.110357 -79.497467 -2.5907903 26.697626
17000000000 -1.8720105 33.393589 -10.835735 -169.3997 -25.28396 -80.251205 -2.5457447 25.483416
17050000000 -1.8876431 32.567974 -10.98144 -170.79149 -25.400404 -81.289421 -2.478771 24.702478
17100000000 -1.8700879 31.750111 -11.161915 -172.04399 -25.594557 -81.846825 -2.4970367 23.717024
17150000000 -1.8907708 31.144386 -11.330197 -173.38741 -25.646864 -82.841812 -2.4070463 22.782244
17200000000 -1.877228 30.329046 -11.488347 -174.56523 -25.78933 -84.07235 -2.385545 21.69532
17250000000 -1.8643569 29.917698 -11.635275 -175.67592 -25.939291 -84.471672 -2.3581791 20.848959
17300000000 -1.8683451 29.024103 -11.781897 -176.94931 -26.106369 -85.381638 -2.3197417 20.140076
17350000000 -1.8368602 28.459452 -11.913379 -178.14917 -26.253092 -86.033508 -2.2978005 19.214815
17400000000 -1.846521 27.672398 -12.048798 -179.35809 -26.331627 -86.60302 -2.2383349 18.773413
17450000000 -1.8223311 27.018259 -12.206407 179.35545 -26.458645 -87.467728 -2.2174368 17.543083
17500000000 -1.8599242 26.347187 -12.365714 178.14507 -26.649479 -88.051628 -2.1925638 16.972864
17550000000 -1.8355531 25.632004 -12.497966 177.11261 -26.705917 -88.268524 -2.1629093 16.402224
17600000000 -1.8427639 25.184511 -12.65457 176.05283 -26.838629 -89.341858 -2.1370025 15.546374
17650000000 -1.8238242 24.426058 -12.770969 175.06247 -26.949291 -89.909584 -2.1200531 15.283899
17700000000 -1.8001903 23.873077 -12.906713 173.88129 -27.037663 -90.324104 -2.0735524 14.280679
17750000000 -1.8119824 23.160244 -13.024519 172.89789 -27.217817 -90.865761 -2.0666637 13.932323
17800000000 -1.7934896 22.479923 -13.142173 171.70122 -27.303253 -91.348152 -2.0379112 13.448571
17850000000 -1.8155513 21.724785 -13.27179 170.47028 -27.429688 -91.905067 -2.0109472 12.738008
17900000000 -1.7976161 21.005589 -13.395633 169.38551 -27.571329 -92.689796 -2.0269625 12.339367
17950000000 -1.8270462 20.47036 -13.532855 168.28194 -27.681726 -92.974739 -1.9526916 11.633629
18000000000 -1.8175466 19.629503 -13.63859 167.3246 -27.828859 -93.514236 -1.9732563 11.318496
18050000000 -1.8077786 19.264416 -13.755978 166.30443 -27.995392 -93.783768 -1.9395858 10.902743
18100000000 -1.821731 18.44323 -13.861314 165.10889 -28.13542 -94.227562 -1.9192849 10.263092
18150000000 -1.8147256 17.766857 -13.988388 163.89034 -28.351328 -94.148003 -1.9385164 9.9209671
18200000000 -1.8272544 17.143387 -14.088397 162.85201 -28.370394 -93.912598 -1.8718008 9.5836687
18250000000 -1.839874 16.349833 -14.250442 161.6227 -28.54995 -93.58773 -1.9251744 8.8819818
18300000000 -1.8695753 15.989424 -14.390835 160.67192 -28.613234 -92.637352 -1.8842382 8.5533381
18350000000 -1.8662072 15.22473 -14.520027 159.78661 -28.566725 -92.395805 -1.8653826 8.2658434
18400000000 -1.8539538 14.873866 -14.611037 158.9597 -28.560162 -92.191391 -1.9145607 7.6895089
18450000000 -1.8509307 14.101292 -14.707932 158.11555 -28.520201 -92.673004 -1.8652858 7.3975067
18500000000 -1.8100798 13.358482 -14.779786 157.03293 -28.539036 -92.79953 -1.8970916 6.7083797
18550000000 -1.8330184 12.510015 -14.856372 155.78987 -28.549271 -93.062561 -1.8845111 6.537416
18600000000 -1.8506913 11.720801 -14.970551 154.77765 -28.566601 -92.88427 -1.8517879 6.0209064
18650000000 -1.9115951 11.054376 -15.089538 153.58162 -28.650005 -93.677048 -1.89421 5.1493087
18700000000 -1.9056623 10.4203 -15.203468 152.67892 -28.675011 -93.047981 -1.887707 4.9395685
18750000000 -1.9131564 10.02895 -15.274209 151.74109 -28.648794 -93.418999 -1.8931676 4.1165299
18800000000 -1.9422957 9.1450529 -15.378168 150.68985 -28.665936 -93.070694 -1.9405541 3.835386
18850000000 -1.9092242 8.6399136 -15.456492 149.67735 -28.58964 -93.195129 -1.9251542 3.2958465
18900000000 -1.9457073 8.0027523 -15.534848 148.61919 -28.6043 -93.595818 -1.9464735 2.2195315
18950000000 -1.9190314 7.0478992 -15.608289 147.50243 -28.590691 -93.373207 -1.9671968 1.9986521
19000000000 -1.9664364 6.4685588 -15.705967 146.43187 -28.554253 -93.487221 -1.9433135 1.1215935
19050000000 -1.9866196 5.5498867 -15.817726 145.20796 -28.573435 -93.364059 -2.0195611 0.44498402
19100000000 -2.0031238 5.2894583 -15.905319 144.27887 -28.434135 -92.804947 -1.9907979 0.046981379
19150000000 -2.0353386 4.4390273 -15.989024 143.27269 -28.38282 -93.129845 -2.0092921 -0.89863074
19200000000 -1.9913133 3.7246959 -16.06032 142.24969 -28.298817 -93.058914 -2.051254 -1.3971815
19250000000 -2.0539882 3.0230207 -16.150019 141.09879 -28.229256 -93.231644 -2.0189974 -2.1397111
19300000000 -2.0290709 2.1469913 -16.231941 139.84546 -28.163246 -93.411659 -2.1020758 -3.1071093
19350000000 -2.0865521 1.6242093 -16.32851 138.96988 -28.001024 -93.209335 -2.0695751 -3.2610021
19400000000 -2.0946171 0.54057884 -16.437088 137.88373 -27.831783 -93.518509 -2.093308 -4.3539157
19450000000 -2.1224332 0.070032008 -16.506556 136.76538 -27.777403 -93.599312 -2.1287026 -5.1247091
19500000000 -2.1702209 -0.71718222 -16.596043 135.86778 -27.456783 -93.178329 -2.1064107 -5.6680932
19550000000 -2.1463385 -1.242417 -16.672873 134.83234 -27.36043 -93.942665 -2.1619661 -7.1643066
19600000000 -2.1852443 -2.0851088 -16.772617 134.01353 -27.107607 -94.227806 -2.158572 -7.3213634
19650000000 -2.1707108 -2.9566746 -16.837994 133.05536 -26.918188 -95.002975 -2.1720078 -8.4624043
19700000000 -2.2307851 -3.6916425 -16.915598 132.07793 -26.815479 -95.947708 -2.1878519 -9.3999348
19750000000 -2.252439 -4.6613264 -16.98188 131.08644 -26.609364 -96.727982 -2.186177 -9.9007025
19800000000 -2.2853785 -5.0673995 -17.06772 130.27081 -26.43502 -97.842041 -2.1740117 -11.415037
19850000000 -2.3156536 -6.1760845 -17.137489 129.46843 -26.307638 -98.519569 -2.1930676 -11.568818
19900000000 -2.3151071 -6.7985396 -17.173809 128.55363 -26.103487 -99.318001 -2.1836901 -12.932167
19950000000 -2.3741958 -7.6790795 -17.218658 127.65336 -26.005718 -100.66837 -2.1774261 -13.87209
20000000000 -2.363744 -8.4402609 -17.2479 126.70257 -25.814142 -101.20254 -2.2165856 -14.506726
