!Keysight Technologies,N5242A,MY47200155,A.10.49.08
!Date: Thursday, October 19, 2023 15:18:16
!Correction: S11(Full 2 Port(1,2)) 
!S21(Full 2 Port(1,2)) 
!S12(Full 2 Port(1,2)) 
!S22(Full 2 Port(1,2)) 
!S2P File: Measurements: S11, S21, S12, S22:
# Hz S  dB   R 50
10000000 -19.61454 168.53949 23.036005 172.65582 -25.405909 -2.6548576 -16.282019 164.00034
20000000 -21.268204 172.41708 23.03956 175.35773 -25.083456 -0.66625875 -17.117964 169.94357
30000000 -21.535978 174.12575 23.020325 175.7289 -25.08534 -0.48743737 -17.305326 173.66121
40000000 -21.109104 176.51489 23.007242 175.52873 -25.207727 -1.9816029 -17.182499 176.77551
50000000 -21.094454 177.1412 22.995476 175.25078 -25.215158 -2.0307522 -17.171036 178.05881
60000000 -21.015022 177.44124 22.994833 174.8063 -25.191811 -2.0949676 -17.207619 178.61784
70000000 -21.018219 177.06294 22.999268 174.24451 -25.215513 -1.6090279 -17.190647 179.37483
80000000 -21.010824 176.89462 23.002928 173.65237 -25.232285 -2.0080807 -17.142731 179.88567
90000000 -21.068943 177.10178 23.002081 173.07373 -25.157187 -1.9996017 -17.140137 -179.39435
100000000 -21.044142 177.15984 23.004028 172.46071 -25.245262 -2.0586269 -17.068592 -179.13403
150000000 -21.105232 176.51624 22.984495 169.25636 -25.171909 -2.2958517 -17.022461 -177.78841
200000000 -21.242704 175.25703 22.966511 166.02393 -25.168287 -2.8625975 -16.890892 -177.20999
250000000 -21.312771 174.26047 22.936495 162.71542 -25.160339 -3.1937301 -16.726587 -176.52785
300000000 -21.479933 173.91922 22.891396 159.41536 -25.178474 -4.2315683 -16.599728 -176.11905
350000000 -21.460424 172.83688 22.85467 156.09746 -25.16519 -4.8401985 -16.457224 -175.83008
400000000 -21.710274 172.82516 22.800344 152.82918 -25.132509 -5.7279849 -16.284372 -175.59769
450000000 -21.726818 170.94794 22.754799 149.53642 -25.103912 -6.3057775 -16.098909 -175.60925
500000000 -21.8606 171.29414 22.698887 146.31046 -25.095459 -7.0462675 -15.899474 -175.5791
550000000 -22.101746 170.71719 22.626614 143.05554 -25.097933 -7.7235131 -15.731421 -176.21405
600000000 -22.077694 170.17665 22.577925 139.81349 -25.06711 -8.373457 -15.551028 -176.40335
650000000 -22.280943 169.98654 22.505369 136.62697 -25.051565 -9.0133524 -15.373604 -177.06757
700000000 -22.459848 170.13707 22.422508 133.45319 -25.03857 -9.6394911 -15.183837 -177.74164
750000000 -22.672457 170.31084 22.341131 130.31041 -25.01515 -10.3284 -15.045093 -178.35101
800000000 -22.773935 169.97511 22.261654 127.1693 -24.997684 -11.035021 -14.86469 -179.50514
850000000 -22.986416 171.46544 22.172188 124.07471 -24.943394 -11.89594 -14.710827 179.60039
900000000 -23.028877 170.45421 22.094923 120.96391 -24.922098 -12.483338 -14.560782 178.61905
950000000 -23.130793 171.47075 22.000313 117.9444 -24.899197 -13.220915 -14.412205 177.52763
1000000000 -23.415407 172.50381 21.897009 114.91539 -24.858767 -13.899811 -14.266169 176.18248
1050000000 -23.469036 172.61278 21.802828 111.90279 -24.839348 -14.566277 -14.108095 174.93602
1100000000 -23.609859 173.34062 21.703638 108.92596 -24.790634 -15.340017 -13.992797 173.68964
1150000000 -23.559357 174.6001 21.602005 105.98513 -24.740252 -16.018593 -13.886258 172.16298
1200000000 -23.838661 176.73097 21.484413 103.08239 -24.709213 -16.813322 -13.752054 170.92049
1250000000 -23.726246 176.98035 21.388577 100.16833 -24.671642 -17.567438 -13.662313 169.42433
1300000000 -23.793488 178.27859 21.279148 97.304329 -24.629169 -18.462872 -13.557459 167.94987
1350000000 -23.773117 -179.96979 21.171064 94.476997 -24.581303 -19.106735 -13.472869 166.51831
1400000000 -23.707319 -178.6731 21.058905 91.638474 -24.545536 -19.851267 -13.385813 164.92293
1450000000 -23.621485 -176.66316 20.939592 88.850372 -24.502111 -20.770395 -13.32305 163.36365
1500000000 -23.455923 -176.57794 20.838346 86.064171 -24.452402 -21.429478 -13.218937 161.7267
1550000000 -23.264696 -174.59161 20.715307 83.339294 -24.413849 -22.342436 -13.18077 160.12712
1600000000 -23.054867 -173.7346 20.601364 80.625755 -24.353376 -23.096579 -13.095538 158.39754
1650000000 -22.862194 -172.68124 20.482019 77.92881 -24.311455 -23.911455 -13.022779 156.83253
1700000000 -22.582718 -172.56796 20.375977 75.23674 -24.2491 -24.714298 -12.973218 155.11789
1750000000 -22.339308 -172.03062 20.252815 72.592834 -24.198812 -25.554642 -12.898475 153.36832
1800000000 -22.004501 -171.42581 20.133204 69.977112 -24.149763 -26.476076 -12.847403 151.62039
1850000000 -21.773546 -171.53186 20.016653 67.359016 -24.092342 -27.283087 -12.788607 149.85574
1900000000 -21.577166 -172.19931 19.902967 64.762024 -24.057707 -28.12565 -12.745224 148.07919
1950000000 -21.235786 -172.4127 19.785259 62.222046 -23.979149 -29.07152 -12.702688 146.1459
2000000000 -21.024979 -172.80014 19.670414 59.673191 -23.943235 -30.064178 -12.6674 144.41661
2050000000 -20.692429 -173.12183 19.556993 57.159996 -23.907944 -30.76083 -12.635836 142.58888
2100000000 -20.454046 -173.91652 19.446928 54.622135 -23.81739 -31.719294 -12.601554 140.83675
2150000000 -20.285698 -174.97984 19.336355 52.115196 -23.761612 -32.774757 -12.5932 138.95013
2200000000 -19.954605 -175.65823 19.217628 49.631691 -23.715439 -33.67189 -12.539409 137.07396
2250000000 -19.798956 -176.56778 19.104973 47.136566 -23.653128 -34.548229 -12.514153 135.30014
2300000000 -19.536448 -178.28505 18.992519 44.704689 -23.582661 -35.451401 -12.479896 133.32819
2350000000 -19.390341 -179.39801 18.878946 42.244511 -23.534718 -36.563335 -12.439718 131.49706
2400000000 -19.170517 179.01057 18.767395 39.852688 -23.460558 -37.607155 -12.433506 129.53029
2450000000 -18.928104 177.51727 18.65332 37.424728 -23.427069 -38.477135 -12.366658 127.59411
2500000000 -18.814802 176.00284 18.550095 34.993984 -23.362045 -39.482521 -12.357744 125.73358
2550000000 -18.565237 174.39212 18.436674 32.603683 -23.302343 -40.478737 -12.311769 123.71907
2600000000 -18.439192 172.76555 18.327154 30.209045 -23.230831 -41.61647 -12.271478 121.93092
2650000000 -18.23538 170.74622 18.217581 27.830879 -23.169886 -42.575897 -12.256821 119.89672
2700000000 -18.008467 169.19528 18.108416 25.466894 -23.114376 -43.689754 -12.208299 117.9668
2750000000 -17.933586 167.28079 18.002724 23.103233 -23.071716 -44.70232 -12.19982 116.03083
2800000000 -17.723377 165.61911 17.89016 20.788879 -23.006151 -45.772461 -12.166446 113.96591
2850000000 -17.595333 163.98386 17.784317 18.429216 -22.95669 -46.919655 -12.154267 112.15112
2900000000 -17.411123 161.76593 17.68121 16.1297 -22.884165 -47.935123 -12.123428 110.01238
2950000000 -17.278114 160.0578 17.573021 13.849364 -22.836784 -49.072308 -12.082026 108.13686
3000000000 -17.151943 157.72609 17.470045 11.516718 -22.770468 -50.149967 -12.056749 106.01309
3050000000 -16.966822 155.63324 17.365255 9.2255869 -22.712769 -51.256363 -11.988913 104.12009
3100000000 -16.877621 153.68092 17.260077 6.9354815 -22.640963 -52.361328 -11.982382 102.10382
3150000000 -16.697445 151.29344 17.157621 4.678802 -22.600187 -53.462006 -11.9294 100.08436
3200000000 -16.596338 149.38226 17.05069 2.4035285 -22.537809 -54.609924 -11.893151 98.212143
3250000000 -16.43755 147.08681 16.95336 0.15881592 -22.490875 -55.744411 -11.857711 96.165916
3300000000 -16.287424 145.0191 16.849159 -2.0899436 -22.429184 -56.914562 -11.813856 94.214333
3350000000 -16.162621 142.86963 16.746992 -4.3392081 -22.375677 -58.208252 -11.781554 92.238297
3400000000 -16.0259 140.6534 16.648151 -6.5494509 -22.319407 -59.181515 -11.737106 90.275467
3450000000 -15.880665 138.53075 16.546692 -8.7814322 -22.264437 -60.487656 -11.699777 88.328789
3500000000 -15.748433 136.02156 16.449106 -10.994897 -22.218649 -61.563766 -11.65764 86.320778
3550000000 -15.59013 133.99988 16.352753 -13.21737 -22.157469 -62.833569 -11.6067 84.383537
3600000000 -15.478316 131.77089 16.252401 -15.42018 -22.108944 -64.146614 -11.565783 82.456215
3650000000 -15.330733 129.37137 16.156839 -17.627903 -22.050344 -65.150063 -11.502649 80.47258
3700000000 -15.201157 127.05959 16.059952 -19.81489 -21.996803 -66.369553 -11.459395 78.545784
3750000000 -15.046412 124.75188 15.964891 -22.011915 -21.933643 -67.776695 -11.398582 76.607513
3800000000 -14.899514 122.39531 15.868398 -24.18984 -21.865967 -68.893761 -11.346192 74.697281
3850000000 -14.78215 119.93153 15.773799 -26.396357 -21.833992 -70.145683 -11.280786 72.705421
3900000000 -14.610839 117.39654 15.679649 -28.578848 -21.778633 -71.491264 -11.231467 70.837105
3950000000 -14.469885 115.02396 15.586013 -30.758549 -21.750139 -72.729012 -11.150826 68.908005
4000000000 -14.331326 112.56472 15.493678 -32.911232 -21.670691 -73.948509 -11.093581 67.002762
4050000000 -14.168374 109.98769 15.398306 -35.069504 -21.631508 -75.149071 -11.015519 64.981155
4100000000 -14.031387 107.33534 15.307221 -37.209011 -21.59215 -76.437439 -10.930019 63.225861
4150000000 -13.843801 104.82941 15.214463 -39.378757 -21.540483 -77.626312 -10.859449 61.252209
4200000000 -13.70061 102.43078 15.122429 -41.499294 -21.475779 -78.959686 -10.767473 59.371029
4250000000 -13.55358 99.83065 15.032517 -43.618572 -21.456743 -80.176071 -10.710421 57.615257
4300000000 -13.38348 97.333687 14.940096 -45.805363 -21.417299 -81.45359 -10.625672 55.58004
4350000000 -13.23656 94.930229 14.850092 -47.968723 -21.340187 -82.850769 -10.548475 53.920586
4400000000 -13.091406 92.379341 14.757213 -50.080936 -21.314531 -84.162712 -10.477685 51.8605
4450000000 -12.961864 90.017349 14.66881 -52.26263 -21.282137 -85.52652 -10.391126 50.08884
4500000000 -12.802718 87.264641 14.574814 -54.404629 -21.236633 -86.893951 -10.329593 48.114025
4550000000 -12.651543 85.036766 14.48601 -56.558689 -21.182529 -88.179176 -10.233912 46.364841
4600000000 -12.484759 82.435204 14.395621 -58.715382 -21.1446 -89.501671 -10.16977 44.434517
4650000000 -12.331296 80.05616 14.299312 -60.830383 -21.106384 -90.944466 -10.075339 42.544987
4700000000 -12.210105 77.49794 14.207372 -62.946327 -21.074619 -92.191933 -10.002705 40.828659
4750000000 -12.019224 75.048866 14.115421 -65.076843 -21.029522 -93.552666 -9.9247627 38.852394
4800000000 -11.883691 72.786858 14.027612 -67.175903 -20.988426 -94.941505 -9.8454885 37.222729
4850000000 -11.727766 70.194305 13.937389 -69.288818 -20.965637 -96.200851 -9.7801065 35.306129
4900000000 -11.584708 67.980301 13.847542 -71.393333 -20.92395 -97.534355 -9.6912823 33.531788
4950000000 -11.435563 65.340324 13.75808 -73.505234 -20.892529 -98.971184 -9.6355009 31.751856
5000000000 -11.284302 63.169796 13.666604 -75.61319 -20.872612 -100.32269 -9.541584 29.905035
5050000000 -11.148895 60.728451 13.579185 -77.697357 -20.834785 -101.64255 -9.4930077 28.204309
5100000000 -10.989179 58.425697 13.486176 -79.797813 -20.817808 -103.06012 -9.4070969 26.378248
5150000000 -10.853425 56.075756 13.397938 -81.914246 -20.759703 -104.33521 -9.32617 24.7684
5200000000 -10.6951 53.779766 13.310028 -83.979698 -20.750055 -105.75175 -9.2681217 22.900024
5250000000 -10.543852 51.45686 13.218825 -86.082115 -20.714563 -107.07296 -9.1779795 21.182524
5300000000 -10.398147 49.13596 13.133128 -88.199501 -20.691233 -108.59964 -9.1099386 19.522022
5350000000 -10.247046 46.933659 13.039554 -90.28093 -20.672352 -109.82033 -9.0375977 17.710608
5400000000 -10.109732 44.589817 12.94891 -92.374725 -20.628166 -111.27086 -8.968564 16.140835
5450000000 -9.9531927 42.378223 12.855875 -94.445633 -20.600657 -112.70919 -8.8970928 14.284795
5500000000 -9.8223219 40.176495 12.766016 -96.521667 -20.592846 -114.05 -8.8161364 12.744141
5550000000 -9.6691065 38.060326 12.674941 -98.610199 -20.569527 -115.40447 -8.7616835 10.963625
5600000000 -9.5308056 35.856262 12.58403 -100.66661 -20.543455 -116.77248 -8.6834288 9.2984514
5650000000 -9.3906822 33.715523 12.489118 -102.73467 -20.540415 -118.27257 -8.6259117 7.6323428
5700000000 -9.2572279 31.558985 12.401645 -104.79441 -20.503426 -119.65229 -8.5593119 6.011353
5750000000 -9.12994 29.447559 12.30826 -106.84711 -20.507267 -121.0201 -8.4997311 4.4019251
5800000000 -8.9893637 27.359447 12.215351 -108.91087 -20.490011 -122.52129 -8.439127 2.6874671
5850000000 -8.8667927 25.22175 12.121356 -110.94013 -20.484013 -123.70921 -8.3637047 1.1729552
5900000000 -8.7223129 23.208574 12.028265 -112.98638 -20.468969 -125.15378 -8.3213167 -0.5333358
5950000000 -8.606801 21.210339 11.938071 -115.03442 -20.442644 -126.47386 -8.2420311 -2.0959942
6000000000 -8.4697475 19.039726 11.843531 -117.06398 -20.422947 -127.78755 -8.1976013 -3.7334638
6050000000 -8.3422337 17.093016 11.745153 -119.10172 -20.420254 -129.09732 -8.1230459 -5.3301363
6100000000 -8.2136536 15.043301 11.651777 -121.13232 -20.419367 -130.50305 -8.079237 -6.850821
6150000000 -8.0873775 13.132912 11.555873 -123.15707 -20.411314 -131.97546 -8.0288973 -8.5209885
6200000000 -7.986763 11.171013 11.464091 -125.12788 -20.398649 -133.29272 -7.9662671 -9.9732943
6250000000 -7.852694 9.2279472 11.363943 -127.183 -20.393122 -134.75201 -7.9284072 -11.541822
6300000000 -7.7496753 7.4055958 11.270425 -129.15623 -20.385061 -136.18195 -7.8694654 -13.184178
6350000000 -7.6336083 5.4521551 11.174359 -131.16656 -20.369833 -137.4859 -7.8272572 -14.58163
6400000000 -7.5178285 3.6939895 11.084129 -133.16562 -20.376289 -138.76724 -7.7825723 -16.208439
6450000000 -7.4184656 1.7079748 10.98565 -135.15318 -20.362349 -140.1097 -7.7338967 -17.639004
6500000000 -7.3036027 -0.087215148 10.88728 -137.16429 -20.36272 -141.54868 -7.700161 -19.249046
6550000000 -7.198442 -1.8960503 10.791399 -139.14244 -20.363947 -142.96069 -7.656095 -20.730564
6600000000 -7.094739 -3.7134666 10.696413 -141.11212 -20.356245 -144.32405 -7.6120434 -22.242235
6650000000 -6.9915009 -5.4700694 10.598965 -143.07298 -20.365204 -145.60075 -7.5714307 -23.728682
6700000000 -6.8959622 -7.3444514 10.500399 -145.06422 -20.368431 -146.8979 -7.5382233 -25.151649
6750000000 -6.7899232 -8.9696493 10.406582 -147.02515 -20.361012 -148.3134 -7.5048165 -26.684063
6800000000 -6.7022696 -10.728267 10.304439 -148.97723 -20.367214 -149.61069 -7.4702091 -28.138742
6850000000 -6.6009636 -12.440682 10.207418 -150.91248 -20.368114 -150.89328 -7.4345174 -29.514259
6900000000 -6.5068369 -14.166056 10.104682 -152.89532 -20.375261 -152.33156 -7.4025126 -31.050694
6950000000 -6.4260917 -15.855223 10.00955 -154.78893 -20.376898 -153.51265 -7.3695083 -32.386269
7000000000 -6.3358626 -17.468149 9.9125051 -156.74173 -20.373371 -154.92397 -7.3442564 -33.795605
7050000000 -6.2497654 -19.117559 9.8185778 -158.69551 -20.378757 -156.28522 -7.317697 -35.281891
7100000000 -6.1657729 -20.780596 9.7165823 -160.6216 -20.381348 -157.63737 -7.2812386 -36.629055
7150000000 -6.0837264 -22.322079 9.6204777 -162.51489 -20.390583 -158.84798 -7.2610307 -38.04879
7200000000 -6.0050225 -23.964422 9.5215569 -164.48174 -20.410929 -160.28972 -7.225461 -39.44503
7250000000 -5.9271793 -25.544359 9.4232779 -166.35255 -20.398735 -161.54182 -7.2053938 -40.778469
7300000000 -5.8508806 -27.135296 9.3221664 -168.32201 -20.418482 -162.83131 -7.1664934 -42.250767
7350000000 -5.7703524 -28.714628 9.2259636 -170.18135 -20.420803 -164.11095 -7.1443114 -43.479347
7400000000 -5.6888633 -30.212803 9.1312113 -172.09998 -20.425013 -165.50092 -7.1212335 -44.938686
7450000000 -5.6274333 -31.786797 9.0298491 -173.98393 -20.427317 -166.89621 -7.0899897 -46.154987
7500000000 -5.5481133 -33.256157 8.9346666 -175.85519 -20.452785 -168.17455 -7.0798025 -47.507908
7550000000 -5.494338 -34.742016 8.8357182 -177.72502 -20.456381 -169.38814 -7.0379581 -48.857143
7600000000 -5.4213018 -36.244522 8.7366943 -179.57947 -20.467745 -170.5722 -7.0197339 -50.010246
7650000000 -5.3659821 -37.637634 8.636446 178.50732 -20.488813 -171.8502 -6.9997931 -51.420071
7700000000 -5.2913451 -39.154724 8.5484362 176.69019 -20.484743 -173.20316 -6.9673705 -52.566845
7750000000 -5.2242785 -40.531868 8.4431314 174.85072 -20.476055 -174.41554 -6.9636898 -53.882347
7800000000 -5.1839476 -42.061321 8.3431253 172.9913 -20.503923 -175.76169 -6.9215317 -55.107605
7850000000 -5.0988011 -43.414013 8.2566261 171.1597 -20.492775 -176.8736 -6.9113817 -56.28968
7900000000 -5.0647535 -44.748489 8.1537704 169.31958 -20.521441 -178.12631 -6.8838272 -57.677849
7950000000 -5.0007801 -46.290939 8.0602636 167.48987 -20.529181 -179.45703 -6.8542571 -58.726139
8000000000 -4.9428601 -47.54562 7.965714 165.68721 -20.537977 179.43834 -6.8504133 -60.062199
8050000000 -4.8926258 -49.081551 7.8752565 163.84193 -20.539 178.01875 -6.7955699 -61.160881
8100000000 -4.8376303 -50.322937 7.7813373 162.07195 -20.531086 176.86147 -6.8005338 -62.313457
8150000000 -4.8060827 -51.722176 7.6900897 160.24547 -20.545851 175.69058 -6.7641964 -63.504482
8200000000 -4.73525 -53.083221 7.5948277 158.44662 -20.559864 174.41347 -6.7569175 -64.521347
8250000000 -4.7023807 -54.346981 7.5056181 156.646 -20.562931 173.23732 -6.7286234 -65.78701
8300000000 -4.6624885 -55.79591 7.4114118 154.87775 -20.563423 171.95584 -6.6974087 -66.706131
8350000000 -4.6053181 -56.916199 7.3284917 153.11919 -20.557703 170.86378 -6.7026157 -67.844788
8400000000 -4.5718036 -58.305733 7.2391539 151.33977 -20.565269 169.58919 -6.660418 -68.957451
8450000000 -4.518981 -59.515945 7.1439052 149.60455 -20.571526 168.40247 -6.6532989 -69.975754
8500000000 -4.4954219 -60.840042 7.0604062 147.82672 -20.568138 167.25487 -6.6208048 -71.06562
8550000000 -4.4419303 -62.214855 6.9701338 146.10225 -20.571756 165.9975 -6.6081281 -72.014404
8600000000 -4.415163 -63.307987 6.8818588 144.41133 -20.575874 164.80455 -6.587358 -73.159256
8650000000 -4.381886 -64.729805 6.7918758 142.5867 -20.597082 163.68878 -6.5502076 -74.083763
8700000000 -4.3339024 -65.837349 6.7085204 140.91246 -20.595257 162.46326 -6.5505424 -75.061554
8750000000 -4.3125043 -67.117241 6.6266351 139.24544 -20.583843 161.36771 -6.5171781 -76.111191
8800000000 -4.2641678 -68.365807 6.5438166 137.50764 -20.595856 160.23601 -6.5080724 -77.019478
8850000000 -4.244103 -69.562996 6.4655523 135.76204 -20.580332 159.09579 -6.4745307 -78.081123
8900000000 -4.2144246 -70.910164 6.3775783 134.0347 -20.589245 157.85057 -6.4618034 -78.928169
8950000000 -4.1859541 -71.974678 6.2924733 132.34695 -20.600073 156.74268 -6.4568615 -79.963821
9000000000 -4.1734476 -73.255516 6.2068305 130.70337 -20.599209 155.6176 -6.4175 -80.888321
9050000000 -4.131289 -74.38607 6.1321588 128.98723 -20.590219 154.42281 -6.4207053 -81.790756
9100000000 -4.1146278 -75.588715 6.053534 127.34891 -20.581163 153.4418 -6.3974705 -82.757111
9150000000 -4.0841312 -76.849083 5.970788 125.63554 -20.560368 152.28008 -6.3754168 -83.549904
9200000000 -4.0607152 -77.962364 5.899744 123.98673 -20.572506 151.13492 -6.366847 -84.454697
9250000000 -4.0406265 -79.279846 5.8177295 122.26176 -20.550882 149.85222 -6.3373795 -85.358307
9300000000 -4.0208349 -80.378601 5.742744 120.61803 -20.546322 148.83253 -6.3298621 -86.256882
9350000000 -4.0014105 -81.575394 5.6625357 118.98206 -20.535818 147.66502 -6.3038049 -87.056145
9400000000 -3.9885643 -82.692017 5.5886273 117.35922 -20.536087 146.56267 -6.2940683 -87.942444
9450000000 -3.9629512 -83.836258 5.5270085 115.71375 -20.523645 145.50578 -6.2804565 -88.876595
9500000000 -3.9417577 -85.027229 5.4553261 114.09504 -20.514185 144.3205 -6.2576914 -89.720215
9550000000 -3.9197371 -86.227997 5.3892236 112.41915 -20.504997 143.25859 -6.252893 -90.582878
9600000000 -3.9060597 -87.47625 5.3143229 110.70953 -20.504408 142.05798 -6.2362604 -91.4338
9650000000 -3.9008212 -88.612366 5.2445893 109.08674 -20.483088 140.99814 -6.2123704 -92.345619
9700000000 -3.8793213 -89.762756 5.1838613 107.42932 -20.461329 139.80666 -6.21135 -93.22847
9750000000 -3.8767858 -90.971107 5.1103325 105.80962 -20.453623 138.90486 -6.1926813 -94.081619
9800000000 -3.8603945 -92.137222 5.0414648 104.17132 -20.448126 137.68568 -6.2021885 -94.919525
9850000000 -3.8463469 -93.325432 4.9843144 102.53282 -20.407814 136.67009 -6.1857643 -95.711617
9900000000 -3.8415546 -94.51339 4.923367 100.92767 -20.387714 135.52805 -6.1537504 -96.586517
9950000000 -3.8259885 -95.699356 4.86202 99.236229 -20.382196 134.34082 -6.1805882 -97.575943
10000000000 -3.8265228 -96.97348 4.7922816 97.549469 -20.350388 133.35658 -6.148715 -98.429214
10050000000 -3.8166645 -98.098549 4.7345099 95.868668 -20.303358 132.27679 -6.1506271 -99.35183
10100000000 -3.8221371 -99.301476 4.6672769 94.288956 -20.29575 130.93626 -6.1437578 -100.19626
10150000000 -3.802983 -100.46332 4.6151075 92.772713 -20.248289 129.78145 -6.1106982 -100.95957
10200000000 -3.7987909 -101.6839 4.552352 90.992989 -20.242756 128.57742 -6.1451817 -102.22033
10250000000 -3.7875149 -103.01307 4.5091686 89.360451 -20.233406 127.45875 -6.1088796 -102.95844
10300000000 -3.7818189 -104.16785 4.463728 87.70594 -20.19454 126.2082 -6.0922403 -103.87315
10350000000 -3.7941709 -105.54911 4.395216 86.006462 -20.189713 125.05156 -6.1172819 -104.95057
10400000000 -3.7840712 -106.684 4.3414559 84.403374 -20.154367 123.98259 -6.0945768 -105.66025
10450000000 -3.7937868 -108.06094 4.2886209 82.601181 -20.125078 122.70074 -6.1000032 -106.9229
10500000000 -3.7844031 -109.28089 4.2410655 81.081055 -20.108051 121.70592 -6.1002083 -107.55542
10550000000 -3.7937863 -110.52411 4.191062 79.330048 -20.072231 120.52699 -6.1007648 -108.6955
10600000000 -3.7932003 -111.90565 4.138155 77.647789 -20.057341 119.32877 -6.0979156 -109.91442
10650000000 -3.7800193 -113.064 4.0978713 76.008003 -20.006699 118.1841 -6.0916038 -110.63177
10700000000 -3.7886207 -114.53461 4.0536613 74.213882 -19.958342 116.86903 -6.0841303 -111.95071
10750000000 -3.7898307 -115.86096 4.0006614 72.541687 -19.9524 115.6524 -6.1025963 -112.75777
10800000000 -3.8100533 -117.19846 3.9561965 70.824287 -19.895744 114.51237 -6.0976167 -113.90883
10850000000 -3.8042414 -118.62854 3.8977163 69.094292 -19.872707 113.16969 -6.0839877 -115.09645
10900000000 -3.8090661 -119.83068 3.8647768 67.444878 -19.825508 112.07893 -6.1097918 -115.96362
10950000000 -3.8101733 -121.45702 3.829788 65.637474 -19.782812 110.66286 -6.0631962 -117.31155
11000000000 -3.8184416 -122.68665 3.7845907 63.980843 -19.783159 109.67555 -6.1172285 -118.19238
11050000000 -3.8336995 -124.22636 3.7494001 62.158302 -19.729616 108.22789 -6.0977831 -119.5089
11100000000 -3.8258979 -125.62397 3.6998823 60.40543 -19.692902 106.9766 -6.0841212 -120.64296
11150000000 -3.8512924 -127.08302 3.6667857 58.697342 -19.647667 105.74551 -6.1315699 -121.66556
11200000000 -3.8488779 -128.67633 3.6253717 56.854084 -19.588814 104.47824 -6.0876002 -122.96608
11250000000 -3.8672304 -130.0186 3.5880213 55.143658 -19.560946 103.285 -6.1333818 -124.07812
11300000000 -3.8766999 -131.66667 3.5394232 53.296814 -19.51413 101.94389 -6.1170378 -125.53753
11350000000 -3.8687849 -133.03328 3.5108111 51.502598 -19.454229 100.50583 -6.092299 -126.69436
11400000000 -3.8945403 -134.73335 3.4734745 49.732075 -19.426302 99.252075 -6.1407781 -128.02286
11450000000 -3.8781099 -136.28603 3.4313879 47.895374 -19.362732 98.042343 -6.1078157 -129.15683
11500000000 -3.9116426 -137.88132 3.3982847 46.060421 -19.332119 96.521393 -6.1344395 -130.5695
11550000000 -3.9010251 -139.65701 3.3621538 44.184662 -19.269012 95.174644 -6.1229105 -131.88026
11600000000 -3.9178531 -141.03476 3.3362365 42.420444 -19.226891 93.720871 -6.1268559 -133.04134
11650000000 -3.9285996 -142.94713 3.2996614 40.51965 -19.194679 92.217407 -6.1383324 -134.69615
11700000000 -3.9177055 -144.50961 3.2647362 38.610806 -19.133083 90.975983 -6.1211739 -135.84328
11750000000 -3.9430268 -146.30785 3.2363789 36.75835 -19.085825 89.336563 -6.1404624 -137.40225
11800000000 -3.9273202 -148.11507 3.195863 34.821266 -19.079815 87.994156 -6.1341443 -138.89279
11850000000 -3.9539802 -149.76451 3.1685333 32.980057 -19.009848 86.608994 -6.1469111 -140.24007
11900000000 -3.9506249 -151.77144 3.1347229 30.98667 -18.977083 85.060318 -6.1378417 -141.8743
11950000000 -3.959192 -153.43291 3.0937276 29.026268 -18.924944 83.773476 -6.1447754 -143.21892
12000000000 -3.9687557 -155.37489 3.0674672 27.178429 -18.865532 82.209381 -6.1412754 -144.93338
12050000000 -3.9615097 -157.21957 3.0283864 25.186781 -18.854691 80.622589 -6.1440163 -146.45744
12100000000 -3.9870999 -159.14316 2.9933147 23.250889 -18.793091 79.197159 -6.1494703 -148.0168
12150000000 -3.9733841 -161.14964 2.9596114 21.243692 -18.769386 77.577339 -6.1536422 -149.72377
12200000000 -3.984482 -163.01265 2.9173541 19.296303 -18.709036 76.188637 -6.161129 -151.31128
12250000000 -3.9792111 -165.06371 2.8787644 17.293842 -18.660238 74.528931 -6.1411529 -153.09409
12300000000 -3.9846268 -166.98518 2.8436184 15.306429 -18.65081 72.986832 -6.1536732 -154.66113
12350000000 -3.9984496 -169.0759 2.8053191 13.24294 -18.6026 71.524567 -6.1552606 -156.44119
12400000000 -3.9940763 -171.00906 2.7627819 11.278621 -18.544128 69.961266 -6.1540594 -158.32108
12450000000 -3.9790542 -173.06526 2.725647 9.1853666 -18.526917 68.336876 -6.1529937 -159.96617
12500000000 -3.9669251 -175.11086 2.6848032 7.197084 -18.450855 66.654816 -6.1414795 -161.88779
12550000000 -3.9640183 -177.35889 2.6449492 5.0983968 -18.443998 64.811546 -6.146265 -163.76845
12600000000 -3.961659 -179.53831 2.6018863 2.9361825 -18.408163 63.291389 -6.1532526 -165.50201
12650000000 -3.9641831 178.3779 2.55214 0.92373347 -18.376753 61.628147 -6.1406078 -167.66748
12700000000 -3.9391186 176.24904 2.4989457 -1.162171 -18.367235 59.976814 -6.1500945 -169.43867
12750000000 -3.9363744 173.96022 2.4513078 -3.2845516 -18.312452 58.388126 -6.1276331 -171.41362
12800000000 -3.9043763 171.75543 2.4093378 -5.3882456 -18.286039 56.479397 -6.1455827 -173.65329
12850000000 -3.9045699 169.61459 2.3547413 -7.5713773 -18.281353 54.875443 -6.1450748 -175.51808
12900000000 -3.8906786 167.27913 2.2955079 -9.6990919 -18.244596 53.265614 -6.111177 -177.72089
12950000000 -3.8467939 165.2328 2.2483242 -11.852554 -18.223394 51.471813 -6.1294947 -179.82011
13000000000 -3.8306203 162.74306 2.1916602 -14.080578 -18.195332 49.786171 -6.1013947 177.98962
13050000000 -3.7989845 160.55292 2.1248958 -16.18508 -18.175972 47.83609 -6.073813 175.67888
13100000000 -3.7980371 158.29121 2.061568 -18.424088 -18.188549 46.076218 -6.1094079 173.48784
13150000000 -3.7570918 155.97433 1.9870143 -20.550297 -18.156776 44.479031 -6.0342379 171.18192
13200000000 -3.7362006 153.93268 1.9256564 -22.712587 -18.149811 42.495182 -6.0512896 168.97118
13250000000 -3.700125 151.27827 1.859939 -25.002728 -18.139198 40.778187 -6.0153246 166.53926
13300000000 -3.6627479 149.16257 1.7846949 -27.198503 -18.135727 38.801632 -5.9653196 164.29706
13350000000 -3.6496902 146.77083 1.7053194 -29.463438 -18.143299 37.080368 -6.0064216 161.74365
13400000000 -3.5927062 144.51569 1.6177756 -31.616163 -18.145607 35.383408 -5.9115396 159.53485
13450000000 -3.5852585 142.36157 1.5410328 -33.816078 -18.136164 33.523804 -5.9340477 157.05952
13500000000 -3.5165515 139.91093 1.4513961 -36.053814 -18.145617 31.797079 -5.8794127 154.48349
13550000000 -3.4903071 137.86273 1.3661468 -38.316071 -18.146933 29.751907 -5.8173709 152.2039
13600000000 -3.4499669 135.31332 1.2795868 -40.494198 -18.181173 27.731981 -5.8268852 149.53941
13650000000 -3.3971517 133.29674 1.1867321 -42.678444 -18.191284 26.21035 -5.7382789 147.44414
13700000000 -3.3838146 130.91914 1.0850759 -45.049839 -18.232134 24.070938 -5.7346511 144.37958
13750000000 -3.301784 128.73862 0.97399747 -47.283218 -18.249832 22.225367 -5.6337566 141.95256
13800000000 -3.2909725 126.64832 0.87164974 -49.396477 -18.239374 20.394802 -5.5967126 139.93161
13850000000 -3.238704 124.2354 0.74966735 -51.681778 -18.332813 18.300434 -5.5646386 136.83432
13900000000 -3.2021091 122.39583 0.64777565 -53.822178 -18.358868 16.792849 -5.4785833 134.94728
13950000000 -3.158149 119.98971 0.54405564 -56.127205 -18.382736 14.776561 -5.4328732 132.07156
14000000000 -3.0887308 118.12501 0.41487086 -58.319618 -18.42729 12.972261 -5.3510389 129.70164
14050000000 -3.0697227 115.89726 0.30267715 -60.521782 -18.454941 11.07487 -5.3123913 127.57185
14100000000 -3.0040729 113.7469 0.15263662 -62.741386 -18.53237 9.1275997 -5.2355618 124.63103
14150000000 -2.9886336 111.85196 0.031864122 -64.825439 -18.585037 7.3522606 -5.1819129 122.67904
14200000000 -2.9361212 109.68552 -0.10634618 -67.075188 -18.650843 5.4456735 -5.0947843 119.91628
14250000000 -2.8868728 107.95891 -0.23359139 -69.09655 -18.708485 3.6615782 -5.0225019 117.77113
14300000000 -2.8402264 105.74613 -0.36396959 -71.299889 -18.751278 1.8688339 -4.9705162 115.35271
14350000000 -2.7821636 103.82001 -0.51248789 -73.555809 -18.837124 -0.15241355 -4.8474288 112.7422
14400000000 -2.7702165 101.95082 -0.65143186 -75.607903 -18.923622 -1.7735473 -4.8071966 110.77622
14450000000 -2.7163246 100.06741 -0.81434613 -77.785088 -19.015934 -3.7086501 -4.7053924 108.30952
14500000000 -2.7011311 98.345474 -0.97822571 -79.82074 -19.110027 -5.4224119 -4.6442986 106.31147
14550000000 -2.6397734 96.442108 -1.1176397 -81.883087 -19.151657 -7.0434384 -4.5682769 104.16628
14600000000 -2.5960002 94.769066 -1.274006 -83.851761 -19.235611 -8.9885511 -4.4611526 102.0088
14650000000 -2.5655103 92.899658 -1.4266378 -85.904503 -19.348249 -10.733681 -4.4247222 99.960899
14700000000 -2.514333 91.258202 -1.5756379 -87.969315 -19.431406 -12.305311 -4.3203425 97.824326
14750000000 -2.4908981 89.513184 -1.7420321 -90.033852 -19.54253 -14.039096 -4.2598634 95.817146
14800000000 -2.4459183 87.835999 -1.91392 -91.991066 -19.618261 -15.639653 -4.1817999 93.796089
14850000000 -2.4273508 86.200783 -2.0939755 -93.901451 -19.713997 -17.566454 -4.0968437 91.811317
14900000000 -2.3945372 84.605408 -2.2580273 -95.824608 -19.847725 -19.170404 -4.0397391 89.847786
14950000000 -2.3705523 83.138168 -2.420711 -97.67202 -19.933811 -20.578897 -3.9452839 88.12722
15000000000 -2.3167055 81.570847 -2.5867014 -99.5158 -20.057991 -22.339176 -3.890919 86.280579
15050000000 -2.2883573 80.089035 -2.7530177 -101.46527 -20.166941 -23.804493 -3.8168719 84.53746
15100000000 -2.254859 78.494057 -2.9294934 -103.29696 -20.253592 -25.459625 -3.7310517 82.755867
15150000000 -2.2340686 77.094116 -3.1012809 -105.22593 -20.382816 -27.213884 -3.6798701 80.949524
15200000000 -2.2296975 75.681458 -3.2920301 -106.92622 -20.492651 -28.41988 -3.6043334 79.436852
15250000000 -2.1808276 74.410423 -3.4634864 -108.70959 -20.610981 -29.94454 -3.5503283 77.73436
15300000000 -2.1684685 73.063843 -3.6416407 -110.50457 -20.736271 -31.31776 -3.5119038 76.167007
15350000000 -2.1109502 71.69812 -3.8046224 -112.18594 -20.799543 -32.775688 -3.4116271 74.594551
15400000000 -2.1044483 70.387978 -3.974658 -113.92546 -20.954447 -34.45697 -3.3623447 72.971672
15450000000 -2.0938821 68.960762 -4.1718421 -115.64954 -21.078939 -35.750561 -3.3129897 71.666946
15500000000 -2.0752716 67.97728 -4.3361425 -117.34967 -21.188473 -37.360958 -3.2465336 70.023529
15550000000 -2.0615232 66.604652 -4.523221 -118.99776 -21.328079 -38.707745 -3.2179852 68.52729
15600000000 -2.0102496 65.528412 -4.6974916 -120.6183 -21.429859 -40.168274 -3.1258824 67.28698
15650000000 -2.0113826 64.297897 -4.8651657 -122.20399 -21.571604 -41.813126 -3.101336 65.780495
15700000000 -1.9670782 63.076626 -5.0433779 -123.8063 -21.734066 -42.811447 -3.0418291 64.568031
15750000000 -1.9699287 62.173855 -5.2083335 -125.36286 -21.809374 -44.01511 -2.9840953 63.330921
15800000000 -1.9442759 60.842705 -5.3804226 -127.08156 -21.946058 -45.625935 -2.9578145 61.689709
15850000000 -1.9188725 60.030533 -5.558156 -128.46207 -22.068102 -46.342537 -2.8678041 60.839275
15900000000 -1.920136 58.765266 -5.7335825 -130.05569 -22.16608 -48.027744 -2.8698256 59.358894
15950000000 -1.8920749 57.875416 -5.9035187 -131.57942 -22.363216 -49.255527 -2.8146694 58.072098
16000000000 -1.9006052 56.913456 -6.0617924 -133.05341 -22.425699 -50.118248 -2.7468913 57.122616
16050000000 -1.8465667 55.930481 -6.238821 -134.58188 -22.56835 -51.520435 -2.733052 55.542629
16100000000 -1.8474616 54.98613 -6.4103584 -135.91078 -22.69952 -52.338871 -2.6818464 54.905613
16150000000 -1.8328896 53.800285 -6.5754747 -137.47305 -22.786371 -53.946514 -2.651521 53.429428
16200000000 -1.8202356 53.153496 -6.7300262 -138.84019 -22.915188 -54.85696 -2.6168823 52.369423
16250000000 -1.8238065 52.072311 -6.8872876 -140.31981 -23.011412 -56.070183 -2.5910144 51.287601
16300000000 -1.7659585 51.293789 -7.0509434 -141.68756 -23.126305 -57.432438 -2.5396473 49.886799
16350000000 -1.7744474 50.28093 -7.2133727 -143.15991 -23.245815 -58.27557 -2.5299072 49.273849
16400000000 -1.7508212 49.212353 -7.3700533 -144.63087 -23.326181 -59.712963 -2.4741297 47.802498
16450000000 -1.768211 48.520565 -7.534277 -145.98196 -23.444717 -60.75045 -2.4417191 46.848324
16500000000 -1.7569002 47.585068 -7.7000065 -147.22473 -23.585264 -61.822495 -2.4467664 45.998611
16550000000 -1.7361304 47.020226 -7.8445206 -148.56065 -23.681143 -63.10965 -2.3825443 44.834583
16600000000 -1.7354033 46.053921 -7.9771638 -149.85114 -23.836948 -63.966621 -2.3737462 44.076408
16650000000 -1.7075286 45.24799 -8.1373491 -151.25598 -23.936981 -65.344315 -2.3179643 42.940945
16700000000 -1.7216355 44.584816 -8.2705259 -152.5298 -24.092672 -66.412735 -2.3255217 42.108517
16750000000 -1.6979092 43.674519 -8.4238749 -153.90157 -24.172041 -67.155632 -2.3136454 41.132179
16800000000 -1.7109269 43.056274 -8.5846272 -155.27814 -24.286665 -68.412666 -2.2425518 40.056728
16850000000 -1.696167 42.188404 -8.715045 -156.48541 -24.432566 -69.27816 -2.258194 39.196232
16900000000 -1.6870472 41.635403 -8.8625231 -157.8056 -24.522825 -70.438438 -2.1952853 38.153961
16950000000 -1.6835878 40.829498 -9.0008707 -159.0218 -24.69153 -71.472244 -2.2096748 37.26194
17000000000 -1.6501496 40.150043 -9.1361246 -160.34207 -24.87517 -72.364883 -2.1817756 36.207088
17050000000 -1.6595001 39.346294 -9.2633352 -161.69275 -24.927767 -73.064323 -2.1278234 35.515656
17100000000 -1.6475775 38.584225 -9.4118519 -162.92119 -25.104637 -73.631622 -2.1564245 34.731392
17150000000 -1.667076 37.948574 -9.5659227 -164.22246 -25.142023 -74.685448 -2.0882168 33.903988
17200000000 -1.6575406 37.158958 -9.7081909 -165.35754 -25.238897 -75.736191 -2.0821061 32.927994
17250000000 -1.64802 36.707264 -9.8245716 -166.51524 -25.415356 -76.39917 -2.0718963 32.101616
17300000000 -1.6536616 35.887131 -9.9462461 -167.72807 -25.507914 -77.277275 -2.0444171 31.433643
17350000000 -1.6279043 35.318913 -10.061229 -168.90778 -25.65645 -77.755943 -2.0423617 30.528114
17400000000 -1.6342764 34.557014 -10.182469 -170.14366 -25.72732 -78.526558 -1.9986634 30.019901
17450000000 -1.6147387 33.899403 -10.313134 -171.41544 -25.837355 -79.467316 -1.9941888 28.774796
17500000000 -1.6474271 33.250732 -10.456234 -172.70714 -25.956564 -79.894531 -1.9796289 28.082935
17550000000 -1.6320908 32.551338 -10.566817 -173.73035 -26.011881 -80.531883 -1.9621508 27.460691
17600000000 -1.6347868 32.076473 -10.693391 -174.92334 -26.137436 -81.305054 -1.9507145 26.450867
17650000000 -1.6207345 31.37612 -10.801266 -175.99278 -26.280975 -81.842056 -1.9407295 26.052155
17700000000 -1.6040807 30.773779 -10.917594 -177.24081 -26.355722 -82.70266 -1.9109704 24.915327
17750000000 -1.6135421 30.080868 -11.022038 -178.32718 -26.469225 -83.317726 -1.9064806 24.314314
17800000000 -1.6040294 29.429623 -11.126103 -179.51852 -26.550097 -83.905594 -1.8893361 23.687544
17850000000 -1.6219256 28.691389 -11.24086 179.22209 -26.652025 -84.637291 -1.870016 22.782425
17900000000 -1.6100737 27.986443 -11.349705 178.00871 -26.764688 -84.948456 -1.8853199 22.181583
17950000000 -1.6368418 27.411266 -11.468956 176.84712 -26.835154 -85.92244 -1.8233204 21.256018
18000000000 -1.6354024 26.624317 -11.568603 175.76559 -27.003494 -86.769989 -1.8458145 20.723301
18050000000 -1.6284615 26.226988 -11.677749 174.68558 -27.132414 -86.650734 -1.8229103 20.052864
18100000000 -1.642067 25.440441 -11.767898 173.35864 -27.264666 -87.095947 -1.8016326 19.16354
18150000000 -1.6373547 24.7819 -11.880918 172.14951 -27.407648 -87.267281 -1.823853 18.600096
18200000000 -1.6557345 24.161591 -11.987736 170.98566 -27.497692 -87.021286 -1.7608365 17.941454
18250000000 -1.6688577 23.382917 -12.119275 169.73248 -27.580732 -87.01696 -1.8117859 17.026962
18300000000 -1.6947733 23.038967 -12.249046 168.68422 -27.636572 -86.507217 -1.7742349 16.397255
18350000000 -1.6985013 22.277578 -12.373747 167.67705 -27.608156 -86.482841 -1.7480046 15.836709
18400000000 -1.6851364 21.896479 -12.440578 166.70351 -27.645033 -86.55584 -1.7933309 15.029286
18450000000 -1.6851997 21.173326 -12.538697 165.76389 -27.637257 -86.993362 -1.7434257 14.397696
18500000000 -1.653302 20.414072 -12.614327 164.55911 -27.650623 -87.60955 -1.7650291 13.531112
18550000000 -1.6739033 19.550159 -12.687303 163.17238 -27.717064 -87.84668 -1.7537475 13.113692
18600000000 -1.7033213 18.743687 -12.803493 162.05551 -27.681889 -87.965683 -1.7118305 12.402529
18650000000 -1.7616793 18.091841 -12.928676 160.76212 -27.761963 -88.841614 -1.7439363 11.380411
18700000000 -1.7670397 17.46879 -13.041582 159.77605 -27.808643 -88.344383 -1.7310065 10.996264
18750000000 -1.7727065 17.00235 -13.116055 158.75041 -27.777008 -88.576302 -1.7270529 10.114124
18800000000 -1.8011627 16.169878 -13.210459 157.72392 -27.852724 -88.455353 -1.7659621 9.6760111
18850000000 -1.7836095 15.626266 -13.295815 156.63322 -27.771603 -88.854424 -1.7411873 9.0526752
18900000000 -1.8202723 14.947956 -13.377019 155.44147 -27.766464 -89.106842 -1.7544621 7.9460678
18950000000 -1.8025993 14.036985 -13.454522 154.32806 -27.7556 -88.937843 -1.7612298 7.5693402
19000000000 -1.8488277 13.422745 -13.560679 153.20795 -27.71751 -89.072861 -1.7367902 6.7198658
19050000000 -1.8796477 12.550571 -13.666139 151.91953 -27.782286 -89.141975 -1.8012387 5.9803562
19100000000 -1.9002055 12.183916 -13.773213 150.99706 -27.697987 -89.023064 -1.7699995 5.5779724
19150000000 -1.9310367 11.404606 -13.84589 149.99394 -27.556564 -88.986519 -1.7761981 4.676723
19200000000 -1.9030426 10.637404 -13.921013 148.92929 -27.486624 -88.796967 -1.808549 4.1895986
19250000000 -1.9595621 9.8990784 -13.995437 147.90764 -27.374876 -89.600624 -1.7691405 3.5138953
19300000000 -1.945106 9.0762835 -14.077717 146.67946 -27.304495 -89.793724 -1.8326033 2.6386108
19350000000 -2.0018327 8.5148344 -14.167787 145.78175 -27.211487 -89.723083 -1.7910271 2.5367117
19400000000 -2.016602 7.4038815 -14.251622 144.69838 -27.043604 -90.305191 -1.8046771 1.5966628
19450000000 -2.0423896 6.8921518 -14.329149 143.64864 -26.994665 -90.619492 -1.8280879 0.92639327
19500000000 -2.0921178 6.098949 -14.393639 142.62938 -26.809959 -90.647667 -1.7965987 0.57013857
19550000000 -2.0717869 5.513051 -14.46725 141.66205 -26.635122 -91.24752 -1.8446534 -0.67991024
19600000000 -2.1092806 4.6475 -14.530361 140.75591 -26.498356 -91.496872 -1.8309466 -0.70440096
19650000000 -2.103076 3.7019727 -14.597155 139.73288 -26.2715 -92.318558 -1.8370805 -1.5800519
19700000000 -2.1581378 2.9366996 -14.649071 138.67906 -26.164808 -93.222183 -1.8511912 -2.3296878
19750000000 -2.1884713 1.9412929 -14.700027 137.76064 -25.975052 -93.660858 -1.8385035 -2.614502
19800000000 -2.2117712 1.4438401 -14.758596 136.75729 -25.835777 -94.840309 -1.8335445 -3.8972266
19850000000 -2.2469823 0.35844138 -14.819392 135.87701 -25.734766 -95.68116 -1.8411262 -3.8523114
19900000000 -2.2537472 -0.40477648 -14.84192 134.7961 -25.50942 -96.713943 -1.8363092 -4.9226441
19950000000 -2.3043792 -1.2966895 -14.852961 133.94637 -25.45384 -97.82592 -1.8249183 -5.68678
20000000000 -2.304635 -2.1373901 -14.885451 132.81021 -25.288488 -98.51828 -1.8599628 -6.0808578
