!Keysight Technologies,N5242A,MY47200155,A.10.49.08
!Date: Thursday, October 19, 2023 15:27:46
!Correction: S11(Full 2 Port(1,2)) 
!S21(Full 2 Port(1,2)) 
!S12(Full 2 Port(1,2)) 
!S22(Full 2 Port(1,2)) 
!S2P File: Measurements: S11, S21, S12, S22:
# Hz S  dB   R 50
10000000 -17.375523 -3.1500795 20.618982 174.27641 -23.215975 -4.945467 -21.834511 8.4073553
20000000 -16.66877 -2.9528532 20.574562 176.11513 -22.987921 -3.8431063 -20.941965 1.6222862
30000000 -16.476803 -3.0049267 20.531065 176.2646 -23.079702 -3.1927943 -20.896448 -0.76457149
40000000 -16.484171 -3.5910437 20.4942 176.0699 -23.150492 -1.580862 -20.806128 -3.1213839
50000000 -16.427498 -4.5562835 20.475086 175.85612 -23.223627 -1.6190252 -20.740593 -5.2681108
60000000 -16.445652 -5.4900045 20.484392 175.46693 -23.212715 -1.9084756 -20.646379 -7.5198388
70000000 -16.487019 -6.6253095 20.49357 174.96466 -23.174826 -1.8497359 -20.614176 -9.9991093
80000000 -16.469131 -7.3522701 20.498909 174.42044 -23.145287 -1.6560329 -20.617264 -11.715621
90000000 -16.443626 -8.4239664 20.496128 173.92787 -23.195976 -2.0451434 -20.626934 -13.950057
100000000 -16.454535 -9.3172083 20.502052 173.38107 -23.169672 -1.8528856 -20.643877 -15.079528
150000000 -16.370358 -13.580929 20.493408 170.47815 -23.16864 -2.786114 -20.260731 -23.237219
200000000 -16.251913 -17.440414 20.487389 167.61035 -23.153687 -3.436636 -20.076864 -29.283566
250000000 -16.242071 -21.455856 20.471981 164.62524 -23.12439 -4.0174308 -19.930038 -36.534081
300000000 -16.125082 -26.071529 20.427679 161.75198 -23.12421 -5.0638509 -19.756977 -43.233242
350000000 -16.282076 -30.787567 20.43976 158.70982 -23.077827 -5.9162278 -19.551315 -48.718636
400000000 -15.988914 -35.36322 20.381046 155.83641 -23.09544 -6.8485465 -19.338318 -54.867439
450000000 -16.118069 -39.11974 20.388115 152.79971 -23.076187 -7.6488848 -19.05925 -60.279823
500000000 -16.002241 -43.863651 20.361769 149.98709 -23.048046 -8.4638748 -18.674913 -66.122711
550000000 -15.798376 -46.825703 20.2918 146.94931 -23.031708 -9.36376 -18.445768 -71.245689
600000000 -15.987802 -51.250977 20.324568 143.9902 -23.004034 -10.032514 -18.008669 -76.166168
650000000 -15.812676 -55.153362 20.266853 141.17151 -22.997002 -11.042925 -17.75736 -81.403694
700000000 -15.717443 -58.853977 20.209322 138.20703 -22.970884 -11.875808 -17.467573 -86.0755
750000000 -15.60498 -62.871216 20.17115 135.33627 -22.93564 -12.888175 -17.153311 -89.672852
800000000 -15.583183 -66.530426 20.136274 132.35905 -22.925755 -13.654159 -17.00495 -94.13855
850000000 -15.370023 -70.216866 20.07066 129.51082 -22.889416 -14.65675 -16.696074 -97.981895
900000000 -15.48829 -74.297165 20.073542 126.5627 -22.862167 -15.482907 -16.439655 -101.81432
950000000 -15.270172 -77.685646 19.996151 123.8292 -22.84251 -16.468666 -16.155731 -105.56131
1000000000 -15.121119 -80.185455 19.913776 120.91215 -22.813137 -17.208014 -15.955823 -109.32084
1050000000 -15.140219 -83.755432 19.876663 118.01984 -22.78334 -18.312254 -15.686707 -113.16392
1100000000 -15.069581 -86.872932 19.82044 115.16779 -22.751017 -19.301502 -15.433352 -116.18887
1150000000 -14.925138 -90.50293 19.762016 112.43448 -22.715168 -20.109253 -15.33123 -119.39703
1200000000 -14.668158 -92.06321 19.633938 109.61881 -22.700451 -21.086702 -15.037682 -122.6765
1250000000 -14.693226 -96.084854 19.61874 106.82813 -22.654581 -22.011658 -14.89957 -125.54523
1300000000 -14.554325 -98.587173 19.532167 104.06318 -22.636898 -23.022049 -14.727046 -128.55937
1350000000 -14.354121 -101.35463 19.448957 101.42336 -22.581396 -23.932844 -14.552582 -131.34471
1400000000 -14.243774 -104.22992 19.36834 98.65638 -22.537491 -25.051851 -14.395388 -134.23927
1450000000 -14.051587 -106.55202 19.27149 95.974968 -22.509453 -25.920395 -14.285051 -136.71704
1500000000 -14.060011 -110.12421 19.239588 93.276009 -22.486048 -26.909914 -14.152913 -139.68251
1550000000 -13.795647 -112.26476 19.11673 90.677406 -22.447393 -28.027082 -14.027249 -142.13824
1600000000 -13.671246 -115.26331 19.051977 88.097221 -22.395193 -29.03162 -13.916056 -144.62505
1650000000 -13.523539 -117.27965 18.945776 85.426895 -22.379898 -29.945021 -13.846487 -147.43071
1700000000 -13.458683 -120.76647 18.910788 82.846298 -22.332355 -30.990086 -13.736107 -149.64188
1750000000 -13.241313 -123.0516 18.797077 80.345573 -22.294064 -31.990349 -13.671931 -152.45633
1800000000 -13.041297 -125.30123 18.692097 77.819252 -22.251427 -32.903011 -13.620396 -154.83691
1850000000 -12.970124 -128.05211 18.615595 75.236237 -22.212948 -34.126442 -13.562559 -157.6033
1900000000 -12.923756 -130.92473 18.553083 72.651825 -22.159079 -35.107853 -13.503474 -159.97824
1950000000 -12.738921 -133.46562 18.461754 70.263191 -22.128103 -36.291874 -13.448831 -162.54396
2000000000 -12.697338 -135.99559 18.386932 67.672852 -22.08531 -37.165627 -13.438468 -164.84534
2050000000 -12.499741 -138.36298 18.286757 65.303238 -22.068237 -38.347843 -13.378687 -167.63065
2100000000 -12.4997 -141.09193 18.235327 62.680737 -21.99367 -39.453781 -13.326112 -169.75111
2150000000 -12.434526 -143.78139 18.163456 60.229977 -21.981007 -40.475666 -13.331094 -172.13269
2200000000 -12.205647 -146.06314 18.047039 57.896816 -21.939188 -41.490227 -13.279745 -174.88136
2250000000 -12.22091 -148.38199 17.983938 55.27829 -21.88751 -42.702419 -13.269806 -177.07481
2300000000 -12.139687 -151.30598 17.911581 52.9053 -21.839998 -43.754295 -13.271747 -179.63545
2350000000 -12.104288 -153.77586 17.837008 50.387753 -21.800634 -44.924694 -13.232582 177.83441
2400000000 -11.998807 -156.17734 17.751036 48.03912 -21.758654 -46.11264 -13.269113 175.37875
2450000000 -11.940147 -158.71736 17.668251 45.582108 -21.724215 -47.397774 -13.210495 172.55661
2500000000 -11.965435 -161.59639 17.622898 43.053833 -21.681818 -48.33849 -13.246556 170.31972
2550000000 -11.846596 -163.97922 17.525246 40.684864 -21.631037 -49.485474 -13.240019 167.34186
2600000000 -11.850804 -166.64862 17.460045 38.209042 -21.593979 -50.76926 -13.189016 164.76472
2650000000 -11.807695 -169.46286 17.38648 35.771523 -21.550535 -51.861523 -13.228041 162.26059
2700000000 -11.691509 -171.85062 17.295282 33.425739 -21.52099 -53.03756 -13.196283 159.19829
2750000000 -11.79668 -174.59744 17.244238 30.884361 -21.466208 -54.304028 -13.194084 156.84096
2800000000 -11.686357 -177.08301 17.14982 28.587225 -21.438171 -55.544117 -13.180213 153.83807
2850000000 -11.719207 -179.61311 17.085848 26.081831 -21.385462 -56.767464 -13.165303 151.42587
2900000000 -11.675325 177.58672 17.013853 23.749352 -21.358698 -57.877159 -13.160888 148.49132
2950000000 -11.648494 175.27458 16.925993 21.414509 -21.313877 -59.199436 -13.099374 145.84627
3000000000 -11.708132 172.38388 16.866184 18.898355 -21.270277 -60.383881 -13.098051 143.21352
3050000000 -11.627589 169.73735 16.78553 16.601948 -21.233427 -61.653454 -13.021314 140.27425
3100000000 -11.65463 167.12944 16.70854 14.1968 -21.203842 -62.908039 -12.997212 137.72282
3150000000 -11.62961 164.41751 16.631784 11.858885 -21.160889 -64.152473 -12.963203 134.89098
3200000000 -11.6547 161.89691 16.552643 9.4432783 -21.115395 -65.389282 -12.896564 132.3087
3250000000 -11.662064 159.12399 16.485435 7.0882893 -21.07567 -66.704224 -12.85843 129.62454
3300000000 -11.596981 156.56514 16.398844 4.8111901 -21.039293 -67.896111 -12.781856 126.991
3350000000 -11.632255 153.93907 16.322208 2.3976655 -21.003006 -69.202522 -12.741012 124.48394
3400000000 -11.609352 151.30756 16.245369 0.095234953 -20.970205 -70.43399 -12.682387 121.90182
3450000000 -11.566523 148.83859 16.160721 -2.2005763 -20.937176 -71.798943 -12.61635 119.40564
3500000000 -11.577124 146.03436 16.086649 -4.5437593 -20.908194 -73.080734 -12.570086 116.81173
3550000000 -11.516926 143.51328 16.006184 -6.8067646 -20.869417 -74.345818 -12.497556 114.30196
3600000000 -11.501339 140.91907 15.921165 -9.1043386 -20.839218 -75.645798 -12.426421 111.84791
3650000000 -11.4699 138.21077 15.847956 -11.416141 -20.804523 -76.907677 -12.351158 109.34934
3700000000 -11.449962 135.53789 15.768878 -13.682468 -20.779945 -78.27195 -12.294092 106.95911
3750000000 -11.410044 132.84549 15.689256 -15.975676 -20.739016 -79.601631 -12.219142 104.49239
3800000000 -11.334764 130.29237 15.605058 -18.207979 -20.708656 -80.90654 -12.153754 102.18807
3850000000 -11.310099 127.57133 15.528291 -20.506792 -20.688953 -82.304077 -12.088781 99.835487
3900000000 -11.254889 124.77875 15.44812 -22.768661 -20.645388 -83.61676 -12.03215 97.543297
3950000000 -11.179487 122.17005 15.369554 -25.03137 -20.60631 -84.904587 -11.958656 95.118622
4000000000 -11.131988 119.54906 15.289757 -27.241434 -20.581507 -86.236275 -11.887508 92.908371
4050000000 -11.038734 116.81526 15.203514 -29.469702 -20.543623 -87.603943 -11.826923 90.386101
4100000000 -10.997114 113.97327 15.127975 -31.720785 -20.529848 -88.984573 -11.735916 88.17218
4150000000 -10.902244 111.21587 15.04981 -33.947491 -20.502775 -90.279999 -11.673774 85.844162
4200000000 -10.81833 108.65929 14.960872 -36.117851 -20.488855 -91.609169 -11.599803 83.495834
4250000000 -10.741088 105.95691 14.885431 -38.344429 -20.454098 -92.988106 -11.545195 81.430771
4300000000 -10.637956 103.31214 14.804643 -40.58194 -20.43487 -94.265747 -11.470891 78.995148
4350000000 -10.564397 100.72267 14.72346 -42.804108 -20.400574 -95.737694 -11.402755 77.039871
4400000000 -10.484402 98.009209 14.644863 -45.007076 -20.372692 -97.079277 -11.361135 74.625137
4450000000 -10.388989 95.615005 14.562662 -47.222694 -20.364508 -98.440918 -11.279647 72.493164
4500000000 -10.32028 92.693375 14.482859 -49.456059 -20.343662 -99.922844 -11.252657 70.207184
4550000000 -10.225945 90.326782 14.40342 -51.66954 -20.319803 -101.19576 -11.184338 68.031647
4600000000 -10.118862 87.548698 14.327223 -53.904408 -20.2952 -102.60769 -11.139864 65.733795
4650000000 -10.008802 85.038651 14.237445 -56.066128 -20.284393 -104.13993 -11.079597 63.409954
4700000000 -9.9278717 82.424988 14.154862 -58.267204 -20.259047 -105.37528 -11.043279 61.305038
4750000000 -9.8029995 79.826714 14.074234 -60.472332 -20.256001 -106.81306 -10.990027 58.893757
4800000000 -9.696208 77.479492 13.991505 -62.616436 -20.234636 -108.17762 -10.934812 56.863327
4850000000 -9.597373 74.700012 13.916202 -64.826347 -20.202976 -109.6321 -10.918958 54.524616
4900000000 -9.4791088 72.495911 13.828011 -66.973854 -20.206827 -111.02885 -10.848712 52.241196
4950000000 -9.3991213 69.741562 13.755086 -69.161278 -20.199938 -112.43803 -10.830021 50.118233
5000000000 -9.2750845 67.46624 13.665079 -71.326576 -20.184792 -113.84769 -10.764389 47.771263
5050000000 -9.2035131 64.804863 13.596255 -73.510368 -20.174244 -115.25294 -10.741612 45.669117
5100000000 -9.0665236 62.464882 13.504601 -75.639641 -20.178057 -116.61338 -10.671866 43.275616
5150000000 -8.9916496 59.936523 13.429832 -77.853539 -20.155529 -118.05508 -10.610699 41.263714
5200000000 -8.8747663 57.484306 13.349015 -79.984924 -20.148817 -119.581 -10.574072 38.974625
5250000000 -8.7769556 55.086117 13.266288 -82.174644 -20.142145 -120.92559 -10.49229 36.694569
5300000000 -8.6711483 52.608616 13.18983 -84.356194 -20.134773 -122.36929 -10.439413 34.647461
5350000000 -8.5722885 50.215183 13.102447 -86.522423 -20.129862 -123.75764 -10.380794 32.375542
5400000000 -8.473608 47.82935 13.019316 -88.685379 -20.134193 -125.19138 -10.308225 30.37694
5450000000 -8.3651552 45.536922 12.931665 -90.82917 -20.139017 -126.5566 -10.251697 28.07736
5500000000 -8.2952042 43.112041 12.855619 -93.004631 -20.130354 -128.02423 -10.166101 26.151211
5550000000 -8.1589355 40.899151 12.766532 -95.112541 -20.138666 -129.34151 -10.113767 23.963146
5600000000 -8.0908413 38.528873 12.684937 -97.275978 -20.132166 -130.7406 -10.030331 21.90658
5650000000 -7.9864836 36.192585 12.597882 -99.417465 -20.132687 -132.23238 -9.9731312 19.894434
5700000000 -7.8998981 33.969753 12.519262 -101.54901 -20.149422 -133.6273 -9.895009 17.906273
5750000000 -7.8174181 31.640238 12.427792 -103.65865 -20.132067 -135.02448 -9.8263597 15.966542
5800000000 -7.7195015 29.412161 12.344987 -105.80742 -20.155912 -136.45357 -9.7643557 13.965214
5850000000 -7.6451187 27.183348 12.257442 -107.90676 -20.171322 -137.79831 -9.6697483 12.144538
5900000000 -7.548945 24.993769 12.16993 -110.01607 -20.170065 -139.18338 -9.6173458 10.20677
5950000000 -7.4796257 22.803617 12.086941 -112.13265 -20.169933 -140.64059 -9.5165758 8.3442345
6000000000 -7.3912258 20.498161 11.99913 -114.24023 -20.168369 -141.98521 -9.4571323 6.5652113
6050000000 -7.2989044 18.417675 11.90671 -116.34339 -20.204544 -143.37466 -9.3651285 4.6948051
6100000000 -7.2216306 16.179165 11.819151 -118.43506 -20.219246 -144.80331 -9.3007908 3.0042627
6150000000 -7.1351061 14.001143 11.728925 -120.52953 -20.200918 -146.12379 -9.2350054 1.1869138
6200000000 -7.0749235 11.874701 11.64351 -122.5535 -20.222055 -147.58369 -9.1355543 -0.43656421
6250000000 -6.9764981 9.7394886 11.546759 -124.67612 -20.230465 -148.88065 -9.0757456 -2.1110132
6300000000 -6.9094863 7.6805811 11.459835 -126.72841 -20.231401 -150.35913 -9.0002918 -3.8600392
6350000000 -6.8274794 5.5450902 11.371875 -128.80167 -20.254389 -151.67264 -8.9372025 -5.2969089
6400000000 -6.7446489 3.5361967 11.284484 -130.85437 -20.263451 -152.92091 -8.8666763 -7.0258522
6450000000 -6.6710672 1.3639225 11.190024 -132.91803 -20.302172 -154.37947 -8.7971497 -8.4800587
6500000000 -6.5837193 -0.64555103 11.098512 -134.99077 -20.312393 -155.78352 -8.7504454 -10.070453
6550000000 -6.5200124 -2.6695077 11.009663 -137.01248 -20.326342 -157.06148 -8.6738558 -11.577673
6600000000 -6.4420958 -4.6999564 10.915137 -139.04721 -20.354792 -158.43385 -8.6231251 -13.048612
6650000000 -6.3623152 -6.6417723 10.826126 -141.07762 -20.367533 -159.71667 -8.5658121 -14.54421
6700000000 -6.2885728 -8.6727858 10.732943 -143.11295 -20.393929 -161.12271 -8.509737 -15.931419
6750000000 -6.2097917 -10.546494 10.643155 -145.14525 -20.402863 -162.45662 -8.4761696 -17.451374
6800000000 -6.142343 -12.498715 10.548167 -147.17401 -20.430241 -163.75272 -8.41751 -18.849859
6850000000 -6.0612626 -14.418311 10.457097 -149.1524 -20.446411 -164.96635 -8.3757706 -20.148664
6900000000 -5.9865699 -16.366018 10.357858 -151.20134 -20.476519 -166.37093 -8.3395748 -21.683432
6950000000 -5.9142523 -18.220383 10.266426 -153.18169 -20.487549 -167.81734 -8.2996006 -22.941275
7000000000 -5.8393965 -20.025604 10.17629 -155.17427 -20.508877 -169.08147 -8.265626 -24.280365
7050000000 -5.7674828 -21.857777 10.085621 -157.18138 -20.539711 -170.38716 -8.2313614 -25.751295
7100000000 -5.695621 -23.688814 9.9873791 -159.19902 -20.561773 -171.70712 -8.1975985 -27.080196
7150000000 -5.6177583 -25.394293 9.8987179 -161.14127 -20.588413 -172.9816 -8.1705084 -28.383665
7200000000 -5.5511732 -27.219742 9.8019962 -163.17384 -20.596998 -174.40428 -8.1400652 -29.807041
7250000000 -5.4812431 -28.957062 9.707099 -165.12567 -20.617889 -175.63461 -8.1207952 -31.124868
7300000000 -5.4085922 -30.690796 9.6133585 -167.15793 -20.66835 -176.87929 -8.0782795 -32.596611
7350000000 -5.3357134 -32.413784 9.5206509 -169.07538 -20.668503 -178.19273 -8.0627832 -33.817062
7400000000 -5.2616181 -34.038067 9.4287758 -171.07536 -20.714813 -179.45416 -8.036972 -35.287479
7450000000 -5.2002687 -35.735378 9.3318729 -173.0367 -20.723448 179.27798 -8.0016565 -36.559597
7500000000 -5.1254663 -37.322598 9.2406836 -174.96585 -20.75721 177.98056 -7.9985466 -37.928139
7550000000 -5.0683265 -38.960949 9.143631 -176.92572 -20.775408 176.73248 -7.9590063 -39.355827
7600000000 -4.9947701 -40.597706 9.0492201 -178.86137 -20.79858 175.54176 -7.9390316 -40.563728
7650000000 -4.9416256 -42.114552 8.953022 179.16447 -20.838253 174.24185 -7.9262247 -42.038921
7700000000 -4.8702831 -43.768555 8.8647289 177.26503 -20.858091 173.04758 -7.8835874 -43.278538
7750000000 -4.79949 -45.228268 8.763483 175.34097 -20.893459 171.78107 -7.8820786 -44.68544
7800000000 -4.7548876 -46.846256 8.6661129 173.41278 -20.91865 170.47069 -7.8332682 -46.006153
7850000000 -4.6756911 -48.320206 8.5793409 171.51302 -20.961004 169.34836 -7.8289323 -47.296223
7900000000 -4.6286993 -49.759724 8.4793673 169.58936 -20.951805 168.20258 -7.7905536 -48.838314
7950000000 -4.5669374 -51.388199 8.3864832 167.68755 -21.008652 166.88828 -7.749032 -50.01487
8000000000 -4.5067229 -52.728607 8.2894382 165.80142 -21.031067 165.69772 -7.7458129 -51.440907
8050000000 -4.4526811 -54.322659 8.2012939 163.88824 -21.048586 164.42979 -7.672338 -52.753033
8100000000 -4.4001579 -55.649139 8.1086359 162.0509 -21.096357 163.17709 -7.6612225 -53.988548
8150000000 -4.362916 -57.197086 8.0150433 160.12915 -21.098902 162.00084 -7.608501 -55.357464
8200000000 -4.2883248 -58.588638 7.9198432 158.2654 -21.141705 160.89624 -7.5808225 -56.475136
8250000000 -4.2556643 -59.92799 7.8301826 156.40308 -21.150272 159.74397 -7.5374751 -57.879959
8300000000 -4.2101274 -61.448174 7.7333026 154.56111 -21.179581 158.59921 -7.4846249 -58.940968
8350000000 -4.1534352 -62.617855 7.6481347 152.73189 -21.202028 157.37616 -7.4668045 -60.166161
8400000000 -4.116117 -64.072151 7.5569482 150.88792 -21.21767 156.26349 -7.4015799 -61.439999
8450000000 -4.0608797 -65.33448 7.4593849 149.08224 -21.247608 155.12469 -7.368926 -62.49828
8500000000 -4.0338769 -66.699432 7.3750982 147.25163 -21.26058 153.91357 -7.3116808 -63.711628
8550000000 -3.9817824 -68.086494 7.2831964 145.4615 -21.30094 152.90927 -7.2685771 -64.747025
8600000000 -3.9601071 -69.26796 7.1908536 143.70912 -21.315447 151.72701 -7.2170329 -65.963295
8650000000 -3.923327 -70.750237 7.0962281 141.82941 -21.340858 150.55649 -7.142911 -67.010712
8700000000 -3.8721581 -71.855118 7.013104 140.10919 -21.357542 149.58403 -7.1101151 -68.011116
8750000000 -3.8577247 -73.21669 6.924736 138.39349 -21.36837 148.29756 -7.0411696 -69.154022
8800000000 -3.8052957 -74.521919 6.8395495 136.59526 -21.402092 147.3723 -6.997201 -70.040611
8850000000 -3.7770452 -75.736809 6.7586074 134.79742 -21.421387 146.27191 -6.9301062 -71.121468
8900000000 -3.7481744 -77.098045 6.6641307 133.03461 -21.431847 145.26762 -6.8770986 -71.971672
8950000000 -3.7256117 -78.246292 6.5745268 131.29659 -21.464102 144.18552 -6.8394012 -72.98777
9000000000 -3.707027 -79.510696 6.4853325 129.62067 -21.482924 143.15482 -6.7641706 -73.903839
9050000000 -3.6738484 -80.632851 6.4074802 127.88659 -21.488804 142.10255 -6.7317815 -74.763542
9100000000 -3.6548824 -81.855766 6.3246312 126.21542 -21.494711 141.25122 -6.669724 -75.663689
9150000000 -3.6210902 -83.08773 6.2395587 124.46158 -21.51862 140.13217 -6.617496 -76.411797
9200000000 -3.6003177 -84.221832 6.1673198 122.79417 -21.51247 139.1805 -6.5686731 -77.259918
9250000000 -3.5837462 -85.560616 6.0799637 121.0493 -21.529158 138.03343 -6.505064 -78.06398
9300000000 -3.5630937 -86.676422 6.0025554 119.3682 -21.536524 136.89938 -6.4639688 -78.847809
9350000000 -3.548964 -87.877792 5.922956 117.70622 -21.532326 136.01151 -6.4061327 -79.561417
9400000000 -3.5393474 -89.026268 5.844595 116.10268 -21.53854 135.02147 -6.3620553 -80.333511
9450000000 -3.5156255 -90.242226 5.7822695 114.39623 -21.54076 134.06328 -6.3196955 -81.173561
9500000000 -3.4920666 -91.464561 5.7115149 112.75574 -21.548828 133.03726 -6.2631831 -81.918777
9550000000 -3.4739103 -92.633415 5.64187 111.07619 -21.553801 131.98256 -6.2340298 -82.629059
9600000000 -3.4580317 -93.934319 5.5617905 109.32331 -21.555849 130.92351 -6.1893611 -83.370689
9650000000 -3.4489098 -95.064545 5.4925003 107.70527 -21.547174 129.92659 -6.1282153 -84.171211
9700000000 -3.4315789 -96.241173 5.4326077 106.06503 -21.552111 129.08102 -6.1071076 -84.87944
9750000000 -3.428936 -97.409897 5.3531556 104.41521 -21.543362 128.10454 -6.0661116 -85.609184
9800000000 -3.4136798 -98.594467 5.2882204 102.75368 -21.529863 127.09699 -6.0554242 -86.396774
9850000000 -3.398221 -99.801445 5.2358947 101.1378 -21.520754 126.15903 -6.0079174 -87.002556
9900000000 -3.3968918 -101.03749 5.1697083 99.511909 -21.523228 125.21094 -5.9636502 -87.781097
9950000000 -3.3837397 -102.27946 5.1122622 97.771439 -21.497189 124.16597 -5.9672041 -88.657089
10000000000 -3.3851686 -103.57308 5.045958 96.072418 -21.481113 123.32803 -5.9175553 -89.411049
10050000000 -3.3729606 -104.76179 4.9869432 94.394127 -21.442066 122.12941 -5.9031391 -90.218697
10100000000 -3.3801017 -106.02137 4.9185176 92.749077 -21.432539 121.21988 -5.8883824 -90.988762
10150000000 -3.357285 -107.205 4.8731327 91.242157 -21.373812 120.20173 -5.8305387 -91.658127
10200000000 -3.3502121 -108.49822 4.8039441 89.439575 -21.368708 118.85778 -5.8594642 -92.765327
10250000000 -3.3367012 -109.86649 4.762248 87.766884 -21.370125 117.84456 -5.8092952 -93.495789
10300000000 -3.3268192 -111.06178 4.7252612 86.108849 -21.3262 116.85711 -5.7707891 -94.312027
10350000000 -3.3318913 -112.48344 4.6522284 84.377106 -21.357904 115.86578 -5.803535 -95.299263
10400000000 -3.3186836 -113.68253 4.5997958 82.734116 -21.313339 114.85971 -5.7682738 -96.020592
10450000000 -3.3291113 -115.08817 4.5516362 80.902573 -21.274006 113.61885 -5.759891 -97.267525
10500000000 -3.3197682 -116.32543 4.503407 79.388817 -21.274698 112.98788 -5.7639308 -97.819946
10550000000 -3.3218622 -117.59691 4.4531264 77.575745 -21.233406 111.68059 -5.7536263 -98.991409
10600000000 -3.316463 -118.99435 4.4045482 75.880203 -21.221376 110.71819 -5.7465501 -100.18872
10650000000 -3.302047 -120.18061 4.3651128 74.216034 -21.175877 109.69002 -5.7355022 -100.93748
10700000000 -3.3010535 -121.69788 4.3213882 72.384628 -21.111944 108.42872 -5.7296586 -102.30546
10750000000 -3.3070345 -123.04211 4.2705035 70.676346 -21.130125 107.32389 -5.7402482 -103.15131
10800000000 -3.3185222 -124.44474 4.2297411 68.942169 -21.072155 106.22575 -5.7321916 -104.30388
10850000000 -3.3103945 -125.89342 4.1701269 67.147583 -21.056629 105.01504 -5.7199063 -105.6713
10900000000 -3.3149557 -127.16416 4.1414232 65.456963 -21.008585 104.04421 -5.7319961 -106.54457
10950000000 -3.3097656 -128.82161 4.1040673 63.621075 -20.955029 102.74998 -5.6866922 -108.01181
11000000000 -3.3140929 -130.11081 4.0571527 61.921375 -20.950714 101.65332 -5.7340465 -108.97455
11050000000 -3.3217821 -131.68819 4.0237699 60.043892 -20.891708 100.65768 -5.7137918 -110.40253
11100000000 -3.31162 -133.10204 3.9710178 58.254047 -20.869713 99.273735 -5.7001591 -111.68109
11150000000 -3.3279307 -134.55373 3.9361892 56.526051 -20.836544 98.352486 -5.7426338 -112.74361
11200000000 -3.3208859 -136.10793 3.8950191 54.642933 -20.777576 96.90773 -5.6851339 -114.18713
11250000000 -3.3434517 -137.43396 3.8544004 52.923729 -20.761238 95.855713 -5.7249055 -115.41812
11300000000 -3.3508091 -139.07309 3.8048379 51.036674 -20.710348 94.651566 -5.7104177 -116.98911
11350000000 -3.3426561 -140.40286 3.7774601 49.238075 -20.648438 93.424713 -5.6706328 -118.32761
11400000000 -3.3673995 -142.07794 3.737669 47.452297 -20.622179 92.17392 -5.7177172 -119.67739
11450000000 -3.35309 -143.63435 3.6928003 45.579563 -20.563665 91.006088 -5.669168 -120.97131
11500000000 -3.383214 -145.21924 3.6607189 43.730228 -20.528307 89.681412 -5.6841331 -122.48017
11550000000 -3.3769982 -146.94698 3.6212234 41.839207 -20.459627 88.421577 -5.6630135 -123.88693
11600000000 -3.3988214 -148.29788 3.5941305 40.071285 -20.403706 87.185249 -5.6478767 -125.11299
11650000000 -3.4056556 -150.22 3.5566828 38.150261 -20.358665 85.801666 -5.6566916 -126.87875
11700000000 -3.4072888 -151.70883 3.5217178 36.240459 -20.295918 84.528961 -5.6201706 -128.08557
11750000000 -3.434015 -153.46898 3.4930177 34.393513 -20.254217 83.059029 -5.626111 -129.64883
11800000000 -3.4244187 -155.24786 3.4541278 32.443398 -20.253685 81.793549 -5.6136265 -131.21329
11850000000 -3.4574883 -156.91974 3.4282897 30.593103 -20.165121 80.376472 -5.603426 -132.52443
11900000000 -3.4558504 -158.8423 3.3937697 28.612803 -20.153391 79.063774 -5.5871005 -134.19846
11950000000 -3.4775736 -160.51195 3.3517094 26.63401 -20.079195 77.930878 -5.5740027 -135.505
12000000000 -3.4891555 -162.41328 3.3285766 24.807762 -20.025484 76.424835 -5.558022 -137.20192
12050000000 -3.4973049 -164.2225 3.2913311 22.842062 -20.000313 75.0336 -5.5467587 -138.70934
12100000000 -3.5310855 -166.12077 3.259629 20.893431 -19.940403 73.758324 -5.5419459 -140.18321
12150000000 -3.5238521 -168.07004 3.2310438 18.911224 -19.893316 72.148499 -5.5310173 -141.84918
12200000000 -3.5435236 -169.92612 3.198611 16.987886 -19.832581 71.005829 -5.5295987 -143.30559
12250000000 -3.55827 -172.006 3.1632459 14.999741 -19.759895 69.420906 -5.4967041 -145.05447
12300000000 -3.5709805 -173.96225 3.1353803 13.010112 -19.741814 68.083359 -5.4990587 -146.53862
12350000000 -3.598099 -176.08284 3.1056244 10.949901 -19.672421 66.678429 -5.4922452 -148.16722
12400000000 -3.6050849 -178.0076 3.0699744 9.0047293 -19.620983 65.065063 -5.4801202 -149.90878
12450000000 -3.6037035 179.85536 3.0381615 6.8912673 -19.586372 63.631237 -5.481216 -151.45398
12500000000 -3.5982244 177.77045 3.00843 4.8859477 -19.484991 62.043293 -5.4611635 -153.26398
12550000000 -3.6055984 175.48302 2.9807963 2.8136506 -19.452106 60.355232 -5.4656897 -155.02679
12600000000 -3.6169882 173.22185 2.9448254 0.66021258 -19.424604 58.964428 -5.4693885 -156.64175
12650000000 -3.627919 171.0798 2.910964 -1.3804802 -19.346006 57.319359 -5.4547276 -158.64815
12700000000 -3.6173213 168.9054 2.8731363 -3.4637389 -19.314953 55.884167 -5.4685183 -160.32529
12750000000 -3.6248181 166.50966 2.8310335 -5.6133375 -19.25878 54.215302 -5.4525313 -162.1263
12800000000 -3.599545 164.209 2.8109353 -7.759572 -19.225439 52.376869 -5.4708543 -164.30151
12850000000 -3.6122725 161.88235 2.7714589 -9.9827204 -19.190529 50.877949 -5.4777412 -166.06923
12900000000 -3.6001658 159.43878 2.7202466 -12.162852 -19.129354 49.249489 -5.4595199 -168.21431
12950000000 -3.5689321 157.2184 2.6931975 -14.377205 -19.08749 47.479397 -5.483953 -170.27934
13000000000 -3.5555854 154.57504 2.6523516 -16.661911 -19.028925 45.865932 -5.465497 -172.42076
13050000000 -3.5278742 152.22522 2.5993886 -18.829109 -18.984098 43.909714 -5.4592285 -174.76042
13100000000 -3.5310116 149.75693 2.5504076 -21.171507 -18.978106 42.12347 -5.5094905 -176.98634
13150000000 -3.4870794 147.3134 2.4897494 -23.399847 -18.925659 40.575748 -5.4497194 -179.3623
13200000000 -3.4676352 145.07262 2.441546 -25.636093 -18.894915 38.587959 -5.4801731 178.35075
13250000000 -3.4289029 142.25302 2.3843246 -28.052094 -18.881458 36.886753 -5.4720349 175.77684
13300000000 -3.3899066 139.94499 2.3247013 -30.360106 -18.851004 34.858528 -5.4297976 173.31625
13350000000 -3.3755825 137.36438 2.2545567 -32.740829 -18.83614 33.034981 -5.4989767 170.63841
13400000000 -3.3170321 134.97414 2.1809251 -35.009544 -18.819506 31.250872 -5.4161048 168.17105
13450000000 -3.3047521 132.57339 2.1178825 -37.356895 -18.789999 29.286219 -5.4421024 165.45863
13500000000 -3.2228518 129.96144 2.034972 -39.739079 -18.779291 27.325092 -5.4116755 162.60919
13550000000 -3.2003543 127.67305 1.958095 -42.200054 -18.759514 25.382587 -5.3549256 159.95134
13600000000 -3.1492183 124.94064 1.8753099 -44.543671 -18.776272 23.368032 -5.3786354 156.9462
13650000000 -3.0930357 122.7157 1.7853479 -46.865108 -18.776606 21.515638 -5.2919817 154.52885
13700000000 -3.065757 120.11002 1.6836029 -49.443439 -18.789097 19.28792 -5.2983084 151.10469
13750000000 -2.9773891 117.75716 1.5732729 -51.8727 -18.822376 17.48189 -5.2026048 148.2094
13800000000 -2.9597349 115.41767 1.468575 -54.138157 -18.822268 15.618187 -5.1444535 145.87373
13850000000 -2.8947728 112.89082 1.3357353 -56.599232 -18.894878 13.343567 -5.1227741 142.36075
13900000000 -2.8522444 110.86931 1.2279763 -58.920048 -18.923059 11.740114 -5.0235429 140.07172
13950000000 -2.7931674 108.31583 1.1130193 -61.362305 -18.935699 9.4767208 -4.9666171 136.87527
14000000000 -2.7225287 106.3395 0.97366542 -63.705078 -19.012531 7.7534761 -4.8825331 134.13766
14050000000 -2.6879296 103.94359 0.84857965 -66.083855 -19.019789 5.8539834 -4.8182249 131.7061
14100000000 -2.6152086 101.7628 0.68401408 -68.388428 -19.12027 3.6470368 -4.7362742 128.46979
14150000000 -2.5935743 99.750359 0.54475051 -70.596107 -19.173166 1.9331378 -4.6636887 126.27022
14200000000 -2.5327218 97.54538 0.38827428 -72.975037 -19.214483 -0.017956685 -4.5602279 123.29353
14250000000 -2.4797971 95.778313 0.24906664 -75.097084 -19.309334 -1.783177 -4.4694643 120.89417
14300000000 -2.4263124 93.497574 0.096629202 -77.378098 -19.384155 -3.7641392 -4.4010534 118.39659
14350000000 -2.3660047 91.557991 -0.070713028 -79.726402 -19.473473 -5.860321 -4.2650275 115.56396
14400000000 -2.3480468 89.611496 -0.22632198 -81.829803 -19.565136 -7.5119977 -4.197979 113.55567
14450000000 -2.2931321 87.746201 -0.41652757 -84.046768 -19.643456 -9.3119564 -4.0894179 111.01154
14500000000 -2.2792268 85.99337 -0.60354817 -86.140366 -19.77072 -11.016754 -4.0146303 108.93816
14550000000 -2.2073829 84.146637 -0.7570281 -88.20752 -19.826773 -12.686626 -3.9227002 106.83543
14600000000 -2.1702909 82.491814 -0.9347164 -90.166023 -19.922823 -14.587361 -3.8031957 104.69329
14650000000 -2.1362133 80.649612 -1.1128227 -92.242638 -20.045847 -16.374334 -3.7581279 102.74022
14700000000 -2.0820441 79.051193 -1.2763172 -94.29528 -20.123909 -17.957876 -3.6415393 100.68944
14750000000 -2.057476 77.389198 -1.4579601 -96.292938 -20.231857 -19.475103 -3.5738702 98.823318
14800000000 -2.0176849 75.751198 -1.6523153 -98.219063 -20.327835 -21.079187 -3.4989119 96.941353
14850000000 -1.9941436 74.229446 -1.844071 -100.06773 -20.429886 -22.832844 -3.4067025 95.049545
14900000000 -1.9672039 72.757271 -2.0189631 -101.89447 -20.569113 -24.418591 -3.3521862 93.278671
14950000000 -1.9428337 71.406036 -2.1981881 -103.65761 -20.665373 -25.807659 -3.259156 91.700943
15000000000 -1.8940189 70.005539 -2.3709831 -105.42431 -20.775742 -27.332407 -3.2106125 90.045433
15050000000 -1.8689234 68.631699 -2.5422375 -107.24783 -20.891552 -28.743359 -3.1427269 88.487282
15100000000 -1.8410017 67.173798 -2.7292955 -108.97348 -20.980021 -30.310484 -3.0610781 86.9049
15150000000 -1.8264652 65.813942 -2.8994443 -110.88074 -21.114805 -31.844931 -3.0186105 85.251663
15200000000 -1.8210838 64.500977 -3.086344 -112.46172 -21.216717 -33.044079 -2.9485893 83.933952
15250000000 -1.786461 63.334885 -3.262938 -114.13218 -21.323601 -34.546391 -2.9062157 82.401039
15300000000 -1.7760366 62.013603 -3.4402621 -115.87553 -21.423862 -35.798203 -2.8806372 80.971359
15350000000 -1.7197484 60.766617 -3.5931435 -117.47697 -21.509642 -37.052406 -2.7882218 79.537514
15400000000 -1.7197504 59.538738 -3.7601972 -119.11636 -21.610489 -38.605526 -2.7527137 78.086792
15450000000 -1.7143477 58.21336 -3.9546835 -120.78584 -21.751482 -39.870876 -2.7223308 76.871246
15500000000 -1.7016236 57.319904 -4.1070437 -122.40504 -21.829271 -41.283768 -2.6656575 75.288452
15550000000 -1.6897998 56.061268 -4.2751484 -123.98597 -21.952906 -42.714443 -2.653605 73.887024
15600000000 -1.6553195 55.08625 -4.4390812 -125.53449 -22.0236 -43.879765 -2.5834055 72.646851
15650000000 -1.658941 53.871067 -4.5861573 -127.11581 -22.144428 -45.558865 -2.5679336 71.118073
15700000000 -1.6189152 52.71571 -4.7451406 -128.68117 -22.259169 -46.771198 -2.5317497 69.916122
15750000000 -1.6317456 51.779579 -4.9005036 -130.20248 -22.347 -47.854568 -2.4856465 68.645325
15800000000 -1.6081861 50.463581 -5.0498943 -132.01768 -22.476357 -49.212791 -2.4772074 66.897659
15850000000 -1.5882903 49.634117 -5.2051039 -133.37619 -22.559729 -50.248936 -2.3976259 65.934303
15900000000 -1.5965811 48.342724 -5.3677578 -134.97191 -22.687967 -51.704678 -2.4158149 64.3265
15950000000 -1.5759217 47.436573 -5.5241504 -136.6274 -22.787432 -52.961967 -2.3795097 62.827297
16000000000 -1.5845826 46.431019 -5.6612816 -138.11938 -22.863651 -54.169285 -2.3136206 61.702618
16050000000 -1.5343974 45.437977 -5.8183122 -139.67522 -22.969872 -55.324688 -2.3230498 59.928539
16100000000 -1.5457982 44.439999 -5.9829788 -141.12743 -23.077608 -56.341305 -2.2850583 59.015232
16150000000 -1.5364128 43.2188 -6.1281996 -142.76466 -23.177462 -57.84589 -2.2583065 57.301208
16200000000 -1.5296755 42.492504 -6.2690368 -144.22874 -23.270098 -58.906898 -2.2418654 55.970654
16250000000 -1.5355064 41.336498 -6.4140801 -145.83527 -23.328831 -60.292122 -2.2173297 54.55381
16300000000 -1.4854165 40.511257 -6.558259 -147.3011 -23.454842 -61.648148 -2.181097 52.803963
16350000000 -1.4968861 39.37175 -6.7071905 -148.8665 -23.523937 -62.631687 -2.1761665 51.883904
16400000000 -1.4773932 38.23381 -6.8536158 -150.56615 -23.619818 -64.166634 -2.1280296 50.053688
16450000000 -1.502758 37.371277 -7.0143709 -152.0472 -23.714205 -65.574173 -2.1033232 48.667797
16500000000 -1.4936715 36.323784 -7.171463 -153.44992 -23.832006 -66.65181 -2.1087587 47.501648
16550000000 -1.4796288 35.612556 -7.3150473 -154.9053 -23.952284 -68.115395 -2.0496011 45.914295
16600000000 -1.4766178 34.463501 -7.4375896 -156.44797 -24.059855 -69.501907 -2.0331554 44.775833
16650000000 -1.4567875 33.475582 -7.5965934 -157.98601 -24.175304 -70.693596 -1.9834325 43.270092
16700000000 -1.469533 32.578426 -7.739913 -159.50005 -24.306265 -71.834984 -1.9926114 41.996483
16750000000 -1.4472139 31.523363 -7.8925767 -161.06081 -24.430334 -73.108437 -1.9711413 40.682133
16800000000 -1.4687421 30.694433 -8.0659723 -162.57007 -24.558996 -74.354523 -1.9038385 39.240372
16850000000 -1.4503628 29.667986 -8.2174845 -163.94531 -24.677 -75.355957 -1.9208654 38.043812
16900000000 -1.4453444 28.943371 -8.3683052 -165.45244 -24.810892 -76.63652 -1.8474001 36.659294
16950000000 -1.4421133 27.955099 -8.517622 -166.7948 -24.962053 -77.862488 -1.8529617 35.424019
17000000000 -1.4083682 27.105539 -8.6624603 -168.29605 -25.125154 -78.877998 -1.8243878 34.12841
17050000000 -1.4148979 26.100416 -8.8093977 -169.76578 -25.257879 -79.839531 -1.7632171 33.154243
17100000000 -1.4069774 25.156527 -8.9832869 -171.1114 -25.392721 -80.573128 -1.7799522 32.150497
17150000000 -1.4268556 24.324503 -9.156354 -172.54674 -25.490906 -81.406754 -1.7061238 31.107077
17200000000 -1.4197609 23.402094 -9.3156567 -173.81628 -25.644003 -82.73629 -1.6910625 29.897224
17250000000 -1.4069245 22.762039 -9.4496012 -175.00519 -25.799471 -83.371727 -1.6753782 28.993307
17300000000 -1.4079081 21.791965 -9.6101255 -176.31329 -25.926657 -84.187027 -1.6404499 28.184813
17350000000 -1.3870679 21.070305 -9.7444077 -177.60335 -26.098616 -84.889305 -1.6288642 27.187002
17400000000 -1.3876132 20.122778 -9.8819304 -178.89052 -26.203276 -85.80484 -1.5749469 26.63324
17450000000 -1.3694882 19.330118 -10.038548 179.75034 -26.335762 -86.663612 -1.5625196 25.380215
17500000000 -1.4026871 18.4259 -10.200944 178.44531 -26.477852 -87.274933 -1.54495 24.676163
17550000000 -1.3814012 17.599535 -10.33459 177.34901 -26.571072 -88.116898 -1.512056 24.081936
17600000000 -1.3885994 16.950703 -10.492292 176.18681 -26.746134 -88.611412 -1.4974616 23.174725
17650000000 -1.3646363 16.063805 -10.627621 175.16394 -26.875685 -89.021248 -1.482322 22.850525
17700000000 -1.3460405 15.335122 -10.76451 173.88097 -26.956224 -89.797989 -1.4386872 21.826014
17750000000 -1.3471693 14.475034 -10.893158 172.84608 -27.120441 -90.163223 -1.4325356 21.43594
17800000000 -1.3308002 13.745843 -11.0288 171.67729 -27.239849 -90.491524 -1.4079888 20.945835
17850000000 -1.3500777 12.914131 -11.155753 170.49866 -27.293562 -91.45414 -1.3832546 20.236967
17900000000 -1.3280089 12.161168 -11.285755 169.39754 -27.47538 -91.766037 -1.3946794 19.867315
17950000000 -1.3583708 11.542068 -11.419407 168.35065 -27.567343 -92.359177 -1.3282892 19.161415
18000000000 -1.3526081 10.710135 -11.534749 167.39545 -27.746098 -92.938339 -1.3451879 18.865423
18050000000 -1.3455083 10.238043 -11.650377 166.41945 -27.878588 -93.101341 -1.3193156 18.516924
18100000000 -1.3517702 9.3325567 -11.764368 165.16379 -28.053041 -93.382156 -1.2974825 17.896893
18150000000 -1.3497654 8.6001396 -11.87629 164.05264 -28.199152 -93.401428 -1.3187864 17.622803
18200000000 -1.3603538 7.8334451 -11.981889 163.00818 -28.255671 -92.846947 -1.2552907 17.271173
18250000000 -1.3716327 6.9795938 -12.140406 161.75781 -28.437931 -92.694527 -1.3108691 16.653669
18300000000 -1.393585 6.4872365 -12.266224 160.78339 -28.520563 -91.932022 -1.2775453 16.317261
18350000000 -1.3882183 5.6754684 -12.396157 159.9897 -28.473505 -91.605515 -1.2462112 16.045435
18400000000 -1.3757024 5.252492 -12.483537 159.10571 -28.398952 -91.685631 -1.3029747 15.563626
18450000000 -1.3585948 4.5127106 -12.579556 158.22609 -28.429398 -91.853729 -1.258798 15.175447
18500000000 -1.32195 3.8269908 -12.652743 157.16396 -28.397165 -92.039963 -1.2814832 14.572802
18550000000 -1.339069 2.9238694 -12.720272 155.94463 -28.489452 -91.945015 -1.2758745 14.408837
18600000000 -1.3580203 2.2164314 -12.83406 154.97415 -28.48251 -91.837532 -1.2391089 13.947328
18650000000 -1.4187403 1.5859895 -12.959645 153.84375 -28.515253 -92.133003 -1.2827351 13.124621
18700000000 -1.414487 1.0396092 -13.053167 152.96904 -28.534058 -91.904213 -1.2714111 12.945695
18750000000 -1.4271426 0.654733 -13.129586 152.04486 -28.527031 -91.704834 -1.281363 12.21641
18800000000 -1.4480953 -0.13233298 -13.220156 151.09427 -28.491009 -91.331161 -1.3235968 11.946386
18850000000 -1.4301151 -0.55338079 -13.289255 150.16953 -28.40502 -91.130402 -1.3007151 11.535416
18900000000 -1.4628131 -1.1969819 -13.361554 149.06839 -28.354677 -91.862968 -1.3313154 10.496943
18950000000 -1.4443483 -1.9986937 -13.427364 147.99005 -28.33074 -91.12748 -1.3429925 10.216791
19000000000 -1.4873397 -2.584096 -13.506558 146.9753 -28.227797 -91.248016 -1.3297884 9.4296398
19050000000 -1.5152841 -3.338635 -13.610615 145.83572 -28.271929 -91.524826 -1.4115568 8.7433777
19100000000 -1.5418673 -3.6422312 -13.696971 144.91464 -28.133976 -91.006798 -1.3840175 8.3818913
19150000000 -1.557354 -4.338131 -13.745582 144.03653 -27.968193 -91.215446 -1.4034376 7.4592533
19200000000 -1.537007 -4.9542937 -13.811866 142.93095 -27.875793 -91.431648 -1.4510857 6.9340463
19250000000 -1.5881798 -5.590487 -13.863988 141.93478 -27.726379 -91.507523 -1.4229088 6.1654625
19300000000 -1.5764995 -6.3101463 -13.917548 140.70631 -27.669622 -91.835976 -1.4986901 5.1935163
19350000000 -1.6294103 -6.8090701 -13.993999 139.85776 -27.501171 -91.456421 -1.4751048 4.9995704
19400000000 -1.6477073 -7.701077 -14.055931 138.79637 -27.310993 -92.292435 -1.4981434 3.8174031
19450000000 -1.6861064 -8.1476431 -14.108878 137.69279 -27.164463 -92.845642 -1.5336927 2.9910188
19500000000 -1.7255734 -8.820672 -14.150362 136.65736 -26.948694 -92.619667 -1.5097183 2.4226193
19550000000 -1.7186559 -9.2897024 -14.202745 135.63805 -26.803562 -93.61026 -1.57473 0.90014511
19600000000 -1.7578647 -10.164384 -14.243512 134.66151 -26.598194 -94.341827 -1.5651801 0.59055275
19650000000 -1.7492132 -10.967249 -14.272416 133.63599 -26.387526 -94.848763 -1.5827975 -0.57014835
19700000000 -1.8155539 -11.771551 -14.319345 132.43341 -26.254822 -96.024391 -1.6113831 -1.7082304
19750000000 -1.8436965 -12.716202 -14.340227 131.33522 -26.010456 -96.742661 -1.6013718 -2.3161762
19800000000 -1.875841 -13.17939 -14.409163 130.29102 -25.872643 -98.21917 -1.6093011 -3.9513173
19850000000 -1.9116948 -14.226879 -14.446566 129.29604 -25.709257 -99.021782 -1.6256806 -4.3285489
19900000000 -1.9283348 -14.914526 -14.450048 128.15065 -25.479763 -100.24926 -1.6179544 -5.7804379
19950000000 -1.9820989 -15.846717 -14.459384 127.0705 -25.38525 -101.30821 -1.6147857 -6.944602
20000000000 -1.9824451 -16.587095 -14.490549 125.83696 -25.193945 -102.50093 -1.6493992 -7.7540951
