!Keysight Technologies,N5242A,MY47200155,A.10.49.08
!Date: Thursday, October 19, 2023 15:13:05
!Correction: S11(Full 2 Port(1,2)) 
!S21(Full 2 Port(1,2)) 
!S12(Full 2 Port(1,2)) 
!S22(Full 2 Port(1,2)) 
!S2P File: Measurements: S11, S21, S12, S22:
# Hz S  dB   R 50
10000000 -21.96707 -1.1803266 21.139698 173.90044 -23.769411 -3.6390216 -27.293468 22.632206
20000000 -20.167154 -1.9599638 21.108013 175.95384 -23.392714 -4.4115238 -25.802382 3.1983082
30000000 -20.316849 -0.90376693 21.083113 176.14131 -23.56076 -3.4558678 -25.94735 0.46079993
40000000 -20.270859 -3.731849 21.060848 175.94908 -23.467915 -1.4459671 -25.656881 -3.9833155
50000000 -20.317535 -5.3568416 21.048201 175.68486 -23.390974 -1.9019175 -25.602577 -8.4908829
60000000 -20.360081 -6.3515677 21.050985 175.25574 -23.398443 -1.9309205 -25.528099 -11.229957
70000000 -20.360043 -7.0889859 21.057028 174.72314 -23.429842 -1.746232 -25.416792 -14.703451
80000000 -20.385796 -8.0224342 21.060699 174.15529 -23.462313 -2.1517189 -25.458612 -17.988274
90000000 -20.319956 -9.2683563 21.058514 173.62482 -23.43054 -1.7887486 -25.352676 -21.221607
100000000 -20.316416 -10.525277 21.061892 173.04797 -23.428402 -2.2443624 -25.340799 -23.504511
150000000 -20.259602 -15.351258 21.04949 170.02477 -23.425211 -2.9514823 -24.690554 -34.88036
200000000 -20.141481 -19.727762 21.038309 166.99464 -23.431782 -3.3735664 -24.241243 -43.964191
250000000 -20.055542 -24.34915 21.016768 163.87869 -23.429247 -4.2149911 -23.628021 -53.478481
300000000 -19.838387 -29.113422 20.976942 160.81873 -23.397291 -5.1354218 -22.947374 -60.837009
350000000 -19.848816 -33.929893 20.960131 157.68468 -23.398701 -5.730041 -22.304741 -67.560928
400000000 -19.513937 -38.519566 20.909445 154.64352 -23.398073 -6.6173239 -21.671925 -73.976212
450000000 -19.548294 -42.35796 20.890625 151.51334 -23.363905 -7.4787779 -21.07811 -79.477173
500000000 -19.360554 -47.245434 20.852781 148.51657 -23.347687 -8.3578243 -20.418568 -84.974426
550000000 -19.102472 -50.838848 20.789742 145.40099 -23.339466 -8.9515543 -19.994389 -89.830338
600000000 -19.094461 -55.563808 20.776623 142.3322 -23.319466 -9.9079504 -19.415915 -94.241737
650000000 -18.840784 -59.386253 20.717405 139.34148 -23.30224 -10.683037 -18.984924 -98.50724
700000000 -18.615862 -63.071571 20.651735 136.30428 -23.283533 -11.512409 -18.520292 -102.63742
750000000 -18.389975 -66.772217 20.594387 133.32071 -23.256432 -12.396082 -18.094551 -105.9692
800000000 -18.280804 -70.195473 20.540905 130.29387 -23.253628 -13.194884 -17.761192 -109.92373
850000000 -17.980705 -73.812988 20.470787 127.33336 -23.227463 -14.176616 -17.39222 -113.35989
900000000 -17.953964 -77.433624 20.430862 124.33161 -23.197905 -14.97143 -17.051592 -116.673
950000000 -17.694004 -80.776955 20.35376 121.44474 -23.155558 -15.784583 -16.737164 -119.8872
1000000000 -17.470898 -83.417114 20.267864 118.49494 -23.138813 -16.641899 -16.490322 -123.17257
1050000000 -17.354286 -86.773178 20.205091 115.561 -23.109304 -17.530842 -16.189789 -126.61591
1100000000 -17.20899 -89.53244 20.131294 112.65853 -23.09058 -18.465202 -15.933167 -129.40471
1150000000 -16.999865 -92.960396 20.05459 109.82336 -23.052284 -19.292759 -15.763573 -132.38129
1200000000 -16.727085 -94.634521 19.943857 106.96588 -23.041437 -20.14349 -15.49228 -135.32033
1250000000 -16.654709 -98.196655 19.888847 104.11716 -22.994837 -21.054184 -15.31508 -138.08395
1300000000 -16.464853 -100.59635 19.796814 101.3101 -22.956009 -21.951363 -15.117008 -140.8299
1350000000 -16.240252 -103.20381 19.707737 98.561745 -22.935993 -22.876354 -14.951417 -143.46867
1400000000 -16.072424 -105.88705 19.618389 95.753609 -22.874018 -23.935989 -14.787279 -146.22404
1450000000 -15.850095 -108.15923 19.516632 93.014526 -22.851454 -24.759312 -14.653703 -148.74094
1500000000 -15.780169 -111.3115 19.450066 90.260902 -22.807421 -25.731546 -14.508315 -151.57394
1550000000 -15.524848 -113.38698 19.33659 87.583885 -22.785416 -26.572714 -14.396095 -154.00481
1600000000 -15.374033 -116.08736 19.250509 84.919693 -22.744904 -27.624146 -14.262155 -156.66667
1650000000 -15.205734 -118.34225 19.145075 82.226845 -22.700968 -28.494656 -14.149132 -159.29807
1700000000 -15.099686 -121.31356 19.074266 79.568382 -22.670815 -29.462271 -14.050162 -161.73627
1750000000 -14.910203 -123.63123 18.963392 76.961189 -22.618601 -30.480064 -13.945622 -164.46098
1800000000 -14.728062 -125.91059 18.859516 74.366013 -22.588623 -31.467175 -13.863186 -166.80405
1850000000 -14.601434 -128.40395 18.765337 71.756355 -22.52977 -32.419273 -13.780283 -169.49709
1900000000 -14.520983 -130.96657 18.677479 69.141708 -22.494202 -33.391853 -13.709192 -171.99203
1950000000 -14.332773 -133.47409 18.579065 66.645897 -22.445696 -34.348156 -13.632225 -174.49515
2000000000 -14.254889 -135.80455 18.48662 64.066803 -22.398977 -35.418777 -13.597392 -176.85162
2050000000 -14.079813 -138.14185 18.383854 61.586292 -22.37402 -36.475044 -13.538125 -179.41054
2100000000 -13.996631 -140.55844 18.302874 58.997726 -22.329556 -37.39967 -13.462455 178.35263
2150000000 -13.91526 -142.98729 18.213614 56.499676 -22.285545 -38.519585 -13.446849 176.0201
2200000000 -13.743996 -145.3392 18.102358 54.037708 -22.235521 -39.50444 -13.389765 173.32857
2250000000 -13.70932 -147.61414 18.016289 51.475094 -22.183962 -40.649097 -13.340854 171.11075
2300000000 -13.608551 -150.21957 17.924248 49.046776 -22.137959 -41.668869 -13.30268 168.62766
2350000000 -13.553624 -152.48257 17.829258 46.54372 -22.099146 -42.85677 -13.255233 166.12039
2400000000 -13.458315 -154.8746 17.733013 44.137924 -22.055822 -43.960751 -13.240337 163.71567
2450000000 -13.374434 -157.36659 17.637394 41.67651 -22.005356 -45.006618 -13.173995 161.08096
2500000000 -13.351881 -159.73752 17.558838 39.193008 -21.969236 -46.119236 -13.160057 158.8412
2550000000 -13.241019 -162.15833 17.457317 36.777172 -21.935392 -47.217113 -13.134427 156.10095
2600000000 -13.207153 -164.57533 17.369946 34.327293 -21.880976 -48.351715 -13.060254 153.79494
2650000000 -13.139551 -167.17532 17.278177 31.900867 -21.834316 -49.439518 -13.074378 151.43994
2700000000 -13.037693 -169.58322 17.18228 29.513103 -21.791716 -50.487785 -13.019034 148.78178
2750000000 -13.065473 -171.94354 17.09971 27.054401 -21.737036 -51.838078 -13.015135 146.47008
2800000000 -12.944474 -174.25662 16.998516 24.730007 -21.724407 -53.027931 -12.985765 143.93509
2850000000 -12.927326 -176.57364 16.912247 22.291082 -21.665369 -54.128681 -12.975391 141.71175
2900000000 -12.863163 -179.2193 16.823612 19.961004 -21.616337 -55.252979 -12.95869 139.0173
2950000000 -12.804617 178.50386 16.728428 17.619232 -21.577929 -56.343773 -12.910253 136.69157
3000000000 -12.799826 175.9079 16.6451 15.195318 -21.524584 -57.631989 -12.918948 134.20874
3050000000 -12.715639 173.38 16.553612 12.87488 -21.485498 -58.791965 -12.849334 131.56549
3100000000 -12.688915 170.99702 16.461321 10.514407 -21.44676 -59.996609 -12.842905 129.26141
3150000000 -12.625862 168.39838 16.373207 8.1958036 -21.413706 -61.246334 -12.811582 126.70318
3200000000 -12.596392 166.05408 16.279469 5.8483562 -21.37466 -62.442062 -12.770727 124.33559
3250000000 -12.559495 163.40488 16.197109 3.536613 -21.328505 -63.651997 -12.750481 121.83549
3300000000 -12.488773 161.04181 16.103674 1.2440088 -21.274643 -64.915558 -12.706837 119.44827
3350000000 -12.452332 158.54048 16.012245 -1.0853635 -21.241314 -66.227356 -12.694098 117.07796
3400000000 -12.393324 156.03992 15.924526 -3.3641512 -21.213144 -67.38942 -12.653238 114.61134
3450000000 -12.33168 153.64569 15.833599 -5.6466675 -21.164415 -68.648315 -12.617324 112.27678
3500000000 -12.296618 151.01291 15.746614 -7.9358912 -21.121382 -69.883995 -12.604172 109.77006
3550000000 -12.21347 148.52745 15.660153 -10.208618 -21.094543 -71.086548 -12.553051 107.36976
3600000000 -12.1728 146.11115 15.569935 -12.469178 -21.044575 -72.390816 -12.510673 104.99283
3650000000 -12.105872 143.51656 15.484549 -14.737538 -21.001123 -73.674698 -12.458385 102.63065
3700000000 -12.057587 140.9828 15.397545 -16.998953 -20.956438 -74.925407 -12.419566 100.24337
3750000000 -11.982555 138.40021 15.311152 -19.260252 -20.924854 -76.220886 -12.3663 97.810959
3800000000 -11.905357 135.83803 15.220551 -21.48193 -20.88867 -77.444077 -12.319073 95.513397
3850000000 -11.852329 133.23317 15.134501 -23.754646 -20.85232 -78.816849 -12.273307 93.133255
3900000000 -11.774307 130.49397 15.050678 -25.995958 -20.820993 -80.186516 -12.214764 90.744217
3950000000 -11.704788 127.93542 14.96398 -28.234167 -20.778801 -81.454391 -12.136123 88.387032
4000000000 -11.634546 125.24007 14.877395 -30.450151 -20.744015 -82.836159 -12.09403 86.113693
4050000000 -11.544151 122.49559 14.787491 -32.665493 -20.716562 -84.174408 -12.03064 83.596878
4100000000 -11.490057 119.76261 14.702725 -34.873322 -20.684208 -85.423393 -11.931373 81.363235
4150000000 -11.375636 116.96945 14.615887 -37.09523 -20.649927 -86.815163 -11.872994 79.052948
4200000000 -11.291129 114.40189 14.527082 -39.266216 -20.616859 -88.107216 -11.789316 76.741119
4250000000 -11.220303 111.75046 14.442758 -41.454243 -20.598595 -89.352333 -11.728349 74.633202
4300000000 -11.105675 109.02763 14.354876 -43.706036 -20.550409 -90.691917 -11.650053 72.194626
4350000000 -11.020577 106.36753 14.270997 -45.922089 -20.521196 -92.151825 -11.561913 70.146744
4400000000 -10.954607 103.65833 14.183201 -48.091568 -20.515913 -93.455299 -11.50806 67.714745
4450000000 -10.869167 101.10841 14.099025 -50.317829 -20.475206 -94.891434 -11.414887 65.549721
4500000000 -10.779549 98.255898 14.01165 -52.530964 -20.449749 -96.303673 -11.357534 63.246078
4550000000 -10.684316 95.843422 13.926394 -54.734081 -20.427834 -97.557625 -11.267188 61.096447
4600000000 -10.589264 92.982468 13.840979 -56.955845 -20.407272 -98.979027 -11.203024 58.851936
4650000000 -10.483479 90.433456 13.749038 -59.131065 -20.384104 -100.38504 -11.10643 56.571621
4700000000 -10.41457 87.747307 13.659172 -61.295567 -20.369766 -101.76153 -11.039083 54.55658
4750000000 -10.296474 85.062218 13.571162 -63.488571 -20.347021 -103.14151 -10.962111 52.235786
4800000000 -10.191123 82.605637 13.486141 -65.640533 -20.313414 -104.48161 -10.88005 50.309063
4850000000 -10.092319 79.815887 13.401196 -67.807823 -20.296076 -105.92926 -10.828897 48.13673
4900000000 -9.9939737 77.392052 13.311216 -69.97422 -20.290255 -107.35814 -10.732162 45.999718
4950000000 -9.8994055 74.628746 13.227289 -72.142097 -20.282228 -108.69568 -10.6766 43.961319
5000000000 -9.7857857 72.210426 13.135654 -74.30262 -20.263449 -110.18018 -10.585921 41.843277
5050000000 -9.7042942 69.605995 13.052801 -76.443253 -20.251741 -111.48441 -10.539112 39.903828
5100000000 -9.5806103 67.044991 12.960341 -78.594246 -20.23385 -112.9975 -10.446108 37.795609
5150000000 -9.4921427 64.609901 12.877438 -80.762352 -20.229565 -114.36736 -10.36738 35.95435
5200000000 -9.3670053 62.071926 12.790761 -82.881462 -20.205452 -115.63992 -10.315617 33.872341
5250000000 -9.271533 59.616779 12.701877 -85.049942 -20.207861 -117.04895 -10.220898 31.849846
5300000000 -9.1544313 57.068741 12.619904 -87.217354 -20.190466 -118.47439 -10.159712 30.022921
5350000000 -9.046113 54.6796 12.525586 -89.351692 -20.184 -119.89243 -10.081856 27.965158
5400000000 -8.94835 52.201752 12.436324 -91.507591 -20.175438 -121.35004 -10.007963 26.19523
5450000000 -8.8226118 49.835621 12.344549 -93.625168 -20.183416 -122.7178 -9.9420462 24.158251
5500000000 -8.7309513 47.463005 12.259078 -95.756996 -20.153559 -124.10193 -9.8538046 22.42569
5550000000 -8.6074953 45.131744 12.166263 -97.887512 -20.173174 -125.46365 -9.8034058 20.463449
5600000000 -8.5064907 42.752598 12.077523 -100.00385 -20.148878 -126.92724 -9.7198172 18.579678
5650000000 -8.3975239 40.428482 11.984446 -102.12232 -20.16074 -128.30156 -9.665658 16.762218
5700000000 -8.2920685 38.203964 11.899049 -104.21907 -20.166037 -129.81087 -9.5943699 14.958777
5750000000 -8.1935587 35.860912 11.802825 -106.33311 -20.164484 -131.19649 -9.5321112 13.213332
5800000000 -8.0704908 33.572685 11.714705 -108.4571 -20.173958 -132.45076 -9.4798441 11.357565
5850000000 -7.9854164 31.336226 11.620518 -110.52837 -20.181744 -133.84294 -9.3948975 9.7181549
5900000000 -7.8675251 29.132185 11.526794 -112.62411 -20.18442 -135.25789 -9.3567829 7.8796701
5950000000 -7.7774611 27.018957 11.438657 -114.72774 -20.180506 -136.66351 -9.2710648 6.1492767
6000000000 -7.6689816 24.753222 11.344018 -116.80005 -20.174166 -138.01094 -9.2246847 4.4338031
6050000000 -7.5577784 22.659502 11.243995 -118.89283 -20.186121 -139.40279 -9.1524878 2.697082
6100000000 -7.4610023 20.503576 11.150872 -120.97709 -20.205893 -140.84874 -9.1022243 1.0750122
6150000000 -7.3544283 18.409571 11.055251 -123.04134 -20.209526 -142.18375 -9.0586357 -0.66539097
6200000000 -7.2760305 16.35611 10.962308 -125.04878 -20.21534 -143.57291 -8.9868841 -2.1743584
6250000000 -7.160809 14.271022 10.862804 -127.16135 -20.2223 -144.92093 -8.94872 -3.8412378
6300000000 -7.0680137 12.282747 10.770975 -129.18951 -20.242773 -146.19099 -8.887207 -5.552927
6350000000 -6.9713588 10.229576 10.67358 -131.23346 -20.267206 -147.66618 -8.8409491 -6.99651
6400000000 -6.8773746 8.3724632 10.5804 -133.28014 -20.26523 -148.93217 -8.7986984 -8.7246046
6450000000 -6.7894645 6.293004 10.483411 -135.31924 -20.272306 -150.34718 -8.7404633 -10.219585
6500000000 -6.6895061 4.3754315 10.383672 -137.37321 -20.302219 -151.77057 -8.7155933 -11.845329
6550000000 -6.6045256 2.4486666 10.286497 -139.38858 -20.323587 -153.13495 -8.6613874 -13.393036
6600000000 -6.5154128 0.53315371 10.189951 -141.40454 -20.337446 -154.40051 -8.6162777 -14.91673
6650000000 -6.423789 -1.2994972 10.093428 -143.39804 -20.343632 -155.73087 -8.568121 -16.43894
6700000000 -6.3366451 -3.2452631 9.9936047 -145.43636 -20.359379 -157.14023 -8.5341311 -17.912945
6750000000 -6.2470574 -4.983542 9.8977556 -147.44363 -20.383698 -158.46457 -8.5029182 -19.490473
6800000000 -6.17242 -6.8254647 9.7952614 -149.43108 -20.402615 -159.79688 -8.4568644 -20.884823
6850000000 -6.0819311 -8.6462593 9.6971998 -151.40742 -20.431301 -160.95503 -8.4239769 -22.275198
6900000000 -6.0040503 -10.472361 9.5938101 -153.43651 -20.460321 -162.34953 -8.3873796 -23.848372
6950000000 -5.930757 -12.212607 9.4963512 -155.36932 -20.466099 -163.6814 -8.3449516 -25.190838
7000000000 -5.8484435 -13.931989 9.3988562 -157.35074 -20.486147 -164.91315 -8.3156652 -26.543703
7050000000 -5.7738242 -15.645622 9.3023901 -159.3351 -20.518139 -166.22818 -8.2815256 -28.05994
7100000000 -5.701066 -17.3901 9.1972523 -161.31422 -20.526012 -167.52446 -8.2425175 -29.40403
7150000000 -5.6179533 -18.996784 9.1022968 -163.24352 -20.549593 -168.97119 -8.208354 -30.806936
7200000000 -5.5594916 -20.724194 9.0011396 -165.23386 -20.585302 -170.15385 -8.1732578 -32.171963
7250000000 -5.4908919 -22.379263 8.9001532 -167.15778 -20.604958 -171.39606 -8.1445427 -33.513779
7300000000 -5.4178014 -24.021282 8.7970724 -169.16747 -20.630413 -172.77641 -8.0986004 -34.998199
7350000000 -5.3464789 -25.685587 8.7001677 -171.05705 -20.662918 -173.98814 -8.0728388 -36.166664
7400000000 -5.2743587 -27.215858 8.6035137 -172.98648 -20.670246 -175.30743 -8.0350981 -37.54483
7450000000 -5.2229719 -28.851151 8.4978981 -174.9236 -20.696699 -176.49849 -7.9937043 -38.793423
7500000000 -5.1455464 -30.388222 8.4036026 -176.83311 -20.72665 -177.68748 -7.9734511 -40.089672
7550000000 -5.0945001 -31.924599 8.3012466 -178.72739 -20.741415 -179.0526 -7.9260507 -41.438435
7600000000 -5.0345144 -33.495625 8.1979809 179.37468 -20.796822 179.80023 -7.8998661 -42.558846
7650000000 -4.9743838 -34.948963 8.0985098 177.42838 -20.791275 178.36172 -7.8710146 -43.923965
7700000000 -4.9138451 -36.521763 8.0074081 175.59189 -20.826679 177.26572 -7.8205199 -45.017639
7750000000 -4.8513598 -37.941391 7.8965383 173.71901 -20.851616 176.03587 -7.8113065 -46.321316
7800000000 -4.8156605 -39.519913 7.7969012 171.81763 -20.874044 174.72121 -7.7513704 -47.544525
7850000000 -4.7409863 -40.915791 7.7079949 169.97942 -20.918026 173.69501 -7.7355571 -48.648502
7900000000 -4.707993 -42.304157 7.6031084 168.10002 -20.939289 172.4227 -7.6909728 -50.013714
7950000000 -4.6462712 -43.875175 7.5058775 166.22264 -20.950567 171.31433 -7.6421757 -51.049133
8000000000 -4.5915933 -45.180016 7.4115191 164.39742 -20.977829 170.07539 -7.6369653 -52.312473
8050000000 -4.5504456 -46.731197 7.3161092 162.53058 -20.990953 168.93361 -7.5618224 -53.43877
8100000000 -4.4979534 -48.045204 7.2176809 160.72743 -21.019205 167.65912 -7.5494671 -54.504719
8150000000 -4.4654741 -49.487362 7.1263485 158.85533 -21.048189 166.46826 -7.4971027 -55.70153
8200000000 -4.4002833 -50.878338 7.027915 157.04961 -21.059753 165.31992 -7.4738936 -56.63205
8250000000 -4.3712664 -52.170097 6.9334621 155.21417 -21.087088 164.09171 -7.4316964 -57.922333
8300000000 -4.3319273 -53.645317 6.8385673 153.41393 -21.116354 163.02295 -7.3767962 -58.806278
8350000000 -4.2784681 -54.817635 6.7527537 151.63612 -21.121786 161.94482 -7.3684378 -59.869534
8400000000 -4.2512407 -56.228851 6.6580644 149.82562 -21.149462 160.80652 -7.305872 -61.029564
8450000000 -4.1957769 -57.496655 6.5609498 148.05338 -21.171015 159.68262 -7.276432 -61.962799
8500000000 -4.1705565 -58.813946 6.4749036 146.27196 -21.168932 158.56784 -7.2309313 -63.038124
8550000000 -4.1226139 -60.212208 6.3794804 144.51094 -21.188437 157.46394 -7.1955128 -63.955719
8600000000 -4.1001773 -61.352795 6.2866621 142.78963 -21.220858 156.27188 -7.1569619 -65.080849
8650000000 -4.068666 -62.822647 6.1942792 140.93703 -21.226847 155.20679 -7.0954924 -66.014503
8700000000 -4.0185537 -63.956539 6.109015 139.25468 -21.25436 154.09248 -7.0794001 -66.948875
8750000000 -4.0006318 -65.242683 6.0207729 137.55917 -21.277569 153.06531 -7.0260539 -68.02813
8800000000 -3.9548669 -66.537476 5.935204 135.79201 -21.284454 152.03529 -6.9934554 -68.893097
8850000000 -3.9323249 -67.725449 5.853723 134.03445 -21.29088 150.95937 -6.9398184 -69.949684
8900000000 -3.9041915 -69.110931 5.7590585 132.28719 -21.316683 149.7977 -6.9040461 -70.791473
8950000000 -3.8777914 -70.254417 5.6713743 130.56282 -21.340645 148.7509 -6.878839 -71.811661
9000000000 -3.8617976 -71.559677 5.5823574 128.90742 -21.331583 147.75377 -6.8169432 -72.718178
9050000000 -3.8241248 -72.682877 5.5012751 127.18419 -21.364717 146.58524 -6.8013973 -73.607841
9100000000 -3.8068502 -73.9132 5.4188685 125.51628 -21.355679 145.74101 -6.7517405 -74.603729
9150000000 -3.7732515 -75.18351 5.3337297 123.78168 -21.355694 144.58623 -6.709209 -75.390488
9200000000 -3.7507374 -76.309303 5.2596221 122.12837 -21.346899 143.58459 -6.6768036 -76.307472
9250000000 -3.7335281 -77.68187 5.1701131 120.38441 -21.354649 142.44652 -6.6265659 -77.238022
9300000000 -3.709023 -78.803719 5.0901031 118.71715 -21.364145 141.36819 -6.5949807 -78.116539
9350000000 -3.6889386 -80.017593 5.0073566 117.07692 -21.376085 140.48831 -6.5441127 -78.942131
9400000000 -3.6776655 -81.153534 4.9272366 115.45663 -21.384735 139.41846 -6.5162735 -79.82518
9450000000 -3.6511769 -82.359131 4.8628197 113.78324 -21.372084 138.39003 -6.4789782 -80.810356
9500000000 -3.627548 -83.582001 4.7876668 112.15872 -21.379337 137.32483 -6.4333701 -81.637421
9550000000 -3.6096559 -84.758766 4.7151017 110.47833 -21.388037 136.31108 -6.4131875 -82.537018
9600000000 -3.595715 -86.042702 4.6349607 108.74801 -21.380451 135.40376 -6.3691392 -83.394241
9650000000 -3.5852017 -87.187057 4.5595207 107.13308 -21.371647 134.32407 -6.3225212 -84.322052
9700000000 -3.5641682 -88.402473 4.4951363 105.465 -21.363356 133.45335 -6.3032937 -85.190964
9750000000 -3.5596533 -89.601372 4.4153619 103.8493 -21.363758 132.1469 -6.2650995 -86.086235
9800000000 -3.5417573 -90.82386 4.3429217 102.2123 -21.397493 131.44272 -6.248939 -86.93261
9850000000 -3.5255115 -92.005028 4.2827129 100.55985 -21.337677 130.43613 -6.2135892 -87.793938
9900000000 -3.5191467 -93.219963 4.2147498 98.966972 -21.331459 129.24457 -6.1614504 -88.736038
9950000000 -3.5068712 -94.461906 4.1491132 97.244095 -21.346331 128.35551 -6.1663747 -89.726456
10000000000 -3.5046453 -95.731926 4.0744171 95.550987 -21.319571 127.44214 -6.1232271 -90.625099
10050000000 -3.4921691 -96.873222 4.0138979 93.906303 -21.263597 126.43774 -6.1004648 -91.579956
10100000000 -3.4983337 -98.125046 3.9385617 92.297737 -21.2645 125.37518 -6.0809922 -92.43988
10150000000 -3.4755542 -99.312485 3.8849473 90.793655 -21.223467 124.37798 -6.0225101 -93.242393
10200000000 -3.4719858 -100.52774 3.8176265 89.01696 -21.223845 123.12651 -6.041028 -94.514206
10250000000 -3.4609835 -101.90096 3.7703147 87.38884 -21.213909 122.00431 -5.9815269 -95.336197
10300000000 -3.4519711 -103.09682 3.7186222 85.736572 -21.211653 120.89543 -5.9533896 -96.256935
10350000000 -3.4633064 -104.4725 3.6489611 84.024536 -21.20759 119.85983 -5.96451 -97.369835
10400000000 -3.449573 -105.65963 3.5904613 82.433189 -21.178579 119.02613 -5.9174604 -98.161179
10450000000 -3.4624605 -107.06887 3.5305972 80.622383 -21.162516 117.73621 -5.9149494 -99.449059
10500000000 -3.4493454 -108.32811 3.4832158 79.126266 -21.140993 116.98441 -5.8912506 -100.1144
10550000000 -3.4563491 -109.57018 3.4282923 77.387856 -21.088821 115.75041 -5.8757296 -101.26595
10600000000 -3.4551435 -110.97481 3.3689301 75.696068 -21.066099 114.64912 -5.8628807 -102.53519
10650000000 -3.4408391 -112.16788 3.3284962 74.058403 -21.028612 113.4787 -5.8363128 -103.28824
10700000000 -3.4487824 -113.64976 3.2814322 72.294449 -20.984041 112.36489 -5.8186855 -104.66286
10750000000 -3.4489148 -115.03025 3.2211678 70.62532 -20.989655 111.44798 -5.8220387 -105.48598
10800000000 -3.4681368 -116.3867 3.1751099 68.912247 -20.946386 110.25755 -5.8060503 -106.6646
10850000000 -3.4595237 -117.82316 3.1140947 67.200104 -20.915709 109.0827 -5.781837 -107.95016
10900000000 -3.4642122 -119.02983 3.0786293 65.562515 -20.888393 108.07826 -5.7883096 -108.80251
10950000000 -3.4677405 -120.70438 3.0403497 63.752617 -20.838795 106.74374 -5.7324047 -110.24087
11000000000 -3.4763794 -121.97286 2.9924963 62.112492 -20.835356 105.70342 -5.7628193 -111.12305
11050000000 -3.4871244 -123.50548 2.9540854 60.304882 -20.782896 104.65337 -5.7480211 -112.49121
11100000000 -3.4863925 -124.94647 2.8987572 58.541122 -20.755211 103.37167 -5.7191482 -113.72147
11150000000 -3.5033832 -126.41865 2.8682852 56.855598 -20.677004 102.35782 -5.7513318 -114.69359
11200000000 -3.4992404 -128.04019 2.8243945 55.026932 -20.638174 101.17277 -5.6956291 -116.05087
11250000000 -3.5226531 -129.40868 2.7824347 53.328075 -20.624472 99.945183 -5.7308674 -117.27467
11300000000 -3.5308106 -131.06612 2.7356496 51.476208 -20.571136 98.826553 -5.7105041 -118.69451
11350000000 -3.520299 -132.45605 2.7021067 49.722572 -20.514427 97.516663 -5.6750922 -119.9397
11400000000 -3.5497704 -134.16603 2.6616087 47.961964 -20.476704 96.47039 -5.7198682 -121.26787
11450000000 -3.5295386 -135.761 2.6189213 46.131592 -20.414637 95.196701 -5.6768813 -122.47794
11500000000 -3.5611079 -137.36658 2.5861933 44.315994 -20.388323 93.84642 -5.6927929 -123.91229
11550000000 -3.5520909 -139.16757 2.5492742 42.449226 -20.325312 92.586884 -5.6723061 -125.28593
11600000000 -3.5708289 -140.57962 2.5229869 40.690292 -20.247774 91.306488 -5.6628933 -126.44839
11650000000 -3.5814896 -142.51546 2.484298 38.780926 -20.208683 89.906448 -5.6749573 -128.14941
11700000000 -3.5702958 -144.08426 2.4483268 36.880054 -20.160669 88.584969 -5.6469917 -129.36635
11750000000 -3.5997519 -145.87825 2.4169526 35.050827 -20.095728 87.109337 -5.6587992 -130.93469
11800000000 -3.5831356 -147.71548 2.3773124 33.112698 -20.1059 85.761581 -5.6514726 -132.47552
11850000000 -3.6102817 -149.38969 2.349324 31.294666 -20.016661 84.47509 -5.6577659 -133.8197
11900000000 -3.6041095 -151.39786 2.3135216 29.325121 -20.008539 83.032944 -5.6489158 -135.53476
11950000000 -3.617346 -153.08525 2.2751606 27.354361 -19.94264 81.806717 -5.6436086 -136.86696
12000000000 -3.6287992 -155.03876 2.2482011 25.522856 -19.874708 80.333313 -5.6356654 -138.63896
12050000000 -3.6224012 -156.9088 2.2069688 23.523193 -19.856382 78.901207 -5.6314869 -140.20363
12100000000 -3.6490028 -158.83557 2.1708105 21.583046 -19.782207 77.510139 -5.639112 -141.78758
12150000000 -3.6360488 -160.83714 2.1356788 19.589664 -19.758789 75.970375 -5.6315722 -143.5289
12200000000 -3.6483719 -162.7269 2.093394 17.659372 -19.692623 74.667969 -5.6380334 -145.08803
12250000000 -3.646837 -164.78078 2.0528927 15.677358 -19.627348 73.236671 -5.6146235 -146.96005
12300000000 -3.6533086 -166.7291 2.0198066 13.682817 -19.619619 71.591858 -5.6229911 -148.50322
12350000000 -3.6692204 -168.85565 1.983165 11.62777 -19.571699 70.293808 -5.626605 -150.3298
12400000000 -3.668107 -170.73415 1.9394557 9.665411 -19.509253 68.681801 -5.6146407 -152.23303
12450000000 -3.6559966 -172.83781 1.901684 7.5595355 -19.464155 67.199196 -5.6236615 -153.91814
12500000000 -3.644124 -174.90384 1.8608838 5.5794864 -19.391228 65.737732 -5.6018467 -155.83591
12550000000 -3.6407094 -177.14528 1.8215756 3.4739962 -19.376856 63.887806 -5.6073637 -157.75464
12600000000 -3.6443155 -179.35724 1.775722 1.3268855 -19.345663 62.431896 -5.6089849 -159.49951
12650000000 -3.6480341 178.58644 1.727285 -0.68898505 -19.285622 60.849644 -5.595489 -161.6665
12700000000 -3.6290855 176.44412 1.6766281 -2.7685349 -19.279837 59.231285 -5.6032181 -163.51251
12750000000 -3.6267171 174.15942 1.6267388 -4.8963675 -19.20986 57.518497 -5.5806546 -165.44911
12800000000 -3.598444 171.94698 1.5842577 -7.0029216 -19.19186 55.824165 -5.5972342 -167.68375
12850000000 -3.6047678 169.78035 1.5323147 -9.1957016 -19.185192 54.257668 -5.5947824 -169.59691
12900000000 -3.5941534 167.44894 1.4693972 -11.333142 -19.127939 52.599743 -5.5675325 -171.80894
12950000000 -3.553921 165.3795 1.4235151 -13.487525 -19.114565 50.906738 -5.5816236 -173.93677
13000000000 -3.5432699 162.92889 1.3686813 -15.716756 -19.057825 49.303482 -5.5583172 -176.10716
13050000000 -3.5142434 160.70567 1.3031874 -17.821997 -19.034187 47.498337 -5.5335517 -178.45694
13100000000 -3.5208559 158.44974 1.2355078 -20.057724 -19.048317 45.740528 -5.5657625 179.37498
13150000000 -3.4821105 156.12508 1.1605968 -22.222477 -19.000057 44.198601 -5.4965839 177.06364
13200000000 -3.4614384 154.0791 1.1032413 -24.377113 -18.97307 42.276379 -5.5104318 174.79938
13250000000 -3.435292 151.44931 1.0330787 -26.675541 -18.978117 40.612762 -5.4896216 172.37
13300000000 -3.3998051 149.31491 0.95658851 -28.885809 -18.950182 38.672226 -5.4385271 170.06573
13350000000 -3.3945477 146.92133 0.8792268 -31.164896 -18.950697 36.986153 -5.4836249 167.52991
13400000000 -3.3419571 144.68553 0.78930777 -33.317532 -18.939207 35.272038 -5.3933887 165.26248
13450000000 -3.3397832 142.50972 0.71128696 -35.52832 -18.941637 33.327232 -5.4168143 162.82158
13500000000 -3.2736044 140.03647 0.62096608 -37.789513 -18.943604 31.676632 -5.373579 160.19275
13550000000 -3.2515264 138.00348 0.53770363 -40.065666 -18.924435 29.67441 -5.3043776 157.85449
13600000000 -3.2211266 135.465 0.44490546 -42.264404 -18.957371 27.937597 -5.3317146 155.17647
13650000000 -3.1685114 133.43756 0.35227063 -44.462727 -18.969128 26.120958 -5.2442942 153.03891
13700000000 -3.1584122 131.09154 0.25245249 -46.863739 -18.975199 24.154678 -5.2506142 149.9745
13750000000 -3.0843101 128.8965 0.13526084 -49.113758 -19.023129 22.337475 -5.1676898 147.4317
13800000000 -3.0789969 126.79758 0.032893963 -51.236549 -19.00861 20.547966 -5.1230159 145.43408
13850000000 -3.0312028 124.39635 -0.093141519 -53.541664 -19.060421 18.501966 -5.1108408 142.24402
13900000000 -2.997174 122.56065 -0.19554891 -55.668732 -19.084259 16.863733 -5.0231547 140.32869
13950000000 -2.9589064 120.1361 -0.3011252 -58.024036 -19.101845 14.764506 -4.9897838 137.3947
14000000000 -2.8946719 118.274 -0.43403384 -60.229019 -19.186049 13.190093 -4.9141951 134.89841
14050000000 -2.8784885 116.06041 -0.55032265 -62.461468 -19.164291 11.331226 -4.8787251 132.74591
14100000000 -2.8207326 113.89967 -0.70626879 -64.697189 -19.249556 9.3475208 -4.8185987 129.70245
14150000000 -2.8053629 112.02287 -0.82898247 -66.792152 -19.288866 7.6960669 -4.7647924 127.68571
14200000000 -2.758693 109.84843 -0.97168905 -69.061775 -19.333164 5.6677728 -4.6906447 124.85556
14250000000 -2.7120528 108.16996 -1.1029315 -71.072739 -19.410173 3.8999684 -4.6205559 122.58804
14300000000 -2.6716835 105.91827 -1.232263 -73.323883 -19.449905 2.1433394 -4.5795474 120.16962
14350000000 -2.6142628 103.99169 -1.380685 -75.615005 -19.527349 0.057371367 -4.4627881 117.37659
14400000000 -2.6079595 102.12724 -1.5315639 -77.676727 -19.613419 -1.5811231 -4.425765 115.35593
14450000000 -2.5600836 100.23689 -1.7021277 -79.886879 -19.691956 -3.3522332 -4.3380589 112.77706
14500000000 -2.5425646 98.524353 -1.8711886 -81.941505 -19.781096 -5.1741586 -4.2786837 110.67652
14550000000 -2.4872162 96.63546 -2.0154555 -83.982201 -19.838438 -6.8201275 -4.2148385 108.44849
14600000000 -2.4484661 94.937958 -2.1780131 -85.967598 -19.914383 -8.6986418 -4.1083703 106.18659
14650000000 -2.4192016 93.074501 -2.3339541 -88.041138 -20.036966 -10.399112 -4.0770602 104.07227
14700000000 -2.3705344 91.413361 -2.4873962 -90.124016 -20.088802 -12.160372 -3.9771521 101.81646
14750000000 -2.3488488 89.729118 -2.6596782 -92.176285 -20.185383 -13.803066 -3.9232914 99.721626
14800000000 -2.3121054 87.99929 -2.8405185 -94.166023 -20.272663 -15.534489 -3.8524234 97.595589
14850000000 -2.290035 86.371483 -3.0261874 -96.073761 -20.361773 -17.267071 -3.7708037 95.47924
14900000000 -2.2605042 84.792259 -3.19555 -98.003525 -20.503714 -18.885899 -3.7233541 93.467995
14950000000 -2.2400475 83.327599 -3.3675838 -99.853584 -20.581968 -20.480381 -3.6280551 91.609772
15000000000 -2.1881297 81.767021 -3.5392015 -101.70684 -20.704428 -22.099504 -3.5780816 89.712997
15050000000 -2.1630397 80.279816 -3.7103419 -103.63734 -20.822203 -23.636251 -3.5083477 87.873444
15100000000 -2.1323147 78.691071 -3.8938627 -105.4834 -20.900761 -25.249298 -3.4240909 86.00824
15150000000 -2.1118033 77.270012 -4.0710516 -107.45641 -21.053013 -27.001387 -3.3784392 84.07428
15200000000 -2.1093986 75.848648 -4.2706347 -109.14428 -21.160904 -28.220215 -3.306761 82.480225
15250000000 -2.0616825 74.60125 -4.4478846 -110.89468 -21.261395 -29.762983 -3.2560711 80.686417
15300000000 -2.0514209 73.233643 -4.638 -112.70026 -21.39407 -31.243368 -3.2182794 79.055344
15350000000 -1.9936436 71.849106 -4.8043132 -114.35237 -21.473993 -32.625641 -3.1208639 77.386902
15400000000 -1.989773 70.576195 -4.9812517 -116.09176 -21.599283 -34.397503 -3.0762038 75.691498
15450000000 -1.9797529 69.114975 -5.1870866 -117.83628 -21.73259 -35.647999 -3.0329001 74.287468
15500000000 -1.9633385 68.128479 -5.35706 -119.52193 -21.829197 -37.122536 -2.9658837 72.54744
15550000000 -1.9468099 66.785324 -5.5504236 -121.17355 -21.988136 -38.625954 -2.939393 71.004997
15600000000 -1.9046464 65.699684 -5.7282901 -122.77197 -22.08745 -39.796448 -2.8534524 69.66111
15650000000 -1.9029933 64.454765 -5.9000707 -124.35934 -22.260635 -41.406948 -2.8281689 68.086868
15700000000 -1.8601706 63.224541 -6.0884728 -125.91612 -22.368898 -42.629433 -2.7775166 66.797897
15750000000 -1.8656777 62.346085 -6.263 -127.46671 -22.49258 -43.815128 -2.7154255 65.527992
15800000000 -1.8387412 60.966221 -6.4412527 -129.21136 -22.637707 -45.209534 -2.6954207 63.808796
15850000000 -1.812201 60.158756 -6.6277103 -130.55197 -22.706549 -46.324837 -2.6026971 62.886986
15900000000 -1.8169374 58.895088 -6.8109684 -132.11551 -22.867826 -47.681683 -2.6052828 61.36311
15950000000 -1.7902676 58.004459 -6.9881606 -133.66504 -23.038319 -49.04348 -2.5573313 59.987389
16000000000 -1.7967997 57.038177 -7.148541 -135.09055 -23.090336 -49.916824 -2.4860528 58.980598
16050000000 -1.7437931 56.043118 -7.3303866 -136.57216 -23.237062 -51.225929 -2.4824228 57.342999
16100000000 -1.7483668 55.108753 -7.5119443 -137.92014 -23.355244 -52.119022 -2.4253767 56.661594
16150000000 -1.7323028 53.908566 -7.6851649 -139.43967 -23.463781 -53.539024 -2.4018402 55.129715
16200000000 -1.719563 53.256889 -7.8433113 -140.82555 -23.615669 -54.47821 -2.3698614 53.993851
16250000000 -1.725161 52.157703 -8.007906 -142.2274 -23.70347 -55.585781 -2.3443229 52.887981
16300000000 -1.6694643 51.39949 -8.1818523 -143.58737 -23.825657 -56.757996 -2.3021016 51.420151
16350000000 -1.6753368 50.362015 -8.3419409 -145.04047 -23.939545 -57.928467 -2.2863731 50.752853
16400000000 -1.6505682 49.312767 -8.5011168 -146.49754 -23.977446 -58.972351 -2.2380078 49.261696
16450000000 -1.6712239 48.576878 -8.6743612 -147.82658 -24.169376 -60.297867 -2.208792 48.215855
16500000000 -1.6615177 47.650288 -8.8471098 -149.01888 -24.280762 -61.354652 -2.2143483 47.377029
16550000000 -1.6365899 47.088856 -8.9949846 -150.29536 -24.407181 -62.644657 -2.1520057 46.11718
16600000000 -1.6367092 46.113617 -9.1343031 -151.6048 -24.526703 -63.699539 -2.1430488 45.381416
16650000000 -1.6113517 45.276966 -9.2956591 -153.00784 -24.64875 -64.81472 -2.0933902 44.176998
16700000000 -1.6222695 44.621517 -9.4363184 -154.22987 -24.784836 -65.814011 -2.0976877 43.284893
16750000000 -1.6007097 43.712479 -9.5970488 -155.57599 -24.902082 -66.602531 -2.0917072 42.307293
16800000000 -1.6168967 43.089386 -9.7646809 -156.95157 -25.022667 -67.779015 -2.0246162 41.157047
16850000000 -1.6005607 42.199574 -9.8998156 -158.12489 -25.177837 -68.990906 -2.0414352 40.303555
16900000000 -1.5859315 41.668346 -10.05253 -159.37216 -25.286718 -69.796707 -1.9829317 39.206326
16950000000 -1.5886514 40.856033 -10.193171 -160.57448 -25.452293 -70.556099 -1.9936366 38.263168
17000000000 -1.5531739 40.128326 -10.326211 -161.9299 -25.583614 -71.425217 -1.9719775 37.186089
17050000000 -1.5615767 39.347038 -10.468106 -163.19299 -25.686321 -72.115395 -1.9194348 36.466351
17100000000 -1.552621 38.567303 -10.62138 -164.37459 -25.832661 -72.842308 -1.9489678 35.662556
17150000000 -1.5718148 37.928066 -10.779208 -165.69716 -25.909174 -73.771507 -1.8825973 34.780869
17200000000 -1.5638083 37.15023 -10.911316 -166.78992 -26.028975 -74.785706 -1.8793133 33.788845
17250000000 -1.5538181 36.671833 -11.043171 -167.85527 -26.192961 -75.379646 -1.8773558 32.955006
17300000000 -1.5578163 35.854969 -11.172615 -169.08118 -26.331371 -76.064751 -1.848289 32.257065
17350000000 -1.5341829 35.266361 -11.28286 -170.21219 -26.406105 -76.922195 -1.8457268 31.335188
17400000000 -1.5358288 34.525982 -11.414041 -171.42223 -26.499905 -77.319809 -1.8030397 30.795012
17450000000 -1.5229769 33.847691 -11.549293 -172.72595 -26.613279 -78.1521 -1.801737 29.515266
17500000000 -1.5520612 33.16111 -11.689425 -173.91206 -26.779797 -78.734032 -1.7923809 28.795811
17550000000 -1.5341665 32.489288 -11.814325 -174.98068 -26.855703 -79.194237 -1.7741055 28.153233
17600000000 -1.5401658 32.015354 -11.938014 -176.12238 -26.967609 -79.980591 -1.7672615 27.12253
17650000000 -1.5281756 31.300226 -12.053882 -177.1725 -27.090662 -80.225471 -1.7535733 26.706968
17700000000 -1.5077277 30.683956 -12.169877 -178.37598 -27.143227 -81.075249 -1.7297516 25.537203
17750000000 -1.521536 30.008928 -12.28405 -179.43077 -27.304285 -81.587914 -1.7263968 24.925503
17800000000 -1.5060252 29.314425 -12.385804 179.409 -27.378286 -81.74173 -1.7108243 24.283781
17850000000 -1.528362 28.561657 -12.498175 178.14 -27.452866 -82.632286 -1.6946278 23.362076
17900000000 -1.515227 27.852495 -12.619296 176.97688 -27.599108 -83.296135 -1.7102786 22.747213
17950000000 -1.5412238 27.276567 -12.737585 175.88989 -27.666172 -84.003349 -1.6503227 21.776056
18000000000 -1.5384781 26.48213 -12.848865 174.79172 -27.859838 -84.426132 -1.6720752 21.240692
18050000000 -1.5330358 26.085491 -12.95363 173.76146 -28.014254 -84.539124 -1.6546619 20.548971
18100000000 -1.5492684 25.277889 -13.050034 172.46133 -28.125334 -84.832565 -1.6279774 19.632257
18150000000 -1.5433311 24.603666 -13.16437 171.22223 -28.296614 -84.671768 -1.6551174 19.050041
18200000000 -1.5562152 23.997681 -13.27422 170.13715 -28.322079 -84.091087 -1.5929117 18.376575
18250000000 -1.5717225 23.210009 -13.412967 168.843 -28.460876 -84.212379 -1.6466758 17.442469
18300000000 -1.599784 22.842995 -13.55197 167.83167 -28.521761 -83.512314 -1.61107 16.798885
18350000000 -1.6008986 22.079224 -13.664355 166.86467 -28.452503 -83.171211 -1.58235 16.260586
18400000000 -1.5868021 21.706884 -13.758402 165.88597 -28.434601 -83.49279 -1.6361063 15.41462
18450000000 -1.5871412 20.953421 -13.861783 164.99007 -28.393728 -83.659904 -1.5808324 14.762974
18500000000 -1.5570431 20.193232 -13.927401 163.81177 -28.434963 -84.435387 -1.6073682 13.886977
18550000000 -1.5729711 19.307138 -14.00058 162.46939 -28.511765 -84.363129 -1.5950649 13.440093
18600000000 -1.6016526 18.519751 -14.142648 161.39696 -28.436134 -84.371094 -1.5513176 12.756988
18650000000 -1.6624193 17.842659 -14.255826 160.11453 -28.475786 -84.725594 -1.5890529 11.68896
18700000000 -1.6655025 17.210249 -14.370646 159.16499 -28.570351 -84.491951 -1.5721638 11.29363
18750000000 -1.6751254 16.724113 -14.453623 158.21275 -28.497791 -84.395714 -1.574347 10.399531
18800000000 -1.7052188 15.888044 -14.558445 157.1369 -28.548843 -84.238449 -1.614532 9.935813
18850000000 -1.68337 15.343195 -14.643901 156.09036 -28.506168 -84.276772 -1.5889143 9.3228741
18900000000 -1.7221006 14.66874 -14.740458 154.95947 -28.384592 -84.486275 -1.6042563 8.1718569
18950000000 -1.7042736 13.719351 -14.810134 153.76915 -28.420031 -84.456009 -1.609651 7.8318996
19000000000 -1.7488881 13.102511 -14.925943 152.6828 -28.363012 -84.361694 -1.5911815 6.9361515
19050000000 -1.7810712 12.226141 -15.042134 151.58018 -28.403049 -84.520821 -1.6561424 6.1714249
19100000000 -1.7983421 11.860264 -15.149635 150.62376 -28.217943 -83.876541 -1.6232483 5.8133759
19150000000 -1.8305267 11.040518 -15.2329 149.68073 -28.151218 -84.462662 -1.632742 4.87848
19200000000 -1.8020253 10.277733 -15.317658 148.6488 -28.066666 -84.268784 -1.6612326 4.3939972
19250000000 -1.8579632 9.5530224 -15.395455 147.63242 -27.879852 -84.486809 -1.6245953 3.6963077
19300000000 -1.8435539 8.6802788 -15.476026 146.41353 -27.802706 -84.648193 -1.6938505 2.8057513
19350000000 -1.8963746 8.0884676 -15.571726 145.65071 -27.664391 -84.369682 -1.6506001 2.6986575
19400000000 -1.9151789 7.0028343 -15.669221 144.53651 -27.507885 -85.406662 -1.664322 1.7613798
19450000000 -1.9425613 6.445591 -15.771819 143.5807 -27.412163 -85.794022 -1.6912819 1.0860292
19500000000 -1.9889582 5.6476188 -15.820052 142.63908 -27.206942 -85.491333 -1.6573009 0.70522791
19550000000 -1.9716812 5.0402985 -15.888791 141.5808 -27.044956 -86.235214 -1.7094915 -0.5463084
19600000000 -2.0070546 4.1589813 -15.976216 140.88815 -26.855566 -86.4786 -1.6950599 -0.59713918
19650000000 -1.9998342 3.2413337 -16.036798 139.92458 -26.67399 -87.536156 -1.7017775 -1.4668797
19700000000 -2.0543246 2.4323452 -16.097063 138.9664 -26.511272 -88.281609 -1.7161077 -2.2461071
19750000000 -2.0860627 1.407989 -16.164608 137.97273 -26.318245 -88.985992 -1.7042805 -2.5210314
19800000000 -2.1085391 0.88690656 -16.224731 137.19287 -26.173519 -90.219963 -1.7039542 -3.7912178
19850000000 -2.1443222 -0.23008375 -16.282404 136.36638 -26.016504 -90.935387 -1.7075996 -3.7944057
19900000000 -2.1484952 -0.98809636 -16.323832 135.42374 -25.778139 -92.115349 -1.7069681 -4.8311081
19950000000 -2.2058313 -1.9153464 -16.331139 134.49786 -25.681866 -93.009956 -1.6960031 -5.6503959
20000000000 -2.2021983 -2.7790294 -16.361227 133.50043 -25.544411 -93.952774 -1.7318691 -6.005115
