!Keysight Technologies,N5242A,MY47200155,A.10.49.08
!Date: Thursday, October 19, 2023 15:43:07
!Correction: S11(Full 2 Port(1,2)) 
!S21(Full 2 Port(1,2)) 
!S12(Full 2 Port(1,2)) 
!S22(Full 2 Port(1,2)) 
!S2P File: Measurements: S11, S21, S12, S22:
# Hz S  dB   R 50
10000000 -32.518345 157.39964 22.211483 173.16728 -24.284761 -4.8548303 -23.670092 153.68535
20000000 -37.300095 148.51201 22.217577 175.58839 -24.174376 -0.14263502 -25.085035 162.16728
30000000 -38.913754 169.89937 22.203514 175.8716 -24.207991 -1.1256192 -25.437765 171.9874
40000000 -36.982075 178.78432 22.191467 175.61618 -24.388338 -2.2248695 -25.042547 178.96407
50000000 -36.92168 -176.0705 22.180857 175.29807 -24.36693 -1.3992058 -25.025347 -178.60304
60000000 -36.603886 -174.40405 22.180374 174.81302 -24.407293 -1.5836922 -24.990475 -176.97774
70000000 -36.186108 -175.57112 22.183447 174.22241 -24.355499 -1.9597316 -24.944895 -174.55042
80000000 -35.995796 -173.55748 22.185349 173.60843 -24.431561 -1.9135116 -24.783989 -172.97777
90000000 -36.48962 -171.3235 22.182896 173.01393 -24.354239 -2.1673696 -24.687492 -170.47456
100000000 -36.45919 -168.39836 22.18395 172.38394 -24.403391 -2.1065733 -24.515001 -169.492
150000000 -35.795837 -161.72388 22.162348 169.11815 -24.368416 -2.6637661 -24.070469 -163.39427
200000000 -36.009701 -156.45975 22.140707 165.83522 -24.337591 -3.4089925 -23.451611 -160.01683
250000000 -35.47805 -150.34975 22.110857 162.47882 -24.332775 -4.2151985 -22.734238 -156.73465
300000000 -35.317875 -139.21114 22.065834 159.13051 -24.310289 -5.0306997 -22.186102 -153.94588
350000000 -34.66259 -137.1611 22.028706 155.76643 -24.337303 -5.7787666 -21.553911 -152.33817
400000000 -33.957706 -127.32109 21.97267 152.457 -24.322796 -6.4765744 -20.939142 -151.1627
450000000 -33.568897 -128.33078 21.927906 149.12201 -24.315353 -7.1504245 -20.345856 -151.15312
500000000 -32.396881 -123.68298 21.870455 145.84647 -24.308634 -7.9360914 -19.76705 -150.91876
550000000 -31.722382 -119.74502 21.799814 142.54196 -24.297256 -8.7635422 -19.301237 -151.93967
600000000 -30.843657 -120.89079 21.751028 139.26433 -24.284214 -9.4150457 -18.798014 -152.26273
650000000 -30.131361 -117.86434 21.678537 136.02406 -24.253937 -10.107076 -18.369587 -153.19966
700000000 -29.376566 -116.11915 21.596857 132.79842 -24.24144 -10.973939 -17.918688 -154.09959
750000000 -28.736561 -114.36759 21.516447 129.61255 -24.223097 -11.754097 -17.545322 -154.9326
800000000 -28.221933 -114.11823 21.436363 126.43257 -24.198034 -12.609144 -17.181198 -156.40045
850000000 -27.3316 -112.72863 21.347534 123.28948 -24.163927 -13.300094 -16.857967 -157.67093
900000000 -26.98827 -113.75243 21.270029 120.1393 -24.150114 -14.109917 -16.536352 -159.0791
950000000 -26.256975 -113.73218 21.17598 117.06837 -24.104759 -14.857335 -16.234974 -160.5647
1000000000 -25.685259 -112.81225 21.073708 113.99575 -24.092182 -15.705956 -15.998344 -162.30238
1050000000 -25.209845 -113.58166 20.980486 110.92702 -24.060482 -16.364014 -15.711347 -164.13943
1100000000 -24.671753 -113.84126 20.88142 107.9079 -24.018881 -17.256672 -15.503291 -165.55952
1150000000 -24.126823 -115.37853 20.781769 104.90993 -24.00597 -18.127241 -15.332135 -167.52654
1200000000 -23.585203 -114.39263 20.663469 101.95406 -23.966225 -18.84099 -15.113037 -169.14104
1250000000 -23.193768 -116.40186 20.56885 98.993065 -23.937174 -19.628098 -14.948954 -171.0182
1300000000 -22.755451 -117.15206 20.459986 96.076042 -23.912384 -20.556238 -14.778079 -172.92723
1350000000 -22.239418 -117.97328 20.351936 93.196236 -23.873865 -21.353371 -14.64236 -174.64775
1400000000 -21.837721 -119.3165 20.239729 90.304955 -23.823372 -22.143511 -14.497344 -176.58273
1450000000 -21.363049 -120.24899 20.121861 87.469254 -23.766577 -23.06181 -14.395172 -178.42648
1500000000 -21.042038 -122.22557 20.020973 84.621078 -23.71653 -23.859863 -14.255622 179.57481
1550000000 -20.584219 -123.52267 19.900234 81.843613 -23.70503 -24.79822 -14.177096 177.72745
1600000000 -20.228775 -125.10133 19.787167 79.080711 -23.65229 -25.688828 -14.054612 175.67287
1650000000 -19.876722 -126.76582 19.668137 76.3311 -23.602028 -26.662062 -13.962813 173.76273
1700000000 -19.532389 -128.76247 19.562899 73.590485 -23.568096 -27.479561 -13.904023 171.78487
1750000000 -19.202255 -130.4886 19.44104 70.889076 -23.498882 -28.38456 -13.806505 169.66951
1800000000 -18.813738 -132.27304 19.322069 68.223602 -23.458479 -29.224403 -13.75293 167.67607
1850000000 -18.566547 -134.3101 19.205778 65.549171 -23.398333 -30.23579 -13.695866 165.40755
1900000000 -18.342768 -136.50459 19.095121 62.886768 -23.353628 -31.171038 -13.647869 163.29419
1950000000 -18.009462 -138.64075 18.979147 60.289234 -23.30867 -32.128735 -13.603625 161.02394
2000000000 -17.791807 -140.74669 18.865383 57.673939 -23.249332 -33.004475 -13.586874 158.91241
2050000000 -17.526331 -143.00603 18.750879 55.097389 -23.189623 -34.146671 -13.546588 156.49763
2100000000 -17.305244 -145.03253 18.640936 52.493317 -23.138218 -35.108677 -13.498289 154.36708
2150000000 -17.12842 -147.28386 18.530296 49.919624 -23.093107 -36.110874 -13.492492 152.1042
2200000000 -16.872461 -149.51172 18.410925 47.367775 -23.040081 -37.031654 -13.435616 149.65385
2250000000 -16.752478 -151.61577 18.298002 44.812527 -22.978609 -38.203735 -13.401412 147.48639
2300000000 -16.542854 -154.22758 18.185957 42.310623 -22.94578 -39.061684 -13.355085 145.10532
2350000000 -16.4247 -156.37688 18.069004 39.779274 -22.868464 -40.175217 -13.308304 142.79614
2400000000 -16.263639 -158.81221 17.957727 37.317211 -22.823038 -41.244007 -13.284189 140.43384
2450000000 -16.110048 -161.17116 17.843578 34.819588 -22.780121 -42.434952 -13.215668 138.04085
2500000000 -16.011772 -163.51526 17.737633 32.324558 -22.726563 -43.427349 -13.200775 135.86029
2550000000 -15.844835 -165.90775 17.622402 29.862949 -22.679731 -44.541008 -13.150185 133.31065
2600000000 -15.739696 -168.22925 17.510748 27.400204 -22.622194 -45.644398 -13.095087 131.15453
2650000000 -15.616475 -170.94501 17.399868 24.961378 -22.553823 -46.722172 -13.078655 128.70126
2700000000 -15.453072 -173.26915 17.287918 22.532713 -22.510466 -47.828354 -13.018971 126.33483
2750000000 -15.41039 -175.69528 17.179401 20.105309 -22.467308 -48.951397 -12.996964 124.02335
2800000000 -15.27111 -178.12282 17.064583 17.723581 -22.404192 -50.142666 -12.948869 121.6058
2850000000 -15.179616 179.62062 16.954958 15.298379 -22.370596 -51.240154 -12.92377 119.39333
2900000000 -15.072643 176.85655 16.848425 12.938145 -22.305437 -52.38942 -12.861488 116.83124
2950000000 -14.99152 174.61111 16.735806 10.596578 -22.25267 -53.526554 -12.801209 114.73006
3000000000 -14.923332 171.91386 16.628584 8.2141857 -22.214104 -54.756409 -12.77256 112.34958
3050000000 -14.797847 169.31859 16.521622 5.8629026 -22.187191 -55.915424 -12.671887 110.11323
3100000000 -14.746698 166.96529 16.412277 3.5182385 -22.118097 -57.063446 -12.643034 108.004
3150000000 -14.668474 164.18347 16.305555 1.2071303 -22.054384 -58.174442 -12.577037 105.72261
3200000000 -14.593204 161.9724 16.195242 -1.1241235 -22.016298 -59.472466 -12.525832 103.6489
3250000000 -14.51144 159.30238 16.093021 -3.4175563 -21.963694 -60.666801 -12.482115 101.45059
3300000000 -14.411154 156.90926 15.986954 -5.7059569 -21.910959 -61.943165 -12.41883 99.353951
3350000000 -14.344449 154.33154 15.879096 -8.0088673 -21.874161 -63.089886 -12.395572 97.249756
3400000000 -14.236967 151.93321 15.77697 -10.27358 -21.815231 -64.31395 -12.348445 95.131561
3450000000 -14.150846 149.48026 15.674406 -12.553005 -21.786097 -65.483467 -12.30034 93.108803
3500000000 -14.069828 146.77885 15.570928 -14.816204 -21.72794 -66.711143 -12.264807 90.922935
3550000000 -13.947803 144.45876 15.470457 -17.087717 -21.688505 -67.989975 -12.215456 88.82592
3600000000 -13.876829 141.9218 15.367905 -19.336063 -21.65192 -69.230934 -12.164465 86.730019
3650000000 -13.769361 139.29614 15.268565 -21.583904 -21.604027 -70.45845 -12.113537 84.662651
3700000000 -13.674356 136.80043 15.168503 -23.821613 -21.536238 -71.792694 -12.069128 82.570229
3750000000 -13.586057 134.24704 15.069392 -26.06094 -21.488634 -72.986107 -12.012132 80.468628
3800000000 -13.486608 131.66176 14.970139 -28.274233 -21.44628 -74.211189 -11.955538 78.500015
3850000000 -13.388032 128.98839 14.872256 -30.519512 -21.404781 -75.529884 -11.900466 76.418922
3900000000 -13.29242 126.31208 14.775111 -32.742363 -21.366665 -76.706703 -11.854277 74.428688
3950000000 -13.170255 123.74423 14.677838 -34.961136 -21.330576 -78.064598 -11.789145 72.400185
4000000000 -13.06858 121.12443 14.582228 -37.145412 -21.290012 -79.489952 -11.741943 70.495285
4050000000 -12.95224 118.35368 14.485013 -39.348267 -21.235109 -80.744186 -11.667716 68.327278
4100000000 -12.833067 115.6013 14.390873 -41.530872 -21.204693 -82.065422 -11.585752 66.471733
4150000000 -12.682345 112.92797 14.295166 -43.73391 -21.142763 -83.348312 -11.527418 64.435005
4200000000 -12.570065 110.30684 14.200919 -45.892891 -21.1229 -84.653984 -11.457155 62.436138
4250000000 -12.450929 107.71347 14.107843 -48.056641 -21.084894 -85.894867 -11.410199 60.527294
4300000000 -12.302466 105.00045 14.013111 -50.291992 -21.051773 -87.342133 -11.322845 58.381638
4350000000 -12.192598 102.41193 13.921474 -52.49411 -21.0105 -88.629669 -11.26224 56.498108
4400000000 -12.061764 99.709312 13.825396 -54.652443 -20.957571 -90.08889 -11.198021 54.274811
4450000000 -11.950421 97.120125 13.735612 -56.883423 -20.933907 -91.379295 -11.109585 52.350269
4500000000 -11.830618 94.280838 13.638453 -59.076015 -20.917864 -92.709755 -11.056129 50.183895
4550000000 -11.703939 91.847717 13.546906 -61.267406 -20.866314 -94.127556 -10.964794 48.262833
4600000000 -11.562631 89.02977 13.454065 -63.47271 -20.834494 -95.483009 -10.896312 46.184357
4650000000 -11.433356 86.466766 13.355801 -65.638214 -20.802753 -96.963661 -10.799312 44.178257
4700000000 -11.327634 83.825386 13.260797 -67.792015 -20.767103 -98.270386 -10.731843 42.336006
4750000000 -11.168642 81.170341 13.166244 -69.97065 -20.738714 -99.61097 -10.653795 40.251396
4800000000 -11.048346 78.726807 13.076985 -72.119896 -20.712503 -101.06564 -10.577897 38.540073
4850000000 -10.901471 75.980522 12.983763 -74.271805 -20.68329 -102.47542 -10.518947 36.465485
4900000000 -10.774178 73.618027 12.890765 -76.434067 -20.671982 -103.81573 -10.422245 34.546288
4950000000 -10.649382 70.824753 12.798945 -78.590012 -20.635202 -105.2756 -10.368495 32.656319
5000000000 -10.493008 68.411888 12.702975 -80.750359 -20.61582 -106.6754 -10.278467 30.662754
5050000000 -10.378671 65.85775 12.611829 -82.878517 -20.595198 -108.0545 -10.220247 28.821234
5100000000 -10.22572 63.291607 12.515074 -85.029877 -20.569763 -109.4074 -10.126295 26.7876
5150000000 -10.103612 60.898792 12.425439 -87.194405 -20.549751 -110.75145 -10.03724 25.124525
5200000000 -9.9602671 58.353653 12.330137 -89.309273 -20.537506 -112.27943 -9.9724455 23.129204
5250000000 -9.8280115 55.89558 12.234317 -91.463875 -20.519066 -113.67677 -9.8663626 21.257141
5300000000 -9.6880512 53.399837 12.145762 -93.623657 -20.493315 -115.12168 -9.7823801 19.546309
5350000000 -9.5504589 51.002838 12.046822 -95.750679 -20.484695 -116.49342 -9.6990929 17.67478
5400000000 -9.4238577 48.535988 11.950352 -97.908188 -20.471626 -117.92377 -9.609705 16.069109
5450000000 -9.2675648 46.152195 11.851286 -100.02502 -20.449512 -119.31126 -9.5290575 14.215331
5500000000 -9.1582594 43.815269 11.75561 -102.14063 -20.446495 -120.75423 -9.4297276 12.692272
5550000000 -9.0201988 41.476982 11.659858 -104.27721 -20.428028 -122.06384 -9.3741608 10.925893
5600000000 -8.8902006 39.171822 11.562259 -106.37125 -20.431568 -123.50149 -9.2744598 9.2750797
5650000000 -8.764163 36.829056 11.461798 -108.48032 -20.394905 -125.03976 -9.2124004 7.6706166
5700000000 -8.6413603 34.667282 11.369342 -110.5671 -20.404701 -126.4528 -9.1333075 6.0684428
5750000000 -8.5258284 32.381859 11.268562 -112.6674 -20.396109 -127.83571 -9.0655775 4.4877753
5800000000 -8.3852758 30.151184 11.171985 -114.78096 -20.389179 -129.15428 -9.0026464 2.8750808
5850000000 -8.285368 27.977247 11.071299 -116.83649 -20.39835 -130.62207 -8.9268913 1.4123125
5900000000 -8.1513739 25.81315 10.969598 -118.9191 -20.3864 -132.07202 -8.8779249 -0.23233247
5950000000 -8.0437527 23.738815 10.873879 -121.00489 -20.378777 -133.43044 -8.7881403 -1.7245759
6000000000 -7.9199181 21.506224 10.774222 -123.05158 -20.378733 -134.82977 -8.7381487 -3.2163026
6050000000 -7.8041615 19.4855 10.667073 -125.11332 -20.398474 -136.13069 -8.6541624 -4.7414584
6100000000 -7.6962147 17.330139 10.567853 -127.16684 -20.379185 -137.51338 -8.6060839 -6.1204662
6150000000 -7.580543 15.311346 10.465199 -129.20503 -20.400345 -138.83572 -8.5523443 -7.5800328
6200000000 -7.4904728 13.340491 10.367803 -131.19246 -20.403175 -140.28577 -8.4866734 -8.8743048
6250000000 -7.3686438 11.317265 10.260782 -133.26915 -20.413137 -141.64079 -8.4481525 -10.275402
6300000000 -7.2783842 9.4076071 10.162774 -135.26389 -20.410618 -142.99104 -8.3924236 -11.691884
6350000000 -7.172092 7.43677 10.059931 -137.27722 -20.4137 -144.42914 -8.3568649 -12.887457
6400000000 -7.0749187 5.6312957 9.9636221 -139.29425 -20.408051 -145.65771 -8.3244867 -14.345238
6450000000 -6.983942 3.6541355 9.8622236 -141.30031 -20.418385 -147.11319 -8.2791195 -15.596637
6500000000 -6.8814869 1.802833 9.7603722 -143.31636 -20.444584 -148.40259 -8.2590637 -17.036381
6550000000 -6.7944446 -0.00951559 9.6584339 -145.30655 -20.423609 -149.77547 -8.2276926 -18.324575
6600000000 -6.7021251 -1.828863 9.5596123 -147.29791 -20.431166 -151.13547 -8.204052 -19.723398
6650000000 -6.6101418 -3.6169105 9.4619045 -149.26474 -20.443827 -152.41022 -8.172986 -21.047792
6700000000 -6.5224752 -5.4697008 9.3577003 -151.27477 -20.466816 -153.86765 -8.1575518 -22.322451
6750000000 -6.4317174 -7.1049256 9.2611609 -153.26031 -20.45035 -155.12616 -8.134573 -23.753637
6800000000 -6.3526111 -8.8905182 9.1554661 -155.23373 -20.477453 -156.44507 -8.1115208 -25.057434
6850000000 -6.2606001 -10.641522 9.0575428 -157.1774 -20.49151 -157.72446 -8.0916672 -26.247274
6900000000 -6.1827898 -12.363064 8.9515371 -159.17273 -20.488459 -159.12949 -8.0741796 -27.693838
6950000000 -6.1095753 -14.05001 8.8524017 -161.08582 -20.514248 -160.44089 -8.0543289 -28.907703
7000000000 -6.0319986 -15.708932 8.753726 -163.04626 -20.503496 -161.7276 -8.0439444 -30.179163
7050000000 -5.9568496 -17.320925 8.6576672 -164.99554 -20.514734 -162.94003 -8.0241938 -31.549316
7100000000 -5.8854451 -19.033997 8.5535641 -166.94691 -20.542274 -164.31664 -8.0058222 -32.76619
7150000000 -5.8090672 -20.59993 8.457798 -168.84648 -20.558256 -165.70251 -8.0077 -34.03804
7200000000 -5.7468057 -22.253687 8.3559847 -170.82697 -20.55917 -166.9136 -7.9860206 -35.371933
7250000000 -5.6737523 -23.829588 8.257266 -172.72096 -20.5702 -168.29364 -7.9838262 -36.58873
7300000000 -5.6064968 -25.413511 8.1563663 -174.70615 -20.580826 -169.57565 -7.9632106 -38.034733
7350000000 -5.532505 -27.024427 8.0626183 -176.58705 -20.589151 -170.87698 -7.9608221 -39.209686
7400000000 -5.4608994 -28.539396 7.9652605 -178.52928 -20.612696 -172.30981 -7.9509869 -40.655762
7450000000 -5.4143429 -30.161381 7.8630195 179.53957 -20.625824 -173.55383 -7.9319973 -41.926468
7500000000 -5.3353639 -31.650948 7.7691545 177.63069 -20.629293 -174.6541 -7.938683 -43.276764
7550000000 -5.2890811 -33.143024 7.6691203 175.73643 -20.634426 -175.92146 -7.9093184 -44.66407
7600000000 -5.2213845 -34.734131 7.5661631 173.84377 -20.668062 -177.39305 -7.9015136 -45.874561
7650000000 -5.1654086 -36.179161 7.4667449 171.87917 -20.656755 -178.64355 -7.8853226 -47.376827
7700000000 -5.1066632 -37.732395 7.3773375 170.03693 -20.689596 -179.94501 -7.8503432 -48.575645
7750000000 -5.0419011 -39.145256 7.2676754 168.14319 -20.695234 178.82097 -7.8521037 -50.017334
7800000000 -5.0077434 -40.719917 7.1672587 166.2256 -20.712456 177.49858 -7.8017449 -51.320419
7850000000 -4.9308705 -42.166103 7.0779009 164.36656 -20.743238 176.24455 -7.8044677 -52.553879
7900000000 -4.9020815 -43.570457 6.9722676 162.48303 -20.741812 175.0589 -7.7604666 -54.041485
7950000000 -4.8427653 -45.171249 6.8754425 160.60521 -20.761425 173.80029 -7.7287016 -55.174641
8000000000 -4.7864485 -46.497616 6.7782545 158.75783 -20.766499 172.53047 -7.7233586 -56.576046
8050000000 -4.7465219 -48.070126 6.6850977 156.88942 -20.786537 171.31996 -7.6624093 -57.806568
8100000000 -4.6926637 -49.427597 6.5880089 155.05927 -20.791712 170.06473 -7.6608043 -58.997131
8150000000 -4.66539 -50.91433 6.4946461 153.17581 -20.800797 168.89043 -7.6109853 -60.300072
8200000000 -4.5997934 -52.340046 6.3951578 151.35329 -20.824179 167.65573 -7.5954089 -61.428337
8250000000 -4.5767951 -53.679817 6.2998886 149.49203 -20.830105 166.28705 -7.5538869 -62.824211
8300000000 -4.5370641 -55.226822 6.2017226 147.6752 -20.837601 165.05934 -7.5080295 -63.826527
8350000000 -4.4886065 -56.432091 6.1145878 145.88535 -20.848463 163.87596 -7.5013862 -65.083191
8400000000 -4.4594464 -57.927143 6.0154901 144.05478 -20.864868 162.77081 -7.4365668 -66.32515
8450000000 -4.4076409 -59.276527 5.9158287 142.25687 -20.862164 161.46638 -7.4094996 -67.385757
8500000000 -4.386704 -60.682728 5.8266792 140.4481 -20.87464 160.25908 -7.3541718 -68.589294
8550000000 -4.3410077 -62.137722 5.727725 138.66682 -20.895445 159.11658 -7.3173752 -69.601662
8600000000 -4.3194942 -63.366684 5.6301646 136.9314 -20.902796 157.87253 -7.2739267 -70.810638
8650000000 -4.2928629 -64.905563 5.5325789 135.06554 -20.92045 156.72287 -7.2124758 -71.772743
8700000000 -4.2448015 -66.086029 5.442945 133.37251 -20.937181 155.52397 -7.1980281 -72.797974
8750000000 -4.2353234 -67.479767 5.3493414 131.67491 -20.952765 154.37013 -7.1354179 -73.905289
8800000000 -4.1889462 -68.853813 5.2616806 129.8907 -20.960318 153.22247 -7.1077085 -74.811462
8850000000 -4.1688952 -70.141449 5.1767478 128.11761 -20.970953 152.03952 -7.0571051 -75.89888
8900000000 -4.1446152 -71.58107 5.07656 126.35939 -20.98048 150.93152 -7.0233321 -76.751526
8950000000 -4.1237593 -72.798859 4.9835925 124.62843 -20.991409 149.7803 -6.9987702 -77.829216
9000000000 -4.1090899 -74.181831 4.8911638 122.97051 -20.999046 148.71967 -6.9399323 -78.736145
9050000000 -4.0752215 -75.377678 4.8054609 121.25054 -20.998953 147.61414 -6.9271278 -79.673859
9100000000 -4.0619431 -76.689873 4.7186389 119.57584 -21.004974 146.589 -6.8813519 -80.653214
9150000000 -4.0288396 -78.027008 4.6289988 117.83447 -21.002459 145.34311 -6.8472395 -81.498589
9200000000 -4.0095944 -79.229782 4.5504498 116.18847 -21.000135 144.21729 -6.8106313 -82.408012
9250000000 -3.9915771 -80.684814 4.4558368 114.43607 -21.024929 143.12511 -6.7694559 -83.30442
9300000000 -3.9740028 -81.909225 4.3725939 112.76601 -21.008781 141.96329 -6.7453341 -84.1931
9350000000 -3.9573524 -83.179947 4.2830262 111.13667 -21.008215 140.87979 -6.6998491 -84.975906
9400000000 -3.9486606 -84.366104 4.19695 109.53049 -21.017702 139.8019 -6.6755457 -85.859207
9450000000 -3.9231451 -85.682076 4.1291685 107.86726 -21.003172 138.76854 -6.6438675 -86.748245
9500000000 -3.8982656 -86.932938 4.051477 106.25257 -21.002577 137.67159 -6.6062908 -87.566284
9550000000 -3.8860278 -88.201149 3.9747508 104.58946 -21.011381 136.63727 -6.5948234 -88.380219
9600000000 -3.8673575 -89.546303 3.8921373 102.866 -21.002562 135.50842 -6.5643091 -89.209694
9650000000 -3.8648834 -90.751526 3.8167832 101.24691 -20.991854 134.42439 -6.5291648 -90.149437
9700000000 -3.8454838 -92.031456 3.747123 99.601295 -20.999023 133.45364 -6.5298004 -90.953606
9750000000 -3.8456929 -93.25811 3.6653211 97.985023 -20.971901 132.44951 -6.5011444 -91.886002
9800000000 -3.8219352 -94.544144 3.5923653 96.340385 -20.99753 131.14687 -6.5066338 -92.755783
9850000000 -3.8028865 -95.819923 3.5306284 94.70417 -20.964645 130.22708 -6.4894071 -93.596291
9900000000 -3.8017564 -97.070992 3.4611521 93.10363 -20.934927 129.27457 -6.4536552 -94.577179
9950000000 -3.7872543 -98.368584 3.3954403 91.398277 -20.932341 127.97171 -6.4746499 -95.621773
10000000000 -3.7801032 -99.659142 3.3188593 89.706779 -20.877523 126.92952 -6.444417 -96.539879
10050000000 -3.7674298 -100.8776 3.2559228 88.029045 -20.879406 125.84529 -6.4370246 -97.646111
10100000000 -3.7740576 -102.17091 3.1803167 86.434914 -20.860359 124.77785 -6.4319878 -98.595856
10150000000 -3.7540045 -103.42702 3.1267958 84.916046 -20.838736 123.7831 -6.3866997 -99.449341
10200000000 -3.7466207 -104.70524 3.05475 83.143356 -20.814795 122.45178 -6.4185653 -100.83516
10250000000 -3.7330315 -106.10178 3.0053108 81.51667 -20.779787 121.35944 -6.3759503 -101.68195
10300000000 -3.7239273 -107.32133 2.953831 79.86937 -20.762665 120.3279 -6.3574362 -102.65897
10350000000 -3.7305439 -108.74848 2.8831143 78.173279 -20.754982 119.00597 -6.3749075 -103.87022
10400000000 -3.715188 -109.93345 2.8258083 76.579346 -20.71216 118.14904 -6.3422089 -104.70419
10450000000 -3.7284958 -111.42818 2.7661381 74.760933 -20.728277 116.68619 -6.3479037 -106.16358
10500000000 -3.7111206 -112.72408 2.7152996 73.262001 -20.681076 115.87019 -6.3437295 -106.86977
10550000000 -3.7169793 -113.99958 2.6599119 71.506485 -20.643539 114.51602 -6.3432703 -108.24058
10600000000 -3.7114744 -115.44428 2.601402 69.821198 -20.637218 113.3119 -6.3286591 -109.63377
10650000000 -3.6948056 -116.66175 2.5590961 68.182007 -20.596903 112.45206 -6.3186579 -110.50336
10700000000 -3.69467 -118.22186 2.5109115 66.375633 -20.547211 110.99986 -6.3048325 -112.12668
10750000000 -3.6964047 -119.59895 2.4514256 64.686684 -20.550402 109.94371 -6.3146071 -113.14368
10800000000 -3.7078023 -121.01773 2.4022875 62.940384 -20.487041 108.64719 -6.2976298 -114.56985
10850000000 -3.6944869 -122.486 2.3388979 61.19054 -20.476906 107.50287 -6.2652144 -116.05022
10900000000 -3.6999912 -123.74095 2.2988701 59.529896 -20.449791 106.23385 -6.2797284 -117.17748
10950000000 -3.6933641 -125.46561 2.2570331 57.685513 -20.397652 104.76611 -6.2120018 -118.7869
11000000000 -3.698313 -126.73524 2.2028842 56.013523 -20.388882 103.77632 -6.2432342 -119.94172
11050000000 -3.7086608 -128.34343 2.1603773 54.181713 -20.335854 102.545 -6.2048206 -121.49781
11100000000 -3.69361 -129.81609 2.1012657 52.399544 -20.317059 101.35593 -6.1648631 -122.84544
11150000000 -3.7145882 -131.32845 2.0626378 50.675171 -20.274742 100.08245 -6.1901979 -124.13116
11200000000 -3.7045286 -132.97844 2.0121362 48.825493 -20.210482 98.798431 -6.1097507 -125.57079
11250000000 -3.7242374 -134.31773 1.9646796 47.111328 -20.22562 97.50103 -6.1329846 -126.95976
11300000000 -3.7285025 -136.07117 1.9069663 45.25436 -20.16609 96.273346 -6.0907335 -128.53535
11350000000 -3.7121043 -137.47334 1.8698592 43.474564 -20.121431 94.835754 -6.0397611 -129.84187
11400000000 -3.7373765 -139.19431 1.8222927 41.704166 -20.105783 93.636795 -6.0612183 -131.3447
11450000000 -3.7152689 -140.81473 1.7693535 39.855537 -20.0341 92.363281 -5.9997005 -132.60245
11500000000 -3.7452483 -142.43408 1.7285312 38.0345 -20.000168 90.919144 -5.9962211 -134.17389
11550000000 -3.7310216 -144.23181 1.6791825 36.158375 -19.973156 89.624786 -5.9513497 -135.57451
11600000000 -3.7488437 -145.63853 1.6438897 34.409416 -19.893259 88.241089 -5.9275165 -136.83696
11650000000 -3.7470078 -147.60706 1.5952886 32.511215 -19.89057 86.869614 -5.9034815 -138.53673
11700000000 -3.7389116 -149.1248 1.5500001 30.629045 -19.823656 85.534653 -5.8540096 -139.70772
11750000000 -3.7632847 -150.93248 1.5091676 28.810875 -19.796625 84.069199 -5.8382993 -141.3161
11800000000 -3.7436292 -152.74219 1.4578072 26.860952 -19.795864 82.689148 -5.800231 -142.73328
11850000000 -3.7683361 -154.41025 1.421524 25.060717 -19.718481 81.296028 -5.7782879 -144.05952
11900000000 -3.7596703 -156.37808 1.3741161 23.106037 -19.717213 79.830673 -5.7416248 -145.58603
11950000000 -3.7716548 -158.03293 1.3201611 21.166533 -19.66437 78.551758 -5.7177415 -146.80396
12000000000 -3.7765398 -159.97351 1.2856829 19.36809 -19.615583 77.046638 -5.6824007 -148.4046
12050000000 -3.7682374 -161.74591 1.2373396 17.44096 -19.59663 75.571457 -5.6671309 -149.72949
12100000000 -3.791872 -163.65594 1.1936362 15.543986 -19.558397 74.196671 -5.6493564 -151.13074
12150000000 -3.7759247 -165.58998 1.1522309 13.599411 -19.515154 72.556694 -5.6320853 -152.60188
12200000000 -3.7900677 -167.42035 1.1056162 11.713492 -19.470798 71.363556 -5.6251044 -153.97093
12250000000 -3.7824967 -169.41235 1.0559371 9.7754202 -19.418623 69.785782 -5.5828481 -155.54152
12300000000 -3.7959151 -171.26787 1.0174648 7.8480625 -19.409748 68.268448 -5.592402 -156.87534
12350000000 -3.8049006 -173.31013 0.97406894 5.8528414 -19.373779 66.890083 -5.5808334 -158.41058
12400000000 -3.8073103 -175.11919 0.92604661 3.971992 -19.324306 65.303017 -5.5716743 -159.99951
12450000000 -3.7979209 -177.16011 0.88605982 1.9232261 -19.276011 63.942833 -5.5701408 -161.38051
12500000000 -3.7820621 -179.08829 0.84282601 0.016024802 -19.202263 62.360973 -5.5473113 -162.9892
12550000000 -3.7810569 178.7356 0.80436552 -2.0108252 -19.195612 60.62318 -5.5589561 -164.61388
12600000000 -3.7819741 176.66243 0.75611037 -4.0870357 -19.160463 59.089272 -5.5604749 -166.03165
12650000000 -3.7914872 174.66792 0.70993787 -6.0503554 -19.105806 57.511608 -5.5575867 -167.91019
12700000000 -3.7687955 172.63873 0.65780675 -8.0450468 -19.098001 56.013702 -5.5701737 -169.38887
12750000000 -3.7720444 170.4817 0.6102398 -10.095242 -19.029089 54.457405 -5.5677605 -171.00822
12800000000 -3.7426152 168.36836 0.57364726 -12.145517 -19.004572 52.548115 -5.5959115 -172.99777
12850000000 -3.7525623 166.30975 0.52446252 -14.275676 -18.973614 51.174725 -5.615592 -174.55606
12900000000 -3.7428946 164.06537 0.46976095 -16.342852 -18.932661 49.455223 -5.6083279 -176.54315
12950000000 -3.7061422 162.15221 0.43216687 -18.441902 -18.902161 47.797997 -5.6442175 -178.41463
13000000000 -3.6993358 159.75394 0.38392907 -20.647882 -18.848568 46.11734 -5.6501174 179.60432
13050000000 -3.6684358 157.63707 0.32745937 -22.696747 -18.816244 44.288364 -5.6528206 177.41389
13100000000 -3.6816356 155.50198 0.27133182 -24.917873 -18.818047 42.718704 -5.7172446 175.39542
13150000000 -3.6463003 153.24237 0.20499086 -27.043159 -18.790556 40.930477 -5.676641 173.14079
13200000000 -3.6324852 151.31458 0.15599726 -29.183552 -18.74839 39.10442 -5.7252555 170.97072
13250000000 -3.6090634 148.72644 0.095765486 -31.458769 -18.724051 37.304909 -5.7305126 168.51898
13300000000 -3.5787554 146.7092 0.032065164 -33.670467 -18.695608 35.426247 -5.7035403 166.25194
13350000000 -3.5784805 144.33539 -0.036905646 -35.962376 -18.696932 33.59396 -5.78688 163.6447
13400000000 -3.5238948 142.17548 -0.11504497 -38.119934 -18.689085 31.772173 -5.7202554 161.36348
13450000000 -3.5342627 140.05615 -0.18445587 -40.325195 -18.669209 29.835585 -5.7779865 158.79468
13500000000 -3.4682603 137.6282 -0.26522544 -42.615208 -18.669706 28.083797 -5.7520399 156.06009
13550000000 -3.456399 135.63516 -0.34388706 -44.944962 -18.649858 26.151239 -5.7191486 153.60649
13600000000 -3.4332721 133.13637 -0.42540589 -47.144836 -18.672554 24.254536 -5.7605247 150.7347
13650000000 -3.3832967 131.1284 -0.51122081 -49.363163 -18.658131 22.400091 -5.6927505 148.4987
13700000000 -3.385416 128.75331 -0.60269558 -51.814579 -18.673203 20.247568 -5.7206731 145.19765
13750000000 -3.3127582 126.58093 -0.70830524 -54.113266 -18.689835 18.476627 -5.6405544 142.46371
13800000000 -3.3198607 124.47082 -0.80821025 -56.316727 -18.703173 16.603018 -5.6215258 140.1908
13850000000 -3.2753093 122.03252 -0.9275136 -58.676605 -18.757135 14.426399 -5.6049356 136.71956
13900000000 -3.2502987 120.18804 -1.0283545 -60.908314 -18.765341 12.784423 -5.5388899 134.54974
13950000000 -3.2194257 117.70849 -1.1345959 -63.294094 -18.81493 10.527789 -5.5001426 131.27992
14000000000 -3.1630921 115.81542 -1.2640226 -65.578468 -18.857195 8.7999678 -5.4204612 128.64801
14050000000 -3.1576843 113.52744 -1.3794981 -67.864494 -18.857677 6.8799505 -5.3880067 126.20922
14100000000 -3.1025658 111.31544 -1.5326555 -70.163124 -18.946655 4.6608038 -5.3021235 122.9549
14150000000 -3.0973783 109.3831 -1.6591953 -72.325066 -19.003777 2.9652336 -5.2472734 120.76877
14200000000 -3.0573356 107.09119 -1.805903 -74.665367 -19.054495 0.83833337 -5.1521349 117.75015
14250000000 -3.0206952 105.36167 -1.9418285 -76.745247 -19.134554 -0.95790941 -5.0761299 115.40417
14300000000 -2.9846489 103.00499 -2.0795577 -79.023933 -19.173883 -2.8966012 -5.0251088 112.79852
14350000000 -2.9357984 101.01365 -2.2388227 -81.349907 -19.257532 -4.9430313 -4.8919654 110.0565
14400000000 -2.936614 99.035301 -2.3860621 -83.437523 -19.354658 -6.5552511 -4.8485646 107.9764
14450000000 -2.8913014 97.057632 -2.5612776 -85.680756 -19.429522 -8.5464134 -4.738729 105.39621
14500000000 -2.8910587 95.234406 -2.7349229 -87.756073 -19.532076 -10.356605 -4.6801558 103.35727
14550000000 -2.832922 93.247665 -2.8864131 -89.82563 -19.59166 -12.180422 -4.6000528 101.09847
14600000000 -2.8012645 91.48278 -3.0538185 -91.856316 -19.692404 -14.04547 -4.4894609 98.925339
14650000000 -2.7775233 89.492661 -3.2169108 -93.949661 -19.802555 -15.710244 -4.4556384 96.834831
14700000000 -2.7314045 87.75209 -3.3764079 -96.018944 -19.884607 -17.508568 -4.3465395 94.693031
14750000000 -2.7144461 85.917488 -3.5551181 -98.087982 -20.000172 -19.239393 -4.2931542 92.689484
14800000000 -2.6756668 84.121384 -3.7426853 -100.07079 -20.078802 -20.896265 -4.2097654 90.682816
14850000000 -2.6638682 82.385628 -3.9317102 -101.96239 -20.176781 -22.870428 -4.1279278 88.734138
14900000000 -2.6329887 80.70179 -4.1037645 -103.88893 -20.33918 -24.43125 -4.078021 86.818024
14950000000 -2.6178324 79.150993 -4.2848883 -105.72222 -20.441149 -25.865244 -3.9884312 85.172752
15000000000 -2.5647557 77.481636 -4.4554749 -107.56503 -20.538044 -27.545681 -3.945358 83.399612
15050000000 -2.5406213 75.93679 -4.6363606 -109.47275 -20.657906 -29.033243 -3.88099 81.748871
15100000000 -2.5073879 74.239304 -4.8199544 -111.27247 -20.762278 -30.750748 -3.8070521 80.047852
15150000000 -2.4883792 72.737648 -4.9974861 -113.20144 -20.891018 -32.327976 -3.767673 78.297981
15200000000 -2.4855552 71.22184 -5.1939521 -114.86466 -21.006634 -33.685394 -3.7083385 76.87014
15250000000 -2.4363568 69.888084 -5.3698244 -116.62463 -21.119514 -35.242653 -3.6691945 75.184509
15300000000 -2.4316497 68.450623 -5.553123 -118.38866 -21.256178 -36.687733 -3.6498947 73.65818
15350000000 -2.3657491 67.018272 -5.7157054 -120.06241 -21.313438 -38.209549 -3.5636566 72.074699
15400000000 -2.3630278 65.639603 -5.8915515 -121.80418 -21.447042 -39.793339 -3.5373991 70.452713
15450000000 -2.3509741 64.119209 -6.0897369 -123.50456 -21.59613 -40.974926 -3.5050406 69.096817
15500000000 -2.328876 63.10601 -6.2593884 -125.1614 -21.688179 -42.508293 -3.4564536 67.403999
15550000000 -2.3131695 61.666664 -6.4456577 -126.84764 -21.838779 -44.026741 -3.4485254 65.823097
15600000000 -2.2629244 60.542961 -6.618896 -128.44762 -21.906996 -45.390007 -3.3690007 64.502853
15650000000 -2.2633159 59.225288 -6.7859373 -130.01694 -22.0277 -46.940601 -3.3647327 62.854557
15700000000 -2.2109971 57.963596 -6.9670296 -131.65225 -22.186214 -48.190968 -3.3224089 61.523518
15750000000 -2.2173922 57.000816 -7.1340981 -133.18877 -22.313156 -49.622307 -3.2768319 60.174541
15800000000 -2.1841278 55.578297 -7.3094668 -134.97937 -22.44482 -50.829662 -3.2669239 58.332611
15850000000 -2.1534853 54.750553 -7.4871902 -136.3781 -22.537441 -51.936855 -3.1881113 57.36124
15900000000 -2.1590939 53.42746 -7.6613169 -137.97893 -22.659954 -53.724319 -3.2055891 55.631023
15950000000 -2.1251316 52.50198 -7.8378158 -139.56036 -22.802786 -54.742504 -3.1591833 54.13987
16000000000 -2.1326683 51.483524 -7.9925671 -141.04161 -22.874605 -56.012547 -3.110467 52.957897
16050000000 -2.0713668 50.475918 -8.1684294 -142.55386 -23.048666 -57.262161 -3.1044743 51.09269
16100000000 -2.0768766 49.503689 -8.3436356 -144.0042 -23.133114 -58.246078 -3.0580201 50.226887
16150000000 -2.0549774 48.265701 -8.516799 -145.62981 -23.258005 -59.836323 -3.0409725 48.385948
16200000000 -2.0391333 47.618698 -8.6733236 -147.05019 -23.423481 -60.927158 -3.0092685 47.024235
16250000000 -2.0423882 46.464191 -8.8386469 -148.56007 -23.473078 -62.083298 -2.9906833 45.562897
16300000000 -1.9787911 45.703693 -9.0051107 -149.98187 -23.60597 -63.484047 -2.9359455 43.807751
16350000000 -1.9876226 44.620895 -9.1704407 -151.54706 -23.710602 -64.495674 -2.9367859 42.89547
16400000000 -1.9513701 43.544971 -9.331131 -153.09091 -23.835453 -66.051956 -2.8722174 41.003475
16450000000 -1.9762563 42.820484 -9.5129786 -154.50047 -23.98101 -67.357643 -2.8410165 39.746521
16500000000 -1.9579675 41.828747 -9.6893492 -155.86453 -24.109093 -68.304054 -2.8431652 38.524807
16550000000 -1.9333286 41.314812 -9.8483782 -157.21959 -24.249483 -69.806389 -2.7638626 37.036057
16600000000 -1.9301803 40.272018 -9.9964161 -158.61287 -24.358698 -70.693985 -2.7602694 35.9702
16650000000 -1.8983361 39.46962 -10.15876 -160.11539 -24.510944 -72.20488 -2.6864877 34.499496
16700000000 -1.9122858 38.755249 -10.311802 -161.4384 -24.660292 -73.05748 -2.6929908 33.414036
16750000000 -1.8834112 37.832005 -10.479853 -162.86688 -24.779224 -74.045494 -2.6680806 32.103271
16800000000 -1.9016691 37.210987 -10.659417 -164.26945 -24.90292 -75.31424 -2.5817001 30.814806
16850000000 -1.8800348 36.305222 -10.809609 -165.54216 -25.031544 -76.44603 -2.5968454 29.691471
16900000000 -1.8689409 35.805576 -10.978465 -166.86159 -25.165804 -77.5653 -2.5112402 28.44138
16950000000 -1.8678493 34.940327 -11.131886 -168.11319 -25.38962 -78.722527 -2.519341 27.320818
17000000000 -1.8272907 34.277164 -11.281997 -169.52438 -25.537849 -79.499718 -2.471216 26.093647
17050000000 -1.8348358 33.444099 -11.429547 -170.89389 -25.662731 -80.550644 -2.4077466 25.264006
17100000000 -1.8210652 32.664124 -11.609615 -172.15126 -25.855658 -81.061005 -2.4224236 24.268845
17150000000 -1.8434761 32.053905 -11.780443 -173.52187 -25.942171 -82.156868 -2.3362062 23.319744
17200000000 -1.8294632 31.251657 -11.944983 -174.62627 -26.064924 -83.105942 -2.3173676 22.211569
17250000000 -1.8176866 30.822859 -12.08882 -175.77321 -26.223734 -83.582222 -2.2899427 21.356258
17300000000 -1.8197477 29.951445 -12.233123 -177.03752 -26.345549 -84.277626 -2.2516263 20.616432
17350000000 -1.7882701 29.413937 -12.369463 -178.15826 -26.507502 -84.996826 -2.2317719 19.673082
17400000000 -1.7949851 28.614645 -12.509001 -179.40489 -26.650623 -85.633438 -2.1726708 19.218582
17450000000 -1.7727796 27.959158 -12.667533 179.31218 -26.809669 -86.727493 -2.1552825 17.9953
17500000000 -1.8078719 27.287565 -12.829787 178.14442 -26.928703 -87.070122 -2.1286383 17.394753
17550000000 -1.7849165 26.580868 -12.961449 177.16652 -27.000948 -87.447647 -2.0960634 16.814541
17600000000 -1.7940149 26.14908 -13.121803 176.05725 -27.168625 -88.075676 -2.0730391 15.969221
17650000000 -1.7721587 25.421371 -13.2523 175.03957 -27.273365 -88.749329 -2.0586138 15.71297
17700000000 -1.749364 24.839926 -13.37655 173.90381 -27.378269 -89.257477 -2.011276 14.683125
17750000000 -1.7617583 24.142504 -13.501955 172.93936 -27.531355 -89.867859 -2.0062935 14.328057
17800000000 -1.7462454 23.462837 -13.625833 171.80728 -27.615396 -90.002747 -1.9776913 13.837838
17850000000 -1.7663274 22.705246 -13.751216 170.61751 -27.721777 -90.806625 -1.9513712 13.13394
17900000000 -1.7445599 22.01375 -13.872817 169.49544 -27.878811 -91.135445 -1.9660964 12.725258
17950000000 -1.7763332 21.46789 -14.0137 168.44817 -27.959265 -91.74369 -1.890726 12.01115
18000000000 -1.7680736 20.634266 -14.117113 167.44766 -28.15704 -92.224182 -1.9118599 11.720509
18050000000 -1.7553692 20.283134 -14.235142 166.4734 -28.317747 -92.79126 -1.8788425 11.280662
18100000000 -1.7695619 19.455307 -14.353867 165.25743 -28.45986 -92.939522 -1.8584545 10.655208
18150000000 -1.7625935 18.811914 -14.472545 164.08905 -28.636808 -92.634628 -1.8793417 10.300147
18200000000 -1.7765251 18.18047 -14.581435 162.99138 -28.726694 -92.194916 -1.8114258 9.9633579
18250000000 -1.7847941 17.381506 -14.743536 161.74168 -28.868387 -92.217995 -1.8680749 9.2622728
18300000000 -1.8151011 17.022272 -14.883346 160.82054 -28.927824 -90.960373 -1.8252709 8.947814
18350000000 -1.8158745 16.258032 -15.020484 159.9772 -28.870619 -90.826691 -1.8046389 8.6686096
18400000000 -1.8025522 15.901702 -15.121945 159.13255 -28.871235 -90.632286 -1.8564787 8.0726786
18450000000 -1.8008012 15.145884 -15.223244 158.37923 -28.856041 -90.835098 -1.8057824 7.7778697
18500000000 -1.7605406 14.430392 -15.290328 157.3044 -28.846661 -90.781662 -1.8378301 7.0891414
18550000000 -1.7789965 13.548921 -15.358425 156.06879 -28.836397 -90.889908 -1.8263761 6.9342246
18600000000 -1.7981988 12.753845 -15.475286 155.06082 -28.889107 -91.138054 -1.7934266 6.4222965
18650000000 -1.8583829 12.10119 -15.597672 153.86183 -28.937614 -91.299294 -1.8324801 5.5354877
18700000000 -1.8543322 11.475849 -15.709666 152.94443 -28.917116 -91.291618 -1.8255752 5.3301387
18750000000 -1.859432 11.055133 -15.775339 152.02409 -28.951971 -91.137627 -1.8330883 4.5150332
18800000000 -1.890047 10.191861 -15.889475 151.0063 -28.888638 -90.860077 -1.8817339 4.2541699
18850000000 -1.8604888 9.6812277 -15.967653 150.03598 -28.855658 -90.550224 -1.8652905 3.713033
18900000000 -1.897571 9.0200729 -16.051506 148.92998 -28.846388 -91.071838 -1.8864406 2.6397521
18950000000 -1.8692693 8.1068897 -16.13113 147.89166 -28.820992 -90.740059 -1.9038913 2.3960748
19000000000 -1.9128588 7.4964399 -16.22156 146.69315 -28.798088 -90.973404 -1.8834637 1.5292925
19050000000 -1.9372047 6.5771542 -16.3472 145.59697 -28.818718 -90.904518 -1.9606093 0.8447811
19100000000 -1.9517432 6.2844558 -16.440485 144.67889 -28.648888 -90.793388 -1.9322305 0.45829967
19150000000 -1.9825852 5.4329901 -16.536995 143.67828 -28.567766 -90.527931 -1.9506816 -0.47887859
19200000000 -1.9454116 4.7330661 -16.60342 142.6965 -28.5282 -90.493355 -1.9933168 -0.98012769
19250000000 -2.0022409 4.0108342 -16.687056 141.561 -28.340807 -90.438049 -1.9638504 -1.7108836
19300000000 -1.9803571 3.1302238 -16.773111 140.31392 -28.273323 -90.494194 -2.0464542 -2.6928787
19350000000 -2.0353129 2.5969653 -16.859468 139.43221 -28.155474 -90.550484 -2.0113862 -2.8127403
19400000000 -2.047987 1.4775765 -16.974005 138.47383 -27.929537 -90.782738 -2.0341246 -3.928736
19450000000 -2.0754256 1.013575 -17.058413 137.43071 -27.888985 -90.942223 -2.0681617 -4.7028604
19500000000 -2.1204548 0.20613621 -17.146883 136.32791 -27.668354 -90.664932 -2.0474882 -5.2740221
19550000000 -2.0961099 -0.30302081 -17.230225 135.43304 -27.499989 -91.555084 -2.1024511 -6.7686954
19600000000 -2.1351829 -1.1656176 -17.333723 134.59886 -27.259014 -91.52182 -2.0994711 -6.9165292
19650000000 -2.1220691 -2.0478828 -17.403704 133.69556 -27.051409 -92.567215 -2.1119125 -8.0673075
19700000000 -2.178879 -2.7782626 -17.491123 132.71156 -26.945629 -93.51722 -2.1276517 -9.0187654
19750000000 -2.2068839 -3.7558219 -17.554296 131.72403 -26.670137 -94.152863 -2.1269715 -9.5537958
19800000000 -2.2317815 -4.1753459 -17.634724 130.89111 -26.550152 -95.225578 -2.1179962 -11.051802
19850000000 -2.2648458 -5.2749047 -17.71723 130.18874 -26.367682 -96.084015 -2.1362631 -11.197809
19900000000 -2.266335 -5.9257984 -17.738226 129.19807 -26.205952 -96.995659 -2.1303952 -12.54445
19950000000 -2.3198178 -6.8310471 -17.793423 128.42297 -26.091125 -98.325058 -2.1206179 -13.497143
20000000000 -2.3140106 -7.5906692 -17.858356 127.46237 -25.901751 -98.891815 -2.1587706 -14.139785
