!Keysight Technologies,N5242A,MY47200155,A.10.49.08
!Date: Thursday, October 19, 2023 15:15:29
!Correction: S11(Full 2 Port(1,2)) 
!S21(Full 2 Port(1,2)) 
!S12(Full 2 Port(1,2)) 
!S22(Full 2 Port(1,2)) 
!S2P File: Measurements: S11, S21, S12, S22:
# Hz S  dB   R 50
10000000 -31.351114 162.32922 22.273598 173.17157 -24.741686 -4.6426206 -23.012037 157.62386
20000000 -38.367283 131.61435 22.263298 175.57208 -24.255032 -0.78033459 -24.805399 163.1489
30000000 -41.6576 163.2663 22.241817 175.89696 -24.211958 -0.71238738 -25.224319 170.38145
40000000 -41.05843 179.39127 22.223799 175.69942 -24.436586 -1.8820257 -24.931936 177.55721
50000000 -40.633678 -171.7222 22.210098 175.42824 -24.327204 -1.4037038 -24.981222 -179.30487
60000000 -40.094677 -167.19221 22.210974 174.99274 -24.42165 -1.1310346 -24.95183 -177.38736
70000000 -39.744316 -163.01894 22.216166 174.442 -24.4217 -1.7279837 -24.872778 -174.48672
80000000 -39.346752 -160.40184 22.220181 173.8624 -24.406216 -1.548498 -24.754129 -173.03995
90000000 -39.339458 -156.52161 22.218962 173.3038 -24.393841 -2.1901908 -24.632626 -170.39128
100000000 -39.036068 -152.91209 22.22138 172.70502 -24.451391 -1.7542441 -24.462978 -169.87889
150000000 -37.584415 -140.07866 22.203899 169.58037 -24.400894 -2.559129 -24.052324 -163.29874
200000000 -36.773323 -132.40109 22.189838 166.43559 -24.360727 -3.2955215 -23.511589 -159.90614
250000000 -35.448296 -127.88719 22.163143 163.20793 -24.389484 -4.172194 -22.791189 -156.73114
300000000 -34.019047 -119.91755 22.120728 160.00777 -24.356947 -4.9624572 -22.244997 -154.29236
350000000 -32.846436 -122.37801 22.092546 156.76494 -24.358612 -5.5664949 -21.641874 -152.94753
400000000 -31.625237 -116.01504 22.039438 153.59138 -24.375637 -6.2136841 -21.039162 -151.89523
450000000 -31.148317 -119.8061 22.006704 150.36743 -24.326735 -6.8648582 -20.466805 -151.55936
500000000 -29.921465 -119.01317 21.958965 147.23318 -24.323017 -7.5607386 -19.883743 -151.17046
550000000 -29.316839 -116.74683 21.891008 144.04248 -24.309914 -8.478322 -19.430655 -151.92601
600000000 -28.514669 -120.12891 21.8575 140.86777 -24.291279 -9.2242661 -18.927603 -152.09824
650000000 -27.792757 -119.25277 21.790182 137.7619 -24.285446 -9.9578028 -18.501709 -153.03148
700000000 -27.151123 -119.14637 21.715206 134.64084 -24.253517 -10.706255 -18.079672 -154.08318
750000000 -26.508287 -119.2078 21.644684 131.55769 -24.244419 -11.423038 -17.72649 -154.92633
800000000 -26.127808 -120.57619 21.575998 128.46678 -24.207918 -12.249881 -17.380165 -156.47623
850000000 -25.429434 -120.39711 21.495028 125.42752 -24.185165 -12.852123 -17.043573 -157.77264
900000000 -25.170227 -123.11269 21.433117 122.3577 -24.169706 -13.688245 -16.737015 -159.18213
950000000 -24.549553 -123.478 21.345913 119.3914 -24.123022 -14.51227 -16.426413 -160.70856
1000000000 -24.141008 -123.2778 21.24975 116.39267 -24.101225 -15.337563 -16.18401 -162.52664
1050000000 -23.817265 -125.12819 21.168224 113.40854 -24.080696 -16.057789 -15.898916 -164.31371
1100000000 -23.455286 -125.99684 21.079714 110.46508 -24.048523 -16.967545 -15.672369 -165.86148
1150000000 -22.99402 -127.53566 20.989864 107.55653 -24.000168 -17.719465 -15.492283 -167.76411
1200000000 -22.604145 -126.65765 20.874405 104.67561 -23.974516 -18.498848 -15.254704 -169.37263
1250000000 -22.297359 -129.2048 20.796329 101.78562 -23.938421 -19.267199 -15.081771 -171.2462
1300000000 -21.983072 -129.96776 20.694567 98.936142 -23.90064 -20.171368 -14.909663 -173.1476
1350000000 -21.596643 -130.89558 20.594301 96.139389 -23.859283 -20.995184 -14.757184 -174.82874
1400000000 -21.272812 -132.22293 20.49132 93.310265 -23.836864 -21.851482 -14.601035 -176.83107
1450000000 -20.905739 -132.8354 20.37961 90.538544 -23.821785 -22.757421 -14.492394 -178.71753
1500000000 -20.673454 -135.12114 20.291428 87.761429 -23.756897 -23.573952 -14.331575 179.26933
1550000000 -20.274044 -135.86665 20.174459 85.05014 -23.715689 -24.466518 -14.240981 177.47786
1600000000 -19.962297 -137.56378 20.070417 82.3545 -23.66778 -25.367773 -14.106804 175.35136
1650000000 -19.701694 -138.60809 19.957052 79.659653 -23.646778 -26.193127 -13.999936 173.46219
1700000000 -19.415104 -140.9064 19.865644 76.973274 -23.553539 -27.085096 -13.920087 171.57086
1750000000 -19.13645 -142.42252 19.749287 74.334915 -23.537512 -27.976168 -13.795762 169.41248
1800000000 -18.821077 -143.78043 19.634268 71.725357 -23.480179 -28.873798 -13.718424 167.47345
1850000000 -18.599792 -145.44334 19.52648 69.101402 -23.437899 -29.688824 -13.632666 165.26619
1900000000 -18.422144 -147.53389 19.423594 66.495155 -23.375391 -30.637377 -13.54977 163.32198
1950000000 -18.136738 -149.2117 19.313793 63.97496 -23.341026 -31.749363 -13.487421 161.17657
2000000000 -17.958366 -150.98116 19.208078 61.412067 -23.294043 -32.548214 -13.440279 159.27023
2050000000 -17.681337 -152.77127 19.098745 58.907021 -23.257172 -33.505013 -13.379994 157.06566
2100000000 -17.523756 -154.58495 19.000229 56.347763 -23.198641 -34.476044 -13.320477 155.15909
2150000000 -17.37632 -156.67786 18.898746 53.835636 -23.137009 -35.413643 -13.302664 153.14598
2200000000 -17.11463 -158.42908 18.782696 51.355389 -23.104469 -36.404076 -13.233069 150.94067
2250000000 -17.024855 -160.23506 18.679911 48.836781 -23.034519 -37.487144 -13.191291 148.99365
2300000000 -16.841389 -162.54102 18.576622 46.399998 -22.995115 -38.502563 -13.145947 146.80334
2350000000 -16.727814 -164.51616 18.469147 43.919197 -22.938652 -39.557552 -13.082158 144.73706
2400000000 -16.550163 -166.56343 18.364162 41.52309 -22.891666 -40.458065 -13.06563 142.55431
2450000000 -16.405912 -168.65158 18.256781 39.074059 -22.850777 -41.474556 -12.983837 140.34787
2500000000 -16.334202 -170.82959 18.163246 36.629047 -22.787491 -42.549721 -12.97143 138.34599
2550000000 -16.15357 -172.97409 18.05447 34.220032 -22.727962 -43.508324 -12.921417 136.01003
2600000000 -16.062218 -175.08667 17.953503 31.799551 -22.68582 -44.584656 -12.860265 134.05087
2650000000 -15.940671 -177.46278 17.850946 29.401346 -22.629898 -45.796021 -12.851483 131.89102
2700000000 -15.769976 -179.52844 17.746803 27.020411 -22.584476 -46.9259 -12.785244 129.63882
2750000000 -15.750401 178.33443 17.650257 24.621344 -22.535597 -47.986305 -12.776317 127.55422
2800000000 -15.575521 176.08325 17.541437 22.301849 -22.488094 -48.983772 -12.733957 125.30668
2850000000 -15.493855 174.16063 17.441462 19.912081 -22.434034 -50.226147 -12.718528 123.32854
2900000000 -15.37298 171.56807 17.34553 17.593893 -22.397116 -51.23177 -12.676386 120.94936
2950000000 -15.290602 169.61134 17.241798 15.29089 -22.31749 -52.378269 -12.634763 118.93454
3000000000 -15.222628 167.09128 17.145174 12.924747 -22.282097 -53.520023 -12.617642 116.66782
3050000000 -15.080051 164.69762 17.047081 10.614013 -22.235851 -54.66592 -12.53552 114.43889
3100000000 -15.017532 162.5379 16.945961 8.294095 -22.170475 -55.808704 -12.527262 112.32073
3150000000 -14.905403 160.07402 16.849388 6.015532 -22.131105 -57.058517 -12.474995 110.09142
3200000000 -14.838431 157.80055 16.747719 3.7052813 -22.074898 -58.100464 -12.431919 107.99748
3250000000 -14.744155 155.27246 16.654549 1.4370637 -22.04298 -59.197319 -12.399525 105.79235
3300000000 -14.624998 153.1077 16.554216 -0.8284266 -21.976538 -60.574585 -12.342813 103.68451
3350000000 -14.551419 150.6776 16.456724 -3.111078 -21.937344 -61.672981 -12.318281 101.47266
3400000000 -14.441879 148.31273 16.362061 -5.3465242 -21.891542 -62.860691 -12.268476 99.318245
3450000000 -14.340161 145.99876 16.265261 -7.6026769 -21.839378 -64.044762 -12.217213 97.232101
3500000000 -14.255836 143.44589 16.170824 -9.8454151 -21.783669 -65.293259 -12.186148 95.024948
3550000000 -14.136949 141.22585 16.078524 -12.088759 -21.721888 -66.47123 -12.126898 92.902939
3600000000 -14.055425 138.76656 15.98249 -14.313198 -21.705797 -67.624916 -12.077667 90.778717
3650000000 -13.94404 136.24908 15.890528 -16.54598 -21.648548 -68.925323 -12.020658 88.717369
3700000000 -13.856805 133.7923 15.796816 -18.757307 -21.60849 -70.115288 -11.97647 86.525063
3750000000 -13.74049 131.31902 15.704801 -20.985302 -21.555737 -71.512016 -11.912673 84.424011
3800000000 -13.623573 128.88327 15.61153 -23.177259 -21.494358 -72.624695 -11.861478 82.377045
3850000000 -13.543736 126.34103 15.519424 -25.413872 -21.458735 -73.826172 -11.796786 80.249802
3900000000 -13.414424 123.67806 15.429269 -27.620207 -21.405096 -75.194939 -11.731594 78.171928
3950000000 -13.300501 121.11375 15.3383 -29.828262 -21.382345 -76.475082 -11.660985 76.034698
4000000000 -13.201915 118.56274 15.248147 -31.996885 -21.345121 -77.745659 -11.603079 74.061485
4050000000 -13.077079 115.89868 15.154381 -34.181141 -21.291676 -78.95639 -11.524722 71.795326
4100000000 -12.975244 113.24866 15.065533 -36.352871 -21.246229 -80.168373 -11.428273 69.797813
4150000000 -12.818106 110.50311 14.976263 -38.534119 -21.216732 -81.575638 -11.360431 67.786476
4200000000 -12.70293 108.03912 14.883461 -40.681065 -21.170349 -82.767044 -11.269957 65.689774
4250000000 -12.583587 105.40083 14.797459 -42.826942 -21.13063 -84.028854 -11.202394 63.794659
4300000000 -12.441476 102.75385 14.706482 -45.04089 -21.094421 -85.336334 -11.113846 61.655968
4350000000 -12.324431 100.17981 14.618211 -47.21756 -21.034292 -86.827332 -11.036898 59.858509
4400000000 -12.210776 97.582359 14.528292 -49.362442 -21.006001 -88.063301 -10.963552 57.65464
4450000000 -12.102071 95.127396 14.441284 -51.560921 -20.976599 -89.445465 -10.873533 55.724262
4500000000 -11.97529 92.341217 14.349505 -53.729549 -20.945066 -90.751183 -10.805891 53.61544
4550000000 -11.855655 89.98703 14.260727 -55.900349 -20.914703 -92.05114 -10.717401 51.702919
4600000000 -11.713034 87.247475 14.172512 -58.084618 -20.864332 -93.419945 -10.645154 49.652889
4650000000 -11.582436 84.785362 14.079318 -60.225918 -20.852535 -94.834587 -10.551592 47.640621
4700000000 -11.482503 82.168495 13.986689 -62.360878 -20.809835 -96.160278 -10.479727 45.78566
4750000000 -11.326528 79.606689 13.89618 -64.517006 -20.772211 -97.529785 -10.39899 43.723236
4800000000 -11.204555 77.234856 13.810534 -66.633415 -20.748878 -98.904495 -10.317053 41.958374
4850000000 -11.067601 74.527679 13.722368 -68.771118 -20.714172 -100.31041 -10.25332 39.950447
4900000000 -10.948793 72.19239 13.63243 -70.904701 -20.693384 -101.72095 -10.154701 38.034164
4950000000 -10.82238 69.509987 13.544799 -73.038956 -20.661936 -103.01163 -10.100657 36.172359
5000000000 -10.680658 67.221306 13.452173 -75.169395 -20.649248 -104.34672 -10.004498 34.214909
5050000000 -10.567243 64.680084 13.366379 -77.268295 -20.618818 -105.69415 -9.9601622 32.412609
5100000000 -10.422948 62.245632 13.273424 -79.390076 -20.597351 -107.13569 -9.867095 30.473005
5150000000 -10.31027 59.914009 13.188195 -81.528015 -20.583418 -108.48911 -9.7881727 28.802696
5200000000 -10.167727 57.472435 13.10005 -83.616783 -20.569557 -109.8925 -9.7262135 26.83646
5250000000 -10.039342 55.06535 13.009927 -85.744492 -20.531099 -111.25287 -9.633954 25.037096
5300000000 -9.9050198 52.643433 12.925981 -87.881058 -20.509714 -112.59357 -9.5696449 23.288799
5350000000 -9.7778978 50.317844 12.831766 -89.984741 -20.497894 -114.01733 -9.4956732 21.416107
5400000000 -9.6522741 47.96521 12.741451 -92.10688 -20.482668 -115.43655 -9.4210272 19.729197
5450000000 -9.5017834 45.685272 12.648884 -94.19519 -20.460135 -116.68624 -9.3511362 17.822262
5500000000 -9.3921328 43.416595 12.560624 -96.286255 -20.444668 -118.13613 -9.2671366 16.218607
5550000000 -9.2518206 41.166435 12.468366 -98.39209 -20.431166 -119.5125 -9.2131338 14.348474
5600000000 -9.1266642 38.870983 12.379107 -100.47887 -20.418814 -120.88873 -9.1311235 12.631571
5650000000 -8.9907475 36.621319 12.28618 -102.56516 -20.408791 -122.2812 -9.0815678 10.918932
5700000000 -8.877903 34.427746 12.198195 -104.64354 -20.388971 -123.63106 -9.0083866 9.2148075
5750000000 -8.7622299 32.234097 12.103608 -106.7213 -20.386421 -125.16622 -8.9449358 7.5433164
5800000000 -8.6285963 30.053888 12.011885 -108.80793 -20.382689 -126.51131 -8.8876333 5.7851124
5850000000 -8.5256367 27.90863 11.918933 -110.85236 -20.370678 -127.8745 -8.8143568 4.2374148
5900000000 -8.3900633 25.792316 11.824499 -112.91729 -20.368107 -129.30946 -8.7700539 2.4833386
5950000000 -8.2794371 23.73756 11.736114 -114.98498 -20.351538 -130.64059 -8.6859961 0.80238271
6000000000 -8.1637125 21.350136 11.639441 -117.00343 -20.259058 -132.03502 -8.6136465 -1.0281075
6050000000 -8.03685 19.534508 11.541959 -119.09422 -20.339005 -133.34068 -8.5701113 -2.4635644
6100000000 -7.9226613 17.400167 11.447712 -121.14876 -20.3561 -134.69974 -8.5206032 -4.0477066
6150000000 -7.800776 15.416386 11.352483 -123.18667 -20.349459 -136.17847 -8.4740801 -5.7386322
6200000000 -7.7089357 13.391621 11.260979 -125.17064 -20.352119 -137.34439 -8.4071445 -7.2042708
6250000000 -7.5824871 11.440702 11.160284 -127.2478 -20.339722 -138.86075 -8.3673811 -8.7996378
6300000000 -7.4865022 9.4740601 11.066771 -129.25261 -20.353392 -140.16295 -8.3115463 -10.455843
6350000000 -7.3750105 7.5230694 10.970873 -131.27023 -20.342443 -141.51375 -8.2626762 -11.899607
6400000000 -7.2677236 5.7031288 10.87922 -133.29028 -20.350151 -142.87433 -8.2195101 -13.532395
6450000000 -7.1683197 3.6794486 10.781729 -135.30421 -20.367002 -144.25409 -8.1733341 -15.029253
6500000000 -7.0650868 1.8313259 10.682746 -137.32816 -20.35713 -145.66008 -8.1363115 -16.632767
6550000000 -6.9664607 -0.031210439 10.587392 -139.3152 -20.370464 -146.97795 -8.0869389 -18.115015
6600000000 -6.8721786 -1.8937348 10.489265 -141.30632 -20.36883 -148.2775 -8.0496807 -19.630825
6650000000 -6.7669864 -3.6704605 10.393991 -143.2856 -20.37587 -149.76166 -8.0031824 -21.124332
6700000000 -6.6755433 -5.5817037 10.294306 -145.28839 -20.383507 -150.90668 -7.9703603 -22.593853
6750000000 -6.5814276 -7.2743573 10.198767 -147.27016 -20.390743 -152.27615 -7.9381766 -24.123051
6800000000 -6.4984279 -9.0567503 10.097643 -149.24449 -20.393873 -153.62053 -7.8965836 -25.554226
6850000000 -6.3983173 -10.816298 10.000313 -151.18652 -20.408712 -154.89519 -7.8635874 -26.936657
6900000000 -6.3116031 -12.566947 9.897975 -153.18509 -20.404495 -156.26263 -7.8330054 -28.477663
6950000000 -6.23175 -14.287723 9.8012867 -155.10594 -20.428602 -157.61128 -7.7987905 -29.815203
7000000000 -6.1442242 -15.961198 9.7041645 -157.07008 -20.441828 -158.94037 -7.7692823 -31.214115
7050000000 -6.0618677 -17.602966 9.6101913 -159.02037 -20.44968 -160.26414 -7.7367692 -32.690907
7100000000 -5.9837079 -19.32535 9.5055094 -160.97974 -20.461246 -161.63394 -7.7077756 -34.052135
7150000000 -5.9006948 -20.891298 9.410677 -162.88928 -20.468277 -162.9142 -7.6781454 -35.445293
7200000000 -5.8294053 -22.570467 9.3111887 -164.85529 -20.471672 -164.25424 -7.6400442 -36.833858
7250000000 -5.7569728 -24.190212 9.2097197 -166.75961 -20.503109 -165.48541 -7.6185484 -38.181694
7300000000 -5.6776118 -25.782541 9.1096401 -168.74504 -20.498846 -166.84343 -7.5747361 -39.631672
7350000000 -5.6050982 -27.403517 9.0137224 -170.60992 -20.525822 -168.06694 -7.5565929 -40.846867
7400000000 -5.5307226 -28.9135 8.9157944 -172.53705 -20.532402 -169.29552 -7.5268826 -42.299934
7450000000 -5.4749885 -30.524057 8.8143377 -174.44518 -20.553106 -170.59026 -7.4902482 -43.466625
7500000000 -5.3924251 -31.998734 8.7197218 -176.33148 -20.570763 -171.95078 -7.4791651 -44.847012
7550000000 -5.3404527 -33.530037 8.6194038 -178.21713 -20.587078 -173.13895 -7.4323277 -46.139286
7600000000 -5.2663379 -35.038486 8.5191364 179.91916 -20.592609 -174.38672 -7.4160185 -47.292248
7650000000 -5.212883 -36.487888 8.4180727 177.98726 -20.626083 -175.68582 -7.3903017 -48.70295
7700000000 -5.1450672 -38.011097 8.3283625 176.16225 -20.620516 -176.88483 -7.3485036 -49.816185
7750000000 -5.0780711 -39.395512 8.2218933 174.31236 -20.637503 -178.22421 -7.3471684 -51.13279
7800000000 -5.0370722 -40.940857 8.1226254 172.42981 -20.661356 -179.41321 -7.2963138 -52.3349
7850000000 -4.9611788 -42.345749 8.0338879 170.59914 -20.672464 179.34552 -7.2920113 -53.478436
7900000000 -4.9220319 -43.699837 7.9308777 168.74576 -20.690863 178.07249 -7.2522264 -54.862099
7950000000 -4.8585405 -45.283436 7.8367205 166.89265 -20.691034 176.87119 -7.2183475 -55.895576
8000000000 -4.8072972 -46.512463 7.7402711 165.0825 -20.734022 175.69174 -7.2133174 -57.218239
8050000000 -4.7582188 -48.047428 7.648087 163.23167 -20.731194 174.46889 -7.1561046 -58.307255
8100000000 -4.7023482 -49.31781 7.55477 161.44336 -20.745184 173.28793 -7.149375 -59.396629
8150000000 -4.6744671 -50.752163 7.4613872 159.59615 -20.757565 172.01921 -7.1043797 -60.600819
8200000000 -4.6024904 -52.125202 7.3655977 157.79956 -20.760572 170.84804 -7.093399 -61.600834
8250000000 -4.5717516 -53.388752 7.2746015 155.98601 -20.77718 169.65379 -7.0589252 -62.828037
8300000000 -4.5313039 -54.859581 7.17869 154.19409 -20.792297 168.33632 -7.0212541 -63.736534
8350000000 -4.475595 -55.994843 7.095902 152.43085 -20.799597 167.37755 -7.0179272 -64.864571
8400000000 -4.4431152 -57.386833 7.0050411 150.64467 -20.792645 166.16754 -6.9740968 -65.965378
8450000000 -4.3898325 -58.633068 6.9075756 148.88106 -20.813101 165.00722 -6.9555078 -66.926567
8500000000 -4.366919 -59.952499 6.823875 147.1113 -20.81871 163.70081 -6.9181862 -68.016861
8550000000 -4.3131065 -61.311241 6.7308598 145.36874 -20.829193 162.67609 -6.8975301 -68.938889
8600000000 -4.2900252 -62.477619 6.6402807 143.65891 -20.828007 161.41682 -6.8702178 -70.059822
8650000000 -4.2575202 -63.886551 6.5496988 141.83121 -20.852627 160.31966 -6.8221107 -70.984924
8700000000 -4.2079315 -64.998978 6.465899 140.15015 -20.858829 159.17822 -6.8189964 -71.952469
8750000000 -4.1913838 -66.300316 6.3813596 138.46939 -20.856907 157.99681 -6.7784343 -72.995682
8800000000 -4.1403794 -67.564919 6.297812 136.7233 -20.883549 156.914 -6.7588329 -73.875191
8850000000 -4.1176438 -68.753052 6.2196765 134.96898 -20.858265 155.7709 -6.7178402 -74.925491
8900000000 -4.0912485 -70.098022 6.1279607 133.23859 -20.884539 154.62759 -6.6965423 -75.750069
8950000000 -4.0638914 -71.222382 6.0408325 131.52748 -20.884621 153.51401 -6.6824188 -76.787941
9000000000 -4.0468221 -72.512253 5.9538832 129.87398 -20.880226 152.52998 -6.637022 -77.667763
9050000000 -4.0088115 -73.623161 5.8766599 128.16672 -20.892979 151.38422 -6.6346612 -78.559044
9100000000 -3.9917998 -74.857849 5.7953591 126.50527 -20.886009 150.43398 -6.5978642 -79.529503
9150000000 -3.9578981 -76.117729 5.7137961 124.78468 -20.86974 149.2289 -6.5703654 -80.330292
9200000000 -3.936578 -77.206337 5.6410003 123.14481 -20.869553 148.09749 -6.5474749 -81.219124
9250000000 -3.9177933 -78.581406 5.5552678 121.40328 -20.882465 146.95157 -6.5116549 -82.107185
9300000000 -3.8956964 -79.666168 5.4787383 119.74909 -20.862053 145.77628 -6.4966893 -83.002571
9350000000 -3.8758008 -80.873184 5.3974175 118.10959 -20.882963 144.71613 -6.4595661 -83.801857
9400000000 -3.8616891 -81.998177 5.3216281 116.48863 -20.870262 143.63029 -6.4429255 -84.698837
9450000000 -3.8357234 -83.169785 5.2572312 114.83007 -20.853979 142.47232 -6.4233174 -85.621445
9500000000 -3.818331 -84.394859 5.1847143 113.19175 -20.854271 141.54533 -6.3892446 -86.451462
9550000000 -3.7941256 -85.576714 5.115098 111.53426 -20.866488 140.3187 -6.3769975 -87.301033
9600000000 -3.7822034 -86.841133 5.0374289 109.8052 -20.835854 139.397 -6.3496251 -88.136574
9650000000 -3.7731025 -87.977676 4.9663506 108.17612 -20.803858 138.29926 -6.3143973 -89.057182
9700000000 -3.7506089 -89.168526 4.9050922 106.53131 -20.819723 137.21443 -6.3075986 -89.90731
9750000000 -3.7487097 -90.345078 4.8277483 104.90995 -20.802572 136.24687 -6.2756877 -90.798271
9800000000 -3.7284038 -91.519585 4.7580442 103.26597 -20.782198 135.10858 -6.278276 -91.632133
9850000000 -3.7165873 -92.727585 4.7005343 101.62397 -20.781715 134.25987 -6.257597 -92.444054
9900000000 -3.7112947 -93.928223 4.6337276 100.00699 -20.746033 133.07375 -6.2158179 -93.368355
9950000000 -3.6966717 -95.132957 4.5733147 98.321533 -20.731115 131.897 -6.229105 -94.304222
10000000000 -3.6939902 -96.368805 4.5011926 96.629555 -20.694723 130.90781 -6.1925926 -95.167656
10050000000 -3.6789172 -97.53891 4.4409161 94.963226 -20.68343 129.65961 -6.1874466 -96.105042
10100000000 -3.6908855 -98.759293 4.3706965 93.36084 -20.680019 128.6861 -6.1734996 -96.950668
10150000000 -3.6692259 -99.949173 4.3197737 91.848557 -20.65233 127.63451 -6.1293154 -97.749542
10200000000 -3.6628516 -101.16542 4.2526817 90.071037 -20.619417 126.24059 -6.1581759 -98.969841
10250000000 -3.6537964 -102.52128 4.2054572 88.428894 -20.617352 125.20619 -6.1149135 -99.765198
10300000000 -3.6494 -103.66454 4.1604629 86.777206 -20.579771 124.12251 -6.0902486 -100.68844
10350000000 -3.6600454 -105.04778 4.0917993 85.079292 -20.603207 122.99718 -6.1066227 -101.71333
10400000000 -3.6441755 -106.20574 4.0352054 83.475883 -20.563225 121.95568 -6.0763321 -102.50278
10450000000 -3.6574876 -107.59743 3.9804435 81.66571 -20.527212 120.69802 -6.0718818 -103.73746
10500000000 -3.6459761 -108.84129 3.9313996 80.170403 -20.51779 119.76014 -6.0644693 -104.34535
10550000000 -3.6562896 -110.07262 3.8791358 78.413528 -20.46957 118.46935 -6.0585084 -105.50823
10600000000 -3.6509132 -111.47061 3.8254528 76.729927 -20.44165 117.33362 -6.0476317 -106.73089
10650000000 -3.6406391 -112.65321 3.7833717 75.091576 -20.397533 116.22869 -6.037365 -107.44692
10700000000 -3.6479347 -114.11698 3.7393227 73.306656 -20.362568 114.98521 -6.0264711 -108.825
10750000000 -3.6467524 -115.46066 3.6832902 71.640732 -20.341232 113.92004 -6.0335598 -109.61303
10800000000 -3.665566 -116.82114 3.6345971 69.91729 -20.299318 112.68481 -6.0246997 -110.76621
10850000000 -3.6587458 -118.24293 3.5768862 68.190315 -20.300379 111.49146 -6.0032763 -112.01988
10900000000 -3.6661506 -119.45505 3.5429647 66.558517 -20.246784 110.39809 -6.0234289 -112.84049
10950000000 -3.6670425 -121.09637 3.5053859 64.739838 -20.198479 109.04025 -5.9712629 -114.21595
11000000000 -3.6731837 -122.34528 3.4606931 63.082844 -20.177927 108.02644 -6.0155435 -115.11826
11050000000 -3.6890438 -123.87664 3.4216249 61.271782 -20.123995 106.76602 -5.9949756 -116.43525
11100000000 -3.6845996 -125.32486 3.371105 59.50816 -20.111631 105.43374 -5.9746127 -117.63544
11150000000 -3.7061942 -126.76173 3.3387327 57.813919 -20.06896 104.45202 -6.018662 -118.6104
11200000000 -3.7044117 -128.38011 3.2972286 55.977154 -20.001451 102.96316 -5.9616752 -119.91035
11250000000 -3.7215767 -129.71025 3.25736 54.280655 -19.981546 101.91572 -6.007781 -121.08542
11300000000 -3.7311573 -131.37411 3.2097521 52.435768 -19.936193 100.71608 -5.9904184 -122.508
11350000000 -3.7229681 -132.74977 3.1792364 50.642838 -19.891026 99.26091 -5.9569535 -123.68742
11400000000 -3.7482011 -134.43169 3.1406488 48.894436 -19.850971 98.128891 -6.0043201 -125.00965
11450000000 -3.7317803 -136.02664 3.0953822 47.048828 -19.787365 96.745056 -5.9700637 -126.18995
11500000000 -3.7661846 -137.63351 3.0651143 45.226646 -19.751808 95.301376 -5.9912176 -127.60399
11550000000 -3.7578397 -139.39035 3.0276713 43.368389 -19.707741 94.050209 -5.9730153 -128.94324
11600000000 -3.7733562 -140.79964 3.0026133 41.588799 -19.64373 92.715866 -5.9749784 -130.10095
11650000000 -3.7798705 -142.73769 2.9656627 39.687153 -19.593512 91.256004 -5.9844418 -131.77444
11700000000 -3.7747562 -144.27054 2.9282889 37.791065 -19.552977 89.915039 -5.9614186 -132.93015
11750000000 -3.8002262 -146.07712 2.899359 35.942631 -19.497705 88.378281 -5.9759851 -134.52299
11800000000 -3.7805886 -147.91547 2.8597691 33.992599 -19.471203 87.054382 -5.9735498 -136.01039
11850000000 -3.8079515 -149.55762 2.8330269 32.156479 -19.420322 85.635803 -5.9792418 -137.37
11900000000 -3.8063221 -151.55757 2.7974908 30.182146 -19.391562 84.170624 -5.9689817 -139.01775
11950000000 -3.8158169 -153.26733 2.7547941 28.207619 -19.328997 82.890472 -5.9696813 -140.36517
12000000000 -3.8237391 -155.20235 2.7306232 26.371349 -19.268866 81.339722 -5.9646916 -142.07281
12050000000 -3.8195436 -157.04782 2.6891072 24.392624 -19.255932 79.813263 -5.961226 -143.62727
12100000000 -3.843857 -158.95468 2.6533434 22.443197 -19.2019 78.304863 -5.9696617 -145.2018
12150000000 -3.827512 -160.98253 2.6218212 20.441845 -19.174236 76.845749 -5.9711876 -146.91815
12200000000 -3.8399842 -162.81834 2.5770197 18.508053 -19.118887 75.538223 -5.9780679 -148.48308
12250000000 -3.840086 -164.90587 2.5383136 16.501581 -19.054516 73.880478 -5.9548512 -150.3237
12300000000 -3.847163 -166.84509 2.5039489 14.511334 -19.029032 72.367516 -5.9662962 -151.88792
12350000000 -3.8589268 -168.93449 2.4676375 12.46678 -18.992851 70.870049 -5.9698315 -153.6656
12400000000 -3.8553212 -170.85999 2.4233067 10.498098 -18.936474 69.271324 -5.9609871 -155.54941
12450000000 -3.840939 -172.94386 2.3856697 8.4035912 -18.90708 67.724304 -5.965538 -157.22906
12500000000 -3.8322051 -175.00647 2.3438711 6.4087 -18.819468 66.136574 -5.9450746 -159.14758
12550000000 -3.8268692 -177.23378 2.3044457 4.3094754 -18.824583 64.38266 -5.9511266 -161.04671
12600000000 -3.8288181 -179.41457 2.2586253 2.1665566 -18.78997 62.876617 -5.9575539 -162.78134
12650000000 -3.8262923 178.49821 2.2122204 0.12886074 -18.73484 61.116676 -5.9467359 -164.94185
12700000000 -3.8059947 176.37074 2.1605647 -1.9445509 -18.735737 59.605026 -5.9524951 -166.72725
12750000000 -3.8068335 174.0825 2.1080344 -4.0686407 -18.684183 57.891953 -5.9336882 -168.66235
12800000000 -3.7711239 171.86481 2.0705998 -6.1807251 -18.652599 56.026463 -5.9487586 -170.93958
12850000000 -3.7771733 169.70596 2.0155334 -8.36129 -18.645992 54.497044 -5.9454746 -172.81166
12900000000 -3.7644017 167.35779 1.9529668 -10.493586 -18.61183 52.894108 -5.9155307 -175.02621
12950000000 -3.7207823 165.32701 1.9072394 -12.65377 -18.592653 51.089027 -5.9299402 -177.11867
13000000000 -3.7088003 162.85915 1.850454 -14.885694 -18.53837 49.424606 -5.9089222 -179.33989
13050000000 -3.6780889 160.65114 1.7835008 -16.982061 -18.522425 47.488869 -5.881865 178.34647
13100000000 -3.6818011 158.39674 1.7209595 -19.21661 -18.537052 45.95615 -5.9183693 176.17473
13150000000 -3.6406348 156.06873 1.6451935 -21.36557 -18.5079 44.234024 -5.8409629 173.83562
13200000000 -3.6195693 154.02467 1.5856556 -23.525995 -18.492634 42.274044 -5.8548055 171.66237
13250000000 -3.5890441 151.38582 1.5173118 -25.806173 -18.464067 40.586311 -5.8267555 169.17444
13300000000 -3.5522466 149.23343 1.4425243 -28.017633 -18.459856 38.613571 -5.7736378 166.90865
13350000000 -3.5423894 146.85194 1.3630216 -30.292873 -18.487103 36.852715 -5.8215804 164.38002
13400000000 -3.4889717 144.62378 1.2771325 -32.433239 -18.468145 35.195438 -5.7272778 162.11064
13450000000 -3.4837928 142.42999 1.1962746 -34.636452 -18.466932 33.211369 -5.7480025 159.6705
13500000000 -3.413451 139.98274 1.1081032 -36.882481 -18.472055 31.656517 -5.6986313 157.06883
13550000000 -3.3908613 137.93477 1.022543 -39.167282 -18.473089 29.692312 -5.6399374 154.76607
13600000000 -3.355082 135.4055 0.93229729 -41.362511 -18.507318 27.640263 -5.6507912 152.07053
13650000000 -3.2998779 133.37628 0.84000736 -43.527237 -18.50272 26.042778 -5.561512 149.99915
13700000000 -3.2874193 131.01685 0.73877144 -45.935047 -18.528376 24.009232 -5.5665388 146.92905
13750000000 -3.2080147 128.8309 0.62682575 -48.16227 -18.568199 22.153461 -5.4720063 144.41992
13800000000 -3.2038968 126.71137 0.52320188 -50.286705 -18.561846 20.394238 -5.43191 142.429
13850000000 -3.1513002 124.33074 0.40068257 -52.587566 -18.619011 18.323128 -5.4048848 139.26569
13900000000 -3.1173975 122.47231 0.29736736 -54.720638 -18.676302 16.629742 -5.3207436 137.38303
13950000000 -3.075465 120.07897 0.19236857 -57.024746 -18.679337 14.650356 -5.2768888 134.48146
14000000000 -3.0085664 118.19658 0.062626712 -59.224243 -18.741228 12.994268 -5.1973681 132.08311
14050000000 -2.9890857 115.99485 -0.048682041 -61.435246 -18.74995 11.190755 -5.1588187 129.91414
14100000000 -2.9278347 113.84357 -0.20189607 -63.669052 -18.820374 9.1055536 -5.0892625 126.92323
14150000000 -2.9102015 111.94232 -0.3244215 -65.757858 -18.875517 7.4975348 -5.0365973 124.95615
14200000000 -2.859632 109.76435 -0.46288639 -68.019035 -18.922075 5.4625697 -4.9530015 122.15144
14250000000 -2.8113718 108.07381 -0.59094423 -70.045937 -19.00514 3.6834774 -4.8837333 119.94755
14300000000 -2.769007 105.83969 -0.7241925 -72.258232 -19.041565 1.8316069 -4.8333611 117.5251
14350000000 -2.7123997 103.91057 -0.87525487 -74.547813 -19.111992 -0.22120012 -4.7145066 114.85312
14400000000 -2.7014029 102.04592 -1.0149115 -76.597893 -19.207047 -1.7960911 -4.6716061 112.83936
14450000000 -2.6494279 100.15601 -1.1840826 -78.789963 -19.266882 -3.6803877 -4.5751395 110.33341
14500000000 -2.6341646 98.424973 -1.347059 -80.843719 -19.389942 -5.4409003 -4.5151935 108.29342
14550000000 -2.5762608 96.552048 -1.4888406 -82.884628 -19.434891 -7.032733 -4.4428658 106.09114
14600000000 -2.5353134 94.85582 -1.6450021 -84.858284 -19.512972 -8.9529085 -4.336544 103.89861
14650000000 -2.5033066 92.977104 -1.8010036 -86.938286 -19.636177 -10.717078 -4.3010936 101.82773
14700000000 -2.4550269 91.353706 -1.9545125 -88.98716 -19.703829 -12.39109 -4.1982327 99.61483
14750000000 -2.4324477 89.625282 -2.1199179 -91.051781 -19.806337 -14.069079 -4.1381102 97.592697
14800000000 -2.3903267 87.912415 -2.2971849 -93.035255 -19.896715 -15.669515 -4.0637875 95.523895
14850000000 -2.3670294 86.273979 -2.479039 -94.962181 -19.972031 -17.569468 -3.9793627 93.491516
14900000000 -2.3361125 84.693619 -2.6450109 -96.878044 -20.119665 -19.151217 -3.9239926 91.490486
14950000000 -2.3141773 83.236794 -2.8136923 -98.731255 -20.229305 -20.658449 -3.8298378 89.718536
15000000000 -2.2646666 81.674385 -2.979826 -100.58476 -20.326021 -22.315269 -3.7770302 87.833122
15050000000 -2.2341001 80.180634 -3.1475477 -102.51091 -20.427153 -23.908379 -3.7037363 86.059616
15100000000 -2.2027752 78.600731 -3.3312874 -104.34715 -20.534317 -25.495592 -3.6168175 84.252037
15150000000 -2.181885 77.181572 -3.5042534 -106.31135 -20.661917 -27.143829 -3.5680676 82.371399
15200000000 -2.1757691 75.76458 -3.6951597 -107.9954 -20.775007 -28.462908 -3.494307 80.824219
15250000000 -2.1295781 74.511887 -3.872144 -109.76668 -20.883459 -30.157297 -3.4423749 79.074387
15300000000 -2.1202507 73.147606 -4.054317 -111.56202 -21.018229 -31.476303 -3.4040413 77.488853
15350000000 -2.061003 71.766495 -4.2197375 -113.25783 -21.088425 -32.864384 -3.3064747 75.872635
15400000000 -2.0577757 70.475006 -4.3945017 -114.98846 -21.196814 -34.531071 -3.2536273 74.223541
15450000000 -2.0480671 69.039024 -4.5934639 -116.73318 -21.349443 -35.874069 -3.2072101 72.872093
15500000000 -2.0284381 68.064346 -4.7588177 -118.38999 -21.442942 -37.274616 -3.1404445 71.193336
15550000000 -2.0124674 66.709923 -4.9466195 -120.08664 -21.601526 -38.804348 -3.117137 69.669853
15600000000 -1.9674872 65.613731 -5.1237264 -121.66004 -21.718241 -40.166996 -3.0241065 68.386337
15650000000 -1.9660605 64.372795 -5.295527 -123.25821 -21.842236 -41.82325 -2.9982522 66.853294
15700000000 -1.9198663 63.166889 -5.4769917 -124.8637 -21.99441 -42.893482 -2.9422894 65.597694
15750000000 -1.9252563 62.263058 -5.6493926 -126.41415 -22.106922 -44.112995 -2.8839145 64.349144
15800000000 -1.8998774 60.903225 -5.8214245 -128.13939 -22.241514 -45.38887 -2.8541937 62.671974
15850000000 -1.8715132 60.095852 -6.0028195 -129.49167 -22.333925 -46.385651 -2.7635186 61.791389
15900000000 -1.8802265 58.837326 -6.1839795 -131.05371 -22.469074 -48.024975 -2.7702444 60.294487
15950000000 -1.850354 57.938152 -6.3577833 -132.65466 -22.625679 -49.29454 -2.7126737 58.944935
16000000000 -1.8545172 56.994141 -6.5131626 -134.08003 -22.724474 -50.100613 -2.6503274 58.004616
16050000000 -1.8033221 55.998611 -6.6936841 -135.57373 -22.845881 -51.354733 -2.6345048 56.385921
16100000000 -1.804801 55.048874 -6.8741698 -136.9317 -22.974277 -52.24987 -2.5840538 55.735676
16150000000 -1.7904303 53.856621 -7.0422649 -138.4799 -23.073973 -53.885414 -2.5533643 54.230015
16200000000 -1.776027 53.191315 -7.2002635 -139.85828 -23.219719 -54.830025 -2.5192406 53.135612
16250000000 -1.7808155 52.120499 -7.356339 -141.29292 -23.289015 -56.015491 -2.4917316 52.031681
16300000000 -1.7276784 51.33181 -7.522543 -142.65518 -23.416595 -57.145775 -2.4458218 50.608055
16350000000 -1.7328426 50.327408 -7.6811991 -144.1317 -23.523018 -58.168385 -2.4348464 49.98605
16400000000 -1.7085152 49.273422 -7.8399258 -145.60928 -23.626509 -59.671955 -2.3812375 48.498215
16450000000 -1.7278534 48.557114 -8.0107584 -146.91704 -23.749453 -60.748585 -2.3490582 47.503288
16500000000 -1.7156485 47.632683 -8.1802473 -148.18028 -23.876106 -61.829018 -2.355638 46.636635
16550000000 -1.6947668 47.075367 -8.3321514 -149.46486 -23.985563 -63.042908 -2.2894862 45.454273
16600000000 -1.6909239 46.095394 -8.4633522 -150.74792 -24.107252 -64.018639 -2.2797441 44.683846
16650000000 -1.6643486 45.272366 -8.6219988 -152.15048 -24.227476 -65.3088 -2.2266588 43.52795
16700000000 -1.6810871 44.60257 -8.761198 -153.43983 -24.392841 -66.315315 -2.2344944 42.675465
16750000000 -1.6556196 43.698631 -8.9185715 -154.78952 -24.472807 -67.081032 -2.2244136 41.682915
16800000000 -1.6714895 43.08633 -9.0810843 -156.15561 -24.606255 -68.334602 -2.155 40.5844
16850000000 -1.6567878 42.20446 -9.2121468 -157.35941 -24.731289 -69.137711 -2.1736455 39.720798
16900000000 -1.6422861 41.662704 -9.3663893 -158.64619 -24.865805 -70.342354 -2.1097739 38.657036
16950000000 -1.6445149 40.85133 -9.5043373 -159.83127 -25.016066 -71.113663 -2.1209307 37.739281
17000000000 -1.611315 40.145771 -9.6399908 -161.18921 -25.11022 -71.976532 -2.095211 36.686638
17050000000 -1.6156374 39.371231 -9.7710133 -162.51497 -25.25943 -72.868752 -2.0420637 35.969753
17100000000 -1.6079887 38.590794 -9.9278088 -163.72862 -25.379553 -73.440315 -2.0726366 35.178391
17150000000 -1.6250497 37.949398 -10.077565 -165.01462 -25.476231 -74.443695 -2.0030792 34.327484
17200000000 -1.6175371 37.172356 -10.211257 -166.14667 -25.602362 -75.749771 -1.9979272 33.335461
17250000000 -1.6060148 36.711128 -10.330349 -167.235 -25.743755 -76.149529 -1.9906809 32.53072
17300000000 -1.6117758 35.891216 -10.465852 -168.47662 -25.852304 -76.964798 -1.963017 31.823826
17350000000 -1.5878197 35.310585 -10.58019 -169.65024 -25.95672 -77.426109 -1.9621377 30.907907
17400000000 -1.5931295 34.539497 -10.700774 -170.87891 -26.059645 -78.149673 -1.9185387 30.402794
17450000000 -1.576354 33.888077 -10.834608 -172.13527 -26.196777 -78.967926 -1.9144307 29.142334
17500000000 -1.6057779 33.203365 -10.978126 -173.42798 -26.290293 -79.626015 -1.9021282 28.433596
17550000000 -1.5892656 32.553471 -11.091296 -174.43253 -26.386269 -80.233635 -1.8841056 27.798254
17600000000 -1.5945679 32.059654 -11.224302 -175.60228 -26.533194 -81.12381 -1.8731881 26.779875
17650000000 -1.5792322 31.359848 -11.32891 -176.65009 -26.615093 -81.460617 -1.865844 26.371304
17700000000 -1.5608169 30.759365 -11.448949 -177.89514 -26.728508 -82.154442 -1.8357416 25.197884
17750000000 -1.5714825 30.059759 -11.555764 -178.92369 -26.800783 -82.450027 -1.8334619 24.629713
17800000000 -1.5616076 29.387962 -11.6623 179.87781 -26.899935 -83.250984 -1.8128349 23.972048
17850000000 -1.5806437 28.651714 -11.776905 178.58736 -26.938299 -84.121201 -1.7964305 23.065746
17900000000 -1.5679799 27.936911 -11.880214 177.42313 -27.117792 -84.609146 -1.8142841 22.457533
17950000000 -1.5955994 27.379826 -12.002508 176.28938 -27.242092 -85.116867 -1.7513808 21.517733
18000000000 -1.5917758 26.560926 -12.110416 175.15054 -27.378498 -85.688004 -1.7736359 20.970243
18050000000 -1.5878298 26.180193 -12.211764 174.10829 -27.518925 -86.021721 -1.751043 20.306665
18100000000 -1.6004523 25.381422 -12.315902 172.81361 -27.626831 -86.483955 -1.7311581 19.397631
18150000000 -1.5958633 24.697462 -12.425982 171.56482 -27.819759 -86.370773 -1.7513958 18.821342
18200000000 -1.6136812 24.099476 -12.533613 170.45102 -27.859842 -86.0215 -1.6915292 18.162493
18250000000 -1.6279914 23.303331 -12.673197 169.0824 -27.962511 -86.167603 -1.74305 17.239077
18300000000 -1.6536959 22.963245 -12.80089 168.14851 -28.026274 -85.518829 -1.7055571 16.60837
18350000000 -1.654153 22.208017 -12.921174 167.10452 -27.996494 -85.20533 -1.6776494 16.051561
18400000000 -1.6433048 21.828884 -13.007788 166.20947 -28.009426 -85.344429 -1.7254528 15.229145
18450000000 -1.6425271 21.089081 -13.101463 165.19626 -27.954678 -85.892693 -1.6751304 14.586797
18500000000 -1.6086881 20.322374 -13.1689 164.03531 -27.942177 -86.218391 -1.6990764 13.718777
18550000000 -1.6300278 19.45344 -13.243534 162.71669 -28.058197 -86.441589 -1.6852442 13.277807
18600000000 -1.6577214 18.665607 -13.370481 161.59789 -28.013859 -86.654022 -1.6477247 12.594761
18650000000 -1.7151453 17.99847 -13.491994 160.38075 -28.120193 -86.876732 -1.6788294 11.538991
18700000000 -1.7219112 17.360292 -13.610019 159.34384 -28.105803 -86.571594 -1.6633556 11.149828
18750000000 -1.7297572 16.893166 -13.684513 158.39069 -28.106956 -87.227814 -1.6631833 10.279596
18800000000 -1.7622217 16.063223 -13.799026 157.29599 -28.146473 -86.804611 -1.699659 9.8138018
18850000000 -1.7402141 15.511782 -13.873213 156.26291 -28.084846 -86.790565 -1.6769938 9.2060137
18900000000 -1.777207 14.842595 -13.9554 155.0844 -28.067755 -87.452927 -1.6888138 8.0610905
18950000000 -1.7587386 13.909774 -14.033866 153.86157 -28.074364 -87.18087 -1.6972446 7.7229171
19000000000 -1.8034286 13.293291 -14.143589 152.74216 -28.01265 -87.24794 -1.6754616 6.8344593
19050000000 -1.8370447 12.43904 -14.25263 151.52501 -28.078375 -87.385773 -1.7416835 6.1177888
19100000000 -1.8540499 12.066531 -14.366933 150.65498 -27.954262 -86.648132 -1.7063897 5.6941881
19150000000 -1.884795 11.257779 -14.438649 149.70491 -27.818434 -86.96463 -1.716725 4.8084288
19200000000 -1.8569449 10.496764 -14.518181 148.6134 -27.77198 -86.900711 -1.7495106 4.3194671
19250000000 -1.9156771 9.7764902 -14.594795 147.62004 -27.597942 -87.322693 -1.7082477 3.6379731
19300000000 -1.8985685 8.9124126 -14.670395 146.38924 -27.583309 -87.787354 -1.7733487 2.7526779
19350000000 -1.9524425 8.3138809 -14.768412 145.56268 -27.408831 -87.763344 -1.7313702 2.6215498
19400000000 -1.971872 7.2549911 -14.848288 144.47148 -27.247179 -88.251282 -1.7438644 1.6959811
19450000000 -1.9991678 6.6964769 -14.93655 143.42091 -27.219879 -88.293762 -1.7691723 1.0271754
19500000000 -2.0462704 5.9170041 -14.99457 142.46977 -26.980579 -88.561005 -1.7405047 0.6325267
19550000000 -2.0272639 5.3203025 -15.079321 141.53412 -26.829828 -89.041977 -1.7873374 -0.59572285
19600000000 -2.0617187 4.4449482 -15.148018 140.6442 -26.655869 -89.400719 -1.775048 -0.63751239
19650000000 -2.057343 3.518568 -15.221889 139.6658 -26.442251 -90.344368 -1.782147 -1.5058907
19700000000 -2.1116581 2.7320995 -15.273758 138.67044 -26.318947 -91.148087 -1.791809 -2.2755885
19750000000 -2.1418252 1.7318906 -15.315023 137.55624 -26.160688 -91.539261 -1.781767 -2.5681555
19800000000 -2.1625025 1.2165375 -15.387939 136.7326 -25.990196 -92.877609 -1.7791059 -3.8377731
19850000000 -2.2005918 0.096329294 -15.445436 135.88914 -25.874586 -93.872704 -1.7838365 -3.8317955
19900000000 -2.2056308 -0.6303274 -15.457386 134.90588 -25.672749 -94.824928 -1.7779511 -4.8512964
19950000000 -2.259933 -1.5566021 -15.48455 133.95984 -25.554806 -95.803833 -1.769472 -5.6349821
20000000000 -2.2587779 -2.4166768 -15.520482 132.93933 -25.395895 -96.719131 -1.8049963 -6.0342522
