!Keysight Technologies,N5242A,MY47200155,A.10.49.08
!Date: Thursday, October 19, 2023 15:40:47
!Correction: S11(Full 2 Port(1,2)) 
!S21(Full 2 Port(1,2)) 
!S12(Full 2 Port(1,2)) 
!S22(Full 2 Port(1,2)) 
!S2P File: Measurements: S11, S21, S12, S22:
# Hz S  dB   R 50
10000000 -24.381039 -1.0141764 21.326853 173.7169 -23.545588 -4.8597836 -29.240282 33.954693
20000000 -23.364754 -1.1978076 21.320391 175.87009 -23.762421 -4.0822678 -30.334244 9.2748775
30000000 -23.032799 -2.4953578 21.300936 176.07111 -23.754023 -2.8058214 -30.193848 2.5972631
40000000 -23.105072 -4.1621375 21.286589 175.81886 -23.583303 -1.6431849 -29.824926 -6.7489605
50000000 -23.173365 -5.1072254 21.275917 175.50403 -23.645596 -1.9021419 -29.813698 -12.814993
60000000 -23.215591 -6.0441833 21.276628 175.03098 -23.595331 -2.1819794 -29.582907 -16.998774
70000000 -23.234114 -7.4608746 21.280321 174.45711 -23.564497 -1.83635 -29.360966 -21.931217
80000000 -23.211142 -8.8051271 21.282791 173.85809 -23.548975 -1.5663717 -29.25808 -25.267788
90000000 -23.162798 -9.6704874 21.279716 173.2872 -23.609015 -2.1167421 -29.022932 -31.174551
100000000 -23.115051 -10.880289 21.281538 172.67316 -23.602617 -1.8379909 -28.965561 -34.000301
150000000 -23.047247 -16.598515 21.263325 169.5 -23.56216 -2.81725 -27.618502 -48.278931
200000000 -22.862932 -20.633291 21.246399 166.3046 -23.579931 -3.5557635 -26.737017 -59.386951
250000000 -22.798658 -25.824757 21.220482 163.03795 -23.57337 -4.2318954 -25.636116 -69.675735
300000000 -22.491028 -30.825222 21.178846 159.80234 -23.544346 -5.2496085 -24.517305 -76.847702
350000000 -22.406687 -35.405056 21.149843 156.53319 -23.541782 -6.044179 -23.456474 -83.371559
400000000 -21.964144 -39.83427 21.098661 153.319 -23.534756 -6.8305073 -22.505783 -88.464859
450000000 -21.925739 -43.426888 21.0646 150.06825 -23.522625 -7.5764141 -21.717344 -93.416351
500000000 -21.585714 -48.109032 21.015842 146.89003 -23.494478 -8.4996653 -20.941311 -97.969025
550000000 -21.286366 -52.162075 20.951496 143.65948 -23.5056 -9.1934948 -20.445536 -102.52644
600000000 -21.169964 -57.218372 20.917377 140.45442 -23.479685 -10.001936 -19.81455 -106.33559
650000000 -20.8064 -60.933964 20.852917 137.30156 -23.468929 -10.882195 -19.308456 -110.3404
700000000 -20.498667 -64.430542 20.779713 134.14252 -23.438385 -11.766227 -18.760096 -113.98608
750000000 -20.210701 -67.495239 20.709333 131.02802 -23.436041 -12.528831 -18.246399 -116.80707
800000000 -19.998146 -70.420532 20.641182 127.90114 -23.401558 -13.511131 -17.810009 -120.17474
850000000 -19.630842 -73.413292 20.561554 124.82156 -23.401161 -14.284754 -17.389498 -123.17609
900000000 -19.542332 -76.598976 20.499422 121.72262 -23.369078 -15.058192 -17.014078 -126.10208
950000000 -19.204107 -79.900253 20.41531 118.70725 -23.337561 -15.970728 -16.67033 -129.03763
1000000000 -18.889385 -82.459259 20.322168 115.66861 -23.324825 -16.868053 -16.42334 -131.96307
1050000000 -18.703823 -85.493851 20.243122 112.64199 -23.291821 -17.743967 -16.106441 -135.00659
1100000000 -18.444941 -87.995483 20.156874 109.64999 -23.25852 -18.578194 -15.853298 -137.53464
1150000000 -18.191198 -91.048759 20.067385 106.6982 -23.230446 -19.363214 -15.655834 -140.27277
1200000000 -17.869495 -92.790977 19.955889 103.76469 -23.20545 -20.259933 -15.389241 -142.85034
1250000000 -17.712593 -95.936691 19.878063 100.83463 -23.154247 -21.140432 -15.205676 -145.49644
1300000000 -17.462395 -98.290985 19.778053 97.940048 -23.112272 -22.119167 -15.007428 -148.06747
1350000000 -17.204418 -100.69125 19.67935 95.090508 -23.099562 -22.987959 -14.842649 -150.48752
1400000000 -16.985163 -103.1485 19.579681 92.210175 -23.050838 -23.866514 -14.681628 -153.06453
1450000000 -16.70837 -105.35081 19.470663 89.397148 -23.025579 -24.823811 -14.546704 -155.38173
1500000000 -16.586651 -108.0976 19.383127 86.572197 -22.972324 -25.824835 -14.409703 -157.94431
1550000000 -16.299032 -110.34584 19.268623 83.808571 -22.94105 -26.725447 -14.304822 -160.18127
1600000000 -16.101402 -112.87663 19.168343 81.063202 -22.887333 -27.608788 -14.177432 -162.85326
1650000000 -15.89892 -115.15944 19.057388 78.313606 -22.855366 -28.554127 -14.079244 -165.22748
1700000000 -15.737625 -117.9258 18.966469 75.579605 -22.831266 -29.6189 -14.003961 -167.59274
1750000000 -15.524194 -120.1942 18.852407 72.89093 -22.781481 -30.511501 -13.904099 -170.16168
1800000000 -15.30807 -122.57304 18.74234 70.235023 -22.726881 -31.499193 -13.84291 -172.4642
1850000000 -15.158303 -124.93781 18.636831 67.552139 -22.680208 -32.468826 -13.786785 -175.01996
1900000000 -15.032637 -127.43799 18.536509 64.886414 -22.653307 -33.46191 -13.738711 -177.40546
1950000000 -14.831573 -129.99518 18.429493 62.311241 -22.580723 -34.45977 -13.704366 179.99211
2000000000 -14.712878 -132.37698 18.327375 59.67683 -22.554281 -35.461021 -13.686399 177.66739
2050000000 -14.522922 -135.03036 18.22002 57.103653 -22.501373 -36.531761 -13.667158 175.00787
2100000000 -14.396023 -137.42075 18.12365 54.482628 -22.453655 -37.540604 -13.618714 172.5696
2150000000 -14.297362 -139.88695 18.021303 51.897705 -22.417107 -38.543045 -13.621187 170.08554
2200000000 -14.137679 -142.38971 17.907961 49.349953 -22.35449 -39.762115 -13.585958 167.32216
2250000000 -14.064952 -144.71376 17.805882 46.75898 -22.29105 -40.814415 -13.546424 164.88663
2300000000 -13.968299 -147.36076 17.70318 44.258717 -22.263556 -41.823292 -13.518432 162.22879
2350000000 -13.889933 -149.75073 17.597593 41.702442 -22.209843 -42.950466 -13.477542 159.72574
2400000000 -13.787505 -152.35794 17.492733 39.220577 -22.158516 -44.048958 -13.484171 157.12456
2450000000 -13.69562 -154.77509 17.385653 36.710854 -22.120392 -45.193268 -13.423606 154.37305
2500000000 -13.63948 -157.32886 17.291267 34.188892 -22.064165 -46.245499 -13.429618 151.96941
2550000000 -13.524843 -159.82269 17.182865 31.709875 -22.032803 -47.4356 -13.398389 149.14355
2600000000 -13.477063 -162.29776 17.080523 29.21707 -21.974823 -48.616138 -13.352777 146.68558
2650000000 -13.416204 -165.08499 16.976418 26.75131 -21.908409 -49.679276 -13.356161 144.00537
2700000000 -13.301163 -167.51633 16.871981 24.30184 -21.876045 -50.902504 -13.306099 141.27425
2750000000 -13.309605 -169.95039 16.774395 21.838165 -21.821716 -52.049313 -13.297326 138.75601
2800000000 -13.209702 -172.62633 16.664257 19.434927 -21.790447 -53.2743 -13.264266 136.01126
2850000000 -13.161334 -174.93733 16.564226 16.97216 -21.752729 -54.437969 -13.245813 133.60089
2900000000 -13.092247 -177.73468 16.464863 14.587037 -21.709766 -55.603733 -13.21881 130.75325
2950000000 -13.045959 179.96884 16.356947 12.215178 -21.659018 -56.843822 -13.159309 128.30762
3000000000 -13.028173 177.23915 16.258902 9.785614 -21.614216 -58.055695 -13.147081 125.70854
3050000000 -12.951962 174.69621 16.157722 7.4119873 -21.55731 -59.288624 -13.061398 123.09795
3100000000 -12.933022 172.16058 16.053791 5.0248537 -21.522362 -60.407261 -13.040313 120.67554
3150000000 -12.879063 169.46552 15.953973 2.678535 -21.478954 -61.721455 -12.987601 118.09576
3200000000 -12.842195 167.10248 15.848694 0.31342757 -21.424925 -63.002602 -12.937791 115.73373
3250000000 -12.799938 164.45976 15.753325 -2.0132906 -21.386518 -64.23568 -12.897609 113.29036
3300000000 -12.731006 161.8671 15.650055 -4.3464203 -21.352104 -65.438705 -12.838271 110.90592
3350000000 -12.689041 159.39822 15.547988 -6.6790276 -21.309025 -66.703514 -12.816047 108.54745
3400000000 -12.625096 156.89677 15.450643 -8.9674063 -21.273382 -68.02655 -12.769981 106.18252
3450000000 -12.573568 154.35982 15.349851 -11.283341 -21.229067 -69.16375 -12.719989 103.91621
3500000000 -12.523825 151.66011 15.252532 -13.581255 -21.190525 -70.449417 -12.69855 101.52729
3550000000 -12.440695 149.27049 15.157339 -15.875506 -21.14542 -71.849182 -12.646892 99.206741
3600000000 -12.398398 146.60324 15.058309 -18.163502 -21.113424 -73.034409 -12.607632 96.804886
3650000000 -12.318276 143.98843 14.96311 -20.445549 -21.078508 -74.366165 -12.552222 94.584122
3700000000 -12.266591 141.46558 14.865251 -22.701836 -21.027874 -75.665527 -12.5116 92.170013
3750000000 -12.206758 138.76787 14.770053 -24.988777 -20.999411 -76.873451 -12.457807 89.863663
3800000000 -12.116906 136.15625 14.674191 -27.229223 -20.969234 -78.277893 -12.402187 87.686447
3850000000 -12.069844 133.52902 14.579721 -29.501991 -20.919998 -79.576096 -12.335642 85.415245
3900000000 -11.990721 130.76495 14.484669 -31.757847 -20.88756 -81.003532 -12.285869 83.243782
3950000000 -11.90237 128.15541 14.391514 -34.018272 -20.850449 -82.277481 -12.223372 80.977989
4000000000 -11.835161 125.50971 14.299098 -36.230137 -20.817785 -83.468872 -12.173341 78.872414
4050000000 -11.750813 122.72264 14.201263 -38.459949 -20.789248 -84.938515 -12.110074 76.555779
4100000000 -11.665477 119.98219 14.109901 -40.676334 -20.753685 -86.242844 -12.022484 74.507904
4150000000 -11.555042 117.2494 14.017696 -42.895737 -20.710142 -87.553291 -11.969129 72.287537
4200000000 -11.466414 114.57353 13.921601 -45.086815 -20.691216 -88.887444 -11.894012 70.089432
4250000000 -11.377268 111.87125 13.832303 -47.293423 -20.657833 -90.151093 -11.838356 68.014259
4300000000 -11.264747 109.18609 13.739908 -49.544113 -20.632318 -91.592316 -11.761948 65.712379
4350000000 -11.171664 106.5148 13.649097 -51.770378 -20.580057 -92.92189 -11.69014 63.704212
4400000000 -11.085435 103.67405 13.555185 -53.970978 -20.559917 -94.400276 -11.630132 61.317833
4450000000 -10.989525 101.13366 13.46755 -56.214901 -20.54183 -95.732201 -11.543553 59.25769
4500000000 -10.895679 98.227715 13.371053 -58.424995 -20.49935 -97.194618 -11.489212 56.971512
4550000000 -10.793553 95.735214 13.28182 -60.651787 -20.470154 -98.486473 -11.402095 54.937225
4600000000 -10.686293 92.880775 13.191343 -62.883518 -20.449434 -99.939339 -11.336223 52.730713
4650000000 -10.58166 90.318558 13.093702 -65.063744 -20.422262 -101.35461 -11.24564 50.592968
4700000000 -10.500955 87.594742 12.99956 -67.256256 -20.41852 -102.74058 -11.177182 48.622204
4750000000 -10.366523 84.904396 12.906892 -69.463509 -20.395739 -104.19869 -11.099073 46.39233
4800000000 -10.267196 82.407425 12.817773 -71.627502 -20.367579 -105.58353 -11.020735 44.551674
4850000000 -10.149975 79.593231 12.726867 -73.80265 -20.343027 -106.97028 -10.973619 42.36935
4900000000 -10.041496 77.129242 12.634534 -75.995079 -20.334341 -108.48322 -10.878728 40.316727
4950000000 -9.9423847 74.358376 12.545034 -78.171684 -20.31789 -109.88007 -10.823015 38.357197
5000000000 -9.8147249 71.860397 12.449081 -80.352089 -20.291689 -111.28161 -10.741424 36.266453
5050000000 -9.7134924 69.246979 12.361102 -82.508865 -20.285561 -112.63741 -10.693238 34.324829
5100000000 -9.5842838 66.704948 12.264348 -84.676041 -20.283051 -114.02512 -10.602179 32.224136
5150000000 -9.4846239 64.167061 12.175591 -86.863846 -20.268162 -115.54811 -10.517347 30.379978
5200000000 -9.3566351 61.569702 12.083772 -89.006355 -20.246876 -116.945 -10.456661 28.321396
5250000000 -9.2391472 59.115692 11.987741 -91.185196 -20.233192 -118.29614 -10.346306 26.311993
5300000000 -9.1237259 56.519989 11.900432 -93.369102 -20.228672 -119.8215 -10.269551 24.502079
5350000000 -8.9999857 54.110653 11.802367 -95.526192 -20.238548 -121.23959 -10.181974 22.531233
5400000000 -8.8875446 51.621223 11.70735 -97.694977 -20.22938 -122.56784 -10.096925 20.825094
5450000000 -8.7679873 49.156124 11.608688 -99.834724 -20.211481 -124.12251 -10.021035 18.853561
5500000000 -8.6614122 46.779598 11.515279 -101.97925 -20.22224 -125.42044 -9.9248724 17.26123
5550000000 -8.5357304 44.427555 11.417569 -104.13138 -20.211985 -126.94485 -9.8677216 15.389878
5600000000 -8.4302902 42.04681 11.323397 -106.25968 -20.199673 -128.34276 -9.774313 13.631773
5650000000 -8.3082342 39.664818 11.223714 -108.39051 -20.206827 -129.76025 -9.7138424 11.950573
5700000000 -8.1984978 37.458378 11.13248 -110.50943 -20.201542 -131.21388 -9.6364069 10.248087
5750000000 -8.0981503 35.113445 11.033971 -112.62827 -20.203657 -132.6076 -9.573143 8.5685863
5800000000 -7.9729028 32.83408 10.936789 -114.76166 -20.212879 -134.09377 -9.5092258 6.8406992
5850000000 -7.8800316 30.629984 10.837159 -116.85099 -20.230623 -135.51965 -9.4194393 5.2950964
5900000000 -7.7578111 28.408241 10.73773 -118.94956 -20.228765 -136.81235 -9.3762407 3.6230435
5950000000 -7.660408 26.268202 10.640924 -121.05525 -20.226421 -138.26622 -9.282753 1.9601139
6000000000 -7.5423651 24.000023 10.541711 -123.14642 -20.246273 -139.63216 -9.2330198 0.417207
6050000000 -7.4457159 21.939421 10.435766 -125.23441 -20.239389 -141.07333 -9.1506681 -1.1609079
6100000000 -7.3448462 19.77272 10.33595 -127.30301 -20.247063 -142.5309 -9.0943632 -2.6227913
6150000000 -7.2373357 17.680048 10.233287 -129.37651 -20.250231 -143.77223 -9.0417433 -4.1795497
6200000000 -7.1550846 15.672122 10.137439 -131.39087 -20.285599 -145.18263 -8.9683123 -5.5535679
6250000000 -7.0409079 13.631645 10.030619 -133.48314 -20.308338 -146.62701 -8.9294138 -6.9682617
6300000000 -6.9572787 11.649033 9.9308033 -135.51233 -20.305801 -147.91666 -8.8703213 -8.4773588
6350000000 -6.8583174 9.6479712 9.8318491 -137.56099 -20.298412 -149.30804 -8.826231 -9.7761459
6400000000 -6.7610178 7.8164411 9.7331486 -139.5899 -20.333759 -150.6209 -8.7841139 -11.256124
6450000000 -6.6768951 5.7606134 9.6298704 -141.62434 -20.35145 -152.05898 -8.7401419 -12.540371
6500000000 -6.5833082 3.8864977 9.52812 -143.67776 -20.368067 -153.31952 -8.7101641 -13.997868
6550000000 -6.4989748 2.0433571 9.4290276 -145.67604 -20.361122 -154.83252 -8.6695595 -15.370788
6600000000 -6.4163899 0.13865715 9.325737 -147.69641 -20.389666 -156.04784 -8.6489363 -16.739204
6650000000 -6.3246059 -1.6492088 9.2286549 -149.70576 -20.413633 -157.35922 -8.6067781 -18.112585
6700000000 -6.2405787 -3.526547 9.1261454 -151.72388 -20.422581 -158.8008 -8.5779133 -19.42474
6750000000 -6.1597524 -5.2613168 9.0246744 -153.73819 -20.441433 -160.10696 -8.5572033 -20.885664
6800000000 -6.0839705 -7.0674367 8.9202318 -155.74117 -20.463396 -161.39897 -8.5234623 -22.217823
6850000000 -5.9958797 -8.8326979 8.8198423 -157.69066 -20.499546 -162.72002 -8.4896631 -23.429039
6900000000 -5.9215751 -10.613155 8.7118969 -159.7144 -20.506084 -164.11316 -8.4669876 -24.901039
6950000000 -5.853199 -12.316663 8.6131334 -161.65475 -20.511276 -165.40186 -8.4341278 -26.070801
7000000000 -5.7790828 -14.005854 8.5141592 -163.62276 -20.544596 -166.63506 -8.4093599 -27.317038
7050000000 -5.7100067 -15.702291 8.413537 -165.59418 -20.550735 -168.02231 -8.3958683 -28.642405
7100000000 -5.6429706 -17.405302 8.3076429 -167.5746 -20.562336 -169.29167 -8.3660221 -29.88096
7150000000 -5.5673695 -18.98885 8.2129822 -169.4837 -20.593779 -170.63785 -8.3467655 -31.085335
7200000000 -5.5072942 -20.675087 8.1085072 -171.47002 -20.605034 -171.94727 -8.3297796 -32.37788
7250000000 -5.4440327 -22.313383 8.0066061 -173.39137 -20.644989 -173.15627 -8.3170013 -33.609573
7300000000 -5.3777289 -23.941599 7.9072332 -175.39088 -20.66185 -174.55772 -8.2826118 -34.995773
7350000000 -5.31142 -25.560518 7.8085432 -177.27615 -20.679113 -175.74521 -8.2785873 -36.110863
7400000000 -5.2402563 -27.144012 7.7103658 -179.2578 -20.697229 -177.17387 -8.2567301 -37.578201
7450000000 -5.1937203 -28.749096 7.6084375 178.81088 -20.719877 -178.33582 -8.227622 -38.770115
7500000000 -5.1215792 -30.259354 7.5104542 176.91466 -20.721889 -179.66321 -8.2283211 -40.097149
7550000000 -5.0750303 -31.838593 7.4089885 174.98216 -20.735764 179.03629 -8.1908102 -41.449558
7600000000 -5.0139532 -33.401505 7.3076382 173.08186 -20.806873 177.92798 -8.1766586 -42.600803
7650000000 -4.9664764 -34.885693 7.2051501 171.12431 -20.823574 176.47012 -8.1596279 -44.061573
7700000000 -4.9004979 -36.47382 7.1135993 169.25415 -20.827959 175.18944 -8.1181784 -45.208889
7750000000 -4.8472476 -37.919613 7.0064259 167.35217 -20.84148 173.9324 -8.1084719 -46.55706
7800000000 -4.8149538 -39.481438 6.9037089 165.43916 -20.879549 172.77191 -8.0540476 -47.820408
7850000000 -4.742063 -40.952488 6.8109078 163.56261 -20.88442 171.54985 -8.050498 -49.022282
7900000000 -4.7123213 -42.343266 6.7068543 161.67014 -20.90036 170.38762 -8.0036545 -50.449268
7950000000 -4.658412 -43.97438 6.6096334 159.79285 -20.938576 169.12198 -7.9692807 -51.569862
8000000000 -4.6077576 -45.326237 6.510747 157.93652 -20.950523 167.95094 -7.9605188 -52.954521
8050000000 -4.5709715 -46.915028 6.4160724 156.03741 -20.989799 166.6515 -7.8916459 -54.114132
8100000000 -4.5195284 -48.243664 6.3185115 154.21677 -21.011255 165.47105 -7.8837047 -55.278755
8150000000 -4.4961691 -49.757164 6.2215648 152.32228 -21.01222 164.21674 -7.8309197 -56.602276
8200000000 -4.4305711 -51.20787 6.1229057 150.47513 -21.029514 163.12431 -7.8088307 -57.650951
8250000000 -4.4069357 -52.550659 6.0289273 148.62738 -21.059063 161.83438 -7.7671375 -59.038399
8300000000 -4.3737016 -54.127968 5.9278393 146.79269 -21.060627 160.60414 -7.7162919 -60.031395
8350000000 -4.3223853 -55.328426 5.8399043 144.98459 -21.089094 159.45668 -7.7010031 -61.25848
8400000000 -4.2953277 -56.806965 5.7445412 143.15411 -21.111742 158.33507 -7.6365256 -62.517876
8450000000 -4.2468877 -58.164497 5.642601 141.35385 -21.115925 157.07538 -7.6076908 -63.563324
8500000000 -4.2255349 -59.563377 5.5539579 139.53026 -21.136671 155.89835 -7.5482397 -64.786995
8550000000 -4.1789479 -61.015972 5.4548841 137.74733 -21.166916 154.76579 -7.5057621 -65.80468
8600000000 -4.1628938 -62.265255 5.3568769 135.99637 -21.191404 153.6452 -7.4597149 -67.036644
8650000000 -4.1372967 -63.814205 5.2578177 134.12273 -21.206066 152.44458 -7.3914194 -68.042229
8700000000 -4.0898137 -65.001366 5.1679301 132.41789 -21.225161 151.4093 -7.3664851 -69.102776
8750000000 -4.0767531 -66.393303 5.0761065 130.69803 -21.235447 150.24132 -7.304317 -70.240936
8800000000 -4.0311909 -67.757896 4.9855704 128.91081 -21.262655 149.15675 -7.2673836 -71.177002
8850000000 -4.0121922 -69.053406 4.9010258 127.10959 -21.250149 147.94669 -7.209465 -72.315422
8900000000 -3.9858279 -70.537109 4.8030329 125.3428 -21.284521 147.03038 -7.1702442 -73.218285
8950000000 -3.9678218 -71.739769 4.7076135 123.60108 -21.312569 145.73235 -7.1425471 -74.328323
9000000000 -3.9538631 -73.114716 4.6129131 121.91789 -21.307953 144.75963 -7.0765285 -75.325226
9050000000 -3.917516 -74.307861 4.5291862 120.18732 -21.331163 143.66118 -7.0587049 -76.308578
9100000000 -3.9046557 -75.650848 4.4392586 118.49779 -21.332602 142.68973 -7.0044446 -77.368378
9150000000 -3.8716712 -77.012047 4.3503327 116.74655 -21.354342 141.38593 -6.9571428 -78.296356
9200000000 -3.8519697 -78.20385 4.2701821 115.07864 -21.335546 140.44817 -6.917778 -79.291016
9250000000 -3.8336244 -79.691399 4.1767402 113.31696 -21.355766 139.35539 -6.8628221 -80.261406
9300000000 -3.8131483 -80.884987 4.0912666 111.63191 -21.351807 138.23949 -6.8280787 -81.226982
9350000000 -3.8004704 -82.179901 4.0009217 109.96625 -21.342684 137.20753 -6.7743187 -82.122833
9400000000 -3.7914343 -83.409782 3.9142842 108.3626 -21.37916 136.28352 -6.7385678 -83.042259
9450000000 -3.760783 -84.702896 3.8421636 106.68153 -21.389402 135.04065 -6.7045197 -84.010071
9500000000 -3.7414594 -85.984116 3.7631974 105.03616 -21.367825 134.06812 -6.6530809 -84.934593
9550000000 -3.7222784 -87.243431 3.6879416 103.36816 -21.369778 132.93318 -6.6245508 -85.849724
9600000000 -3.7114303 -88.617386 3.5988386 101.62434 -21.386164 132.04868 -6.586967 -86.743988
9650000000 -3.7010226 -89.837204 3.5218639 99.984642 -21.368916 130.91385 -6.5389471 -87.779793
9700000000 -3.6803567 -91.110161 3.4540446 98.34314 -21.361088 129.96786 -6.5183134 -88.68602
9750000000 -3.6790948 -92.381126 3.3645217 96.689453 -21.37458 128.98228 -6.4874425 -89.647423
9800000000 -3.6580074 -93.660927 3.2924664 95.025482 -21.373751 127.88017 -6.480423 -90.642426
9850000000 -3.6396279 -94.91703 3.2294703 93.414116 -21.363348 127.00513 -6.4391561 -91.543671
9900000000 -3.6378183 -96.21199 3.1508179 91.780006 -21.335241 126.04409 -6.4005504 -92.57695
9950000000 -3.6194663 -97.51342 3.0868528 90.046387 -21.333982 124.89748 -6.4067249 -93.718185
10000000000 -3.6134014 -98.845428 3.0093374 88.359894 -21.31971 123.90228 -6.3603406 -94.703972
10050000000 -3.602113 -100.08218 2.9394169 86.684151 -21.29653 122.83982 -6.3421564 -95.797127
10100000000 -3.6100476 -101.37449 2.8611503 85.058685 -21.29257 121.79417 -6.3248429 -96.823608
10150000000 -3.5843978 -102.64519 2.806119 83.547852 -21.259256 120.82285 -6.2660909 -97.749847
10200000000 -3.5800462 -103.92008 2.7284129 81.789307 -21.255003 119.41709 -6.2873921 -99.146278
10250000000 -3.5662398 -105.35194 2.6763566 80.1315 -21.212339 118.43133 -6.2307057 -100.0839
10300000000 -3.554976 -106.58544 2.6247952 78.489288 -21.18651 117.37559 -6.1890874 -101.09772
10350000000 -3.5608847 -108.01911 2.5472467 76.797012 -21.225904 116.22366 -6.2082663 -102.28568
10400000000 -3.5469389 -109.27975 2.4842949 75.185776 -21.178583 115.32954 -6.163394 -103.20992
10450000000 -3.5585735 -110.7244 2.425756 73.367546 -21.187967 113.94858 -6.1475391 -104.61789
10500000000 -3.5443869 -112.01788 2.3700619 71.886696 -21.161514 113.1447 -6.1346655 -105.38696
10550000000 -3.5479252 -113.33025 2.3101323 70.10955 -21.119144 111.85194 -6.1229763 -106.76398
10600000000 -3.5427792 -114.80194 2.2511787 68.427788 -21.111675 110.8757 -6.0989995 -108.14816
10650000000 -3.5265784 -116.00277 2.2036557 66.800835 -21.030809 109.72097 -6.0829554 -109.05316
10700000000 -3.530359 -117.59671 2.1520903 64.988037 -21.020409 108.5126 -6.0551658 -110.6246
10750000000 -3.5284245 -118.95596 2.0908349 63.320377 -21.024948 107.5884 -6.0545201 -111.6351
10800000000 -3.5420818 -120.39073 2.0372221 61.595016 -20.969049 106.25464 -6.0302858 -113.01317
10850000000 -3.5309026 -121.87899 1.9689416 59.830975 -20.952845 105.12926 -5.997385 -114.49146
10900000000 -3.5337064 -123.13417 1.928933 58.190147 -20.909178 103.94611 -5.9944959 -115.56205
10950000000 -3.5302932 -124.853 1.8841306 56.361427 -20.873484 102.69204 -5.9275694 -117.1621
11000000000 -3.5326385 -126.15474 1.8276697 54.692619 -20.879669 101.61971 -5.9528151 -118.29379
11050000000 -3.5458119 -127.75581 1.7855626 52.867088 -20.828207 100.38242 -5.9079943 -119.80133
11100000000 -3.5337155 -129.21794 1.7230707 51.114742 -20.791256 99.200096 -5.8682728 -121.15829
11150000000 -3.5532398 -130.72774 1.6817746 49.39975 -20.749197 98.101868 -5.8902469 -122.34347
11200000000 -3.5440152 -132.38023 1.6302902 47.550083 -20.718216 96.795013 -5.8102551 -123.79754
11250000000 -3.5607831 -133.77655 1.5812496 45.87899 -20.683872 95.655342 -5.8311214 -125.08121
11300000000 -3.5729856 -135.46796 1.5193669 44.03812 -20.657808 94.396675 -5.79318 -126.66518
11350000000 -3.5548143 -136.85626 1.486195 42.260788 -20.607191 93.102249 -5.7378731 -127.9662
11400000000 -3.5736773 -138.57449 1.437042 40.509144 -20.598612 92.048775 -5.7604938 -129.3848
11450000000 -3.5588202 -140.21159 1.3817708 38.676979 -20.51507 90.714783 -5.7044787 -130.6308
11500000000 -3.5857358 -141.84554 1.3419918 36.850208 -20.487093 89.33287 -5.6996469 -132.19073
11550000000 -3.5749288 -143.60353 1.2943072 35.007023 -20.459431 88.23201 -5.6586304 -133.55093
11600000000 -3.5914948 -145.03308 1.254318 33.273827 -20.393566 86.803833 -5.6320682 -134.83478
11650000000 -3.5925827 -146.97975 1.2082303 31.38463 -20.362907 85.418304 -5.6153584 -136.53058
11700000000 -3.5817988 -148.5199 1.1640068 29.518326 -20.308689 84.201729 -5.5688744 -137.68144
11750000000 -3.6070364 -150.32907 1.1228784 27.711035 -20.266665 82.661263 -5.5595741 -139.2617
11800000000 -3.5868366 -152.12759 1.0742704 25.782116 -20.244427 81.391121 -5.5308933 -140.69652
11850000000 -3.6117449 -153.7986 1.0370824 23.976257 -20.191004 79.942741 -5.5061135 -142.01115
11900000000 -3.6025558 -155.76256 0.99165237 22.043615 -20.156309 78.611214 -5.4799585 -143.58032
11950000000 -3.6146755 -157.4156 0.9398734 20.111322 -20.121166 77.321182 -5.4575977 -144.81113
12000000000 -3.6182415 -159.35609 0.90621442 18.330294 -20.041595 75.929062 -5.4309177 -146.42601
12050000000 -3.6118028 -161.14609 0.85857761 16.409264 -20.05345 74.498566 -5.4133363 -147.80957
12100000000 -3.637795 -163.02534 0.81636143 14.513553 -19.999895 73.191307 -5.4028144 -149.20026
12150000000 -3.6179097 -164.98062 0.77708757 12.55156 -19.971035 71.603859 -5.3892393 -150.75873
12200000000 -3.6308939 -166.78543 0.73198009 10.689263 -19.895639 70.524849 -5.3809094 -152.14326
12250000000 -3.6285954 -168.78821 0.68356067 8.7471199 -19.844265 68.917259 -5.3490305 -153.78314
12300000000 -3.634474 -170.65862 0.6485908 6.8132463 -19.824032 67.375397 -5.355269 -155.18967
12350000000 -3.6490054 -172.71411 0.60618293 4.8148599 -19.778612 66.128433 -5.3484073 -156.75192
12400000000 -3.6490035 -174.51015 0.55921483 2.9281955 -19.726877 64.570396 -5.3369007 -158.41277
12450000000 -3.6386216 -176.55283 0.51928025 0.87854391 -19.690693 63.128258 -5.3420959 -159.85963
12500000000 -3.6267343 -178.49875 0.47789857 -1.0411444 -19.594591 61.715084 -5.3173289 -161.55765
12550000000 -3.6246881 179.3486 0.44126147 -3.0459235 -19.589388 59.883556 -5.3290458 -163.21939
12600000000 -3.6266642 177.25734 0.39435524 -5.150835 -19.557848 58.43433 -5.3370996 -164.75136
12650000000 -3.6324003 175.27466 0.34807372 -7.1273232 -19.491722 56.775761 -5.3239317 -166.66069
12700000000 -3.6138415 173.25557 0.30102247 -9.1288738 -19.480654 55.432007 -5.34165 -168.23524
12750000000 -3.6172283 171.06979 0.25013468 -11.197755 -19.408155 53.776638 -5.3357577 -169.95592
12800000000 -3.5845988 168.93991 0.21684679 -13.261242 -19.388525 51.929466 -5.362371 -172.02322
12850000000 -3.5949042 166.88365 0.17003387 -15.377272 -19.359236 50.490112 -5.3766866 -173.64282
12900000000 -3.5906181 164.65778 0.11008122 -17.469234 -19.328568 48.935364 -5.3660736 -175.67799
12950000000 -3.5506101 162.69681 0.074497633 -19.592655 -19.267284 47.129551 -5.4030046 -177.62535
13000000000 -3.5484021 160.32942 0.026648657 -21.774048 -19.224787 45.579224 -5.395997 -179.65691
13050000000 -3.5223701 158.19867 -0.031551268 -23.870865 -19.187761 43.747871 -5.3960757 178.09157
13100000000 -3.5327432 156.05954 -0.087150261 -26.119267 -19.172556 42.031464 -5.4598107 175.96001
13150000000 -3.4996023 153.79768 -0.15348728 -28.236425 -19.12644 40.368206 -5.408968 173.69446
13200000000 -3.4859111 151.85558 -0.20780584 -30.394524 -19.110474 38.451256 -5.456749 171.46204
13250000000 -3.4627984 149.27954 -0.26637834 -32.692539 -19.086935 36.699677 -5.4560542 168.98062
13300000000 -3.4346106 147.21164 -0.33085841 -34.914745 -19.040188 34.931751 -5.4234204 166.65141
13350000000 -3.4362249 144.88757 -0.40388551 -37.1926 -19.054268 33.173912 -5.4987521 164.09723
13400000000 -3.3888333 142.72461 -0.48206642 -39.381294 -19.029362 31.311623 -5.4289513 161.74641
13450000000 -3.3956432 140.5914 -0.55047995 -41.614265 -19.017214 29.410511 -5.4738903 159.15359
13500000000 -3.3362398 138.15594 -0.63460702 -43.895729 -19.007257 27.677261 -5.4517245 156.47101
13550000000 -3.3262637 136.16316 -0.71620971 -46.235928 -18.975624 25.640692 -5.4143071 153.99107
13600000000 -3.3025975 133.64629 -0.79731762 -48.463692 -18.999996 23.746948 -5.4494987 151.17136
13650000000 -3.258147 131.65134 -0.8848381 -50.664165 -18.989119 21.949095 -5.3824344 148.91103
13700000000 -3.2624323 129.29982 -0.98304254 -53.143044 -19.027685 19.948437 -5.4078851 145.61407
13750000000 -3.1879745 127.08963 -1.0886829 -55.456879 -19.037722 18.096941 -5.3286905 142.92168
13800000000 -3.1990221 124.97205 -1.1922227 -57.644405 -19.021545 16.092302 -5.2994504 140.67909
13850000000 -3.1588554 122.54617 -1.3148818 -60.016914 -19.082659 14.003988 -5.2950296 137.23972
13900000000 -3.1327507 120.70004 -1.4157996 -62.253227 -19.100838 12.355348 -5.223351 135.06027
13950000000 -3.1034307 118.24068 -1.5236602 -64.623268 -19.125164 10.282941 -5.1900783 131.8824
14000000000 -3.0528269 116.36337 -1.6589892 -66.894096 -19.18545 8.4584799 -5.1213393 129.27071
14050000000 -3.0448108 114.06542 -1.774717 -69.215027 -19.17635 6.5394816 -5.0812674 126.84398
14100000000 -2.9945686 111.85246 -1.9307568 -71.498329 -19.258144 4.3745165 -5.0068727 123.66066
14150000000 -2.9919429 109.90287 -2.0595491 -73.657181 -19.309811 2.6619618 -4.9612155 121.48474
14200000000 -2.9535797 107.64886 -2.2051666 -75.986801 -19.351852 0.62324792 -4.8748956 118.515
14250000000 -2.9188938 105.90819 -2.3407221 -78.077576 -19.436781 -1.1384947 -4.809936 116.14384
14300000000 -2.8842189 103.56684 -2.4823921 -80.361275 -19.490696 -3.1127417 -4.7615776 113.60007
14350000000 -2.8344269 101.57338 -2.6428602 -82.674034 -19.564028 -5.3441606 -4.6452937 110.81927
14400000000 -2.838851 99.589394 -2.7921116 -84.78054 -19.654776 -6.8500414 -4.6045337 108.72977
14450000000 -2.7931726 97.62188 -2.9720979 -86.975281 -19.718884 -8.732091 -4.5072412 106.14721
14500000000 -2.7965534 95.793411 -3.1486933 -89.102043 -19.849985 -10.663376 -4.4502296 104.05799
14550000000 -2.7361631 93.828873 -3.2944045 -91.171127 -19.891985 -12.281539 -4.3798556 101.80176
14600000000 -2.7057443 92.061806 -3.4639835 -93.158127 -19.968098 -14.251789 -4.2773199 99.590775
14650000000 -2.6867864 90.048431 -3.6309228 -95.267998 -20.099783 -16.057642 -4.2507324 97.490982
14700000000 -2.6376774 88.337517 -3.7923203 -97.361786 -20.184824 -17.71224 -4.1520834 95.286179
14750000000 -2.6222928 86.488808 -3.9658756 -99.413589 -20.262033 -19.362129 -4.1045055 93.258575
14800000000 -2.5872951 84.699295 -4.1599298 -101.4164 -20.367966 -21.09371 -4.0342488 91.202408
14850000000 -2.5698056 82.966125 -4.3506117 -103.31306 -20.463465 -22.907675 -3.9566548 89.169182
14900000000 -2.5454466 81.287331 -4.5246062 -105.21143 -20.602842 -24.541109 -3.9119041 87.226891
14950000000 -2.527117 79.740501 -4.7034693 -107.06252 -20.730234 -26.143297 -3.8279769 85.494644
15000000000 -2.4786644 78.079124 -4.8759408 -108.92513 -20.800972 -27.800323 -3.7886772 83.621132
15050000000 -2.4526377 76.507187 -5.0527244 -110.83846 -20.904829 -29.308304 -3.7292211 81.907318
15100000000 -2.42206 74.829208 -5.2419729 -112.62754 -21.028368 -30.838266 -3.6584425 80.146851
15150000000 -2.4060335 73.307045 -5.4218001 -114.62206 -21.163589 -32.617828 -3.6276112 78.29084
15200000000 -2.4021018 71.796875 -5.6189833 -116.28681 -21.283062 -33.875237 -3.5669756 76.786514
15250000000 -2.354008 70.482613 -5.7995 -117.99675 -21.383743 -35.548527 -3.5308254 75.035934
15300000000 -2.3459036 69.025116 -5.9915519 -119.84105 -21.521297 -36.928684 -3.5128503 73.442406
15350000000 -2.280405 67.591125 -6.1487894 -121.48556 -21.581774 -38.169212 -3.4252 71.754639
15400000000 -2.2768288 66.226646 -6.3276062 -123.20369 -21.716265 -40.112762 -3.3971896 70.062546
15450000000 -2.2671487 64.686592 -6.5347834 -124.96568 -21.871563 -41.393433 -3.3707941 68.636292
15500000000 -2.24719 63.660103 -6.700222 -126.65936 -21.94747 -42.875496 -3.3237133 66.827896
15550000000 -2.2320299 62.239876 -6.8891931 -128.29695 -22.083845 -44.359554 -3.3132253 65.211075
15600000000 -2.1840682 61.104382 -7.0718589 -129.9073 -22.198681 -45.751404 -3.2395463 63.793388
15650000000 -2.1837671 59.787823 -7.2370811 -131.53392 -22.322388 -47.31213 -3.2270584 62.042278
15700000000 -2.1307712 58.521049 -7.4189835 -133.14409 -22.468613 -48.660496 -3.1908555 60.668049
15750000000 -2.1370485 57.563976 -7.5920358 -134.71625 -22.575731 -49.803131 -3.1451361 59.210152
15800000000 -2.1042988 56.132378 -7.7673559 -136.51315 -22.718529 -51.30603 -3.1311979 57.309761
15850000000 -2.078542 55.289196 -7.9517903 -137.87976 -22.819101 -52.280972 -3.0479352 56.259457
15900000000 -2.0801892 53.969025 -8.1365299 -139.46175 -22.960623 -54.07074 -3.0672119 54.493046
15950000000 -2.0490847 53.036118 -8.3142824 -141.08609 -23.133665 -55.176594 -3.0234294 52.943588
16000000000 -2.0557094 52.026878 -8.4689703 -142.55557 -23.230394 -56.186375 -2.9577954 51.720947
16050000000 -1.995111 51.021576 -8.6525326 -144.09528 -23.356104 -57.673843 -2.9634778 49.834236
16100000000 -2.0005066 50.035782 -8.837779 -145.52699 -23.470289 -58.656906 -2.9213388 48.900215
16150000000 -1.9792337 48.791157 -9.0070677 -147.15369 -23.569523 -60.218792 -2.8910611 47.055092
16200000000 -1.9639565 48.144569 -9.1769533 -148.56375 -23.722809 -61.205112 -2.8666697 45.659004
16250000000 -1.9658872 46.987747 -9.3516722 -150.11742 -23.805269 -62.405357 -2.8437979 44.165676
16300000000 -1.9021139 46.228561 -9.5137033 -151.50168 -23.915182 -63.704506 -2.7903478 42.390278
16350000000 -1.9106851 45.172523 -9.6921148 -153.03119 -24.052807 -64.619812 -2.79001 41.469666
16400000000 -1.8766387 44.085014 -9.8578796 -154.59637 -24.137138 -66.287758 -2.7263527 39.569256
16450000000 -1.8995457 43.36702 -10.033067 -156.02536 -24.31889 -67.410141 -2.6926465 38.269665
16500000000 -1.8825824 42.390228 -10.218031 -157.25549 -24.431444 -68.610466 -2.6936915 37.115845
16550000000 -1.8588421 41.866219 -10.379027 -158.6216 -24.542536 -70.083763 -2.6205306 35.613518
16600000000 -1.8549165 40.829308 -10.528966 -160.05663 -24.692728 -70.847282 -2.6061993 34.503735
16650000000 -1.8223828 39.983086 -10.697629 -161.45923 -24.819094 -72.235443 -2.5411088 33.092655
16700000000 -1.8373716 39.305008 -10.856142 -162.8096 -24.972898 -73.435272 -2.5514622 31.945635
16750000000 -1.8078928 38.368233 -11.027308 -164.21123 -25.105171 -74.213776 -2.5218711 30.669708
16800000000 -1.827428 37.759235 -11.210776 -165.59389 -25.247553 -75.590752 -2.4436533 29.393614
16850000000 -1.8060836 36.853954 -11.373106 -166.89328 -25.380604 -76.682098 -2.4579685 28.271772
16900000000 -1.7953357 36.337219 -11.533542 -168.19008 -25.530268 -77.598145 -2.3758495 27.046486
16950000000 -1.7925367 35.508789 -11.6884 -169.36751 -25.722797 -78.65564 -2.3827233 25.929474
17000000000 -1.7504563 34.829414 -11.847316 -170.77557 -25.894825 -79.69931 -2.3420792 24.74909
17050000000 -1.7587227 34.01582 -12.000206 -172.13864 -26.021395 -80.42495 -2.2767096 23.911016
17100000000 -1.7454001 33.224018 -12.173642 -173.38905 -26.18745 -80.959152 -2.2910779 22.962847
17150000000 -1.7692015 32.594429 -12.357279 -174.73744 -26.317228 -81.965996 -2.2124333 22.020891
17200000000 -1.7554004 31.820526 -12.517835 -175.80396 -26.488995 -82.912857 -2.1920018 20.87816
17250000000 -1.7405912 31.400112 -12.65575 -176.87935 -26.629551 -83.403801 -2.1682007 20.071184
17300000000 -1.7430623 30.521914 -12.819057 -178.09447 -26.728136 -84.188095 -2.1357458 19.339422
17350000000 -1.7115142 29.970276 -12.950431 -179.29605 -26.896555 -84.85083 -2.1166492 18.392912
17400000000 -1.7195975 29.194241 -13.093128 179.47995 -27.007238 -85.522995 -2.0589254 17.926706
17450000000 -1.6980575 28.519428 -13.246409 178.27202 -27.133106 -86.078934 -2.044277 16.715879
17500000000 -1.7312226 27.881775 -13.417525 177.10535 -27.338745 -86.778282 -2.0234478 16.110821
17550000000 -1.7096843 27.169935 -13.545692 176.12308 -27.402594 -87.001091 -1.9915053 15.547244
17600000000 -1.7156577 26.74708 -13.707382 175.04834 -27.545822 -87.815811 -1.9743834 14.702955
17650000000 -1.6965654 26.025455 -13.8301 174.03366 -27.663881 -87.995476 -1.9588777 14.426753
17700000000 -1.6744488 25.420193 -13.963785 172.91403 -27.793272 -88.876251 -1.9119917 13.404649
17750000000 -1.6812159 24.730677 -14.088202 171.93948 -27.967514 -89.081924 -1.9057549 13.057631
17800000000 -1.6654476 24.051453 -14.221253 170.8073 -28.034664 -89.355751 -1.8801477 12.5509
17850000000 -1.6871856 23.294304 -14.345861 169.55074 -28.150999 -89.639252 -1.8561893 11.811382
17900000000 -1.668782 22.593695 -14.462671 168.54738 -28.260708 -90.422073 -1.8715789 11.423911
17950000000 -1.6981868 22.053228 -14.609854 167.51173 -28.344521 -90.734238 -1.8027992 10.69041
18000000000 -1.6900916 21.246473 -14.714499 166.49187 -28.543768 -91.127655 -1.8240356 10.350654
18050000000 -1.6809345 20.907047 -14.829695 165.52077 -28.701542 -91.618805 -1.7919933 9.9323883
18100000000 -1.6936296 20.04999 -14.942365 164.30457 -28.894705 -92.089867 -1.771861 9.2566252
18150000000 -1.6881161 19.403185 -15.063286 163.08858 -29.028915 -91.62957 -1.7904813 8.9120674
18200000000 -1.6992952 18.758226 -15.170211 162.06821 -29.150381 -90.738358 -1.7204632 8.5367384
18250000000 -1.7114887 17.973576 -15.33496 160.84584 -29.28336 -90.49411 -1.7800747 7.8494644
18300000000 -1.7399758 17.618357 -15.487493 159.84584 -29.263344 -89.513611 -1.7408218 7.5177264
18350000000 -1.7393073 16.848408 -15.610915 159.03244 -29.280714 -89.030876 -1.7144709 7.2086859
18400000000 -1.7259424 16.508081 -15.736098 158.24052 -29.249105 -88.614578 -1.7717185 6.6282296
18450000000 -1.722049 15.772073 -15.830875 157.45294 -29.195063 -88.608704 -1.7267786 6.2646036
18500000000 -1.6800557 15.036375 -15.905714 156.3914 -29.188126 -89.193932 -1.7498152 5.5876193
18550000000 -1.699357 14.159019 -15.971397 155.21107 -29.183531 -89.070992 -1.7458148 5.3848763
18600000000 -1.7229595 13.357537 -16.098621 154.14647 -29.132526 -88.96801 -1.7093563 4.8317523
18650000000 -1.7808417 12.708337 -16.21763 152.95596 -29.207062 -89.534882 -1.7482905 3.9281521
18700000000 -1.7794914 12.067526 -16.330908 152.19197 -29.244022 -88.932014 -1.7397407 3.7298024
18750000000 -1.7851578 11.642483 -16.413469 151.12152 -29.220356 -89.135017 -1.7506573 2.8753655
18800000000 -1.8131776 10.802638 -16.511898 150.1149 -29.234022 -88.775917 -1.7977655 2.559763
18850000000 -1.7850384 10.277465 -16.602352 149.27472 -29.081472 -88.448021 -1.7754892 2.0514512
18900000000 -1.8186709 9.6107101 -16.696077 148.056 -29.127253 -89.094521 -1.8027565 0.94162983
18950000000 -1.7942947 8.6820002 -16.767385 146.96318 -29.059368 -88.613487 -1.8160658 0.64962715
19000000000 -1.83713 8.0418596 -16.872482 145.93481 -28.960976 -88.66082 -1.7956846 -0.17574519
19050000000 -1.8658783 7.1672063 -16.998327 144.75928 -28.96843 -88.678185 -1.8784497 -0.88797253
19100000000 -1.885161 6.8335328 -17.124628 143.86671 -28.8535 -87.842285 -1.8462672 -1.2897757
19150000000 -1.9085318 6.0388083 -17.19305 142.85977 -28.745794 -88.316559 -1.8628677 -2.2407076
19200000000 -1.8721693 5.2860985 -17.27549 141.95717 -28.619736 -87.790398 -1.9087017 -2.7036207
19250000000 -1.92896 4.5742326 -17.372957 140.87572 -28.451973 -88.634605 -1.8767364 -3.4755285
19300000000 -1.9079137 3.7090032 -17.45145 139.71251 -28.334532 -88.397781 -1.9559716 -4.4487638
19350000000 -1.9630606 3.1202135 -17.551731 138.81583 -28.247805 -88.161255 -1.9260868 -4.5721502
19400000000 -1.9752668 2.0696514 -17.670843 137.80685 -28.019083 -88.727455 -1.9450907 -5.7104535
19450000000 -2.0008571 1.5636969 -17.757345 136.80119 -27.936548 -89.162491 -1.9788258 -6.4784756
19500000000 -2.0475912 0.77597344 -17.850164 135.87877 -27.62711 -88.676933 -1.961756 -7.0163503
19550000000 -2.0243928 0.23022324 -17.938253 134.88884 -27.465275 -89.478188 -2.0121319 -8.5196238
19600000000 -2.0614083 -0.63862097 -18.041349 134.21922 -27.300213 -89.620056 -2.0100324 -8.6815758
19650000000 -2.0492709 -1.5273626 -18.112953 133.25597 -27.05632 -90.850235 -2.0200155 -9.8034821
19700000000 -2.1023438 -2.2734072 -18.213783 132.43044 -26.915756 -91.592369 -2.0418289 -10.771706
19750000000 -2.1278026 -3.2934206 -18.265659 131.42973 -26.673761 -92.641228 -2.0345869 -11.299483
19800000000 -2.1537485 -3.7077692 -18.37257 130.79272 -26.526001 -93.616547 -2.028765 -12.761386
19850000000 -2.1893148 -4.7945628 -18.435097 129.98389 -26.336344 -94.618454 -2.0541773 -12.957451
19900000000 -2.192384 -5.4635339 -18.484772 129.09685 -26.124504 -95.64444 -2.0420878 -14.292254
19950000000 -2.2416103 -6.3556261 -18.513098 128.49904 -26.014698 -96.633064 -2.0346091 -15.240134
20000000000 -2.2366984 -7.1417847 -18.573578 127.50606 -25.881065 -97.492882 -2.0763783 -15.866241
