!Keysight Technologies,N5242A,MY47200155,A.10.49.08
!Date: Thursday, October 19, 2023 15:32:30
!Correction: S11(Full 2 Port(1,2)) 
!S21(Full 2 Port(1,2)) 
!S12(Full 2 Port(1,2)) 
!S22(Full 2 Port(1,2)) 
!S2P File: Measurements: S11, S21, S12, S22:
# Hz S  dB   R 50
10000000 -18.871082 169.35028 23.237904 172.51601 -25.539547 -5.2370243 -15.471479 165.48672
20000000 -20.072626 171.87029 23.237253 175.28658 -25.181078 -2.343338 -16.107058 171.28195
30000000 -20.240582 175.35075 23.210474 175.70668 -25.152287 -1.4348444 -16.238605 174.23151
40000000 -20.198467 176.78275 23.18726 175.54369 -25.373272 -1.813125 -16.163097 176.53548
50000000 -20.326605 177.32051 23.171379 175.31396 -25.485941 -1.2489566 -16.151569 177.39412
60000000 -20.301506 177.92981 23.17244 174.90224 -25.496925 -1.4038459 -16.192249 178.08537
70000000 -20.239616 177.99809 23.179411 174.36633 -25.433928 -1.8321882 -16.202639 178.97969
80000000 -20.273251 178.02242 23.184887 173.79611 -25.411182 -1.8863202 -16.197321 179.35423
90000000 -20.27537 178.05173 23.186804 173.24019 -25.394302 -1.623257 -16.170235 179.97278
100000000 -20.31146 177.98665 23.190496 172.64499 -25.382648 -1.8291007 -16.146606 -179.7731
150000000 -20.404053 177.95978 23.176146 169.51762 -25.386681 -2.4308841 -16.160824 -178.70705
200000000 -20.581078 177.40361 23.16408 166.35832 -25.371941 -3.1002166 -16.096209 -178.53465
250000000 -20.527725 176.26273 23.13658 163.10675 -25.378965 -3.9608421 -15.931104 -178.16234
300000000 -20.48941 176.0609 23.093363 159.87648 -25.372215 -4.5379162 -15.754288 -178.44609
350000000 -20.253969 175.49023 23.06534 156.61488 -25.352568 -4.9917836 -15.599896 -178.90109
400000000 -20.403837 176.01039 23.013243 153.42821 -25.337629 -5.5003252 -15.464875 -179.06871
450000000 -20.34679 173.8201 22.979017 150.18387 -25.325237 -6.2678366 -15.314342 -179.19226
500000000 -20.341019 173.72351 22.930283 147.03711 -25.28656 -7.0321255 -15.16154 -179.18413
550000000 -20.552052 173.2878 22.857702 143.82231 -25.307209 -7.7869229 -15.031363 179.94754
600000000 -20.336971 172.06284 22.824842 140.61662 -25.274199 -8.4857664 -14.869945 179.62256
650000000 -20.340057 171.69925 22.757248 137.48782 -25.258453 -9.2661991 -14.697124 178.82176
700000000 -20.374474 171.2784 22.679945 134.35498 -25.22014 -9.7635994 -14.52372 178.00386
750000000 -20.408211 171.06631 22.605562 131.2681 -25.220129 -10.591263 -14.4125 177.23083
800000000 -20.419889 169.6774 22.534548 128.16362 -25.166729 -11.09521 -14.246027 176.18021
850000000 -20.523897 170.08003 22.449387 125.11318 -25.146435 -11.971833 -14.109517 175.3508
900000000 -20.408518 168.30539 22.387257 122.03455 -25.135885 -12.642834 -13.988687 174.33907
950000000 -20.444519 168.57965 22.296379 119.06535 -25.072096 -13.303125 -13.848982 173.33737
1000000000 -20.63727 168.61551 22.195984 116.07163 -25.049141 -14.0578 -13.72816 172.00731
1050000000 -20.611277 167.60112 22.113085 113.0751 -25.004826 -14.879369 -13.581783 170.84479
1100000000 -20.683601 166.96504 22.022198 110.13822 -24.968313 -15.566814 -13.479265 169.7428
1150000000 -20.627028 166.74821 21.929321 107.23315 -24.94528 -16.314304 -13.388952 168.3282
1200000000 -20.926369 167.24644 21.810253 104.3605 -24.889317 -17.175861 -13.265263 167.3389
1250000000 -20.796656 166.03325 21.729872 101.4621 -24.850758 -17.914869 -13.183555 165.92564
1300000000 -20.879433 166.12096 21.625004 98.635384 -24.819698 -18.62458 -13.096476 164.57278
1350000000 -20.911215 166.7462 21.523291 95.837357 -24.759333 -19.358166 -13.033606 163.25549
1400000000 -20.93121 166.8903 21.417149 93.027069 -24.720114 -20.30006 -12.967093 161.80602
1450000000 -20.999561 167.93661 21.30221 90.26474 -24.681969 -21.003592 -12.936049 160.35324
1500000000 -20.897881 166.87221 21.214613 87.488419 -24.631889 -21.863516 -12.849982 158.91692
1550000000 -20.924061 168.29646 21.096081 84.803871 -24.574123 -22.566601 -12.832601 157.52013
1600000000 -20.822136 168.4202 20.990108 82.113831 -24.541229 -23.516703 -12.777381 155.9839
1650000000 -20.797186 168.91866 20.876183 79.425575 -24.495192 -24.390528 -12.74024 154.46709
1700000000 -20.647068 168.78897 20.784222 76.747078 -24.444218 -25.129736 -12.729495 152.93048
1750000000 -20.508463 169.47202 20.664816 74.13652 -24.352955 -26.05497 -12.685031 151.19527
1800000000 -20.358236 170.32431 20.547144 71.534943 -24.294825 -26.911619 -12.655665 149.49648
1850000000 -20.272701 170.2677 20.439939 68.922447 -24.279921 -27.64048 -12.632308 147.69304
1900000000 -20.142729 169.34328 20.335848 66.323326 -24.20002 -28.736099 -12.618765 146.03275
1950000000 -19.947104 169.51456 20.224798 63.807934 -24.156574 -29.577353 -12.581517 144.21167
2000000000 -19.847837 169.06133 20.118793 61.25359 -24.106859 -30.351284 -12.576883 142.55431
2050000000 -19.637283 168.66716 20.009695 58.755611 -24.039476 -31.458807 -12.558901 140.71288
2100000000 -19.516676 167.89615 19.908772 56.204342 -23.970684 -32.443554 -12.544683 138.97188
2150000000 -19.368258 166.9774 19.807508 53.698975 -23.922653 -33.343319 -12.560675 137.13263
2200000000 -19.123739 166.82422 19.691563 51.246552 -23.871309 -34.261505 -12.528711 135.22942
2250000000 -19.072893 165.84676 19.587296 48.733459 -23.816862 -35.36483 -12.541206 133.50789
2300000000 -18.82556 164.63019 19.483152 46.299263 -23.75174 -36.206142 -12.524269 131.50323
2350000000 -18.722759 163.57092 19.376873 43.838676 -23.675692 -37.230633 -12.501423 129.65451
2400000000 -18.538177 162.50209 19.273518 41.442623 -23.624245 -38.274158 -12.516912 127.6162
2450000000 -18.36705 161.20206 19.165895 39.002899 -23.576607 -39.283123 -12.463478 125.6152
2500000000 -18.27248 159.50443 19.073627 36.559765 -23.505642 -40.468349 -12.478539 123.61581
2550000000 -18.056259 158.31924 18.96438 34.160755 -23.456409 -41.278728 -12.439896 121.48676
2600000000 -17.931252 156.61838 18.862947 31.744701 -23.392061 -42.394482 -12.413104 119.56934
2650000000 -17.751585 154.86708 18.759804 29.362703 -23.339947 -43.450634 -12.40033 117.38602
2700000000 -17.571274 153.50439 18.654663 26.98962 -23.275902 -44.459515 -12.332131 115.2776
2750000000 -17.531322 151.40016 18.556387 24.601002 -23.214159 -45.548306 -12.324304 113.25752
2800000000 -17.351084 149.78714 18.449007 22.282078 -23.147556 -46.630844 -12.267383 111.0994
2850000000 -17.273415 148.0571 18.349623 19.892809 -23.093039 -47.68322 -12.238518 109.18468
2900000000 -17.110399 146.01608 18.252607 17.590488 -23.043917 -48.924057 -12.186635 106.95306
2950000000 -17.01753 144.3116 18.146442 15.296866 -22.989452 -50.015007 -12.124491 105.07255
3000000000 -16.934422 141.91718 18.050335 12.942296 -22.926455 -51.111233 -12.076396 102.98606
3050000000 -16.778444 139.92393 17.949789 10.641992 -22.867174 -52.255527 -11.980758 101.04715
3100000000 -16.712053 137.7778 17.84808 8.3369112 -22.807653 -53.308697 -11.946012 99.074257
3150000000 -16.565245 135.49821 17.750198 6.0624495 -22.747873 -54.620731 -11.863131 97.052513
3200000000 -16.484159 133.40007 17.647913 3.7712805 -22.701612 -55.658588 -11.79316 95.199364
3250000000 -16.355412 131.17574 17.554688 1.5058767 -22.630297 -56.815216 -11.733792 93.149132
3300000000 -16.241796 129.06721 17.453724 -0.74424797 -22.578003 -57.980385 -11.655692 91.293144
3350000000 -16.145241 126.75486 17.354681 -3.0098095 -22.53931 -59.129551 -11.593023 89.395279
3400000000 -16.016609 124.58116 17.260023 -5.2383637 -22.4823 -60.30098 -11.529612 87.537605
3450000000 -15.915085 122.56209 17.162418 -7.4723611 -22.417898 -61.539433 -11.45399 85.720261
3500000000 -15.793774 119.98299 17.066002 -9.700387 -22.371929 -62.77993 -11.386198 83.822906
3550000000 -15.668996 117.98576 16.973963 -11.929089 -22.293917 -63.990479 -11.301732 82.047096
3600000000 -15.560927 115.53903 16.876146 -14.13479 -22.268658 -65.194267 -11.227886 80.275627
3650000000 -15.424382 113.26227 16.783817 -16.340975 -22.200911 -66.33744 -11.145502 78.505905
3700000000 -15.303558 110.8789 16.689865 -18.535366 -22.157904 -67.667313 -11.077487 76.74987
3750000000 -15.172626 108.56101 16.598925 -20.737961 -22.09156 -68.864014 -10.993472 74.946953
3800000000 -15.021011 106.29439 16.503582 -22.911533 -22.047934 -70.089478 -10.929038 73.255196
3850000000 -14.900124 103.86642 16.413212 -25.125282 -22.001192 -71.382652 -10.859023 71.487328
3900000000 -14.745422 101.54436 16.322466 -27.3118 -21.940216 -72.556633 -10.796202 69.81636
3950000000 -14.591926 99.327782 16.231977 -29.490021 -21.879564 -73.815094 -10.715882 68.032646
4000000000 -14.456191 96.973099 16.141954 -31.647034 -21.828894 -75.049156 -10.650646 66.352142
4050000000 -14.278872 94.604599 16.050943 -33.802818 -21.767839 -76.296974 -10.569209 64.506981
4100000000 -14.136675 92.015976 15.963357 -35.950611 -21.736574 -77.642624 -10.486141 62.846252
4150000000 -13.928359 89.660423 15.874103 -38.122101 -21.681917 -78.861076 -10.42008 61.049911
4200000000 -13.784715 87.478882 15.785954 -40.240479 -21.627386 -80.057655 -10.328179 59.337769
4250000000 -13.631928 85.095787 15.700957 -42.359913 -21.593893 -81.370491 -10.278029 57.750355
4300000000 -13.446428 82.821976 15.61224 -44.550777 -21.555119 -82.683304 -10.189498 55.797436
4350000000 -13.293424 80.59481 15.525789 -46.711674 -21.480785 -84.05542 -10.129921 54.299374
4400000000 -13.142277 78.342712 15.437542 -48.81839 -21.436485 -85.335258 -10.076461 52.398766
4450000000 -13.005731 76.144348 15.352421 -50.997765 -21.411932 -86.787682 -10.006039 50.741356
4500000000 -12.830358 73.744034 15.261683 -53.143681 -21.367699 -88.034409 -9.9625254 48.882263
4550000000 -12.68346 71.657417 15.178519 -55.291676 -21.308567 -89.384392 -9.8895731 47.223812
4600000000 -12.51374 69.275116 15.092884 -57.45023 -21.276743 -90.725914 -9.8506765 45.356083
4650000000 -12.33238 67.202042 15.0014 -59.572021 -21.220753 -92.068359 -9.7748775 43.466465
4700000000 -12.198235 64.883972 14.914293 -61.686371 -21.190083 -93.364021 -9.7283974 41.765526
4750000000 -12.003937 62.738663 14.827686 -63.817436 -21.149277 -94.730812 -9.6706705 39.774578
4800000000 -11.847198 60.7384 14.742442 -65.925919 -21.10829 -96.109528 -9.6107674 38.043987
4850000000 -11.668075 58.418034 14.65862 -68.04454 -21.068937 -97.487152 -9.5746794 36.108662
4900000000 -11.526589 56.527702 14.571796 -70.149948 -21.036203 -98.809151 -9.5045776 34.275383
4950000000 -11.358834 54.167885 14.488194 -72.261993 -20.993036 -100.26093 -9.4717588 32.407131
5000000000 -11.209891 52.296673 14.401202 -74.363892 -20.965246 -101.54704 -9.404007 30.485716
5050000000 -11.068872 50.019798 14.321219 -76.463676 -20.919935 -103.00173 -9.3741312 28.701855
5100000000 -10.90219 47.912243 14.231462 -78.558449 -20.886051 -104.33891 -9.3060884 26.718805
5150000000 -10.768317 45.823021 14.149555 -80.688896 -20.852335 -105.67117 -9.2421789 24.97732
5200000000 -10.606941 43.713932 14.066987 -82.767593 -20.829773 -107.11995 -9.1907854 23.002884
5250000000 -10.454592 41.647366 13.98071 -84.878975 -20.802969 -108.45513 -9.1165924 21.112425
5300000000 -10.297234 39.531082 13.898939 -87.006783 -20.767218 -109.83379 -9.0588303 19.277817
5350000000 -10.152575 37.421158 13.810084 -89.094536 -20.735764 -111.29184 -8.9832134 17.339327
5400000000 -10.004147 35.338764 13.725287 -91.202415 -20.708643 -112.59126 -8.9289951 15.608673
5450000000 -9.8556681 33.374657 13.635444 -93.277473 -20.675222 -114.05739 -8.8590384 13.59673
5500000000 -9.7334871 31.273773 13.552554 -95.36956 -20.664164 -115.46297 -8.7820721 11.916446
5550000000 -9.5812569 29.327961 13.465947 -97.463898 -20.635227 -116.79583 -8.7279081 10.005351
5600000000 -9.4557333 27.256697 13.380788 -99.532715 -20.611763 -118.30846 -8.6536169 8.1798449
5650000000 -9.314188 25.215609 13.291402 -101.6134 -20.587242 -119.61448 -8.5889597 6.3524594
5700000000 -9.1834421 23.198759 13.208563 -103.68057 -20.555843 -120.95274 -8.5116968 4.6108603
5750000000 -9.0685768 21.10247 13.119658 -105.73986 -20.538681 -122.48377 -8.447176 2.8561766
5800000000 -8.9354715 19.156719 13.03201 -107.82412 -20.538694 -123.85394 -8.3791122 0.99536967
5850000000 -8.8319054 17.081928 12.943874 -109.86353 -20.50214 -125.21708 -8.2934713 -0.57639247
5900000000 -8.6928072 15.138239 12.85629 -111.91302 -20.492088 -126.70541 -8.240159 -2.3770897
5950000000 -8.5961075 13.156446 12.771341 -113.97067 -20.453682 -128.03456 -8.142869 -4.0512066
6000000000 -8.4715958 11.025883 12.682108 -116.01571 -20.436598 -129.35172 -8.0836897 -5.7048774
6050000000 -8.3562937 9.1121368 12.589073 -118.06464 -20.436218 -130.8262 -7.9951015 -7.3487158
6100000000 -8.2445211 7.035099 12.501808 -120.10342 -20.423918 -132.20467 -7.9306455 -8.9515247
6150000000 -8.1271257 5.0683279 12.412508 -122.14548 -20.408083 -133.55212 -7.8632526 -10.666813
6200000000 -8.0368443 2.992594 12.326502 -124.13041 -20.395994 -134.96788 -7.7782965 -12.131231
6250000000 -7.9114871 1.1042621 12.231079 -126.19801 -20.373127 -136.4395 -7.7251353 -13.701653
6300000000 -7.819716 -0.8446998 12.14267 -128.18343 -20.374193 -137.69514 -7.6432242 -15.336396
6350000000 -7.7079039 -2.899087 12.051162 -130.20726 -20.368458 -139.17175 -7.5791516 -16.725321
6400000000 -7.6042295 -4.6990533 11.967644 -132.22874 -20.353331 -140.53578 -7.5179763 -18.324362
6450000000 -7.5075507 -6.7704344 11.873714 -134.21132 -20.347027 -141.91507 -7.4451127 -19.739252
6500000000 -7.4036613 -8.6724081 11.78061 -136.24464 -20.343283 -143.12175 -7.3910775 -21.274897
6550000000 -7.3078308 -10.553514 11.691394 -138.23538 -20.341442 -144.68057 -7.3369083 -22.695568
6600000000 -7.2134337 -12.463943 11.602324 -140.20612 -20.323589 -146.02951 -7.2784982 -24.145338
6650000000 -7.1130319 -14.303503 11.511001 -142.18362 -20.339245 -147.43553 -7.2195768 -25.565861
6700000000 -7.024713 -16.273834 11.418719 -144.19104 -20.312759 -148.71724 -7.1709962 -26.926804
6750000000 -6.9302821 -18.020016 11.332377 -146.17955 -20.308628 -150.08899 -7.1281562 -28.40871
6800000000 -6.8432732 -19.931801 11.235817 -148.14046 -20.316685 -151.50406 -7.0777016 -29.741339
6850000000 -6.742085 -21.732075 11.143956 -150.09776 -20.31415 -152.81424 -7.0362363 -31.062481
6900000000 -6.6511703 -23.56946 11.049226 -152.10719 -20.30266 -154.2019 -6.993856 -32.536068
6950000000 -6.5695229 -25.354544 10.959933 -154.00116 -20.298634 -155.47299 -6.949934 -33.766907
7000000000 -6.4767613 -27.095335 10.866531 -155.97589 -20.307636 -156.92368 -6.9201565 -35.1199
7050000000 -6.3932943 -28.781643 10.780485 -157.95169 -20.300838 -158.33542 -6.8918996 -36.560844
7100000000 -6.3070951 -30.568905 10.685766 -159.87994 -20.304432 -159.55527 -6.8532162 -37.833294
7150000000 -6.2236772 -32.187405 10.594287 -161.80717 -20.298656 -160.91772 -6.8287621 -39.215015
7200000000 -6.1415191 -33.925713 10.502621 -163.80179 -20.305891 -162.34644 -6.7981162 -40.552666
7250000000 -6.0607905 -35.543438 10.41083 -165.68427 -20.304001 -163.59036 -6.7822189 -41.878967
7300000000 -5.9784784 -37.18903 10.314462 -167.6882 -20.310637 -165.0293 -6.7485228 -43.37648
7350000000 -5.89463 -38.846016 10.225898 -169.57307 -20.305182 -166.27721 -6.7351093 -44.575954
7400000000 -5.8101406 -40.380157 10.138762 -171.52159 -20.307867 -167.75009 -6.7119102 -46.051308
7450000000 -5.7443876 -42.058289 10.042017 -173.42819 -20.334135 -168.9939 -6.689734 -47.317833
7500000000 -5.6590295 -43.499046 9.9516468 -175.33618 -20.317411 -170.3427 -6.6897707 -48.744659
7550000000 -5.5934758 -45.112606 9.860527 -177.25002 -20.304218 -171.69681 -6.6529446 -50.110847
7600000000 -5.5096397 -46.628139 9.7676048 -179.12561 -20.318052 -173.01396 -6.6527805 -51.363712
7650000000 -5.4504752 -48.081894 9.6721516 178.91949 -20.338968 -174.35355 -6.6362267 -52.838047
7700000000 -5.3673577 -49.679295 9.5896683 177.04761 -20.346682 -175.68871 -6.6096349 -54.060307
7750000000 -5.2901187 -51.056728 9.4914017 175.19429 -20.34231 -177.01762 -6.6221533 -55.489262
7800000000 -5.2431774 -52.61396 9.3932686 173.28716 -20.358971 -178.20648 -6.5817766 -56.860634
7850000000 -5.1512723 -53.994736 9.3125801 171.41623 -20.368124 -179.51851 -6.5840101 -58.171425
7900000000 -5.1040192 -55.413563 9.2155113 169.53552 -20.366564 179.12114 -6.5664706 -59.676155
7950000000 -5.0275006 -56.925014 9.1245537 167.67197 -20.364784 177.91666 -6.5460563 -60.898979
8000000000 -4.9694219 -58.204823 9.0321331 165.82275 -20.365042 176.59502 -6.5448203 -62.39278
8050000000 -4.9088907 -59.782726 8.9465885 163.94226 -20.370733 175.16835 -6.5022016 -63.625412
8100000000 -4.8431129 -60.992668 8.8585196 162.14101 -20.370747 174.06281 -6.5067358 -64.942848
8150000000 -4.8102679 -62.461479 8.7687159 160.27577 -20.391727 172.73816 -6.478549 -66.307213
8200000000 -4.7292132 -63.846924 8.6772318 158.43269 -20.369083 171.43217 -6.4723458 -67.489304
8250000000 -4.6894007 -65.133018 8.5922728 156.59052 -20.371561 170.18112 -6.4514241 -68.894623
8300000000 -4.6414933 -66.571365 8.4996462 154.80005 -20.3962 168.90685 -6.4244299 -69.994408
8350000000 -4.5853825 -67.689148 8.4203911 152.9987 -20.394321 167.68468 -6.4303803 -71.305244
8400000000 -4.5412879 -69.094246 8.334095 151.17792 -20.403742 166.40717 -6.390512 -72.529396
8450000000 -4.4802775 -70.320724 8.2420416 149.41533 -20.399464 165.15291 -6.3864903 -73.704178
8500000000 -4.4519205 -71.646187 8.1608324 147.61426 -20.386997 163.91675 -6.3558054 -74.948967
8550000000 -4.3939476 -72.954865 8.0743217 145.8542 -20.404305 162.77551 -6.3396955 -76.020058
8600000000 -4.3703403 -74.123383 7.9889913 144.12569 -20.404528 161.52061 -6.3174539 -77.278679
8650000000 -4.3318558 -75.532082 7.9012656 142.28514 -20.40737 160.1642 -6.2790318 -78.322823
8700000000 -4.2814574 -76.674934 7.8217072 140.58144 -20.422358 159.11577 -6.2707009 -79.444756
8750000000 -4.2593179 -78.002045 7.7433624 138.87462 -20.407267 157.8654 -6.2326999 -80.549995
8800000000 -4.2055964 -79.230583 7.662581 137.12444 -20.425716 156.66559 -6.2184172 -81.543114
8850000000 -4.1818471 -80.438614 7.5850415 135.33678 -20.414066 155.36516 -6.1788306 -82.676773
8900000000 -4.1450806 -81.790611 7.5018454 133.5925 -20.419909 154.25 -6.1648936 -83.576195
8950000000 -4.1215324 -82.871315 7.4175377 131.89229 -20.405127 153.19652 -6.1546221 -84.6763
9000000000 -4.1041598 -84.11615 7.3350797 130.22578 -20.421051 151.97221 -6.1103902 -85.615387
9050000000 -4.0642619 -85.201881 7.2658319 128.49986 -20.405378 150.78291 -6.1139555 -86.558464
9100000000 -4.0463829 -86.395859 7.1921897 126.84514 -20.397781 149.83858 -6.0827365 -87.545815
9150000000 -4.0163045 -87.597191 7.1145358 125.11307 -20.388443 148.60942 -6.0616813 -88.353226
9200000000 -3.9960959 -88.720009 7.0490642 123.43933 -20.361687 147.36057 -6.0450687 -89.243378
9250000000 -3.9791718 -90.023796 6.9696956 121.70344 -20.355816 146.1808 -6.0133471 -90.113533
9300000000 -3.9600201 -91.08297 6.9024839 120.04266 -20.35247 145.06827 -6.0056586 -90.938858
9350000000 -3.9503932 -92.321068 6.8256903 118.38045 -20.349081 143.95399 -5.9777637 -91.70002
9400000000 -3.9371181 -93.465637 6.7595477 116.73715 -20.325708 142.84404 -5.9621878 -92.531265
9450000000 -3.9134731 -94.607605 6.7056756 115.05811 -20.308804 141.49196 -5.9511194 -93.411583
9500000000 -3.8965087 -95.845322 6.639524 113.41194 -20.313778 140.36578 -5.9230452 -94.211487
9550000000 -3.8745902 -97.04689 6.5794091 111.69002 -20.276619 139.3744 -5.9233193 -95.002533
9600000000 -3.8603661 -98.276703 6.5098867 109.96269 -20.272491 138.04079 -5.9062524 -95.807098
9650000000 -3.8539183 -99.388275 6.4436326 108.32304 -20.263388 137.00433 -5.8792038 -96.67746
9700000000 -3.8354549 -100.54719 6.3910251 106.63105 -20.247305 135.87492 -5.8856316 -97.470329
9750000000 -3.8359997 -101.70921 6.3245368 105.00374 -20.245821 134.89192 -5.8595228 -98.268776
9800000000 -3.8248281 -102.83933 6.2615819 103.34055 -20.195494 133.66187 -5.8793316 -98.994652
9850000000 -3.8160245 -104.03766 6.2127781 101.66752 -20.192139 132.63571 -5.8649831 -99.70195
9900000000 -3.8173718 -105.23841 6.1602068 100.02306 -20.136873 131.50603 -5.8401699 -100.49252
9950000000 -3.8053713 -106.46977 6.1085601 98.291992 -20.150541 130.15112 -5.8722119 -101.36842
10000000000 -3.8072181 -107.77547 6.0440979 96.554939 -20.084469 128.99443 -5.8469629 -102.1357
10050000000 -3.7986977 -108.96371 5.9950795 94.805374 -20.056332 127.95599 -5.8521085 -103.00283
10100000000 -3.804323 -110.18377 5.9325342 93.202332 -20.025879 126.7299 -5.85537 -103.71262
10150000000 -3.7873173 -111.39079 5.887341 91.638031 -19.990931 125.51331 -5.8306236 -104.42191
10200000000 -3.7849183 -112.65273 5.8271799 89.794373 -19.974865 124.10577 -5.8711958 -105.5993
10250000000 -3.7647884 -114.00638 5.7926068 88.127586 -19.94628 122.87424 -5.8402815 -106.26196
10300000000 -3.7648678 -115.18044 5.7504439 86.406799 -19.923222 121.68742 -5.8429146 -107.10809
10350000000 -3.7714434 -116.57722 5.6873636 84.658714 -19.913179 120.63613 -5.8707333 -108.08788
10400000000 -3.7548788 -117.71851 5.64185 83.002075 -19.865879 119.40111 -5.8647833 -108.78519
10450000000 -3.7673175 -119.12643 5.5901008 81.154823 -19.84358 117.96253 -5.8835263 -109.98411
10500000000 -3.7592964 -120.32276 5.5498614 79.583206 -19.823872 117.01238 -5.8928676 -110.58307
10550000000 -3.761951 -121.61584 5.5011067 77.765923 -19.772055 115.59796 -5.9037595 -111.71219
10600000000 -3.7562361 -122.97625 5.4534907 76.050644 -19.780876 114.37264 -5.9187684 -112.84631
10650000000 -3.7493813 -124.11361 5.4181781 74.347664 -19.725569 113.25931 -5.9285674 -113.55507
10700000000 -3.7513154 -125.65462 5.3776016 72.485962 -19.683268 111.78628 -5.9284925 -114.84863
10750000000 -3.7503214 -126.93116 5.3268652 70.773766 -19.652918 110.66734 -5.9658818 -115.62903
10800000000 -3.7694821 -128.31268 5.2862854 68.993858 -19.626963 109.39288 -5.9697452 -116.79967
10850000000 -3.7623711 -129.72882 5.2311583 67.209015 -19.601814 108.00249 -5.9722004 -117.97096
10900000000 -3.7704194 -130.98303 5.2021241 65.486061 -19.560411 106.83949 -6.009223 -118.84763
10950000000 -3.7631416 -132.6571 5.1650248 63.624062 -19.518217 105.34555 -5.9698105 -120.16815
11000000000 -3.7743607 -133.90407 5.1215363 61.90255 -19.498796 104.18173 -6.0329828 -121.07161
11050000000 -3.7758899 -135.46367 5.0826774 60.020473 -19.438499 102.98412 -6.0302639 -122.40751
11100000000 -3.7657893 -136.83835 5.0330982 58.213081 -19.437889 101.43213 -6.0253859 -123.56195
11150000000 -3.7840624 -138.22061 4.9978533 56.480606 -19.375313 100.38733 -6.0894747 -124.57567
11200000000 -3.7793508 -139.7383 4.9559731 54.600372 -19.339001 98.913864 -6.0550833 -125.86922
11250000000 -3.8017385 -141.02472 4.9193058 52.853809 -19.315748 97.654968 -6.1086197 -127.04694
11300000000 -3.8087101 -142.59323 4.8709545 51.006813 -19.27343 96.369186 -6.1048145 -128.45569
11350000000 -3.8092177 -143.91615 4.841011 49.18935 -19.22559 94.873566 -6.0911436 -129.61331
11400000000 -3.8291209 -145.56537 4.8064284 47.364876 -19.205065 93.717743 -6.1416879 -130.94981
11450000000 -3.816853 -147.02626 4.7638636 45.513729 -19.144451 92.272415 -6.121027 -132.00807
11500000000 -3.8553634 -148.61882 4.7297754 43.655857 -19.102139 90.79287 -6.1504593 -133.42467
11550000000 -3.8440425 -150.26376 4.6944451 41.763355 -19.072596 89.456108 -6.143981 -134.67863
11600000000 -3.8648491 -151.59514 4.670444 39.992027 -18.996187 88.080177 -6.1506958 -135.83633
11650000000 -3.8764553 -153.39343 4.6318045 38.084904 -18.987959 86.676102 -6.1667356 -137.38362
11700000000 -3.8799229 -154.88231 4.5994959 36.181465 -18.916708 85.303352 -6.1553249 -138.47768
11750000000 -3.9089262 -156.62224 4.5765901 34.32272 -18.862289 83.661232 -6.1774282 -139.98178
11800000000 -3.8969412 -158.32251 4.5413728 32.384884 -18.863476 82.30014 -6.1764336 -141.38168
11850000000 -3.9384196 -159.99414 4.5153408 30.525707 -18.78841 80.944061 -6.1928887 -142.65918
11900000000 -3.9332876 -161.87132 4.485507 28.522726 -18.772938 79.425766 -6.184032 -144.17992
11950000000 -3.9560335 -163.49632 4.4497724 26.585085 -18.702456 78.115425 -6.195303 -145.40825
12000000000 -3.9723213 -165.35168 4.4270105 24.725903 -18.648483 76.486382 -6.1934576 -147.01672
12050000000 -3.9742117 -167.10852 4.3941417 22.75379 -18.63176 74.893051 -6.1984091 -148.41408
12100000000 -4.0087047 -168.98886 4.3671703 20.826982 -18.562449 73.647888 -6.2090869 -149.85213
12150000000 -4.0061693 -170.86023 4.3429956 18.832214 -18.538723 71.925041 -6.2177429 -151.41614
12200000000 -4.0302477 -172.71393 4.315465 16.877234 -18.481951 70.605278 -6.2326131 -152.86548
12250000000 -4.0385838 -174.7659 4.2861319 14.876101 -18.414682 68.94342 -6.2063236 -154.55832
12300000000 -4.0566373 -176.69563 4.2631397 12.883082 -18.383089 67.362991 -6.2292013 -155.96692
12350000000 -4.0842052 -178.80179 4.2337646 10.79904 -18.342028 65.911636 -6.2325954 -157.63826
12400000000 -4.0871201 179.2749 4.2041926 8.8120699 -18.279261 64.174171 -6.2348313 -159.37834
12450000000 -4.0830898 177.16902 4.1780324 6.7092628 -18.247772 62.694504 -6.2446098 -160.90628
12500000000 -4.0823164 175.0739 4.1478863 4.7049699 -18.162985 61.049187 -6.2345929 -162.72643
12550000000 -4.0824676 172.81532 4.1271009 2.5768638 -18.13448 59.126911 -6.2514839 -164.49738
12600000000 -4.092123 170.59157 4.0980048 0.40994501 -18.098335 57.655231 -6.2635283 -166.15994
12650000000 -4.0988622 168.44417 4.0642891 -1.6528195 -18.037872 55.975506 -6.260088 -168.25201
12700000000 -4.0860519 166.24252 4.0301867 -3.790113 -18.027054 54.256821 -6.2798662 -169.96539
12750000000 -4.0904818 163.84926 3.9994304 -5.953845 -17.96339 52.519073 -6.2736988 -171.90425
12800000000 -4.0608773 161.56319 3.9760017 -8.1268358 -17.922054 50.592731 -6.3004026 -174.14774
12850000000 -4.0697536 159.16957 3.9358199 -10.398588 -17.892765 49.047096 -6.3109307 -176.03867
12900000000 -4.0485096 156.68739 3.8933294 -12.594262 -17.849596 47.256268 -6.2839036 -178.28374
12950000000 -4.0091376 154.46968 3.8664813 -14.838087 -17.81912 45.375957 -6.3126669 179.56204
13000000000 -3.9913814 151.77782 3.8241444 -17.168882 -17.771469 43.579876 -6.2982259 177.26103
13050000000 -3.9574172 149.388 3.7769845 -19.398714 -17.73612 41.562248 -6.2793465 174.82692
13100000000 -3.9503231 146.84579 3.7282462 -21.763725 -17.732235 39.765381 -6.3237209 172.42882
13150000000 -3.8954647 144.36369 3.6648777 -24.014322 -17.69359 37.977913 -6.2553239 169.97699
13200000000 -3.8689306 142.07404 3.615639 -26.316349 -17.698006 35.954018 -6.2834401 167.49644
13250000000 -3.8120658 139.21863 3.5602257 -28.717678 -17.67445 34.094784 -6.253222 164.81213
13300000000 -3.7734959 136.90015 3.4967277 -31.05089 -17.644907 32.079693 -6.2059221 162.33234
13350000000 -3.7441759 134.20461 3.4275012 -33.489044 -17.671082 30.209856 -6.2462687 159.4136
13400000000 -3.6752074 131.81294 3.3524296 -35.777828 -17.640646 28.266335 -6.1430793 156.95074
13450000000 -3.6548474 129.29434 3.2828693 -38.148293 -17.632029 26.070621 -6.1660666 154.14877
13500000000 -3.5622427 126.66493 3.1986265 -40.544331 -17.65554 24.323526 -6.1012082 151.19194
13550000000 -3.5337842 124.2926 3.1168406 -43.010403 -17.637392 22.139725 -6.0313478 148.57144
13600000000 -3.4655788 121.48546 3.0311382 -45.368992 -17.678574 20.144974 -6.0248666 145.46039
13650000000 -3.4007845 119.2338 2.9404838 -47.695648 -17.696283 18.223415 -5.9148793 143.10217
13700000000 -3.3653967 116.52938 2.8342853 -50.278343 -17.725925 16.030197 -5.8923736 139.6389
13750000000 -3.2626352 114.11787 2.7200143 -52.698498 -17.762764 14.002603 -5.7627058 136.89966
13800000000 -3.2340906 111.71925 2.6148853 -54.981686 -17.771259 12.067336 -5.7009125 134.53935
13850000000 -3.1579807 109.17176 2.4776638 -57.420185 -17.87278 9.9693346 -5.6290493 131.10397
13900000000 -3.1070395 107.04981 2.3662064 -59.705124 -17.912697 7.9992352 -5.5239096 129.05806
13950000000 -3.0356531 104.46408 2.2487032 -62.152092 -17.955818 5.9176431 -5.4388647 125.87193
14000000000 -2.958117 102.50364 2.1071134 -64.446457 -18.033802 4.1777291 -5.32407 123.42358
14050000000 -2.9171007 100.02257 1.9808646 -66.77401 -18.069948 2.2365012 -5.2562943 121.11471
14100000000 -2.8352468 97.818977 1.8149114 -69.072792 -18.164072 0.11771402 -5.1394401 118.09511
14150000000 -2.8052146 95.792305 1.6812714 -71.236961 -18.235641 -1.5301348 -5.05759 116.15398
14200000000 -2.7370684 93.567642 1.5230898 -73.549652 -18.301502 -3.6557896 -4.9380846 113.36395
14250000000 -2.67593 91.768646 1.3841845 -75.654495 -18.389551 -5.5314717 -4.8408885 111.26861
14300000000 -2.6134937 89.484459 1.2345822 -77.888687 -18.463217 -7.3009686 -4.7574558 108.89607
14350000000 -2.5483756 87.546959 1.0679357 -80.157364 -18.56138 -9.3663721 -4.6084657 106.44076
14400000000 -2.5280535 85.568253 0.91091621 -82.256157 -18.675312 -11.061357 -4.5436535 104.61272
14450000000 -2.4602845 83.70314 0.73368543 -84.408424 -18.759365 -12.837549 -4.414937 102.33526
14500000000 -2.4448342 81.947868 0.55629992 -86.419617 -18.887651 -14.527634 -4.3381371 100.57677
14550000000 -2.3712747 80.094292 0.39752245 -88.479065 -18.95907 -16.23469 -4.2418818 98.638145
14600000000 -2.3219929 78.436584 0.23492739 -90.41214 -19.051544 -17.957958 -4.1192131 96.798798
14650000000 -2.2852359 76.634064 0.068404913 -92.400826 -19.182842 -19.622618 -4.0750628 95.05574
14700000000 -2.2339208 75.039734 -0.09422721 -94.409897 -19.270382 -21.255756 -3.9595723 93.253906
14750000000 -2.1967099 73.370338 -0.26471975 -96.410065 -19.396845 -22.812634 -3.8971148 91.589546
14800000000 -2.1555128 71.767822 -0.4459148 -98.292549 -19.489204 -24.319376 -3.8144991 89.923973
14850000000 -2.1276171 70.260178 -0.6293214 -100.06261 -19.587193 -26.140928 -3.7293916 88.266655
14900000000 -2.0956168 68.826004 -0.79516625 -101.90971 -19.727909 -27.662195 -3.6761706 86.674278
14950000000 -2.0652487 67.506927 -0.95685929 -103.65564 -19.830126 -28.97872 -3.5825987 85.279274
15000000000 -2.0177398 66.165268 -1.1173245 -105.36986 -19.923061 -30.488605 -3.5377157 83.767944
15050000000 -1.9947646 64.790596 -1.2819109 -107.22133 -20.039795 -31.924236 -3.4708302 82.358192
15100000000 -1.959373 63.371857 -1.4481032 -108.94283 -20.128578 -33.320137 -3.3923895 80.935356
15150000000 -1.9500613 62.07011 -1.6073247 -110.77506 -20.239105 -34.788616 -3.3518507 79.428566
15200000000 -1.9435086 60.74939 -1.7843027 -112.36586 -20.359758 -36.039394 -3.2877901 78.21804
15250000000 -1.9024109 59.608406 -1.9387423 -114.05888 -20.442852 -37.547733 -3.2420342 76.806526
15300000000 -1.885975 58.305283 -2.1024218 -115.80371 -20.571007 -38.85931 -3.2174916 75.490173
15350000000 -1.8318146 57.097214 -2.2480803 -117.39812 -20.619091 -40.178539 -3.1316137 74.167595
15400000000 -1.8298281 55.872238 -2.3986826 -119.09218 -20.738346 -41.708206 -3.098907 72.757385
15450000000 -1.8204112 54.618813 -2.5740359 -120.75822 -20.865368 -43.065208 -3.0648427 71.610344
15500000000 -1.8109909 53.738667 -2.7165854 -122.3604 -20.925695 -44.396099 -3.0186758 70.149887
15550000000 -1.7954701 52.482307 -2.873831 -124.01283 -21.042574 -45.622036 -3.0092103 68.724472
15600000000 -1.7616825 51.538506 -3.0155289 -125.6012 -21.109638 -46.983303 -2.9328301 67.570992
15650000000 -1.7628509 50.315933 -3.1506341 -127.17954 -21.221884 -48.558945 -2.9262931 66.110092
15700000000 -1.7247962 49.200451 -3.3018818 -128.82901 -21.330704 -49.840183 -2.8846869 64.860016
15750000000 -1.741016 48.22831 -3.4366529 -130.43494 -21.41382 -50.903275 -2.8418939 63.603699
15800000000 -1.7101787 46.941406 -3.5752988 -132.23433 -21.515736 -52.575062 -2.8283122 61.856441
15850000000 -1.6953183 46.11636 -3.7267509 -133.66862 -21.596956 -53.651138 -2.7544711 60.943592
15900000000 -1.6989162 44.803955 -3.8727007 -135.37788 -21.695049 -55.282795 -2.7706041 59.277431
15950000000 -1.6775345 43.915901 -4.018846 -137.02318 -21.829756 -56.408936 -2.7274539 57.842804
16000000000 -1.6879476 42.902374 -4.1474428 -138.59149 -21.890795 -57.537117 -2.6729245 56.713646
16050000000 -1.6379497 41.945602 -4.2959776 -140.20155 -21.998453 -58.840809 -2.6679187 54.897373
16100000000 -1.6505506 40.910595 -4.4442234 -141.72137 -22.098646 -59.993671 -2.6226828 54.036594
16150000000 -1.6342998 39.703041 -4.5873713 -143.43271 -22.164682 -61.544262 -2.6045663 52.246311
16200000000 -1.6347692 38.981773 -4.7166138 -144.98334 -22.310577 -62.633209 -2.5781643 50.901108
16250000000 -1.6355996 37.78009 -4.8530636 -146.65259 -22.340746 -64.037994 -2.5545986 49.469944
16300000000 -1.5856147 36.981678 -4.9867778 -148.19586 -22.434744 -65.34491 -2.5080881 47.717545
16350000000 -1.600376 35.802399 -5.1346326 -149.86201 -22.538511 -66.785034 -2.5016823 46.775654
16400000000 -1.5802085 34.640129 -5.2713728 -151.57248 -22.598333 -68.273323 -2.4446592 44.911942
16450000000 -1.6034725 33.773571 -5.4236217 -153.11296 -22.718195 -69.547134 -2.4165883 43.597359
16500000000 -1.5940788 32.692844 -5.5793352 -154.62437 -22.808304 -70.750252 -2.4186974 42.34977
16550000000 -1.5854425 31.967831 -5.7117486 -156.16208 -22.93532 -72.43692 -2.3493328 40.817192
16600000000 -1.5757921 30.747227 -5.8344779 -157.72954 -23.048763 -73.654266 -2.3410211 39.686203
16650000000 -1.5588125 29.737667 -5.9885197 -159.4019 -23.143217 -74.984444 -2.2756867 38.141552
16700000000 -1.5716213 28.798424 -6.1218791 -160.94936 -23.297089 -76.355568 -2.2786775 36.93058
16750000000 -1.5496176 27.700541 -6.2771235 -162.57957 -23.397821 -77.439606 -2.2565472 35.597309
16800000000 -1.5681614 26.829445 -6.4441462 -164.1783 -23.52471 -78.786583 -2.1774492 34.187393
16850000000 -1.5497547 25.791224 -6.584754 -165.64566 -23.673529 -79.801315 -2.183779 32.999996
16900000000 -1.5484027 25.010286 -6.7437944 -167.14952 -23.774908 -81.351692 -2.1056032 31.651907
16950000000 -1.5359452 24.004953 -6.8873062 -168.56961 -23.943018 -82.437248 -2.1103806 30.443909
17000000000 -1.5101616 23.14275 -7.0367799 -170.13094 -24.087383 -83.667709 -2.0666428 29.191801
17050000000 -1.5153091 22.071913 -7.180162 -171.67046 -24.21817 -84.737114 -2.0049 28.285263
17100000000 -1.5054146 21.106995 -7.3464503 -173.09338 -24.360929 -85.577209 -2.0174525 27.305563
17150000000 -1.5255722 20.263927 -7.5178289 -174.57579 -24.491165 -86.587952 -1.9349891 26.311377
17200000000 -1.5165385 19.314777 -7.6723657 -175.87372 -24.579613 -87.698486 -1.9167106 25.189312
17250000000 -1.5062165 18.596014 -7.8153896 -177.16547 -24.75358 -88.642761 -1.8919438 24.354519
17300000000 -1.5020047 17.628557 -7.9644532 -178.53654 -24.879244 -89.391113 -1.8548075 23.573788
17350000000 -1.485648 16.881954 -8.0975485 -179.83868 -25.025955 -90.361946 -1.8318745 22.677719
17400000000 -1.4857641 15.908049 -8.2387075 178.86343 -25.153488 -91.001091 -1.7793087 22.191227
17450000000 -1.4660338 15.078046 -8.390275 177.40405 -25.262609 -92.181801 -1.7575101 20.997725
17500000000 -1.5000712 14.169877 -8.5468998 176.09544 -25.445091 -92.744682 -1.7329895 20.40456
17550000000 -1.4753172 13.334734 -8.686142 174.95131 -25.519468 -93.506226 -1.6988467 19.855799
17600000000 -1.4826829 12.642932 -8.8399525 173.73425 -25.655306 -94.17556 -1.6748128 19.022648
17650000000 -1.4557483 11.729589 -8.9601669 172.63023 -25.743755 -94.874825 -1.6565343 18.770679
17700000000 -1.4414761 10.928653 -9.0991373 171.35179 -25.890272 -95.804398 -1.6117334 17.817289
17750000000 -1.4340107 9.9900341 -9.230279 170.24028 -26.034286 -96.475296 -1.5990314 17.508482
17800000000 -1.4138393 9.3188734 -9.3638887 169.08784 -26.129448 -96.764198 -1.5704721 17.087463
17850000000 -1.4331887 8.5130415 -9.4982872 167.83272 -26.261057 -97.451492 -1.5426493 16.508934
17900000000 -1.4124283 7.8178549 -9.6228514 166.69798 -26.335245 -97.926605 -1.554057 16.164141
17950000000 -1.4414635 7.1840262 -9.757843 165.64891 -26.480251 -98.703758 -1.480364 15.585107
18000000000 -1.4316651 6.3540668 -9.8697643 164.60355 -26.655851 -99.505257 -1.5009004 15.375898
18050000000 -1.4342036 5.89675 -9.9791136 163.64584 -26.754833 -99.73365 -1.4692183 15.037637
18100000000 -1.4323101 4.9283361 -10.083387 162.3517 -26.897535 -100.47335 -1.4460018 14.527051
18150000000 -1.4310941 4.2282543 -10.192067 161.24364 -27.081985 -100.32668 -1.4629995 14.315619
18200000000 -1.4439337 3.3761444 -10.301582 160.10417 -27.176521 -100.19063 -1.4020593 14.077927
18250000000 -1.4485037 2.5058796 -10.435102 158.87244 -27.314734 -100.20428 -1.4526013 13.509228
18300000000 -1.4711926 2.029748 -10.568357 157.90907 -27.390635 -99.691376 -1.4129844 13.267451
18350000000 -1.4632165 1.1897511 -10.693349 156.93091 -27.35253 -99.884056 -1.3900591 13.093497
18400000000 -1.4477289 0.78384066 -10.766512 156.10616 -27.452528 -99.886856 -1.4398891 12.624451
18450000000 -1.42962 0.074158899 -10.86635 155.22249 -27.373686 -99.719727 -1.396576 12.36167
18500000000 -1.3957841 -0.56691569 -10.934693 154.13849 -27.328449 -100.36105 -1.4255112 11.804238
18550000000 -1.4093373 -1.4435998 -11.00866 152.84525 -27.410126 -100.38979 -1.4144857 11.661283
18600000000 -1.428596 -2.1161804 -11.107784 151.80264 -27.45323 -100.34225 -1.3791414 11.278443
18650000000 -1.4845124 -2.6993957 -11.221596 150.68599 -27.534626 -100.86933 -1.4189458 10.461959
18700000000 -1.4827838 -3.21349 -11.323287 149.74774 -27.527416 -100.93533 -1.4139159 10.296971
18750000000 -1.4916941 -3.5922036 -11.376851 148.80051 -27.550047 -100.97977 -1.4189706 9.6009464
18800000000 -1.5139912 -4.2796397 -11.46022 147.83278 -27.58666 -100.67477 -1.4632505 9.3764391
18850000000 -1.4982262 -4.6975679 -11.535216 146.82802 -27.481579 -100.80257 -1.4453728 8.94137
18900000000 -1.5271691 -5.3298054 -11.596438 145.66661 -27.453283 -101.11948 -1.4690123 7.9774365
18950000000 -1.5101182 -6.0484037 -11.655661 144.59908 -27.423689 -101.15999 -1.4876612 7.7730045
19000000000 -1.5579095 -6.6296763 -11.730645 143.4977 -27.383474 -101.2952 -1.4723959 6.9580474
19050000000 -1.577091 -7.3752613 -11.823427 142.32448 -27.412783 -101.53985 -1.5484177 6.3167453
19100000000 -1.606294 -7.6474676 -11.896926 141.3846 -27.302233 -101.25128 -1.5282526 5.983356
19150000000 -1.6186731 -8.300149 -11.939445 140.41515 -27.202442 -101.37557 -1.5507854 5.0124059
19200000000 -1.6036752 -8.8627224 -11.99437 139.28627 -27.153305 -101.39519 -1.5971698 4.4888191
19250000000 -1.6526501 -9.4909983 -12.048314 138.15373 -27.001516 -101.59567 -1.5708572 3.7495749
19300000000 -1.6395885 -10.095151 -12.096256 136.92598 -26.961466 -102.17526 -1.6530486 2.7472594
19350000000 -1.6979067 -10.558268 -12.155279 136.09419 -26.802717 -101.90305 -1.6248059 2.5576158
19400000000 -1.7086002 -11.387136 -12.212047 134.86238 -26.662066 -102.744 -1.6512022 1.3753036
19450000000 -1.7489034 -11.782563 -12.248988 133.74156 -26.596653 -103.03522 -1.6882491 0.53840345
19500000000 -1.7919873 -12.45301 -12.284807 132.69495 -26.376808 -103.13589 -1.6720076 -0.068269685
19550000000 -1.7887088 -12.877219 -12.32665 131.50465 -26.240349 -103.74074 -1.7328851 -1.6184094
19600000000 -1.824217 -13.710003 -12.364945 130.47992 -26.055073 -104.29601 -1.7342328 -1.95523
19650000000 -1.822836 -14.462097 -12.382895 129.30392 -25.856562 -105.21037 -1.7502959 -3.1801007
19700000000 -1.889454 -15.271075 -12.426681 128.10144 -25.769007 -106.25858 -1.7742382 -4.2831082
19750000000 -1.9188342 -16.182108 -12.453647 126.75507 -25.538897 -106.9695 -1.7756183 -4.9841957
19800000000 -1.9494517 -16.624372 -12.492919 125.62939 -25.39403 -108.10036 -1.7758081 -6.6769814
19850000000 -1.9848263 -17.608126 -12.530552 124.53928 -25.262114 -109.02962 -1.7960616 -7.0484352
19900000000 -2.0103984 -18.24712 -12.540167 123.25941 -25.097136 -109.96439 -1.7924266 -8.5746231
19950000000 -2.056113 -19.166592 -12.539485 122.02757 -24.94766 -111.52447 -1.7858436 -9.7857122
20000000000 -2.0649507 -19.812712 -12.565543 120.83065 -24.832506 -112.3127 -1.8220991 -10.630601
