!Created: 07-15-2009 at 1:45 PM
!MODEL: SXLP-450+
!S/N: U6_TB-RT
#MHz S dB R 50
!Frequency     S11 dB   S11 DEG  S21 dB   S21 DEG  S12 dB   S12 DEG  S22 dB   S22 DEG  
   1.0000      -48.24     25.37     -0.04     -0.65     -0.03     -0.61     -48.24     25.35     
   2.5000      -45.04     47.06     -0.03     -1.45     -0.04     -1.41     -45.08     47.08     
   5.0000      -40.85     60.48     -0.04     -2.92     -0.04     -2.94     -40.93     59.96     
  10.0000      -35.88     67.17     -0.05     -5.92     -0.04     -5.85     -35.89     66.85     
  15.0000      -32.74     67.78     -0.05     -8.78     -0.05     -8.79     -32.79     67.18     
  20.0000      -30.47     66.58     -0.07     -11.64     -0.06     -11.61     -30.51     66.65     
  25.0000      -28.77     64.88     -0.07     -14.47     -0.07     -14.51     -28.78     64.41     
  30.0000      -27.38     62.75     -0.08     -17.38     -0.09     -17.32     -27.39     62.34     
  35.0000      -26.26     60.49     -0.08     -20.19     -0.09     -20.18     -26.2     60.31     
  40.0000      -25.27     58.17     -0.1     -23.01     -0.1     -23.01     -25.21     57.78     
  45.0000      -24.41     55.71     -0.1     -25.86     -0.1     -25.9     -24.34     55.28     
  50.0000      -23.67     53.25     -0.11     -28.79     -0.11     -28.79     -23.59     52.72     
  55.0000      -23.02     50.64     -0.11     -31.61     -0.12     -31.62     -22.91     50.06     
  60.0000      -22.43     48.25     -0.13     -34.44     -0.12     -34.5     -22.33     47.43     
  65.0000      -21.93     45.55     -0.14     -37.42     -0.13     -37.4     -21.81     44.7     
  70.0000      -21.44     43.06     -0.14     -40.2     -0.14     -40.22     -21.39     41.81     
  75.0000      -21.01     40.24     -0.14     -43     -0.15     -43.11     -20.96     39.14     
  80.0000      -20.63     37.51     -0.16     -45.97     -0.15     -46     -20.59     36.2     
  85.0000      -20.35     34.86     -0.17     -48.81     -0.16     -48.79     -20.28     33.3     
  90.0000      -20.06     31.76     -0.17     -51.71     -0.17     -51.73     -19.99     30.49     
  95.0000      -19.82     29.21     -0.18     -54.54     -0.18     -54.63     -19.76     27.35     
 100.0000      -19.61     26.32     -0.19     -57.46     -0.18     -57.46     -19.54     24.42     
 105.0000      -19.47     23.64     -0.18     -60.35     -0.19     -60.33     -19.37     21.5     
 110.0000      -19.32     20.89     -0.19     -63.2     -0.19     -63.24     -19.21     18.65     
 115.0000      -19.23     18.15     -0.19     -66.24     -0.19     -66.13     -19.1     15.64     
 120.0000      -19.16     15.38     -0.2     -69.13     -0.2     -69.12     -19.01     12.79     
 125.0000      -19.09     12.64     -0.19     -72.13     -0.22     -72.11     -18.96     9.83     
 130.0000      -19.08     9.96     -0.21     -75.01     -0.21     -75.07     -18.96     7.03     
 132.5000      -19.1     8.45     -0.21     -76.49     -0.21     -76.53     -18.94     5.53     
 135.0000      -19.11     7.11     -0.21     -77.96     -0.21     -78     -18.99     4.09     
 137.5000      -19.1     5.66     -0.21     -79.43     -0.22     -79.48     -19     2.42     
 140.0000      -19.15     4.34     -0.22     -80.94     -0.22     -81.01     -19.03     1.04     
 142.5000      -19.18     2.68     -0.22     -82.41     -0.22     -82.52     -19.09     -0.38     
 145.0000      -19.2     1.29     -0.23     -83.91     -0.22     -84     -19.14     -1.92     
 147.5000      -19.27     -0.14     -0.22     -85.41     -0.22     -85.47     -19.21     -3.51     
 150.0000      -19.34     -1.42     -0.23     -86.92     -0.22     -87.02     -19.26     -4.94     
 152.5000      -19.41     -3.01     -0.22     -88.4     -0.23     -88.51     -19.33     -6.34     
 155.0000      -19.48     -4.42     -0.22     -89.92     -0.23     -90.01     -19.42     -7.99     
 157.5000      -19.56     -5.99     -0.22     -91.48     -0.23     -91.5     -19.52     -9.58     
 160.0000      -19.69     -7.36     -0.23     -92.99     -0.22     -93.07     -19.61     -11.16     
 162.5000      -19.79     -8.84     -0.23     -94.48     -0.23     -94.57     -19.72     -12.69     
 165.0000      -19.92     -10.33     -0.22     -96.08     -0.21     -96.13     -19.83     -14.24     
 167.5000      -20.05     -11.61     -0.23     -97.62     -0.22     -97.73     -19.96     -15.95     
 170.0000      -20.19     -13     -0.22     -99.16     -0.22     -99.21     -20.1     -17.47     
 172.5000      -20.35     -14.39     -0.23     -100.71     -0.22     -100.84     -20.25     -18.97     
 175.0000      -20.52     -15.8     -0.23     -102.23     -0.23     -102.3     -20.4     -20.56     
 177.5000      -20.7     -17.21     -0.23     -103.77     -0.23     -103.87     -20.58     -22.13     
 180.0000      -20.89     -18.63     -0.23     -105.38     -0.23     -105.41     -20.74     -23.75     
 182.5000      -21.08     -19.96     -0.24     -106.96     -0.24     -107.09     -20.89     -25.24     
 185.0000      -21.29     -21.21     -0.23     -108.53     -0.23     -108.62     -21.12     -26.71     
 187.5000      -21.46     -22.64     -0.23     -110.15     -0.24     -110.21     -21.33     -28.33     
 190.0000      -21.73     -23.96     -0.24     -111.74     -0.23     -111.8     -21.57     -30.02     
 192.5000      -21.94     -25.31     -0.23     -113.35     -0.24     -113.41     -21.82     -31.4     
 195.0000      -22.21     -26.51     -0.24     -114.94     -0.24     -115.07     -22.08     -33     
 197.5000      -22.54     -27.79     -0.24     -116.45     -0.24     -116.64     -22.38     -34.42     
 200.0000      -22.79     -29.03     -0.24     -118.08     -0.24     -118.21     -22.7     -36.06     
 202.5000      -23.11     -30.43     -0.24     -119.78     -0.24     -119.91     -22.99     -37.61     
 205.0000      -23.45     -31.65     -0.24     -121.36     -0.24     -121.47     -23.35     -38.94     
 207.5000      -23.8     -33.02     -0.24     -123.08     -0.24     -123.08     -23.73     -40.34     
 210.0000      -24.18     -34.17     -0.24     -124.71     -0.26     -124.72     -24.13     -41.83     
 212.5000      -24.61     -35.42     -0.25     -126.3     -0.25     -126.44     -24.55     -43.14     
 215.0000      -25.05     -36.53     -0.23     -127.95     -0.25     -128.06     -25.01     -44.58     
 217.5000      -25.53     -37.77     -0.24     -129.67     -0.24     -129.7     -25.5     -46.07     
 220.0000      -26.07     -38.81     -0.25     -131.33     -0.24     -131.44     -26.05     -47.29     
 222.5000      -26.63     -39.63     -0.24     -133.03     -0.25     -133.11     -26.65     -48.53     
 225.0000      -27.27     -40.31     -0.24     -134.8     -0.25     -134.77     -27.27     -49.71     
 227.5000      -27.97     -40.92     -0.25     -136.47     -0.25     -136.6     -27.96     -50.92     
 230.0000      -28.68     -41.14     -0.25     -138.08     -0.25     -138.27     -28.72     -52.1     
 232.5000      -29.45     -41.12     -0.25     -139.94     -0.25     -139.94     -29.56     -53.03     
 235.0000      -30.3     -40.79     -0.25     -141.59     -0.25     -141.72     -30.46     -53.77     
 237.5000      -31.27     -39.64     -0.26     -143.37     -0.25     -143.41     -31.52     -54.46     
 240.0000      -32.28     -38.77     -0.27     -145.05     -0.27     -145.2     -32.66     -54.92     
 242.5000      -33.39     -35.9     -0.27     -146.82     -0.26     -146.9     -34     -54.72     
 245.0000      -34.57     -32.23     -0.26     -148.59     -0.27     -148.71     -35.56     -53.47     
 247.5000      -35.82     -27.17     -0.27     -150.37     -0.27     -150.43     -37.39     -51.17     
 250.0000      -37.04     -19.08     -0.27     -152.17     -0.27     -152.23     -39.68     -46.06     
 252.5000      -38.16     -9.74     -0.28     -153.96     -0.28     -154.04     -42.33     -37.43     
 255.0000      -38.98     3.4     -0.28     -155.77     -0.28     -155.84     -45.25     -16.22     
 257.5000      -39.1     17.31     -0.28     -157.53     -0.28     -157.69     -46.3     16.54     
 260.0000      -38.67     31.02     -0.28     -159.46     -0.28     -159.55     -44.4     46.09     
 262.5000      -37.67     42.62     -0.28     -161.27     -0.29     -161.36     -41.44     62.16     
 265.0000      -36.54     50.59     -0.29     -163.12     -0.29     -163.18     -39.03     68.66     
 267.5000      -35.37     56.48     -0.29     -164.9     -0.3     -165.02     -37.15     72.15     
 270.0000      -34.25     60.69     -0.31     -166.86     -0.3     -166.93     -35.49     73.64     
 272.5000      -33.24     63.4     -0.3     -168.64     -0.3     -168.74     -34.16     73.74     
 275.0000      -32.31     65.1     -0.31     -170.55     -0.3     -170.68     -32.98     73.56     
 277.5000      -31.46     66.03     -0.31     -172.46     -0.31     -172.59     -31.99     72.86     
 280.0000      -30.66     66.43     -0.31     -174.34     -0.31     -174.51     -31.09     71.77     
 282.5000      -29.94     66.51     -0.31     -176.4     -0.31     -176.42     -30.34     70.8     
 285.0000      -29.31     65.89     -0.32     -178.24     -0.33     -178.41     -29.66     68.99     
 287.5000      -28.71     65.2     -0.32     179.75     -0.33     179.7     -29.04     67.56     
 290.0000      -28.19     64.49     -0.32     177.77     -0.33     177.72     -28.5     66.13     
 292.5000      -27.75     63.28     -0.34     175.8     -0.33     175.71     -27.99     64.2     
 295.0000      -27.32     61.85     -0.33     173.77     -0.34     173.69     -27.54     62.5     
 297.5000      -26.98     60.48     -0.34     171.74     -0.34     171.67     -27.18     60.55     
 300.0000      -26.65     59.02     -0.34     169.71     -0.35     169.62     -26.82     58.75     
 302.5000      -26.37     57.4     -0.34     167.64     -0.35     167.6     -26.52     56.97     
 305.0000      -26.17     55.7     -0.35     165.56     -0.35     165.53     -26.26     55.02     
 307.5000      -25.94     54.06     -0.36     163.51     -0.35     163.44     -26.01     52.97     
 310.0000      -25.81     52.25     -0.36     161.43     -0.37     161.31     -25.83     51.13     
 312.5000      -25.68     50.38     -0.37     159.3     -0.36     159.21     -25.67     49.13     
 315.0000      -25.6     48.69     -0.37     157.14     -0.37     157.06     -25.56     46.96     
 317.5000      -25.54     46.77     -0.38     154.97     -0.37     154.81     -25.48     45.09     
 320.0000      -25.52     44.91     -0.38     152.79     -0.38     152.66     -25.4     42.97     
 322.5000      -25.55     43.17     -0.38     150.59     -0.38     150.48     -25.41     40.92     
 325.0000      -25.61     41.14     -0.39     148.4     -0.39     148.26     -25.45     38.75     
 327.5000      -25.72     39.26     -0.39     146.13     -0.4     146.02     -25.51     36.6     
 330.0000      -25.86     37.53     -0.4     143.84     -0.4     143.76     -25.63     34.45     
 332.5000      -26.01     35.61     -0.4     141.55     -0.4     141.41     -25.77     32.09     
 335.0000      -26.21     33.67     -0.4     139.25     -0.41     139.13     -25.98     29.94     
 337.5000      -26.47     31.73     -0.41     136.87     -0.41     136.74     -26.23     27.76     
 340.0000      -26.77     29.55     -0.41     134.5     -0.42     134.38     -26.54     25.24     
 342.5000      -27.14     27.54     -0.43     132.07     -0.41     131.95     -26.92     22.94     
 345.0000      -27.58     25.49     -0.42     129.69     -0.43     129.49     -27.39     20.6     
 347.5000      -28.1     23.36     -0.42     127.2     -0.44     127.12     -27.93     18.12     
 350.0000      -28.7     21.2     -0.43     124.64     -0.43     124.61     -28.54     15.58     
 352.5000      -29.41     18.62     -0.44     122.08     -0.45     122.05     -29.29     13.15     
 355.0000      -30.3     16.76     -0.45     119.52     -0.45     119.46     -30.15     10.54     
 357.5000      -31.34     14.36     -0.46     116.93     -0.45     116.88     -31.26     8.14     
 360.0000      -32.68     11.68     -0.45     114.29     -0.46     114.25     -32.58     5.69     
 362.5000      -34.37     9.79     -0.47     111.56     -0.47     111.59     -34.28     3.3     
 365.0000      -36.63     7.78     -0.47     108.88     -0.48     108.77     -36.45     0.49     
 367.5000      -39.86     5.9     -0.48     106.07     -0.48     106.02     -39.43     -1.71     
 370.0000      -45.56     6.95     -0.49     103.32     -0.49     103.19     -44.71     -3.17     
 372.5000      -61.59     73.35     -0.5     100.45     -0.5     100.34     -60.76     14.35     
 375.0000      -45.79     166.58     -0.51     97.52     -0.51     97.47     -47.04     163.17     
 377.5000      -39.46     167.66     -0.52     94.59     -0.52     94.52     -40.1     161.01     
 380.0000      -35.75     165.52     -0.52     91.61     -0.52     91.44     -36.33     158.85     
 382.5000      -33.08     163.16     -0.54     88.52     -0.54     88.43     -33.55     155.75     
 385.0000      -31.02     160.33     -0.55     85.41     -0.55     85.36     -31.49     152.87     
 387.5000      -29.33     157.7     -0.57     82.27     -0.56     82.17     -29.72     149.83     
 390.0000      -27.91     154.71     -0.58     79.08     -0.58     78.93     -28.24     146.49     
 392.5000      -26.66     151.83     -0.59     75.78     -0.59     75.62     -27     142.94     
 395.0000      -25.6     148.86     -0.61     72.45     -0.61     72.31     -25.88     139.24     
 397.5000      -24.65     145.8     -0.63     68.99     -0.63     68.88     -24.91     135.59     
 400.0000      -23.81     142.75     -0.64     65.55     -0.65     65.34     -24.02     131.82     
 402.5000      -23.05     139.38     -0.67     61.94     -0.67     61.76     -23.23     128.09     
 405.0000      -22.36     136.2     -0.69     58.28     -0.69     58.17     -22.52     123.99     
 407.5000      -21.75     132.92     -0.71     54.61     -0.72     54.46     -21.86     119.91     
 410.0000      -21.17     129.66     -0.74     50.78     -0.74     50.63     -21.28     115.64     
 412.5000      -20.65     126.18     -0.75     46.87     -0.76     46.7     -20.75     111.36     
 415.0000      -20.19     122.57     -0.77     42.86     -0.78     42.66     -20.27     106.93     
 417.5000      -19.77     119.08     -0.8     38.67     -0.8     38.5     -19.83     102.4     
 420.0000      -19.39     115.04     -0.82     34.34     -0.83     34.21     -19.44     97.68     
 422.5000      -19.04     111.36     -0.85     30.03     -0.86     29.82     -19.11     92.82     
 425.0000      -18.74     106.93     -0.87     25.39     -0.88     25.25     -18.78     87.89     
 427.5000      -18.48     102.63     -0.9     20.69     -0.91     20.62     -18.5     82.52     
 430.0000      -18.24     98.21     -0.94     15.79     -0.95     15.63     -18.23     77.32     
 432.5000      -18.01     93.2     -0.98     10.66     -0.98     10.52     -17.97     71.72     
 435.0000      -17.81     88.14     -1.03     5.42     -1.02     5.24     -17.75     66.02     
 437.5000      -17.59     82.65     -1.07     -0.08     -1.06     -0.26     -17.5     59.97     
 440.0000      -17.39     76.68     -1.13     -5.88     -1.12     -6.01     -17.22     53.84     
 442.5000      -17.16     70.2     -1.18     -11.85     -1.18     -12.06     -16.92     47.52     
 445.0000      -16.86     62.81     -1.25     -18.26     -1.24     -18.5     -16.55     40.79     
 447.5000      -16.5     54.81     -1.33     -24.87     -1.33     -25.27     -16.1     34.01     
 450.0000      -16.02     45.81     -1.41     -32.05     -1.42     -32.37     -15.54     26.78     
 452.5000      -15.39     35.91     -1.53     -39.67     -1.53     -40.01     -14.84     19.35     
 455.0000      -14.59     24.99     -1.67     -47.84     -1.68     -48.16     -13.99     11.6     
 457.5000      -13.6     13.06     -1.84     -56.63     -1.85     -57     -12.97     3.38     
 460.0000      -12.39     0.36     -2.07     -66.16     -2.08     -66.54     -11.79     -5.34     
 462.5000      -11.04     -13.19     -2.39     -76.5     -2.4     -76.91     -10.5     -15.07     
 465.0000      -9.59     -27.33     -2.81     -87.82     -2.82     -88.27     -9.13     -25.56     
 467.5000      -8.13     -41.96     -3.41     -100.04     -3.43     -100.47     -7.75     -37.1     
 470.0000      -6.71     -56.98     -4.22     -113.11     -4.26     -113.45     -6.41     -49.5     
 472.5000      -5.45     -72.14     -5.33     -126.61     -5.37     -126.98     -5.22     -62.68     
 475.0000      -4.36     -87.03     -6.74     -140.12     -6.79     -140.6     -4.2     -76.03     
 477.5000      -3.51     -101.52     -8.48     -153.29     -8.54     -153.7     -3.39     -89.33     
 480.0000      -2.86     -115.03     -10.52     -165.52     -10.58     -165.85     -2.77     -102.09     
 482.5000      -2.38     -127.37     -12.81     -176.6     -12.92     -176.98     -2.32     -113.97     
 485.0000      -2.03     -138.65     -15.36     173.59     -15.46     173.34     -2     -124.96     
 487.5000      -1.78     -148.77     -18.14     165.02     -18.24     164.81     -1.76     -134.99     
 490.0000      -1.59     -157.89     -21.18     157.84     -21.31     157.76     -1.59     -144.2     
 492.5000      -1.45     -166.15     -24.62     152.27     -24.71     152.49     -1.47     -152.5     
 495.0000      -1.33     -173.69     -28.5     149.07     -28.62     149.08     -1.36     -160.16     
 497.5000      -1.25     179.52     -33.12     150.09     -33.23     150.6     -1.27     -167.27     
 500.0000      -1.17     173.27     -38.73     162.35     -38.86     163.27     -1.2     -173.75     
 502.5000      -1.11     167.45     -43.29     -158.05     -43.21     -156.41     -1.15     -179.83     
 505.0000      -1.04     162.06     -41.7     -119.29     -41.67     -118.21     -1.09     174.52     
 507.5000      -1     157.05     -39.5     -106.21     -39.39     -106.18     -1.05     169.23     
 510.0000      -0.96     152.45     -38.09     -103.15     -38.09     -103.26     -1.01     164.23     
 512.5000      -0.92     147.96     -37.51     -102.84     -37.54     -103.32     -0.97     159.59     
 515.0000      -0.89     143.88     -37.33     -104.48     -37.38     -104.34     -0.94     155.18     
 517.5000      -0.86     139.91     -37.51     -106.08     -37.54     -106.46     -0.9     150.98     
 520.0000      -0.83     136.2     -37.95     -108.29     -37.99     -108.45     -0.88     147.04     
 522.5000      -0.8     132.69     -38.58     -110.55     -38.63     -110.66     -0.86     143.27     
 525.0000      -0.78     129.42     -39.31     -112.59     -39.37     -112.57     -0.83     139.64     
 527.5000      -0.75     126.19     -40.29     -114.63     -40.33     -114.49     -0.81     136.12     
 530.0000      -0.73     123.11     -41.4     -116.58     -41.44     -116.23     -0.78     132.91     
 532.5000      -0.7     120.25     -42.53     -118.23     -42.68     -117.67     -0.77     129.75     
 535.0000      -0.69     117.39     -43.96     -120.13     -43.96     -119.99     -0.75     126.72     
 537.5000      -0.68     114.7     -45.46     -121.13     -45.75     -119.98     -0.73     123.81     
 540.0000      -0.67     112.16     -47.44     -121.45     -47.46     -120.02     -0.72     120.99     
 542.5000      -0.65     109.65     -49.45     -120.9     -49.63     -120.71     -0.7     118.29     
 545.0000      -0.63     107.21     -52.22     -119.9     -52.46     -120.04     -0.69     115.72     
 547.5000      -0.62     104.83     -55.41     -115.91     -55.6     -116.96     -0.67     113.17     
 550.0000      -0.61     102.67     -59.85     -102.94     -59.43     -100.16     -0.65     110.8     
 560.0000      -0.58     94.07     -56.04     8.56     -55.94     9.73     -0.62     101.8     
 570.0000      -0.55     86.71     -51.19     14.96     -51.25     15.52     -0.58     93.74     
 580.0000      -0.52     79.99     -49.59     13.81     -49.71     13.05     -0.56     86.56     
 590.0000      -0.48     73.92     -49.83     7.91     -49.88     8.75     -0.51     80     
 600.0000      -0.45     68.34     -50.71     5.65     -50.91     5.33     -0.49     73.92     
 610.0000      -0.44     63.05     -52.46     4.02     -52.42     3.01     -0.47     68.4     
 620.0000      -0.42     58.16     -55.43     -0.08     -55.04     2.63     -0.44     63.15     
 630.0000      -0.4     53.72     -59.67     -2.37     -60.27     -1.5     -0.42     58.41     
 640.0000      -0.37     49.35     -70.07     34.62     -70.33     26.21     -0.41     53.75     
 650.0000      -0.36     45.21     -63.88     138.5     -63.52     139.63     -0.39     49.38     
 660.0000      -0.36     41.41     -57.58     149.33     -57.94     147.62     -0.38     45.37     
 670.0000      -0.34     37.68     -54.06     145.47     -53.73     144.74     -0.37     41.42     
 680.0000      -0.34     34.15     -51.56     143.19     -51.64     141.94     -0.35     37.71     
 690.0000      -0.32     30.78     -50.03     142.19     -49.74     140.82     -0.33     34.14     
 700.0000      -0.31     27.5     -49.09     137.6     -48.99     137.83     -0.33     30.65     
 710.0000      -0.3     24.37     -48.19     137.3     -48.13     137.23     -0.32     27.45     
 720.0000      -0.28     21.4     -47.17     136.4     -47.13     137.18     -0.31     24.23     
 730.0000      -0.29     18.35     -46.39     133.02     -46.38     133.27     -0.31     21.14     
 740.0000      -0.27     15.6     -45.72     130.39     -45.83     128.98     -0.29     18.23     
 750.0000      -0.27     12.77     -45.62     127.13     -45.62     126.42     -0.28     15.33     
 760.0000      -0.26     10.09     -45.34     125.65     -45.46     124.09     -0.28     12.54     
 770.0000      -0.24     7.44     -45.21     123.91     -45.22     124.06     -0.26     9.76     
 780.0000      -0.25     4.98     -44.85     122.12     -44.84     122.96     -0.27     7.08     
 790.0000      -0.26     2.45     -44.44     120.48     -44.44     120.23     -0.27     4.63     
 800.0000      -0.25     0.01     -44.31     117.5     -44.24     116.96     -0.26     2.07     
 810.0000      -0.24     -2.31     -44.38     113.25     -44.23     113.65     -0.24     -0.38     
 820.0000      -0.24     -4.7     -44.45     112.26     -44.34     111.27     -0.25     -2.86     
 830.0000      -0.23     -6.97     -44.5     111.92     -44.63     111.24     -0.24     -5.07     
 840.0000      -0.23     -9.22     -44.39     111.44     -44.46     111.35     -0.24     -7.45     
 850.0000      -0.23     -11.44     -44.19     109.08     -44.2     108.45     -0.24     -9.63     
 860.0000      -0.21     -13.61     -44.07     105.32     -44.13     105.96     -0.24     -11.94     
 870.0000      -0.22     -15.61     -44.23     102.48     -44.22     102.67     -0.23     -14.09     
 880.0000      -0.22     -17.78     -44.49     100.72     -44.51     100.75     -0.23     -16.27     
 890.0000      -0.22     -19.85     -44.79     100.84     -44.83     100.31     -0.22     -18.35     
 900.0000      -0.21     -21.97     -44.71     99.77     -44.87     100.02     -0.24     -20.43     
 910.0000      -0.21     -23.82     -44.53     97.71     -44.63     98.79     -0.23     -22.44     
 920.0000      -0.2     -25.82     -44.69     95.46     -44.53     95.8     -0.2     -24.49     
 930.0000      -0.21     -27.79     -44.92     93.04     -44.74     92.58     -0.22     -26.46     
 940.0000      -0.22     -29.58     -45.15     91.43     -45.05     91.46     -0.21     -28.3     
 950.0000      -0.21     -31.44     -45.23     90.55     -45.4     90.21     -0.2     -30.22     
 960.0000      -0.21     -33.29     -45.51     89.45     -45.48     89.8     -0.22     -32.11     
 970.0000      -0.21     -35.15     -45.44     88.95     -45.56     88.75     -0.21     -34     
 980.0000      -0.19     -36.92     -45.68     86.64     -45.61     87.45     -0.21     -35.84     
 990.0000      -0.19     -38.79     -45.65     85.14     -45.65     84.22     -0.2     -37.7     
1000.0000      -0.2     -40.49     -46.01     82.7     -45.87     82.51     -0.2     -39.59     
1025.0000      -0.21     -44.86     -46.36     79.24     -46.38     80.68     -0.19     -43.89     
1050.0000      -0.21     -49.08     -46.64     75.67     -46.76     76.49     -0.22     -48.24     
1075.0000      -0.2     -53.23     -47.24     73.11     -47.4     73.23     -0.19     -52.34     
1100.0000      -0.19     -57.42     -47.41     70.9     -47.59     70.23     -0.19     -56.54     
1125.0000      -0.21     -61.35     -48     67.62     -48.1     67.81     -0.2     -60.52     
1150.0000      -0.21     -65.22     -48.76     63.26     -48.65     63.37     -0.2     -64.46     
1175.0000      -0.18     -69.25     -48.84     59.91     -48.93     60.3     -0.2     -68.23     
1200.0000      -0.21     -72.89     -49.62     57.14     -49.63     57.36     -0.21     -72.09     
1225.0000      -0.22     -76.76     -49.6     54.38     -49.8     55.2     -0.22     -75.66     
1250.0000      -0.21     -80.25     -50.52     48.64     -50.41     51.2     -0.19     -79.45     
1275.0000      -0.21     -84.12     -50.88     51.21     -51.06     50.19     -0.21     -83.17     
1300.0000      -0.23     -87.51     -51.26     44.38     -51.44     44.87     -0.22     -86.73     
1325.0000      -0.19     -91.03     -52.02     43.14     -52.08     44.46     -0.2     -90.27     
1350.0000      -0.22     -94.58     -51.97     41.09     -52.15     41.54     -0.21     -93.81     
1375.0000      -0.23     -98.03     -53.1     34.68     -53.15     37.35     -0.22     -97.13     
1400.0000      -0.23     -101.48     -53.58     36.27     -53.73     38.16     -0.21     -100.55     
1425.0000      -0.23     -105.05     -53.23     31.29     -53.28     30.05     -0.21     -103.95     
1450.0000      -0.24     -108.35     -54.56     30.21     -54.34     27.61     -0.22     -107.23     
1475.0000      -0.25     -111.59     -54.99     28.47     -54.08     29.71     -0.21     -110.49     
1500.0000      -0.24     -115.17     -54.89     23.56     -54.97     18     -0.22     -113.89     
1525.0000      -0.26     -118.23     -55.9     22.89     -56.35     22.67     -0.24     -117.05     
1550.0000      -0.25     -121.54     -55.98     18.57     -55.98     16.59     -0.24     -120.32     
1575.0000      -0.24     -125.08     -56.71     10.77     -57.35     11.46     -0.22     -123.47     
1600.0000      -0.27     -128.03     -57.43     17.05     -57.13     17.6     -0.25     -126.62     
1625.0000      -0.27     -131.16     -57.2     12.64     -56.79     12.01     -0.24     -129.8     
1650.0000      -0.27     -134.48     -58.59     10.75     -57.5     11.39     -0.22     -132.89     
1675.0000      -0.3     -137.65     -58.54     6.85     -57.93     5.81     -0.27     -136.08     
1700.0000      -0.26     -140.84     -60.21     -0.63     -59.69     -4.86     -0.24     -139.05     
1725.0000      -0.24     -143.93     -60.52     -0.65     -61.14     0.65     -0.26     -142.34     
1750.0000      -0.28     -147.27     -59.53     3.31     -59.66     -5.26     -0.25     -145.31     
1775.0000      -0.3     -150.11     -59.93     -3.38     -61.76     -12.27     -0.28     -148.15     
1800.0000      -0.29     -153.4     -59.98     -3.36     -60.85     -8.01     -0.24     -151.31     
1825.0000      -0.31     -156.34     -61.53     -10.09     -61.26     -10.44     -0.28     -154.48     
1850.0000      -0.3     -159.26     -60.96     -12.09     -62.05     -21.16     -0.28     -157.3     
1875.0000      -0.31     -162.29     -61.6     -10.56     -62.14     -14.31     -0.27     -160.33     
1900.0000      -0.29     -165.58     -60.93     -22.98     -60.47     -18.45     -0.28     -163.35     
1925.0000      -0.33     -168.36     -62.55     -51.3     -62.01     -42.42     -0.32     -166.22     
1950.0000      -0.29     -171.64     -63.84     -31.21     -63.71     -34.29     -0.3     -168.98     
1975.0000      -0.32     -174.55     -64.47     -43.9     -64.74     -38.88     -0.28     -172     
2000.0000      -0.34     -177.58     -63.94     -32.02     -63.65     -29.46     -0.3     -174.88     
2025.0000      -0.32     179.57     -61.31     -46.14     -61.41     -51.15     -0.29     -177.73     
2050.0000      -0.32     176.6     -63.16     -69.03     -62.24     -79.52     -0.29     179.31     
2075.0000      -0.36     173.75     -61.2     -55.62     -60.85     -49.51     -0.33     176.38     
2100.0000      -0.33     170.8     -61.37     -88.88     -60.76     -85.77     -0.31     173.67     
2125.0000      -0.35     167.83     -59.04     -78.88     -59.65     -78.97     -0.32     170.66     
2150.0000      -0.36     164.81     -54.62     -88.05     -54.15     -93.61     -0.34     167.72     
2175.0000      -0.37     162.27     -55.65     -150.73     -56.28     -155.88     -0.33     165.13     
2200.0000      -0.34     159.2     -56.23     179.52     -56.83     179.12     -0.32     162.28     
2225.0000      -0.37     156.32     -64.3     160.18     -64.61     164.51     -0.33     159.41     
2250.0000      -0.36     153.51     -66.14     178.41     -69.02     -172.06     -0.33     156.66     
2275.0000      -0.38     150.66     -57.92     -135.74     -56.96     -137.6     -0.33     153.71     
2300.0000      -0.38     147.77     -67.53     172.02     -69.39     158.34     -0.33     150.93     
2325.0000      -0.39     145.11     -60.44     -126.77     -59.8     -127.27     -0.36     148.16     
2350.0000      -0.37     142.21     -56     169.46     -56.71     163.02     -0.35     145.48     
2375.0000      -0.38     139.33     -63.19     153.66     -63.02     157.2     -0.34     142.68     
2400.0000      -0.37     136.7     -59.62     149.77     -60.11     148.7     -0.37     139.85     
2425.0000      -0.38     133.71     -66.78     140.64     -67.35     146.02     -0.35     137.16     
2450.0000      -0.39     130.88     -61.28     -117.29     -60.64     -122.33     -0.37     134.3     
2475.0000      -0.39     128.2     -58.68     -165.35     -58.63     -166.54     -0.38     131.68     
2500.0000      -0.39     125.39     -51.95     -168.55     -51.93     -172.67     -0.39     128.88     
2525.0000      -0.39     122.5     -53.62     163.88     -53.88     166.16     -0.37     126.43     
2550.0000      -0.4     119.86     -54.52     159.8     -54.98     159.09     -0.39     123.52     
2575.0000      -0.4     117.1     -54.47     146.95     -54.92     150.32     -0.36     120.77     
2600.0000      -0.4     114.35     -52.72     120.85     -52.17     116.01     -0.38     117.89     
2625.0000      -0.39     111.68     -57.53     115.12     -57.64     114.01     -0.4     115.21     
2650.0000      -0.4     108.8     -57.83     122.48     -56.58     124.39     -0.4     112.44     
2675.0000      -0.4     106.17     -66.39     125.75     -65.44     116     -0.4     109.89     
2700.0000      -0.41     103.32     -57.02     -158.67     -56.94     -153.18     -0.4     107.07     
2725.0000      -0.42     100.67     -55.92     140.41     -55.62     138.23     -0.4     104.46     
2750.0000      -0.43     98.13     -48.9     149     -49.23     151.56     -0.4     101.7     
2775.0000      -0.43     95.29     -49.17     113.62     -48.22     114.69     -0.4     99.22     
2800.0000      -0.45     92.61     -50.38     113.5     -50.83     107.98     -0.41     96.34     
2825.0000      -0.42     90     -52.03     114.27     -52.4     116.53     -0.41     93.8     
2850.0000      -0.42     87.18     -52.3     117.54     -51.8     114.6     -0.42     91     
2875.0000      -0.47     84.34     -58.5     72.78     -58.84     74.25     -0.43     88.27     
2900.0000      -0.54     82.14     -46.68     166.18     -47.09     163.34     -0.44     85.36     
2925.0000      -0.42     79.45     -48.64     107.5     -49.03     110.38     -0.43     82.96     
2950.0000      -0.45     76.3     -50.43     148.47     -49.94     147.72     -0.44     80.21     
2975.0000      -0.46     73.75     -49.4     111.48     -50     118.68     -0.45     77.55     
3000.0000      -0.52     71.23     -45.28     137.74     -44.24     135.82     -0.46     74.91     
3025.0000      -0.46     68.36     -48     120.91     -48.14     118.2     -0.45     72.01     
3050.0000      -0.5     65.91     -46.49     112.8     -45.97     116.07     -0.49     69.03     
3075.0000      -0.48     63.17     -50.43     120.93     -50.79     119.61     -0.43     66.8     
3100.0000      -0.48     60.55     -44.17     111.5     -44.18     114.19     -0.44     63.74     
3125.0000      -0.52     58.04     -42.35     122.42     -42.53     119.41     -0.5     61.16     
3150.0000      -0.47     55.37     -40.84     99.6     -41.21     101.87     -0.52     58.67     
3175.0000      -0.5     52.49     -39.02     93.43     -38.99     92.65     -0.48     56.01     
3200.0000      -0.54     50.22     -42.89     43.61     -43.17     46.85     -0.48     53.44     
3225.0000      -0.47     47.39     -47.02     75.47     -46.74     73.64     -0.5     50.56     
3250.0000      -0.48     44.63     -42.83     91.25     -43.58     92.28     -0.5     47.8     
3275.0000      -0.59     41.63     -41.08     88.78     -40.41     92.32     -0.49     45.01     
3300.0000      -0.5     39.48     -41.48     59.06     -42.13     57.88     -0.52     42.35     
3325.0000      -0.47     36.45     -45.88     88.98     -45.6     99.52     -0.56     39.41     
3350.0000      -0.66     33.65     -36.44     75.03     -36.37     70.79     -0.55     37.54     
3375.0000      -0.51     31.7     -37.6     51.04     -38.25     54.56     -0.57     34.27     
3400.0000      -0.5     28.79     -40.42     31.22     -40.25     32.51     -0.55     32.06     
3425.0000      -0.53     25.69     -39.22     52.9     -39.39     54.11     -0.58     29.51     
3450.0000      -0.56     23.16     -39.87     33.36     -39.59     34.51     -0.54     26.65     
3475.0000      -0.53     20.61     -45.77     37.47     -45.78     41.12     -0.54     23.68     
3500.0000      -0.68     17.08     -44.49     57.68     -44.57     60.66     -0.58     21.47     
3525.0000      -0.66     15.75     -39.15     62.56     -39.46     64     -0.54     18.27     
3550.0000      -0.57     13.15     -36.42     37.43     -36.1     37.94     -0.53     15.8     
3575.0000      -0.54     9.84     -38.95     32.34     -39.51     31.24     -0.53     12.6     
3600.0000      -0.64     7.29     -36.6     38.85     -36.62     43.52     -0.7     10.11     
3625.0000      -0.6     4.61     -38.65     44.8     -37.82     41.42     -0.6     7.76     
3650.0000      -0.74     1.45     -37.46     45.75     -38.17     47.24     -0.54     4.67     
3675.0000      -0.66     -0.9     -37.3     28.12     -36.86     29.98     -0.56     1.68     
3700.0000      -0.68     -3.44     -35.9     24.54     -36.59     22.89     -0.52     -1.17     
3725.0000      -0.69     -5.66     -34.6     57.83     -34.14     60.63     -0.77     -5.01     
3750.0000      -0.62     -8.88     -32.55     10.35     -32.5     9.53     -0.68     -6.59     
3775.0000      -0.81     -11.21     -39.05     26.49     -38.6     29.82     -0.7     -9.45     
3800.0000      -0.72     -14.21     -33.71     18.91     -34.21     19.35     -0.68     -11.93     
3825.0000      -0.64     -16.65     -32.98     12.17     -32.68     13.83     -0.72     -15.46     
3850.0000      -0.63     -19.76     -33.31     20.7     -33.78     20.42     -0.82     -17.66     
3875.0000      -0.61     -23.02     -30.6     6.72     -30.36     12.6     -0.78     -19.83     
3900.0000      -0.66     -25.32     -34.14     -6.65     -33.77     -9.35     -0.79     -22.55     
3925.0000      -0.8     -28.59     -31.72     1.93     -32.49     5.92     -0.75     -25.78     
3950.0000      -0.75     -32.1     -28.58     -12.32     -27.5     -10.73     -0.79     -28.55     
3975.0000      -0.78     -34.57     -32.49     -16.18     -33.07     -19.62     -0.93     -31.75     
4000.0000      -0.88     -36.6     -32.41     -15.21     -32.31     -6.75     -0.85     -32.73     
4025.0000      -0.89     -39.24     -29.61     -32.18     -29.19     -36.48     -0.87     -36.2     
4050.0000      -0.77     -41.93     -31.87     -20.63     -32.09     -16.72     -0.76     -38.79     
4075.0000      -0.76     -45.51     -31.5     -25.22     -31     -23.85     -0.79     -41.85     
4100.0000      -0.87     -48.82     -30.02     -22.1     -29.96     -20.61     -0.83     -45.09     
4125.0000      -1.15     -52.44     -26.46     -29.7     -26.11     -29.93     -0.91     -47.97     
4150.0000      -1.08     -53.95     -26.65     -55.29     -26.54     -54.69     -0.86     -50.97     
4175.0000      -1.13     -54.21     -31.47     -89.14     -31.44     -88.31     -0.84     -53.09     
4200.0000      -0.87     -58.14     -31.61     -54.33     -31.63     -53.28     -1.03     -57.47     
4225.0000      -0.93     -61.76     -35.51     -30.33     -34.61     -28.01     -1.02     -57.31     
4250.0000      -0.87     -64.65     -30.26     -45.93     -30.02     -49.38     -0.86     -61.28     
4275.0000      -0.97     -68.71     -31.4     -45.85     -31.3     -44.5     -0.83     -64.44     
4300.0000      -0.97     -70.21     -33.03     -43.63     -32.79     -44.44     -0.78     -67.53     
4325.0000      -1.32     -74.35     -29.48     -33.67     -29.58     -32.53     -0.94     -71.88     
4350.0000      -1.02     -74.09     -26.86     -47.09     -26.48     -48.34     -0.88     -74.53     
4375.0000      -0.92     -78.86     -27.5     -50.9     -27.4     -51.32     -1.14     -77.2     
4400.0000      -1.02     -82.14     -26.77     -52.83     -26.6     -55.76     -1.04     -80.21     
4425.0000      -1.07     -85.63     -25.31     -63.05     -25.69     -62.04     -1.13     -82.5     
4450.0000      -1.18     -88.2     -24.25     -65.55     -23.64     -67.33     -1.19     -86.07     
4475.0000      -1.3     -90.61     -25.06     -87.77     -25.75     -89.54     -1.61     -89.03     
4500.0000      -1     -94.25     -27.06     -81.55     -26.79     -78.05     -1.16     -88.05     
4525.0000      -1.41     -98.41     -25.28     -79.45     -25.48     -83.71     -1.14     -93.11     
4550.0000      -1.55     -101.86     -23.22     -84.39     -23.66     -82.74     -1.17     -96.92     
4575.0000      -1.53     -101.9     -22.33     -89.55     -21.91     -91.01     -1.42     -101.03     
4600.0000      -1.47     -104.85     -22.25     -107.2     -22.96     -109.83     -1.79     -102.92     
4625.0000      -1.34     -110.91     -21.8     -94.58     -21.64     -92.52     -1.69     -106.28     
4650.0000      -1.62     -114.23     -21.37     -92.8     -20.99     -95.69     -1.43     -108.37     
4675.0000      -2.02     -115.94     -21.35     -122.21     -21.58     -122.83     -1.53     -109.12     
4700.0000      -1.97     -116.04     -22.32     -119.24     -22.43     -118.74     -1.66     -115.01     
4725.0000      -1.96     -121.39     -20.97     -117.93     -20.79     -119.78     -2.07     -118.67     
4750.0000      -2.08     -124.71     -19.76     -128.05     -20.11     -128.46     -1.98     -117.39     
4775.0000      -2.93     -120.02     -16.71     -160.91     -16.65     -161.69     -2.36     -118.72     
4800.0000      -1.99     -125.2     -26.01     -168.58     -26.25     -170.95     -1.8     -121.66     
4825.0000      -1.93     -129.1     -27.18     -146.66     -27.39     -142.31     -1.55     -126.41     
4850.0000      -1.77     -133.19     -21.55     -124.76     -21.05     -127.2     -2.03     -130.69     
4875.0000      -1.95     -136.02     -21.8     -156.69     -22.38     -157.27     -2.18     -132.34     
4900.0000      -2.44     -138.42     -20.85     -167.03     -20.87     -166.36     -2.31     -132.69     
4925.0000      -2.34     -139.45     -22.5     -163.91     -22.34     -166.3     -1.72     -136.17     
4950.0000      -2.04     -142.76     -23.66     -176.45     -23.96     -176.19     -2.16     -137.48     
4975.0000      -1.96     -146.2     -26.46     -151.66     -26.02     -150.32     -1.62     -141.9     
5000.0000      -1.72     -148.38     -25.45     -160.23     -25.72     -161.32     -1.79     -144.55     
