!Created: 07-15-2009 at 1:45 PM
!MODEL: SXLP-450+
!S/N: U6_TB-40
#MHz S dB R 50
!Frequency     S11 dB   S11 DEG  S21 dB   S21 DEG  S12 dB   S12 DEG  S22 dB   S22 DEG  
   1.0000      -51.14     28.99     -0.02     -0.62     -0.01     -0.6     -51.17     29.18     
   2.5000      -47.53     51.49     -0.03     -1.45     -0.03     -1.39     -47.58     51.85     
   5.0000      -42.83     65.59     -0.03     -2.9     -0.02     -2.93     -42.87     65.12     
  10.0000      -37.29     70.62     -0.04     -5.87     -0.02     -5.77     -37.38     70.42     
  15.0000      -33.94     70.28     -0.04     -8.73     -0.04     -8.67     -33.99     70.09     
  20.0000      -31.49     68.86     -0.05     -11.62     -0.04     -11.56     -31.57     68.89     
  25.0000      -29.51     66.69     -0.04     -14.45     -0.05     -14.46     -29.51     66.56     
  30.0000      -27.85     64.33     -0.06     -17.39     -0.06     -17.35     -27.87     63.96     
  35.0000      -26.47     61.64     -0.05     -20.19     -0.06     -20.17     -26.45     61.83     
  40.0000      -25.28     59     -0.07     -23     -0.07     -23.06     -25.22     59.02     
  45.0000      -24.21     56.48     -0.07     -25.87     -0.07     -25.93     -24.15     56.36     
  50.0000      -23.28     53.95     -0.08     -28.77     -0.08     -28.79     -23.21     53.69     
  55.0000      -22.47     51.24     -0.09     -31.68     -0.09     -31.68     -22.38     50.9     
  60.0000      -21.74     48.62     -0.09     -34.49     -0.09     -34.53     -21.67     48.18     
  65.0000      -21.13     45.83     -0.11     -37.45     -0.1     -37.44     -21.07     45.35     
  70.0000      -20.59     43.25     -0.11     -40.27     -0.11     -40.3     -20.55     42.54     
  75.0000      -20.13     40.39     -0.11     -43.13     -0.11     -43.19     -20.1     39.63     
  80.0000      -19.74     37.86     -0.13     -46.04     -0.12     -46.06     -19.72     36.57     
  85.0000      -19.47     34.93     -0.13     -48.88     -0.13     -48.91     -19.45     33.8     
  90.0000      -19.23     32.06     -0.13     -51.78     -0.13     -51.81     -19.18     30.78     
  95.0000      -19.06     29.34     -0.15     -54.64     -0.14     -54.71     -19.02     27.73     
 100.0000      -18.92     26.59     -0.15     -57.51     -0.14     -57.56     -18.86     24.9     
 105.0000      -18.82     23.86     -0.14     -60.43     -0.14     -60.48     -18.75     21.68     
 110.0000      -18.75     20.98     -0.14     -63.38     -0.15     -63.37     -18.65     18.85     
 115.0000      -18.7     18.23     -0.14     -66.33     -0.14     -66.25     -18.59     15.88     
 120.0000      -18.68     15.36     -0.15     -69.3     -0.15     -69.26     -18.54     13.04     
 125.0000      -18.63     12.71     -0.16     -72.18     -0.17     -72.25     -18.52     10.06     
 130.0000      -18.59     9.81     -0.15     -75.19     -0.16     -75.27     -18.54     7.06     
 132.5000      -18.62     8.27     -0.17     -76.67     -0.16     -76.7     -18.5     5.55     
 135.0000      -18.62     6.79     -0.16     -78.14     -0.15     -78.16     -18.52     4.07     
 137.5000      -18.59     5.38     -0.16     -79.65     -0.18     -79.65     -18.53     2.33     
 140.0000      -18.6     3.91     -0.17     -81.13     -0.17     -81.17     -18.55     0.88     
 142.5000      -18.61     2.28     -0.17     -82.62     -0.17     -82.7     -18.55     -0.59     
 145.0000      -18.62     0.91     -0.18     -84.14     -0.17     -84.18     -18.55     -2.02     
 147.5000      -18.63     -0.69     -0.17     -85.65     -0.17     -85.66     -18.59     -3.61     
 150.0000      -18.66     -2.09     -0.17     -87.16     -0.17     -87.18     -18.61     -5.27     
 152.5000      -18.7     -3.66     -0.17     -88.62     -0.17     -88.71     -18.64     -6.64     
 155.0000      -18.74     -5.15     -0.16     -90.14     -0.17     -90.26     -18.68     -8.32     
 157.5000      -18.77     -6.78     -0.17     -91.71     -0.17     -91.76     -18.76     -9.9     
 160.0000      -18.84     -8.13     -0.17     -93.19     -0.17     -93.27     -18.8     -11.44     
 162.5000      -18.91     -9.79     -0.17     -94.73     -0.17     -94.79     -18.85     -13.03     
 165.0000      -18.99     -11.29     -0.16     -96.36     -0.15     -96.35     -18.92     -14.56     
 167.5000      -19.07     -12.66     -0.16     -97.84     -0.16     -97.92     -19.01     -16.22     
 170.0000      -19.18     -14.12     -0.16     -99.4     -0.16     -99.49     -19.13     -17.88     
 172.5000      -19.31     -15.52     -0.17     -100.95     -0.17     -101.02     -19.23     -19.37     
 175.0000      -19.43     -17.14     -0.17     -102.5     -0.17     -102.55     -19.36     -20.94     
 177.5000      -19.56     -18.53     -0.17     -104.06     -0.16     -104.12     -19.48     -22.74     
 180.0000      -19.74     -19.92     -0.16     -105.63     -0.17     -105.71     -19.63     -24.48     
 182.5000      -19.87     -21.45     -0.18     -107.23     -0.17     -107.3     -19.79     -25.92     
 185.0000      -20.07     -22.85     -0.16     -108.8     -0.16     -108.87     -19.98     -27.43     
 187.5000      -20.25     -24.16     -0.17     -110.41     -0.17     -110.5     -20.17     -29.16     
 190.0000      -20.45     -25.61     -0.17     -112     -0.17     -112.04     -20.38     -30.78     
 192.5000      -20.68     -26.86     -0.17     -113.64     -0.18     -113.66     -20.6     -32.26     
 195.0000      -20.93     -28.34     -0.17     -115.18     -0.17     -115.28     -20.85     -33.96     
 197.5000      -21.24     -29.57     -0.18     -116.8     -0.18     -116.91     -21.12     -35.6     
 200.0000      -21.51     -31.1     -0.17     -118.36     -0.17     -118.49     -21.42     -37.41     
 202.5000      -21.8     -32.61     -0.17     -120.11     -0.17     -120.16     -21.73     -38.86     
 205.0000      -22.14     -33.78     -0.16     -121.71     -0.17     -121.74     -22.07     -40.37     
 207.5000      -22.48     -35.31     -0.16     -123.41     -0.17     -123.41     -22.43     -42.01     
 210.0000      -22.87     -36.63     -0.16     -125     -0.17     -125.02     -22.81     -43.64     
 212.5000      -23.27     -38.03     -0.16     -126.63     -0.17     -126.72     -23.24     -45.04     
 215.0000      -23.72     -39.25     -0.16     -128.31     -0.16     -128.45     -23.68     -46.8     
 217.5000      -24.17     -40.75     -0.16     -129.99     -0.16     -130.05     -24.13     -48.29     
 220.0000      -24.7     -42     -0.16     -131.7     -0.16     -131.75     -24.64     -49.88     
 222.5000      -25.23     -43.1     -0.16     -133.34     -0.16     -133.43     -25.21     -51.3     
 225.0000      -25.83     -44.1     -0.17     -135.17     -0.17     -135.13     -25.8     -52.74     
 227.5000      -26.46     -45.17     -0.17     -136.84     -0.16     -136.89     -26.42     -54.18     
 230.0000      -27.11     -45.93     -0.17     -138.49     -0.17     -138.63     -27.1     -55.75     
 232.5000      -27.82     -46.64     -0.17     -140.33     -0.17     -140.32     -27.84     -57.19     
 235.0000      -28.6     -47.13     -0.17     -141.99     -0.17     -142.12     -28.64     -58.41     
 237.5000      -29.45     -47.19     -0.17     -143.72     -0.18     -143.76     -29.53     -59.68     
 240.0000      -30.34     -47.41     -0.18     -145.49     -0.18     -145.59     -30.43     -61.14     
 242.5000      -31.33     -46.77     -0.18     -147.2     -0.17     -147.3     -31.51     -62.23     
 245.0000      -32.36     -45.68     -0.18     -149.01     -0.18     -149.11     -32.74     -62.97     
 247.5000      -33.53     -44.12     -0.17     -150.8     -0.18     -150.86     -34.05     -63.59     
 250.0000      -34.79     -41.63     -0.17     -152.58     -0.18     -152.65     -35.67     -63.77     
 252.5000      -36.24     -37.3     -0.18     -154.41     -0.18     -154.45     -37.5     -63.09     
 255.0000      -37.69     -30.88     -0.18     -156.16     -0.18     -156.24     -39.88     -60.71     
 257.5000      -39.22     -21.88     -0.18     -157.99     -0.18     -158.1     -43.03     -54.11     
 260.0000      -40.49     -8.16     -0.18     -159.92     -0.19     -159.92     -47.07     -39.82     
 262.5000      -41.13     9.42     -0.19     -161.67     -0.19     -161.76     -50.07     6.65     
 265.0000      -40.81     26.81     -0.2     -163.63     -0.18     -163.59     -47.1     48.39     
 267.5000      -39.59     41.32     -0.19     -165.36     -0.2     -165.48     -43.24     63.55     
 270.0000      -38.12     51.29     -0.21     -167.34     -0.2     -167.39     -40.09     70.53     
 272.5000      -36.65     57.84     -0.2     -169.17     -0.2     -169.22     -37.92     73.04     
 275.0000      -35.3     61.61     -0.2     -171.09     -0.2     -171.1     -36.09     73.39     
 277.5000      -34.04     64.64     -0.2     -172.98     -0.21     -172.95     -34.68     73.37     
 280.0000      -32.86     65.83     -0.21     -174.86     -0.21     -174.95     -33.37     72.51     
 282.5000      -31.9     66.77     -0.21     -176.84     -0.21     -176.89     -32.26     71.34     
 285.0000      -30.98     66.52     -0.22     -178.77     -0.22     -178.91     -31.33     69.69     
 287.5000      -30.17     66.03     -0.21     179.23     -0.22     179.17     -30.49     68.31     
 290.0000      -29.42     65.39     -0.21     177.23     -0.22     177.21     -29.72     66.86     
 292.5000      -28.8     64.36     -0.23     175.29     -0.23     175.24     -29.05     65.14     
 295.0000      -28.23     62.9     -0.22     173.3     -0.22     173.2     -28.45     63.35     
 297.5000      -27.7     61.63     -0.22     171.23     -0.23     171.19     -27.94     61.54     
 300.0000      -27.25     60.13     -0.22     169.19     -0.24     169.09     -27.45     59.63     
 302.5000      -26.87     58.5     -0.22     167.09     -0.23     167.09     -26.99     58.12     
 305.0000      -26.52     56.74     -0.23     165.05     -0.24     165     -26.62     56.06     
 307.5000      -26.22     55.1     -0.24     162.87     -0.23     162.96     -26.27     54.16     
 310.0000      -25.97     53.3     -0.25     160.91     -0.24     160.73     -25.99     52.2     
 312.5000      -25.77     51.48     -0.25     158.77     -0.25     158.68     -25.76     50.22     
 315.0000      -25.6     49.56     -0.25     156.64     -0.25     156.54     -25.53     48.38     
 317.5000      -25.47     47.72     -0.26     154.42     -0.25     154.32     -25.37     46.25     
 320.0000      -25.36     45.91     -0.26     152.26     -0.27     152.11     -25.24     44.11     
 322.5000      -25.34     43.98     -0.26     150.05     -0.26     149.95     -25.18     42.17     
 325.0000      -25.33     42.04     -0.27     147.86     -0.26     147.78     -25.16     40.03     
 327.5000      -25.34     40.1     -0.27     145.61     -0.27     145.52     -25.14     37.85     
 330.0000      -25.45     38.26     -0.28     143.31     -0.27     143.23     -25.2     35.59     
 332.5000      -25.52     36.32     -0.27     141.02     -0.27     140.88     -25.3     33.45     
 335.0000      -25.68     34.35     -0.28     138.74     -0.28     138.63     -25.45     31.15     
 337.5000      -25.88     32.22     -0.28     136.34     -0.28     136.27     -25.65     28.78     
 340.0000      -26.12     30.15     -0.3     133.98     -0.28     133.87     -25.89     26.38     
 342.5000      -26.42     27.93     -0.29     131.55     -0.28     131.45     -26.21     24.02     
 345.0000      -26.79     25.82     -0.3     129.17     -0.3     129.03     -26.62     21.53     
 347.5000      -27.19     23.73     -0.3     126.71     -0.3     126.59     -27.08     18.93     
 350.0000      -27.69     21.37     -0.3     124.13     -0.3     124.17     -27.59     16.37     
 352.5000      -28.33     18.82     -0.31     121.64     -0.3     121.55     -28.18     14.04     
 355.0000      -29.04     16.66     -0.32     119.09     -0.31     118.95     -28.96     11.16     
 357.5000      -29.9     14.02     -0.32     116.47     -0.31     116.38     -29.88     8.62     
 360.0000      -30.96     11.52     -0.32     113.84     -0.33     113.75     -30.89     6.13     
 362.5000      -32.28     8.95     -0.32     111.11     -0.32     111.09     -32.22     3.2     
 365.0000      -33.89     6.45     -0.32     108.44     -0.33     108.34     -33.81     0.48     
 367.5000      -36.06     4.02     -0.34     105.66     -0.33     105.54     -35.88     -2.39     
 370.0000      -39.16     1.43     -0.34     102.88     -0.34     102.76     -38.83     -4.83     
 372.5000      -44.51     0.92     -0.35     100.01     -0.34     99.97     -43.7     -7.52     
 375.0000      -61.12     13.4     -0.35     97.14     -0.35     97.05     -56.35     -7.04     
 377.5000      -46.68     168.59     -0.37     94.22     -0.36     94.12     -48.51     157.8     
 380.0000      -39.99     167.24     -0.37     91.22     -0.37     91.07     -40.93     158.91     
 382.5000      -36     164.73     -0.38     88.13     -0.38     88.08     -36.8     156.14     
 385.0000      -33.3     161.85     -0.4     85.08     -0.39     84.98     -33.97     153.09     
 387.5000      -31.19     158.75     -0.41     81.97     -0.4     81.84     -31.67     150.18     
 390.0000      -29.49     155.92     -0.41     78.71     -0.4     78.6     -29.91     147.17     
 392.5000      -28.05     153.04     -0.42     75.45     -0.42     75.38     -28.42     143.43     
 395.0000      -26.79     150     -0.43     72.12     -0.43     72.04     -27.17     140.02     
 397.5000      -25.75     146.95     -0.46     68.73     -0.45     68.58     -26.03     136.13     
 400.0000      -24.78     143.88     -0.47     65.3     -0.47     65.13     -25     132.34     
 402.5000      -23.92     140.66     -0.48     61.73     -0.48     61.59     -24.12     128.54     
 405.0000      -23.15     137.41     -0.51     58.12     -0.5     57.95     -23.32     124.48     
 407.5000      -22.45     134.16     -0.52     54.4     -0.53     54.22     -22.57     120.35     
 410.0000      -21.81     130.8     -0.54     50.6     -0.54     50.46     -21.91     116.21     
 412.5000      -21.23     127.44     -0.56     46.81     -0.56     46.58     -21.32     111.95     
 415.0000      -20.7     123.8     -0.58     42.8     -0.58     42.57     -20.79     107.39     
 417.5000      -20.22     120.09     -0.6     38.59     -0.6     38.41     -20.28     102.89     
 420.0000      -19.78     116.18     -0.62     34.36     -0.62     34.24     -19.83     98.26     
 422.5000      -19.39     112.41     -0.64     30.02     -0.64     29.81     -19.43     93.39     
 425.0000      -19.02     108.12     -0.66     25.46     -0.66     25.33     -19.06     88.45     
 427.5000      -18.7     103.91     -0.69     20.81     -0.69     20.75     -18.72     83.26     
 430.0000      -18.39     99.48     -0.72     15.95     -0.72     15.77     -18.41     78     
 432.5000      -18.14     94.76     -0.76     10.92     -0.75     10.8     -18.13     72.6     
 435.0000      -17.9     89.66     -0.79     5.77     -0.78     5.54     -17.84     66.97     
 437.5000      -17.63     84.29     -0.83     0.33     -0.82     0.12     -17.57     60.95     
 440.0000      -17.37     78.35     -0.87     -5.36     -0.87     -5.53     -17.3     55.07     
 442.5000      -17.13     72.21     -0.92     -11.27     -0.91     -11.46     -16.96     48.77     
 445.0000      -16.83     65.16     -0.98     -17.55     -0.97     -17.77     -16.61     42.28     
 447.5000      -16.48     57.6     -1.04     -24.03     -1.04     -24.37     -16.16     35.58     
 450.0000      -16.02     49.03     -1.11     -31.05     -1.12     -31.38     -15.62     28.65     
 452.5000      -15.44     39.5     -1.21     -38.55     -1.2     -38.82     -14.98     21.52     
 455.0000      -14.7     29.04     -1.33     -46.54     -1.33     -46.72     -14.17     14.12     
 457.5000      -13.75     17.68     -1.46     -55.06     -1.47     -55.41     -13.2     6.15     
 460.0000      -12.61     5.28     -1.64     -64.34     -1.66     -64.74     -12.07     -2.44     
 462.5000      -11.3     -7.97     -1.91     -74.45     -1.92     -74.81     -10.78     -11.63     
 465.0000      -9.85     -21.85     -2.26     -85.49     -2.26     -85.93     -9.42     -21.82     
 467.5000      -8.36     -36.46     -2.76     -97.57     -2.78     -97.98     -8     -33     
 470.0000      -6.88     -51.49     -3.47     -110.56     -3.5     -110.95     -6.6     -45.26     
 472.5000      -5.54     -66.9     -4.45     -124.25     -4.49     -124.66     -5.33     -58.36     
 475.0000      -4.37     -82.32     -5.74     -138.23     -5.79     -138.61     -4.21     -71.92     
 477.5000      -3.44     -97.26     -7.38     -151.82     -7.42     -152.3     -3.31     -85.57     
 480.0000      -2.72     -111.49     -9.32     -164.77     -9.39     -165.17     -2.64     -98.89     
 482.5000      -2.2     -124.58     -11.56     -176.59     -11.65     -177.01     -2.14     -111.34     
 485.0000      -1.82     -136.45     -14.05     172.76     -14.14     172.5     -1.79     -122.89     
 487.5000      -1.56     -147.13     -16.78     163.41     -16.88     163.34     -1.54     -133.39     
 490.0000      -1.37     -156.72     -19.77     155.56     -19.9     155.43     -1.37     -143.09     
 492.5000      -1.23     -165.42     -23.12     148.95     -23.24     148.96     -1.24     -151.8     
 495.0000      -1.12     -173.29     -26.9     144.26     -27.03     144.19     -1.13     -159.77     
 497.5000      -1.03     179.56     -31.38     143.06     -31.54     143.46     -1.05     -167.15     
 500.0000      -0.96     173.07     -36.95     150.35     -37.16     151.02     -0.98     -173.87     
 502.5000      -0.91     167.02     -42.99     -176.63     -43.18     -175.8     -0.94     179.8     
 505.0000      -0.86     161.5     -42.65     -127.03     -42.55     -125.43     -0.89     173.95     
 507.5000      -0.81     156.27     -39.76     -109.13     -39.67     -109.12     -0.85     168.49     
 510.0000      -0.78     151.47     -38.13     -105.05     -38.05     -105.1     -0.81     163.36     
 512.5000      -0.74     146.9     -37.23     -104.86     -37.25     -105.15     -0.79     158.55     
 515.0000      -0.71     142.64     -37     -106.42     -37.01     -106.66     -0.76     154     
 517.5000      -0.69     138.63     -37.05     -108.52     -37.11     -108.54     -0.73     149.7     
 520.0000      -0.66     134.71     -37.49     -111.13     -37.49     -110.59     -0.7     145.69     
 522.5000      -0.64     131.14     -37.99     -112.95     -38.07     -113.22     -0.68     141.76     
 525.0000      -0.62     127.71     -38.74     -115.25     -38.83     -115.57     -0.67     137.99     
 527.5000      -0.59     124.42     -39.69     -117.71     -39.76     -117.36     -0.64     134.45     
 530.0000      -0.58     121.24     -40.68     -119.79     -40.77     -119.65     -0.62     131.07     
 532.5000      -0.56     118.26     -41.88     -122.11     -42.02     -121.12     -0.6     127.87     
 535.0000      -0.54     115.36     -43.29     -123.59     -43.36     -123.4     -0.58     124.75     
 537.5000      -0.52     112.61     -44.79     -125.06     -44.94     -125.48     -0.56     121.79     
 540.0000      -0.51     109.99     -46.69     -124.49     -46.73     -126.39     -0.55     118.89     
 542.5000      -0.49     107.39     -48.7     -125.17     -48.97     -125.53     -0.54     116.14     
 545.0000      -0.48     104.9     -51.13     -125.18     -51.41     -123.64     -0.52     113.48     
 547.5000      -0.47     102.45     -54.52     -120.13     -54.66     -123.78     -0.51     110.87     
 550.0000      -0.47     100.28     -58.54     -113.38     -58.49     -111.02     -0.5     108.45     
 560.0000      -0.45     91.51     -56.33     6.96     -55.78     5.2     -0.47     99.3     
 570.0000      -0.41     83.97     -51.29     11.77     -50.96     11.19     -0.44     91.15     
 580.0000      -0.39     77.17     -49.32     10.22     -49.4     10.11     -0.42     83.78     
 590.0000      -0.35     70.98     -49.5     5.56     -49.54     6.74     -0.37     77.13     
 600.0000      -0.32     65.3     -50.47     1.25     -50.2     1.46     -0.36     70.97     
 610.0000      -0.31     60.02     -52.51     0.88     -52.52     -0.8     -0.34     65.34     
 620.0000      -0.29     54.97     -55.01     -1.52     -54.83     -1.26     -0.32     60.02     
 630.0000      -0.27     50.37     -59.24     -5.05     -60.27     -2.31     -0.29     55.1     
 640.0000      -0.25     45.92     -69.76     19.54     -69     24.12     -0.28     50.41     
 650.0000      -0.24     41.66     -63.14     134.35     -62.91     132.05     -0.27     45.93     
 660.0000      -0.23     37.76     -56.89     143.24     -56.96     147.05     -0.25     41.77     
 670.0000      -0.22     33.97     -53.42     142.01     -53.4     141.96     -0.24     37.83     
 680.0000      -0.2     30.35     -51.07     140.85     -50.76     142.04     -0.22     34.03     
 690.0000      -0.2     26.89     -49.63     137.25     -49.46     136.52     -0.2     30.34     
 700.0000      -0.17     23.56     -48.57     133.62     -48.49     133.2     -0.2     26.92     
 710.0000      -0.17     20.25     -47.73     133.17     -47.83     133.16     -0.19     23.53     
 720.0000      -0.15     17.15     -46.69     131.84     -46.72     131.23     -0.18     20.26     
 730.0000      -0.15     14.13     -46.03     128.4     -45.87     128.61     -0.18     17.11     
 740.0000      -0.14     11.22     -45.44     125.75     -45.48     125.19     -0.16     14.17     
 750.0000      -0.15     8.39     -45.28     122.54     -45.24     121.82     -0.15     11.19     
 760.0000      -0.12     5.68     -45.17     120.61     -45.1     120.61     -0.16     8.38     
 770.0000      -0.12     3.01     -44.87     119.48     -44.79     119.34     -0.14     5.54     
 780.0000      -0.12     0.44     -44.45     117.68     -44.49     118.34     -0.13     2.83     
 790.0000      -0.12     -2.11     -44.09     116.01     -44.1     115.79     -0.13     0.26     
 800.0000      -0.11     -4.58     -43.92     112.13     -43.87     112.27     -0.12     -2.29     
 810.0000      -0.11     -6.98     -44.05     108.59     -43.98     108.77     -0.11     -4.89     
 820.0000      -0.09     -9.35     -44.15     106.82     -44.02     106.58     -0.11     -7.37     
 830.0000      -0.1     -11.73     -44.3     107.12     -44.28     105.82     -0.11     -9.69     
 840.0000      -0.09     -14.07     -43.97     105.93     -44.18     105.67     -0.09     -12.14     
 850.0000      -0.1     -16.33     -43.81     103.72     -43.9     103.4     -0.1     -14.38     
 860.0000      -0.08     -18.58     -43.7     100.66     -43.8     100.87     -0.09     -16.73     
 870.0000      -0.08     -20.7     -43.85     97.08     -43.94     97.79     -0.08     -18.96     
 880.0000      -0.07     -22.89     -44.24     95.67     -44.23     95.18     -0.08     -21.17     
 890.0000      -0.08     -25.03     -44.53     95.23     -44.43     95.23     -0.08     -23.29     
 900.0000      -0.08     -27.08     -44.34     95.44     -44.44     93.73     -0.08     -25.48     
 910.0000      -0.07     -29.04     -44.29     92.23     -44.39     93.08     -0.07     -27.5     
 920.0000      -0.06     -31.07     -44.44     89.64     -44.26     89.59     -0.06     -29.57     
 930.0000      -0.06     -33.01     -44.57     87.23     -44.41     86.78     -0.05     -31.64     
 940.0000      -0.07     -34.96     -44.87     86.08     -44.87     84.74     -0.07     -33.5     
 950.0000      -0.05     -36.91     -45.02     84.72     -45.04     84.66     -0.06     -35.5     
 960.0000      -0.06     -38.79     -45.06     84.29     -45.32     83.03     -0.06     -37.46     
 970.0000      -0.05     -40.76     -45.31     82.01     -45.25     82.44     -0.06     -39.43     
 980.0000      -0.03     -42.6     -45.18     80.97     -45.41     81.43     -0.06     -41.26     
 990.0000      -0.04     -44.48     -45.29     78.8     -45.33     79.59     -0.05     -43.11     
1000.0000      -0.05     -46.28     -45.55     77.4     -45.4     76.69     -0.04     -45.11     
1025.0000      -0.04     -50.85     -45.95     73.1     -46.14     73.1     -0.04     -49.63     
1050.0000      -0.05     -55.17     -46.32     69.41     -46.44     69.3     -0.07     -54.12     
1075.0000      -0.04     -59.51     -46.95     65.74     -46.88     65.79     -0.03     -58.44     
1100.0000      -0.03     -63.82     -47.25     63.09     -47.38     64.16     -0.03     -62.78     
1125.0000      -0.04     -67.86     -47.79     59.32     -47.73     60.11     -0.04     -66.79     
1150.0000      -0.05     -71.74     -48.11     55.36     -48.4     56.95     -0.04     -70.95     
1175.0000      -0.03     -75.95     -48.72     53.23     -48.64     52.66     -0.03     -74.92     
1200.0000      -0.05     -79.98     -49.16     49.74     -49.24     51.08     -0.04     -78.96     
1225.0000      -0.06     -83.95     -49.43     46.22     -49.57     47.62     -0.05     -82.59     
1250.0000      -0.03     -87.62     -50.23     42.21     -50.17     43.29     -0.02     -86.53     
1275.0000      -0.04     -91.53     -50.52     41.59     -50.56     42.09     -0.04     -90.48     
1300.0000      -0.04     -95.2     -50.62     36.91     -50.77     37.13     -0.04     -94.24     
1325.0000      -0.01     -98.82     -51.82     37.85     -51.71     36.35     -0.02     -97.96     
1350.0000      -0.03     -102.63     -51.78     33.65     -51.68     32.59     -0.02     -101.55     
1375.0000      -0.03     -106.19     -52.82     25.02     -52.59     27.4     -0.04     -104.96     
1400.0000      -0.04     -109.66     -53.3     28.47     -53.12     30.2     -0.02     -108.66     
1425.0000      -0.04     -113.39     -53.09     19.78     -52.76     21.57     -0.02     -112.33     
1450.0000      -0.05     -116.81     -54.4     19.41     -54.23     20.68     -0.04     -115.88     
1475.0000      -0.06     -120.32     -54.5     16.85     -53.87     19.2     -0.02     -119.25     
1500.0000      -0.04     -124.14     -55.15     14.6     -54.94     10.13     -0.03     -122.76     
1525.0000      -0.04     -127.5     -55.56     12.7     -55.7     12.51     -0.03     -126.1     
1550.0000      -0.06     -131.02     -55.57     11.97     -55.6     9.79     -0.05     -129.67     
1575.0000      -0.03     -134.66     -56.81     4.13     -56.73     5.54     -0.03     -133.14     
1600.0000      -0.06     -137.81     -57.31     8.18     -56.88     7.29     -0.05     -136.52     
1625.0000      -0.06     -141.21     -57.39     -4.18     -56.28     -0.31     -0.04     -139.73     
1650.0000      -0.06     -144.6     -57.9     -3.73     -58.23     2.1     -0.01     -142.88     
1675.0000      -0.09     -148.01     -57.2     -9.61     -57.67     -6.01     -0.07     -146.21     
1700.0000      -0.07     -151.26     -58.21     -20.44     -58.32     -18.53     -0.03     -149.36     
1725.0000      -0.03     -154.66     -59.68     -9.34     -60.24     -15.68     -0.05     -152.93     
1750.0000      -0.07     -157.93     -58.99     -11.72     -58.42     -11.3     -0.04     -156.14     
1775.0000      -0.07     -160.94     -60.17     -13.1     -60.44     -20.02     -0.07     -159.15     
1800.0000      -0.05     -164.3     -60.11     -14.81     -60.46     -17.14     -0.03     -162.42     
1825.0000      -0.08     -167.72     -61.57     -25.67     -60.9     -25.92     -0.08     -165.7     
1850.0000      -0.06     -170.71     -61.34     -22.04     -60.87     -23.9     -0.07     -168.63     
1875.0000      -0.06     -174.05     -60.49     -26.78     -60.87     -26.48     -0.07     -171.86     
1900.0000      -0.07     -177.32     -62.29     -36.13     -60.69     -32.63     -0.06     -175.04     
1925.0000      -0.09     179.72     -60.67     -47.75     -61.29     -50.03     -0.08     -178.21     
1950.0000      -0.09     176.52     -64.11     -32.58     -63.41     -41.34     -0.07     178.99     
1975.0000      -0.09     173.45     -63.94     -42.09     -66.52     -45.81     -0.06     175.86     
2000.0000      -0.11     170.29     -63.29     -36.53     -63.47     -43.29     -0.07     172.84     
2025.0000      -0.1     167.05     -59.73     -63.21     -59.79     -64.06     -0.07     169.7     
2050.0000      -0.08     163.69     -60.66     -71.1     -61.09     -69.11     -0.08     166.44     
2075.0000      -0.1     160.44     -61.13     -51.55     -61.23     -55.08     -0.09     163.2     
2100.0000      -0.1     157.26     -59.18     -94.63     -59.02     -96.72     -0.09     160.36     
2125.0000      -0.1     154.04     -57.21     -89.52     -58.8     -85.74     -0.08     157.26     
2150.0000      -0.14     150.72     -52.83     -106.37     -52.28     -107.9     -0.11     154.31     
2175.0000      -0.12     147.82     -53.13     -170.44     -53.96     -179.35     -0.09     151.51     
2200.0000      -0.11     144.48     -57.09     159.42     -58.04     165.99     -0.08     148.41     
2225.0000      -0.11     141.5     -63.53     148.16     -63.13     158.53     -0.08     145.35     
2250.0000      -0.11     138.63     -69.82     -160.69     -67.52     -173.26     -0.09     142.47     
2275.0000      -0.11     135.92     -61.34     -144.21     -61.14     -149.03     -0.09     139.57     
2300.0000      -0.11     132.93     -64.19     151.08     -68.02     154.77     -0.09     136.52     
2325.0000      -0.11     129.99     -61.1     -155.27     -60.64     -151.41     -0.11     133.54     
2350.0000      -0.12     126.81     -53.17     169.78     -54.58     165.98     -0.11     130.41     
2375.0000      -0.12     123.63     -60     132.21     -59.91     130.09     -0.1     127.61     
2400.0000      -0.1     120.55     -59.33     140.27     -59.29     139.16     -0.13     124.66     
2425.0000      -0.12     117.57     -63.3     108.37     -64.47     108.49     -0.11     121.79     
2450.0000      -0.13     114.55     -68.29     -136.9     -68.18     -144.08     -0.11     118.86     
2475.0000      -0.12     111.9     -63.69     -156.75     -62.41     -152.91     -0.12     115.83     
2500.0000      -0.14     108.82     -52.69     -154.75     -52.95     -157.69     -0.14     112.82     
2525.0000      -0.13     106.19     -52.86     137.3     -53.05     144.3     -0.12     110.26     
2550.0000      -0.11     103.34     -56.14     140.8     -55.65     142.27     -0.11     107.06     
2575.0000      -0.13     100.71     -54.79     126.39     -54.6     136.68     -0.11     104.12     
2600.0000      -0.1     97.81     -52.03     120.07     -51.45     116.83     -0.14     101.27     
2625.0000      -0.12     95.02     -54.9     99.28     -55.78     97.15     -0.12     98.53     
2650.0000      -0.13     91.58     -55.41     109.57     -54.46     108.57     -0.14     95.61     
2675.0000      -0.14     88.75     -61.41     110.06     -61.19     108.61     -0.15     92.81     
2700.0000      -0.13     85.6     -58.06     139.36     -58.16     150.34     -0.13     89.67     
2725.0000      -0.15     83.06     -54.39     103.32     -53.86     95.28     -0.11     86.69     
2750.0000      -0.17     80.17     -51.24     164.94     -51.29     167.41     -0.13     83.7     
2775.0000      -0.16     77.51     -48.88     111.68     -47.89     110.63     -0.13     81.26     
2800.0000      -0.16     74.13     -51.51     117.89     -51.61     114.48     -0.13     78.32     
2825.0000      -0.12     71.2     -52.11     102.03     -52.04     103.95     -0.15     75.45     
2850.0000      -0.13     68.2     -52.85     82.67     -53.01     84.08     -0.13     72.34     
2875.0000      -0.17     65.14     -56.79     85.66     -56.15     87.58     -0.14     69.29     
2900.0000      -0.18     62.07     -50.86     -175.68     -49.96     -175.95     -0.15     66.27     
2925.0000      -0.15     60.34     -49.13     112.3     -48.94     115.31     -0.15     63.57     
2950.0000      -0.15     56.96     -49.9     110.34     -49.54     108.7     -0.13     60.74     
2975.0000      -0.17     54.4     -48.6     91.93     -48.68     94.96     -0.15     57.81     
3000.0000      -0.19     51.31     -50.18     136.59     -49.14     135.73     -0.12     55.1     
3025.0000      -0.15     48.55     -45.63     103.71     -46.5     103.75     -0.15     52.28     
3050.0000      -0.18     45.86     -44.27     76.89     -43.93     76.63     -0.17     49.25     
3075.0000      -0.16     42.98     -47.91     90.6     -48.38     87.99     -0.15     46.85     
3100.0000      -0.18     40.08     -45.28     101.66     -45.11     104.98     -0.16     43.69     
3125.0000      -0.22     37.17     -43.45     105.02     -43.58     101.05     -0.18     40.89     
3150.0000      -0.17     34.62     -41.55     89.62     -41.76     89.89     -0.2     38.57     
3175.0000      -0.14     31.47     -39.65     89.93     -39.66     88.27     -0.2     35.93     
3200.0000      -0.25     29.11     -38.96     43.23     -38.96     44.98     -0.14     33     
3225.0000      -0.14     26.73     -43.83     44.26     -43.71     40.93     -0.17     30.12     
3250.0000      -0.12     23.52     -44.23     62.4     -44.83     67.32     -0.14     27.15     
3275.0000      -0.25     20.25     -41.4     60.45     -40.78     63.08     -0.16     24.16     
3300.0000      -0.2     17.85     -40.47     36.96     -41.12     36.09     -0.22     21.6     
3325.0000      -0.13     14.78     -45.61     47.72     -45.43     53.28     -0.18     18.54     
3350.0000      -0.27     11.45     -36.95     61.87     -37.09     58.13     -0.24     16.47     
3375.0000      -0.19     10.3     -36.89     33.79     -37.17     38.4     -0.24     13.16     
3400.0000      -0.17     6.98     -39.45     8.17     -39.12     6.56     -0.22     10.53     
3425.0000      -0.17     3.76     -41.36     37.28     -41.56     41.37     -0.28     7.39     
3450.0000      -0.2     0.96     -38.16     19.16     -37.91     18.5     -0.19     4.74     
3475.0000      -0.2     -1.58     -41.45     6.1     -41.53     7.51     -0.19     1.57     
3500.0000      -0.25     -5.16     -43.5     7.57     -43.54     5.15     -0.23     -1.15     
3525.0000      -0.28     -7.15     -37.76     44.97     -37.97     44.97     -0.19     -3.9     
3550.0000      -0.23     -9.82     -35.62     26.22     -35.23     24.41     -0.18     -6.78     
3575.0000      -0.17     -13.6     -38.29     12.38     -39.02     11.5     -0.14     -10.05     
3600.0000      -0.24     -16.82     -34.87     26.14     -34.11     29.72     -0.32     -12.97     
3625.0000      -0.25     -19.34     -41.54     11.14     -41.04     8.81     -0.22     -15.22     
3650.0000      -0.32     -22.76     -37     11.39     -37.58     15.15     -0.15     -18.43     
3675.0000      -0.28     -24.76     -37.29     0.34     -36.66     -0.58     -0.12     -21.79     
3700.0000      -0.26     -28.02     -36.85     5.17     -37.54     4.39     -0.15     -25.1     
3725.0000      -0.31     -30.41     -35.61     21.24     -35.21     24.77     -0.27     -28.35     
3750.0000      -0.2     -33.62     -32.91     -3.29     -32.76     -4.79     -0.26     -30.59     
3775.0000      -0.32     -37.66     -35.75     -28.16     -36.09     -27.96     -0.33     -33.41     
3800.0000      -0.25     -39.77     -35.36     -7.16     -35.72     -5.2     -0.28     -36.73     
3825.0000      -0.21     -42.72     -35.27     1.11     -34.74     2.24     -0.24     -39.87     
3850.0000      -0.17     -45.98     -33.81     -4.27     -34.48     -3.34     -0.38     -42.65     
3875.0000      -0.2     -48.98     -30.78     -9.17     -30.19     -4.15     -0.42     -44.38     
3900.0000      -0.24     -51.59     -31.04     -41.65     -31.28     -47.13     -0.37     -47.61     
3925.0000      -0.26     -55.01     -30.7     -26.13     -31.23     -20.82     -0.27     -50     
3950.0000      -0.29     -57.68     -30.76     -34.07     -29.58     -34.67     -0.28     -53.53     
3975.0000      -0.37     -59.73     -31.14     -58.16     -32.29     -60.43     -0.37     -56.93     
4000.0000      -0.44     -63.86     -32.73     -45.59     -32.22     -38.16     -0.5     -58.15     
4025.0000      -0.31     -65.19     -30.04     -44.1     -29.82     -49.68     -0.34     -61.86     
4050.0000      -0.32     -68.29     -33.59     -50.7     -33.66     -44.81     -0.29     -64.14     
4075.0000      -0.31     -71.61     -30.03     -58.56     -29.62     -59.46     -0.38     -68.09     
4100.0000      -0.33     -75.05     -30.97     -47.22     -30.86     -46.88     -0.39     -71.16     
4125.0000      -0.48     -77.87     -27.4     -48.41     -27.06     -49.16     -0.38     -74.09     
4150.0000      -0.63     -80.28     -28.91     -78.29     -28.79     -76.39     -0.48     -76.05     
4175.0000      -0.77     -81.91     -28.13     -97.97     -27.88     -100.84     -0.41     -79.93     
4200.0000      -0.44     -84.39     -35.35     -102.34     -35.74     -99.59     -0.57     -82.81     
4225.0000      -0.37     -88.3     -35.37     -91.89     -35.19     -90.89     -0.62     -84.64     
4250.0000      -0.33     -91.79     -30.27     -58     -30.23     -62.02     -0.31     -87.96     
4275.0000      -0.39     -95.05     -31.19     -87.52     -31.27     -87.16     -0.43     -91.66     
4300.0000      -0.6     -98.18     -31.63     -49.17     -31.31     -51.68     -0.3     -94.3     
4325.0000      -0.66     -101.67     -30.24     -60.87     -30.15     -58.87     -0.29     -98.69     
4350.0000      -0.72     -103.01     -28.21     -76.56     -28.07     -77.57     -0.64     -102.54     
4375.0000      -0.41     -106.06     -26.21     -81.86     -26.32     -83.45     -0.57     -104.71     
4400.0000      -0.45     -110.24     -26.95     -88.48     -27.18     -91.3     -0.61     -107.68     
4425.0000      -0.46     -113.18     -26.42     -83.59     -26.65     -81.81     -0.53     -110.44     
4450.0000      -0.65     -116.85     -24.1     -82.97     -23.68     -87.23     -0.65     -115.1     
4475.0000      -0.71     -119.6     -23.88     -100.71     -24.54     -101.74     -0.59     -118.64     
4500.0000      -0.53     -123.21     -23.33     -96.09     -22.91     -95.91     -0.94     -119.13     
4525.0000      -0.73     -127.56     -23.87     -117.3     -24.41     -121.75     -0.67     -122.63     
4550.0000      -0.72     -130.38     -23.73     -102.99     -23.88     -100.38     -0.74     -126.63     
4575.0000      -1.14     -134.11     -22.46     -119.73     -22.34     -122.42     -0.79     -129.65     
4600.0000      -0.97     -136.34     -20.51     -126.81     -21.28     -127.61     -1.35     -133.59     
4625.0000      -0.71     -139.23     -25.12     -123.02     -24.67     -119.24     -0.96     -134.63     
4650.0000      -1.12     -144.4     -21.42     -136.27     -21.59     -139.4     -1.38     -138.77     
4675.0000      -0.98     -146.22     -22.41     -140.82     -22.88     -139.61     -1.27     -138.65     
4700.0000      -1.24     -148.44     -21.42     -133.74     -21.35     -132.5     -0.8     -144.55     
4725.0000      -1.08     -152.23     -22.31     -149.46     -22.4     -150.54     -1.27     -149.03     
4750.0000      -1.44     -155.71     -19.51     -147.19     -19.96     -146     -1.2     -148.8     
4775.0000      -1.98     -160.9     -15.48     -158.79     -15.06     -159.38     -2.16     -153.02     
4800.0000      -1.59     -157.73     -19.51     172.66     -19.8     170.95     -1.33     -152.04     
4825.0000      -1.19     -158.58     -22.09     143.91     -22.44     147.27     -1.24     -154.8     
4850.0000      -1.18     -164.84     -25.96     -179.12     -25.74     -179.27     -1.06     -161.14     
4875.0000      -1.36     -167.13     -20.63     175.15     -21.27     175.63     -1.21     -163.28     
4900.0000      -1.47     -173.51     -19.53     168.84     -19.1     170.07     -1.89     -165.49     
4925.0000      -1.02     -171.92     -26.98     144.51     -27.25     146.91     -1.17     -165.76     
4950.0000      -1.54     -176.2     -21.7     155.73     -21.85     156.4     -1.15     -172.09     
4975.0000      -1.24     -178.88     -25.17     139.52     -25.1     139.81     -1.31     -173.83     
5000.0000      -1.28     178.23     -28.05     164.2     -28.17     164.8     -1.19     -178.24     
