!Created: 07-15-2009 at 1:45 PM
!MODEL: SXLP-450+
!S/N: U6_TB+85
#MHz S dB R 50
!Frequency     S11 dB   S11 DEG  S21 dB   S21 DEG  S12 dB   S12 DEG  S22 dB   S22 DEG  
   1.0000      -46.21     21.57     -0.04     -0.63     -0.03     -0.62     -46.18     21.36     
   2.5000      -43.53     43.23     -0.04     -1.52     -0.05     -1.42     -43.55     42.87     
   5.0000      -39.65     57.04     -0.05     -3.02     -0.05     -2.96     -39.7     56.59     
  10.0000      -34.85     64.45     -0.06     -5.95     -0.06     -5.84     -34.9     63.75     
  15.0000      -31.92     65.38     -0.06     -8.77     -0.07     -8.75     -31.99     64.84     
  20.0000      -29.9     64.23     -0.08     -11.66     -0.07     -11.66     -29.88     63.93     
  25.0000      -28.25     63.39     -0.08     -14.52     -0.08     -14.54     -28.3     62.59     
  30.0000      -27.05     61.57     -0.1     -17.41     -0.09     -17.43     -27.07     60.79     
  35.0000      -26.04     59.57     -0.09     -20.23     -0.09     -20.23     -25.99     58.82     
  40.0000      -25.26     57.41     -0.11     -23.04     -0.12     -23.12     -25.2     56.62     
  45.0000      -24.59     54.96     -0.11     -25.93     -0.12     -25.97     -24.47     54.26     
  50.0000      -23.99     52.75     -0.12     -28.8     -0.13     -28.82     -23.87     51.75     
  55.0000      -23.48     50.15     -0.12     -31.7     -0.14     -31.72     -23.36     49.26     
  60.0000      -23.01     47.69     -0.14     -34.51     -0.14     -34.57     -22.9     46.68     
  65.0000      -22.58     45.19     -0.15     -37.48     -0.14     -37.43     -22.46     44.14     
  70.0000      -22.18     42.56     -0.16     -40.26     -0.15     -40.33     -22.1     41.03     
  75.0000      -21.81     39.84     -0.17     -43.16     -0.17     -43.21     -21.73     38.53     
  80.0000      -21.47     36.97     -0.18     -46.11     -0.17     -46.09     -21.38     35.58     
  85.0000      -21.12     34.36     -0.19     -48.91     -0.18     -48.96     -21.05     32.8     
  90.0000      -20.81     31.4     -0.18     -51.77     -0.19     -51.88     -20.75     29.8     
  95.0000      -20.53     28.5     -0.2     -54.7     -0.19     -54.75     -20.45     26.78     
 100.0000      -20.28     25.72     -0.2     -57.57     -0.2     -57.56     -20.18     24.01     
 105.0000      -20.08     23.02     -0.21     -60.46     -0.2     -60.49     -19.97     20.95     
 110.0000      -19.88     20.21     -0.21     -63.4     -0.22     -63.42     -19.75     18.07     
 115.0000      -19.74     17.57     -0.21     -66.34     -0.22     -66.27     -19.59     15.1     
 120.0000      -19.63     14.69     -0.23     -69.3     -0.22     -69.29     -19.47     12.24     
 125.0000      -19.54     12.13     -0.23     -72.24     -0.22     -72.29     -19.39     9.28     
 130.0000      -19.53     9.39     -0.24     -75.14     -0.24     -75.23     -19.36     6.41     
 132.5000      -19.51     8.16     -0.25     -76.64     -0.24     -76.7     -19.37     5.01     
 135.0000      -19.52     6.52     -0.24     -78.12     -0.23     -78.15     -19.41     3.63     
 137.5000      -19.54     5.27     -0.24     -79.62     -0.25     -79.63     -19.44     1.76     
 140.0000      -19.61     3.95     -0.25     -81.1     -0.24     -81.18     -19.48     0.4     
 142.5000      -19.63     2.49     -0.26     -82.55     -0.25     -82.69     -19.52     -1.15     
 145.0000      -19.68     1.14     -0.26     -84.08     -0.25     -84.17     -19.61     -2.45     
 147.5000      -19.76     -0.37     -0.25     -85.6     -0.25     -85.59     -19.68     -4.03     
 150.0000      -19.86     -1.65     -0.26     -87.07     -0.25     -87.15     -19.77     -5.5     
 152.5000      -19.96     -3.1     -0.25     -88.56     -0.26     -88.66     -19.86     -6.92     
 155.0000      -20.07     -4.49     -0.25     -90.1     -0.25     -90.2     -19.98     -8.5     
 157.5000      -20.19     -5.98     -0.25     -91.63     -0.26     -91.67     -20.11     -10.08     
 160.0000      -20.34     -7.32     -0.25     -93.17     -0.26     -93.24     -20.23     -11.63     
 162.5000      -20.48     -8.69     -0.26     -94.63     -0.25     -94.75     -20.38     -13.1     
 165.0000      -20.65     -10.14     -0.25     -96.27     -0.24     -96.3     -20.55     -14.69     
 167.5000      -20.83     -11.48     -0.25     -97.78     -0.24     -97.89     -20.7     -16.29     
 170.0000      -21.01     -12.67     -0.25     -99.34     -0.25     -99.39     -20.89     -17.82     
 172.5000      -21.23     -13.99     -0.26     -100.9     -0.25     -100.98     -21.08     -19.2     
 175.0000      -21.42     -15.43     -0.26     -102.46     -0.26     -102.47     -21.28     -20.82     
 177.5000      -21.64     -16.7     -0.27     -104.03     -0.26     -104.07     -21.5     -22.37     
 180.0000      -21.9     -18.15     -0.26     -105.6     -0.26     -105.64     -21.69     -24.14     
 182.5000      -22.11     -19.21     -0.26     -107.18     -0.27     -107.25     -21.92     -25.46     
 185.0000      -22.36     -20.6     -0.27     -108.74     -0.27     -108.83     -22.17     -26.84     
 187.5000      -22.6     -21.99     -0.27     -110.36     -0.27     -110.45     -22.42     -28.49     
 190.0000      -22.85     -23.35     -0.27     -111.98     -0.27     -111.99     -22.69     -29.81     
 192.5000      -23.13     -24.47     -0.27     -113.55     -0.28     -113.63     -22.96     -31.37     
 195.0000      -23.44     -25.75     -0.28     -115.09     -0.28     -115.26     -23.27     -32.82     
 197.5000      -23.73     -26.92     -0.28     -116.74     -0.28     -116.84     -23.56     -34.38     
 200.0000      -24.04     -28.2     -0.28     -118.36     -0.28     -118.47     -23.9     -35.86     
 202.5000      -24.36     -29.55     -0.27     -120.11     -0.28     -120.08     -24.21     -37.3     
 205.0000      -24.73     -30.68     -0.28     -121.65     -0.28     -121.71     -24.59     -38.74     
 207.5000      -25.09     -32.04     -0.27     -123.33     -0.28     -123.34     -24.98     -40.02     
 210.0000      -25.52     -33.07     -0.28     -124.9     -0.29     -124.98     -25.38     -41.38     
 212.5000      -25.92     -34.25     -0.28     -126.6     -0.28     -126.68     -25.83     -42.62     
 215.0000      -26.38     -35.13     -0.28     -128.21     -0.28     -128.28     -26.31     -44.04     
 217.5000      -26.88     -36.33     -0.28     -129.91     -0.29     -129.98     -26.82     -45.31     
 220.0000      -27.45     -37.12     -0.29     -131.6     -0.29     -131.72     -27.38     -46.5     
 222.5000      -28.04     -37.85     -0.29     -133.27     -0.29     -133.36     -28     -47.6     
 225.0000      -28.71     -38.53     -0.29     -135.05     -0.3     -135.02     -28.66     -48.67     
 227.5000      -29.4     -38.41     -0.3     -136.73     -0.29     -136.77     -29.42     -49.49     
 230.0000      -30.18     -38.5     -0.3     -138.4     -0.29     -138.49     -30.25     -50.59     
 232.5000      -30.96     -37.6     -0.3     -140.23     -0.31     -140.2     -31.19     -51.25     
 235.0000      -31.92     -36.46     -0.31     -141.89     -0.3     -141.98     -32.16     -51.63     
 237.5000      -32.93     -34.33     -0.31     -143.63     -0.31     -143.59     -33.36     -51.68     
 240.0000      -34.02     -31.97     -0.32     -145.36     -0.32     -145.39     -34.67     -50.89     
 242.5000      -35.14     -27.26     -0.31     -147.13     -0.31     -147.23     -36.31     -49.81     
 245.0000      -36.26     -21.06     -0.31     -148.88     -0.32     -148.95     -38.22     -46.36     
 247.5000      -37.39     -12.46     -0.31     -150.73     -0.32     -150.71     -40.51     -40.71     
 250.0000      -38.23     -1.59     -0.32     -152.47     -0.33     -152.53     -43.04     -29.09     
 252.5000      -38.74     11.2     -0.33     -154.33     -0.33     -154.3     -45.44     -5.34     
 255.0000      -38.58     24.52     -0.32     -156.07     -0.33     -156.06     -45.7     29.22     
 257.5000      -37.95     36.49     -0.33     -157.88     -0.33     -157.94     -43.22     53.35     
 260.0000      -36.95     45.5     -0.34     -159.78     -0.33     -159.81     -40.69     65.76     
 262.5000      -35.88     52.91     -0.34     -161.58     -0.34     -161.65     -38.38     71.63     
 265.0000      -34.79     58.36     -0.35     -163.44     -0.35     -163.49     -36.54     74.45     
 267.5000      -33.75     61.46     -0.35     -165.26     -0.35     -165.34     -35.01     75.88     
 270.0000      -32.76     64.01     -0.36     -167.16     -0.36     -167.23     -33.71     75.64     
 272.5000      -31.89     65.72     -0.36     -169.01     -0.36     -169.04     -32.64     75.16     
 275.0000      -31.09     66.5     -0.35     -170.9     -0.36     -170.97     -31.65     74.41     
 277.5000      -30.34     66.96     -0.36     -172.84     -0.37     -172.84     -30.81     73.37     
 280.0000      -29.66     67.02     -0.37     -174.73     -0.38     -174.8     -30.05     71.98     
 282.5000      -29.03     66.81     -0.37     -176.7     -0.37     -176.75     -29.37     70.5     
 285.0000      -28.46     66.08     -0.38     -178.6     -0.39     -178.73     -28.79     68.8     
 287.5000      -27.95     65.11     -0.38     179.39     -0.39     179.33     -28.26     67.24     
 290.0000      -27.5     64.2     -0.38     177.38     -0.39     177.41     -27.79     65.54     
 292.5000      -27.12     62.96     -0.39     175.45     -0.4     175.37     -27.37     63.64     
 295.0000      -26.76     61.67     -0.39     173.41     -0.39     173.36     -26.97     61.8     
 297.5000      -26.45     60.21     -0.39     171.36     -0.4     171.38     -26.66     59.98     
 300.0000      -26.19     58.71     -0.4     169.34     -0.41     169.28     -26.36     57.93     
 302.5000      -25.96     57.14     -0.4     167.3     -0.41     167.23     -26.12     56.07     
 305.0000      -25.81     55.29     -0.41     165.22     -0.41     165.19     -25.9     54.11     
 307.5000      -25.67     53.64     -0.42     163.06     -0.42     163.05     -25.72     52.03     
 310.0000      -25.58     52.05     -0.42     161.03     -0.42     160.88     -25.62     50.08     
 312.5000      -25.52     50.2     -0.43     158.87     -0.42     158.79     -25.49     48.1     
 315.0000      -25.5     48.29     -0.44     156.75     -0.43     156.69     -25.43     46.15     
 317.5000      -25.53     46.48     -0.44     154.56     -0.43     154.41     -25.4     43.88     
 320.0000      -25.53     44.66     -0.44     152.35     -0.45     152.23     -25.42     41.86     
 322.5000      -25.65     42.78     -0.45     150.13     -0.44     150.04     -25.47     39.76     
 325.0000      -25.78     41.01     -0.46     147.95     -0.45     147.82     -25.6     37.69     
 327.5000      -25.94     39.03     -0.46     145.66     -0.46     145.54     -25.72     35.35     
 330.0000      -26.15     37.14     -0.46     143.37     -0.47     143.29     -25.88     33.38     
 332.5000      -26.36     35.17     -0.47     141.08     -0.47     140.9     -26.11     31.07     
 335.0000      -26.67     33.44     -0.47     138.73     -0.47     138.69     -26.4     28.74     
 337.5000      -27.01     31.18     -0.48     136.34     -0.48     136.27     -26.71     26.47     
 340.0000      -27.37     29.14     -0.49     133.98     -0.48     133.81     -27.09     23.89     
 342.5000      -27.84     26.95     -0.49     131.45     -0.48     131.45     -27.57     21.55     
 345.0000      -28.38     25.05     -0.49     129.1     -0.5     128.98     -28.11     19.31     
 347.5000      -29     22.83     -0.49     126.61     -0.51     126.53     -28.77     16.7     
 350.0000      -29.74     20.58     -0.5     124.05     -0.51     124.02     -29.48     14.29     
 352.5000      -30.59     18.1     -0.51     121.5     -0.51     121.45     -30.39     11.75     
 355.0000      -31.72     16     -0.52     118.97     -0.52     118.83     -31.43     9.27     
 357.5000      -32.99     13.42     -0.52     116.29     -0.53     116.21     -32.75     6.61     
 360.0000      -34.72     11.15     -0.53     113.63     -0.54     113.6     -34.38     4.56     
 362.5000      -36.94     9.11     -0.54     110.92     -0.55     110.87     -36.56     2.1     
 365.0000      -40.13     7.29     -0.55     108.18     -0.55     108.09     -39.65     0.27     
 367.5000      -45.78     7.34     -0.56     105.36     -0.55     105.3     -44.71     -0.67     
 370.0000      -66.43     65.59     -0.57     102.61     -0.57     102.47     -60.02     13.79     
 372.5000      -46.18     169.22     -0.58     99.73     -0.58     99.61     -47.72     161.4     
 375.0000      -39.72     170.59     -0.59     96.77     -0.59     96.72     -40.61     162.5     
 377.5000      -36.01     168.61     -0.6     93.82     -0.6     93.73     -36.61     159.75     
 380.0000      -33.41     166.17     -0.61     90.79     -0.61     90.69     -33.96     157.61     
 382.5000      -31.32     163.28     -0.62     87.68     -0.62     87.63     -31.81     154.36     
 385.0000      -29.59     160.24     -0.65     84.55     -0.64     84.52     -30.07     151.22     
 387.5000      -28.16     157.26     -0.66     81.4     -0.64     81.3     -28.54     148.05     
 390.0000      -26.95     154.19     -0.68     78.16     -0.67     78.04     -27.3     144.78     
 392.5000      -25.86     151.42     -0.69     74.88     -0.69     74.68     -26.17     141.26     
 395.0000      -24.88     148.16     -0.71     71.44     -0.7     71.33     -25.18     137.64     
 397.5000      -24.02     145.15     -0.73     68.04     -0.73     67.87     -24.29     133.87     
 400.0000      -23.26     141.92     -0.75     64.47     -0.74     64.36     -23.47     130.16     
 402.5000      -22.55     138.52     -0.77     60.87     -0.77     60.66     -22.74     126.31     
 405.0000      -21.94     135.37     -0.8     57.21     -0.8     57.05     -22.11     122.28     
 407.5000      -21.37     132.11     -0.82     53.47     -0.82     53.26     -21.5     118.13     
 410.0000      -20.87     128.52     -0.85     49.57     -0.85     49.43     -20.96     113.95     
 412.5000      -20.4     124.93     -0.87     45.63     -0.87     45.49     -20.48     109.56     
 415.0000      -19.96     121.3     -0.88     41.57     -0.89     41.42     -20.04     105.08     
 417.5000      -19.6     117.53     -0.92     37.36     -0.91     37.16     -19.63     100.43     
 420.0000      -19.25     113.88     -0.95     32.99     -0.95     32.88     -19.29     95.72     
 422.5000      -18.94     109.67     -0.98     28.61     -0.97     28.35     -18.98     90.75     
 425.0000      -18.65     105.43     -1     23.89     -1     23.79     -18.67     85.79     
 427.5000      -18.42     101.03     -1.03     19.1     -1.04     19.03     -18.43     80.39     
 430.0000      -18.21     96.62     -1.08     14.11     -1.07     13.95     -18.16     74.95     
 432.5000      -18     91.46     -1.12     8.98     -1.11     8.79     -17.93     69.31     
 435.0000      -17.83     86.23     -1.18     3.63     -1.17     3.39     -17.74     63.46     
 437.5000      -17.62     80.49     -1.22     -1.99     -1.21     -2.23     -17.47     57.22     
 440.0000      -17.44     74.17     -1.29     -7.91     -1.28     -8.04     -17.22     51.05     
 442.5000      -17.21     67.27     -1.35     -14.01     -1.34     -14.24     -16.93     44.58     
 445.0000      -16.9     59.62     -1.42     -20.56     -1.41     -20.82     -16.54     37.83     
 447.5000      -16.53     51.1     -1.52     -27.36     -1.51     -27.67     -16.04     30.86     
 450.0000      -16.01     41.61     -1.62     -34.72     -1.62     -35     -15.44     23.45     
 452.5000      -15.33     31.08     -1.75     -42.57     -1.75     -42.84     -14.69     15.85     
 455.0000      -14.46     19.58     -1.92     -51.01     -1.91     -51.23     -13.77     7.81     
 457.5000      -13.39     7.23     -2.11     -60     -2.13     -60.38     -12.71     -0.77     
 460.0000      -12.12     -5.97     -2.38     -69.82     -2.4     -70.22     -11.46     -9.96     
 462.5000      -10.71     -19.73     -2.76     -80.48     -2.77     -80.88     -10.13     -20     
 465.0000      -9.24     -34.04     -3.26     -92.05     -3.27     -92.5     -8.76     -30.99     
 467.5000      -7.77     -48.81     -3.95     -104.5     -3.97     -104.95     -7.39     -42.82     
 470.0000      -6.41     -63.68     -4.89     -117.59     -4.93     -118.03     -6.11     -55.41     
 472.5000      -5.21     -78.65     -6.11     -131.03     -6.17     -131.39     -5     -68.6     
 475.0000      -4.21     -93.16     -7.66     -144.3     -7.71     -144.66     -4.05     -81.82     
 477.5000      -3.44     -107.04     -9.52     -156.89     -9.58     -157.33     -3.32     -94.79     
 480.0000      -2.85     -119.94     -11.65     -168.48     -11.71     -168.8     -2.77     -107.08     
 482.5000      -2.42     -131.61     -14.04     -178.81     -14.13     -179.23     -2.37     -118.41     
 485.0000      -2.1     -142.27     -16.64     171.99     -16.74     171.79     -2.07     -128.94     
 487.5000      -1.86     -151.86     -19.48     164.05     -19.59     163.95     -1.85     -138.48     
 490.0000      -1.68     -160.55     -22.62     157.93     -22.73     157.67     -1.7     -147.27     
 492.5000      -1.55     -168.38     -26.17     153.21     -26.25     153.08     -1.57     -155.2     
 495.0000      -1.43     -175.55     -30.17     151.52     -30.3     151.69     -1.47     -162.58     
 497.5000      -1.34     177.94     -34.93     155.91     -35.11     156.3     -1.37     -169.36     
 500.0000      -1.26     171.91     -40.42     174.9     -40.64     176.48     -1.3     -175.59     
 502.5000      -1.2     166.32     -42.95     -142.46     -42.93     -140.34     -1.24     178.54     
 505.0000      -1.15     161.15     -41.03     -113.83     -40.9     -113.7     -1.19     173.03     
 507.5000      -1.1     156.3     -39.15     -105.16     -39.08     -104.53     -1.15     167.95     
 510.0000      -1.05     151.8     -38.09     -102.71     -38.06     -102.51     -1.11     163.08     
 512.5000      -1.01     147.5     -37.72     -102.95     -37.69     -103.14     -1.07     158.56     
 515.0000      -0.98     143.49     -37.64     -104.37     -37.65     -104.26     -1.03     154.29     
 517.5000      -0.95     139.7     -37.92     -106.27     -37.96     -106.07     -1     150.22     
 520.0000      -0.92     136.05     -38.37     -107.95     -38.43     -107.89     -0.97     146.36     
 522.5000      -0.89     132.63     -39.11     -110.14     -39.14     -110.1     -0.95     142.68     
 525.0000      -0.86     129.42     -39.87     -112.11     -39.92     -111.74     -0.92     139.15     
 527.5000      -0.83     126.28     -40.85     -113.85     -40.96     -113.87     -0.9     135.73     
 530.0000      -0.82     123.27     -41.92     -115.53     -42.06     -115.51     -0.87     132.55     
 532.5000      -0.79     120.43     -43.31     -117.07     -43.23     -117.48     -0.85     129.49     
 535.0000      -0.78     117.71     -44.62     -118.58     -44.76     -118.1     -0.83     126.48     
 537.5000      -0.76     115.03     -46.31     -119.73     -46.31     -117.88     -0.82     123.68     
 540.0000      -0.74     112.53     -48.1     -119.75     -48.33     -118.3     -0.8     120.94     
 542.5000      -0.73     110.03     -50.28     -118.82     -50.77     -118.59     -0.79     118.26     
 545.0000      -0.72     107.66     -53.02     -116.94     -53.47     -116.63     -0.77     115.7     
 547.5000      -0.69     105.35     -56.69     -111.24     -56.51     -108.38     -0.74     113.24     
 550.0000      -0.69     103.21     -61.01     -91.75     -60.94     -90.54     -0.73     110.84     
 560.0000      -0.67     94.76     -55.49     12.62     -55.64     8.97     -0.71     102.04     
 570.0000      -0.62     87.51     -51.29     13.7     -51.1     16.29     -0.66     94.07     
 580.0000      -0.61     80.89     -49.91     13.58     -49.8     14.06     -0.64     86.97     
 590.0000      -0.56     74.91     -50.13     10.86     -49.9     9.55     -0.59     80.49     
 600.0000      -0.52     69.36     -50.88     6.74     -51.05     7.77     -0.57     74.5     
 610.0000      -0.52     64.15     -52.67     5.63     -52.67     3.92     -0.54     68.96     
 620.0000      -0.49     59.33     -55.12     3.16     -55.23     1.15     -0.52     63.83     
 630.0000      -0.47     54.87     -60.26     3.7     -60.9     5.01     -0.49     59.07     
 640.0000      -0.45     50.54     -71.58     48.74     -70.69     60.32     -0.49     54.51     
 650.0000      -0.44     46.48     -64.75     134.77     -64.51     139.61     -0.47     50.21     
 660.0000      -0.43     42.69     -57.58     151.11     -57.92     150.02     -0.46     46.15     
 670.0000      -0.42     39.01     -53.96     146.32     -54.04     149.14     -0.45     42.28     
 680.0000      -0.4     35.53     -51.89     144.25     -51.52     144.73     -0.43     38.59     
 690.0000      -0.39     32.17     -50.21     141.94     -50.02     142.02     -0.41     35.01     
 700.0000      -0.38     28.96     -49.32     140.17     -49.3     138.68     -0.41     31.59     
 710.0000      -0.38     25.86     -48.54     140     -48.23     138.8     -0.4     28.39     
 720.0000      -0.36     22.86     -47.23     137.02     -47.39     138.23     -0.38     25.18     
 730.0000      -0.36     19.87     -46.56     134.95     -46.51     135.02     -0.39     22.18     
 740.0000      -0.35     17.21     -46.15     131.17     -46.13     132.07     -0.37     19.29     
 750.0000      -0.35     14.42     -45.86     127.96     -45.77     128.6     -0.36     16.34     
 760.0000      -0.35     11.69     -45.63     126.86     -45.69     126.54     -0.36     13.61     
 770.0000      -0.33     9.15     -45.39     125.97     -45.37     124.73     -0.34     10.88     
 780.0000      -0.32     6.63     -45.06     123.54     -45.16     124.81     -0.34     8.25     
 790.0000      -0.34     4.14     -44.61     122.06     -44.72     122.77     -0.35     5.74     
 800.0000      -0.33     1.75     -44.5     118.89     -44.45     119.22     -0.34     3.28     
 810.0000      -0.31     -0.56     -44.58     115.64     -44.44     116.14     -0.33     0.75     
 820.0000      -0.32     -2.88     -44.75     113.12     -44.6     112.64     -0.32     -1.63     
 830.0000      -0.31     -5.14     -44.82     114.25     -44.89     113.07     -0.32     -3.89     
 840.0000      -0.31     -7.32     -44.64     112.53     -44.71     111.71     -0.32     -6.25     
 850.0000      -0.32     -9.52     -44.37     110.18     -44.4     110.41     -0.32     -8.37     
 860.0000      -0.3     -11.67     -44.46     107.16     -44.32     107.27     -0.3     -10.65     
 870.0000      -0.3     -13.69     -44.64     104.69     -44.52     104.33     -0.3     -12.74     
 880.0000      -0.3     -15.85     -44.76     102.98     -44.87     102.74     -0.3     -14.93     
 890.0000      -0.3     -17.8     -45.02     102.3     -45.01     102.93     -0.3     -17     
 900.0000      -0.31     -19.83     -45.1     101.77     -45.16     101.36     -0.31     -19.13     
 910.0000      -0.31     -21.67     -44.91     100.61     -45.01     100.55     -0.3     -21.05     
 920.0000      -0.3     -23.69     -45.03     97.4     -44.89     98.07     -0.29     -23.01     
 930.0000      -0.3     -25.54     -45.13     94.75     -44.96     94.46     -0.29     -25.08     
 940.0000      -0.3     -27.39     -45.38     93.18     -45.41     92.48     -0.3     -26.9     
 950.0000      -0.29     -29.25     -45.53     92.5     -45.76     91.57     -0.3     -28.75     
 960.0000      -0.29     -31.1     -45.64     91.58     -45.89     91.26     -0.31     -30.67     
 970.0000      -0.29     -32.9     -45.73     89.47     -45.91     90.34     -0.29     -32.59     
 980.0000      -0.28     -34.7     -45.74     88.59     -45.98     88.74     -0.29     -34.29     
 990.0000      -0.29     -36.49     -46.03     87.32     -46     86.97     -0.28     -36.12     
1000.0000      -0.29     -38.22     -46.15     85.79     -46.14     85.04     -0.28     -38.06     
1025.0000      -0.29     -42.57     -46.58     81.91     -46.55     83.05     -0.28     -42.38     
1050.0000      -0.3     -46.7     -47.15     78.14     -47.04     78.48     -0.31     -46.58     
1075.0000      -0.3     -50.74     -47.6     74.52     -47.66     75.02     -0.29     -50.69     
1100.0000      -0.3     -54.83     -47.79     71.66     -47.99     72.71     -0.28     -54.82     
1125.0000      -0.31     -58.75     -48.25     69.13     -48.56     69.35     -0.31     -58.73     
1150.0000      -0.31     -62.51     -48.93     65.43     -48.79     65.81     -0.3     -62.56     
1175.0000      -0.29     -66.36     -49.15     62.4     -49.45     63.96     -0.3     -66.34     
1200.0000      -0.32     -70.02     -49.96     59.33     -49.92     61.65     -0.31     -70.12     
1225.0000      -0.33     -73.79     -50.29     57.26     -50.11     57.97     -0.32     -73.72     
1250.0000      -0.3     -77.23     -50.85     51.86     -50.89     53.91     -0.29     -77.36     
1275.0000      -0.32     -80.97     -51.32     52.23     -51.46     52.29     -0.32     -80.98     
1300.0000      -0.33     -84.32     -51.68     46.59     -51.44     49.4     -0.31     -84.3     
1325.0000      -0.3     -87.73     -52.54     46.08     -52.39     45.52     -0.3     -87.86     
1350.0000      -0.34     -91.21     -52.45     44.31     -52.26     46.69     -0.31     -91.32     
1375.0000      -0.32     -94.68     -53.19     38.86     -53.2     35.14     -0.33     -94.59     
1400.0000      -0.33     -97.92     -53.76     39.96     -53.85     42.2     -0.32     -98.02     
1425.0000      -0.34     -101.49     -53.9     34.52     -53.48     34.13     -0.33     -101.33     
1450.0000      -0.35     -104.61     -54.97     31.35     -54.95     31.48     -0.34     -104.5     
1475.0000      -0.37     -107.74     -55.43     30.19     -54.4     32.48     -0.32     -107.7     
1500.0000      -0.36     -111.2     -55.38     27.26     -56.14     22.49     -0.34     -111.07     
1525.0000      -0.37     -114.27     -56.01     27.18     -56.67     28.99     -0.35     -114.12     
1550.0000      -0.37     -117.45     -56.27     24.57     -55.68     24.18     -0.35     -117.3     
1575.0000      -0.36     -120.75     -56.98     19.19     -57.61     15.04     -0.35     -120.38     
1600.0000      -0.38     -123.63     -57.95     22.91     -57.55     20.54     -0.37     -123.53     
1625.0000      -0.38     -126.81     -57.14     16.03     -57.42     12.28     -0.34     -126.49     
1650.0000      -0.38     -129.87     -58.52     9.74     -57.98     4.99     -0.34     -129.7     
1675.0000      -0.41     -133.04     -58.32     8.68     -58.74     11.8     -0.38     -132.75     
1700.0000      -0.4     -135.91     -60.06     0.27     -60.8     5.77     -0.38     -135.7     
1725.0000      -0.37     -139.09     -61.08     11.87     -60.92     8.37     -0.38     -138.72     
1750.0000      -0.41     -142.09     -60.34     -0.34     -59.9     -2.95     -0.39     -141.77     
1775.0000      -0.41     -144.85     -62.42     -0.05     -62.08     -5.29     -0.4     -144.37     
1800.0000      -0.39     -148.02     -60.65     -5.94     -62.41     -5.19     -0.37     -147.52     
1825.0000      -0.41     -151.17     -61.84     -7.94     -59.85     -6.88     -0.4     -150.45     
1850.0000      -0.42     -153.9     -61.25     -10.71     -61.73     -19.51     -0.39     -153.3     
1875.0000      -0.41     -156.91     -61.86     -16.31     -61.45     -15.38     -0.38     -156.13     
1900.0000      -0.42     -159.93     -61.3     -14.36     -62.04     -17.28     -0.41     -159.23     
1925.0000      -0.45     -162.68     -62.94     -51.07     -62     -47.11     -0.43     -161.85     
1950.0000      -0.43     -165.76     -63.77     -31.54     -63.82     -32.72     -0.43     -164.71     
1975.0000      -0.44     -168.75     -65.71     -31.71     -65.53     -21.38     -0.43     -167.52     
2000.0000      -0.48     -171.51     -62.68     -19.29     -62.59     -16.4     -0.45     -170.45     
2025.0000      -0.44     -174.28     -63.22     -56.44     -63.26     -53.48     -0.43     -173.03     
2050.0000      -0.44     -177.05     -62.47     -43.69     -62.9     -41.77     -0.42     -175.96     
2075.0000      -0.47     -179.91     -62.68     -57.37     -61.54     -50.96     -0.46     -178.56     
2100.0000      -0.46     177.4     -61.21     -76.43     -62.04     -82.73     -0.43     178.67     
2125.0000      -0.46     174.43     -56.28     -66.61     -56.54     -73.24     -0.44     175.73     
2150.0000      -0.51     171.66     -54.57     -96.72     -54.94     -103.24     -0.48     172.73     
2175.0000      -0.49     169.25     -56.29     -152.6     -57.36     -162.48     -0.47     170.13     
2200.0000      -0.49     166.37     -58.04     177.4     -59.41     167.9     -0.45     167.27     
2225.0000      -0.5     163.53     -64.67     166.51     -65.64     173.68     -0.49     164.55     
2250.0000      -0.51     160.77     -70.97     -154.05     -91.71     139.66     -0.48     161.91     
2275.0000      -0.5     158.05     -58.68     -167.19     -57.6     -161.11     -0.48     159.09     
2300.0000      -0.51     154.99     -62.95     -131.22     -62.78     -140.04     -0.47     156.19     
2325.0000      -0.51     152.47     -58.48     -142.73     -57.94     -125.68     -0.51     153.63     
2350.0000      -0.52     149.67     -54.41     -173.87     -54.01     178.45     -0.47     150.98     
2375.0000      -0.49     146.91     -60.19     153.6     -59.07     147.21     -0.48     148.39     
2400.0000      -0.52     144.36     -59.01     152.13     -59.26     151.63     -0.51     145.68     
2425.0000      -0.52     141.54     -77.81     147.21     -68.73     136.37     -0.5     142.9     
2450.0000      -0.55     138.78     -66.25     -150.34     -60.68     -148.48     -0.51     140.04     
2475.0000      -0.55     136.3     -56.86     -140.08     -58.08     -132.06     -0.55     137.46     
2500.0000      -0.55     133.39     -51.54     -156.62     -50.67     -165.37     -0.55     134.97     
2525.0000      -0.54     130.86     -52.41     151.73     -51.73     155.76     -0.54     132.59     
2550.0000      -0.56     128.09     -54.46     159.32     -54.14     166.38     -0.53     129.65     
2575.0000      -0.54     125.23     -52.85     168.96     -52.64     168.74     -0.53     127.05     
2600.0000      -0.55     122.38     -53.5     133.55     -52.72     131.27     -0.52     124.29     
2625.0000      -0.52     119.86     -55.86     123.93     -57.16     125.27     -0.54     121.59     
2650.0000      -0.55     116.98     -57.46     123.01     -55.33     125.57     -0.54     118.89     
2675.0000      -0.56     114.61     -73.59     82.25     -71.87     176.52     -0.57     116.38     
2700.0000      -0.6     111.89     -53.21     -174.73     -54.53     -174.67     -0.55     113.59     
2725.0000      -0.61     109.25     -53.09     173.46     -51.38     173.96     -0.58     110.99     
2750.0000      -0.59     106.72     -50.53     142.04     -52.7     143.48     -0.57     108.37     
2775.0000      -0.61     104.15     -49.8     129.05     -51.26     127.2     -0.58     105.64     
2800.0000      -0.59     101.4     -51.44     128.21     -53.87     127.43     -0.58     103.01     
2825.0000      -0.58     98.86     -52.58     130.99     -53.02     134.63     -0.6     100.35     
2850.0000      -0.59     96.05     -53.77     132.52     -52.53     128.11     -0.58     97.9     
2875.0000      -0.67     93.51     -52.03     133.76     -53.88     132.63     -0.58     95.14     
2900.0000      -0.63     91.01     -48.69     147.82     -47.34     153.39     -0.62     92.42     
2925.0000      -0.63     88.55     -49.64     152.37     -48.04     130.11     -0.63     89.92     
2950.0000      -0.63     85.55     -48.2     133.76     -47.28     123.17     -0.64     87.35     
2975.0000      -0.66     83.03     -48.75     128.77     -47.77     142.76     -0.66     84.43     
3000.0000      -0.73     80.65     -46.96     137.39     -47.12     115.28     -0.64     82.03     
3025.0000      -0.67     77.85     -46.44     148.72     -44.15     150.73     -0.66     79.02     
3050.0000      -0.68     75.3     -44.98     106.75     -44.16     98.06     -0.68     76.36     
3075.0000      -0.7     72.57     -48.6     107.99     -49.59     112.97     -0.65     73.93     
3100.0000      -0.7     70.11     -43.01     128.56     -43.48     133.97     -0.67     71.09     
3125.0000      -0.71     67.52     -44.27     129.27     -42.73     134.47     -0.71     68.29     
3150.0000      -0.72     64.93     -39.99     115.65     -39.93     116.22     -0.73     65.96     
3175.0000      -0.71     62.13     -38.8     84.87     -37.36     81.87     -0.71     63.17     
3200.0000      -0.71     59.52     -42.73     75.29     -42.65     81.48     -0.68     60.35     
3225.0000      -0.71     56.82     -43.05     83.89     -42.15     83.89     -0.72     57.7     
3250.0000      -0.75     54.08     -40.66     94.03     -42.21     84.72     -0.73     54.81     
3275.0000      -0.8     51.84     -39.81     69.52     -41.22     72.91     -0.7     52.39     
3300.0000      -0.75     48.93     -44.59     78.71     -44.68     70.93     -0.74     49.37     
3325.0000      -0.76     46.04     -41.34     84.08     -41.5     93.29     -0.84     47     
3350.0000      -0.84     43.9     -37.71     73.86     -36.84     75.19     -0.74     44.54     
3375.0000      -0.79     41.29     -37.18     42.94     -38.2     46.08     -0.83     41.68     
3400.0000      -0.78     38.57     -43.1     72.73     -39.16     60.81     -0.84     39.57     
3425.0000      -0.79     35.57     -38.81     47.02     -39.12     53.1     -0.78     36.83     
3450.0000      -0.83     33.28     -42.79     31.26     -41.9     40.47     -0.79     33.61     
3475.0000      -0.81     30.2     -45.32     73.63     -45.82     94.09     -0.91     31.1     
3500.0000      -0.92     28.21     -40.18     72.93     -40.8     60.79     -0.79     29.09     
3525.0000      -0.92     26.14     -37.18     70.55     -38.06     75.87     -0.79     25.81     
3550.0000      -0.82     23.05     -36.28     45.16     -35.54     47.2     -0.79     23.25     
3575.0000      -0.9     19.62     -37.89     40.44     -39.5     44.41     -0.85     20.19     
3600.0000      -0.85     17.53     -39.06     25.83     -39.79     22.83     -0.88     17.97     
3625.0000      -1     14.56     -39.33     57.39     -36.62     54.4     -0.84     15.48     
3650.0000      -1.04     12.47     -35.25     50.18     -36.21     48.68     -0.82     12.56     
3675.0000      -0.97     9.49     -35.67     37.72     -34.91     37.77     -0.81     9.36     
3700.0000      -0.96     7.26     -37.68     46.34     -37.72     40.97     -0.86     6.24     
3725.0000      -0.95     4.64     -33.69     31.57     -33.07     31.16     -0.97     3.53     
3750.0000      -1.01     1.17     -37.34     28.3     -36.28     16.54     -1.1     1.01     
3775.0000      -0.95     0.39     -33.42     27.23     -33.91     19.47     -1.03     -0.98     
3800.0000      -0.99     -2.76     -34.76     37.7     -36.55     32.1     -0.9     -4.31     
3825.0000      -0.95     -6.01     -32.26     22.3     -32.37     19.7     -1.03     -7.25     
3850.0000      -1.07     -9.24     -33.5     40.03     -34     35.44     -1.21     -9.77     
3875.0000      -1.05     -11.46     -30.41     3.02     -30.99     9.43     -1.05     -11.71     
3900.0000      -1.03     -15.18     -31.79     7.43     -31.43     -1.14     -1.07     -15.15     
3925.0000      -1.16     -17.26     -34.92     -2.92     -35.89     12.7     -1.06     -17.38     
3950.0000      -1.19     -20.1     -34.45     1.75     -31.74     3.55     -1.11     -19.97     
3975.0000      -1.21     -22.42     -31.56     -8.75     -32.94     -14.49     -1.27     -22.87     
4000.0000      -1.24     -23.91     -30.32     -14.47     -30.91     -4.63     -1.13     -25.05     
4025.0000      -1.07     -27.29     -34.35     -16.04     -33.19     -19.48     -1.12     -27.83     
4050.0000      -1.17     -30.89     -31.68     -11.32     -32.36     -7.87     -1.01     -31.23     
4075.0000      -1.05     -34.52     -32.04     -6     -31.42     -4.4     -1.1     -34.54     
4100.0000      -1.27     -37.72     -29.4     -10.85     -28.25     -12.04     -1.23     -38.07     
4125.0000      -1.51     -41.43     -27.74     -17.83     -27.85     -24.16     -1.22     -38.72     
4150.0000      -1.76     -40.42     -26.81     -57.4     -27.82     -54.6     -1.25     -42.59     
4175.0000      -1.18     -43.46     -33.88     -36.69     -33.32     -29.75     -1.22     -46.16     
4200.0000      -1.26     -47.36     -31.17     -51.45     -31.89     -57.84     -1.36     -47.24     
4225.0000      -1.23     -50.72     -37.39     -30.37     -37.34     -18.5     -1.32     -50.44     
4250.0000      -1.27     -53.74     -31.94     -25.46     -31.54     -29.29     -1.29     -52.79     
4275.0000      -1.63     -57.33     -30.29     -15.51     -31.06     -21.42     -1.27     -56.14     
4300.0000      -1.56     -59.7     -29.12     -28.45     -28.61     -31.23     -1.25     -59.4     
4325.0000      -1.63     -59.87     -26.39     -25.64     -26.08     -29.68     -1.36     -63.03     
4350.0000      -1.4     -63.65     -27.31     -52.63     -26.25     -56.63     -1.63     -64.71     
4375.0000      -1.42     -67.29     -28.79     -49.67     -29.04     -45.95     -1.38     -66.89     
4400.0000      -1.46     -70.29     -26.3     -45.46     -25.25     -47.95     -1.36     -71.51     
4425.0000      -1.47     -73.37     -26.47     -35.6     -26.68     -36.13     -1.48     -73.91     
4450.0000      -1.7     -76.4     -22.61     -66.9     -23.09     -71.33     -1.73     -77.66     
4475.0000      -1.5     -79.2     -25.15     -70.96     -24.4     -60.3     -1.71     -80.52     
4500.0000      -1.59     -83.13     -26.19     -74.84     -25.92     -71.55     -1.76     -81.42     
4525.0000      -1.93     -84.89     -25.81     -59.23     -25.01     -67.51     -1.61     -84.51     
4550.0000      -1.66     -87.02     -24.91     -66.73     -24.46     -60.62     -1.78     -88.91     
4575.0000      -2.19     -89.74     -19.72     -82.77     -19.55     -84.41     -2.49     -94.02     
4600.0000      -1.61     -91.93     -25.96     -99.86     -26.45     -102.3     -1.93     -90.77     
4625.0000      -1.8     -97.79     -22.49     -76.89     -22.84     -74.46     -1.75     -95.78     
4650.0000      -2.12     -99.11     -22.62     -93.55     -20.81     -91.51     -2.2     -100.94     
4675.0000      -2.32     -100.32     -25.26     -110.17     -26.91     -94.94     -1.93     -97.64     
4700.0000      -2.39     -104.45     -21.83     -102.6     -22.02     -95.59     -1.96     -103.07     
4725.0000      -2.16     -107.3     -22.76     -100.14     -21.47     -98.29     -1.92     -107.8     
4750.0000      -3     -109.45     -18.11     -118.01     -18.2     -117.62     -2.93     -110.85     
4775.0000      -2.6     -109.16     -22.62     -139.81     -21.6     -129.74     -2.22     -109.88     
4800.0000      -2.36     -110.8     -22.38     -158.32     -22.21     -160.56     -2.41     -112.03     
4825.0000      -2.33     -117.27     -25.95     -111.91     -23.38     -109.82     -2.47     -117.89     
4850.0000      -2.31     -116.53     -24.98     -134.38     -24.07     -157.41     -2.34     -115.7     
4875.0000      -2.41     -122.7     -21.9     -113     -23.22     -127.57     -2.9     -122.57     
4900.0000      -2.94     -122.72     -19.42     -153.68     -19.33     -152.13     -2.73     -118.16     
4925.0000      -2.47     -123.57     -22.54     -165.9     -22.79     -168.23     -2.15     -123.38     
4950.0000      -2.58     -127.44     -24.25     -154.86     -24.1     -156.31     -2.15     -127.55     
4975.0000      -2.29     -131.43     -21.83     -148.95     -21.15     -149.13     -2.7     -131.54     
5000.0000      -2.39     -136.13     -27.03     -113.94     -27     -126.5     -1.83     -134.19     
