! Mini-Circuits
! S2P DATA File Format
! Type: LOW PASS FILTER
! Model: LFCG-320+
! All S Parameters are in dB deg format
! TEST CONDITIONS: INPUT POWER = 0 dBm @ Temperature = 25 deg C
# MHz S dB R 50
!Frequency        S11 dB  S11 DEG   S21 dB  S21 DEG   S12 dB  S12 DEG   S22 dB  S22 DEG
  10.0000     -3.470444E+001  2.339248E+001 -1.972268E-001 -3.428134E+000 -1.980984E-001 -3.422251E+000 -3.433501E+001  1.916853E+001
  11.0000     -3.410600E+001  1.981699E+001 -2.023606E-001 -3.745331E+000 -1.982464E-001 -3.732734E+000 -3.419176E+001  1.524173E+001
  12.0000     -3.376308E+001  1.405874E+001 -2.042620E-001 -4.072105E+000 -2.016808E-001 -4.040837E+000 -3.394813E+001  1.387526E+001
  13.0000     -3.370897E+001  1.029912E+001 -2.058806E-001 -4.376614E+000 -2.036272E-001 -4.362232E+000 -3.381744E+001  1.163216E+001
  14.0000     -3.372139E+001  6.650483E+000 -2.059398E-001 -4.698999E+000 -2.053238E-001 -4.678763E+000 -3.379523E+001  9.860269E+000
  15.0000     -3.366308E+001  5.185046E+000 -2.090414E-001 -5.017476E+000 -2.069230E-001 -5.005812E+000 -3.381629E+001  7.491783E+000
  16.0000     -3.364560E+001  2.771924E+000 -2.115269E-001 -5.338782E+000 -2.068707E-001 -5.323102E+000 -3.384496E+001  7.043397E+000
  17.0000     -3.360560E+001  1.611041E+000 -2.126288E-001 -5.655379E+000 -2.090277E-001 -5.652395E+000 -3.386636E+001  5.380730E+000
  18.0000     -3.369483E+001  1.172129E+000 -2.138248E-001 -5.995168E+000 -2.108987E-001 -5.969532E+000 -3.392449E+001  3.964211E+000
  19.0000     -3.365066E+001 -5.463039E-001 -2.150006E-001 -6.313232E+000 -2.131763E-001 -6.300336E+000 -3.396740E+001  4.051880E+000
  20.0000     -3.369352E+001 -1.138712E+000 -2.154024E-001 -6.640639E+000 -2.141743E-001 -6.627023E+000 -3.403791E+001  3.239258E+000
  30.0000     -3.403784E+001  9.323728E-001 -2.329394E-001 -9.866944E+000 -2.306187E-001 -9.860085E+000 -3.344583E+001 -1.853702E+000
  40.0000     -3.361886E+001  6.828873E-001 -2.475127E-001 -1.305733E+001 -2.446208E-001 -1.303779E+001 -3.230748E+001 -5.303882E+000
  50.0000     -3.351132E+001 -7.351858E+000 -2.631304E-001 -1.624692E+001 -2.641516E-001 -1.619439E+001 -3.107969E+001 -9.975294E+000
  60.0000     -3.359953E+001 -1.473624E+001 -2.798930E-001 -1.939504E+001 -2.788791E-001 -1.938785E+001 -2.981754E+001 -1.790325E+001
  70.0000     -3.360229E+001 -2.116261E+001 -2.977697E-001 -2.256584E+001 -2.943001E-001 -2.256927E+001 -2.950272E+001 -2.454105E+001
  80.0000     -3.347863E+001 -2.628973E+001 -3.083152E-001 -2.576463E+001 -3.064497E-001 -2.577825E+001 -2.908584E+001 -2.877401E+001
  90.0000     -3.374418E+001 -3.309417E+001 -3.220739E-001 -2.898345E+001 -3.207041E-001 -2.898791E+001 -2.840201E+001 -3.349379E+001
 100.0000     -3.436741E+001 -4.109392E+001 -3.373516E-001 -3.219880E+001 -3.351398E-001 -3.219852E+001 -2.773479E+001 -3.898787E+001
 110.0000     -3.492387E+001 -4.852638E+001 -3.513770E-001 -3.545291E+001 -3.505596E-001 -3.546447E+001 -2.714711E+001 -4.371283E+001
 120.0000     -3.506215E+001 -5.580282E+001 -3.682107E-001 -3.873265E+001 -3.669800E-001 -3.873362E+001 -2.669044E+001 -4.802412E+001
 130.0000     -3.533631E+001 -6.303155E+001 -3.848006E-001 -4.204022E+001 -3.835450E-001 -4.204618E+001 -2.607607E+001 -5.197978E+001
 140.0000     -3.568404E+001 -7.581274E+001 -4.037790E-001 -4.539050E+001 -4.017732E-001 -4.539479E+001 -2.554466E+001 -5.602108E+001
 150.0000     -3.602222E+001 -8.709834E+001 -4.229012E-001 -4.876437E+001 -4.224268E-001 -4.876525E+001 -2.517451E+001 -6.022987E+001
 160.0000     -3.661687E+001 -9.340835E+001 -4.392297E-001 -5.215580E+001 -4.376363E-001 -5.215390E+001 -2.480648E+001 -6.433389E+001
 170.0000     -3.671808E+001 -1.017598E+002 -4.583436E-001 -5.561666E+001 -4.575121E-001 -5.561647E+001 -2.450687E+001 -6.779199E+001
 180.0000     -3.667481E+001 -1.139462E+002 -4.782435E-001 -5.911899E+001 -4.779917E-001 -5.911682E+001 -2.426595E+001 -7.128455E+001
 190.0000     -3.679078E+001 -1.247526E+002 -4.987479E-001 -6.266996E+001 -4.988260E-001 -6.266982E+001 -2.400195E+001 -7.496413E+001
 200.0000     -3.699760E+001 -1.320727E+002 -5.196737E-001 -6.627432E+001 -5.196781E-001 -6.627907E+001 -2.379381E+001 -7.838962E+001
 210.0000     -3.694977E+001 -1.376651E+002 -5.425186E-001 -6.994454E+001 -5.409923E-001 -6.994677E+001 -2.372604E+001 -8.148567E+001
 215.0000     -3.703515E+001 -1.415911E+002 -5.537077E-001 -7.180783E+001 -5.526033E-001 -7.181374E+001 -2.370711E+001 -8.314803E+001
 220.0000     -3.724150E+001 -1.462433E+002 -5.651842E-001 -7.369469E+001 -5.646867E-001 -7.369196E+001 -2.368295E+001 -8.470102E+001
 225.0000     -3.736270E+001 -1.511353E+002 -5.761977E-001 -7.559071E+001 -5.765144E-001 -7.559589E+001 -2.365067E+001 -8.600719E+001
 230.0000     -3.747158E+001 -1.551924E+002 -5.890504E-001 -7.750162E+001 -5.892931E-001 -7.750621E+001 -2.363277E+001 -8.715958E+001
 235.0000     -3.757130E+001 -1.581145E+002 -6.026582E-001 -7.944284E+001 -6.025354E-001 -7.944568E+001 -2.362379E+001 -8.846432E+001
 240.0000     -3.775011E+001 -1.594258E+002 -6.164808E-001 -8.140635E+001 -6.162471E-001 -8.141055E+001 -2.363207E+001 -8.991953E+001
 245.0000     -3.806862E+001 -1.597313E+002 -6.311235E-001 -8.339559E+001 -6.308649E-001 -8.339628E+001 -2.366097E+001 -9.130618E+001
 250.0000     -3.852268E+001 -1.589328E+002 -6.447957E-001 -8.540628E+001 -6.452373E-001 -8.540699E+001 -2.372046E+001 -9.250090E+001
 255.0000     -3.896047E+001 -1.565753E+002 -6.619765E-001 -8.744337E+001 -6.597974E-001 -8.744670E+001 -2.377243E+001 -9.319282E+001
 260.0000     -3.951291E+001 -1.548981E+002 -6.762253E-001 -8.950321E+001 -6.745712E-001 -8.950536E+001 -2.388398E+001 -9.367783E+001
 265.0000     -3.990366E+001 -1.544859E+002 -6.904149E-001 -9.158652E+001 -6.895416E-001 -9.159364E+001 -2.403677E+001 -9.398299E+001
 270.0000     -4.019085E+001 -1.522885E+002 -7.058470E-001 -9.369802E+001 -7.054103E-001 -9.370102E+001 -2.421439E+001 -9.425684E+001
 275.0000     -4.039578E+001 -1.472810E+002 -7.239885E-001 -9.584264E+001 -7.228616E-001 -9.585270E+001 -2.433524E+001 -9.472321E+001
 280.0000     -4.031902E+001 -1.383490E+002 -7.441938E-001 -9.802355E+001 -7.427809E-001 -9.803438E+001 -2.444996E+001 -9.525956E+001
 285.0000     -3.969204E+001 -1.282109E+002 -7.644269E-001 -1.002476E+002 -7.619331E-001 -1.002476E+002 -2.461280E+001 -9.541058E+001
 290.0000     -3.863581E+001 -1.200087E+002 -7.818055E-001 -1.025005E+002 -7.795547E-001 -1.025043E+002 -2.482837E+001 -9.507891E+001
 295.0000     -3.764386E+001 -1.129089E+002 -7.999582E-001 -1.047962E+002 -7.980673E-001 -1.047978E+002 -2.507387E+001 -9.401458E+001
 300.0000     -3.661960E+001 -1.069865E+002 -8.207780E-001 -1.071244E+002 -8.184323E-001 -1.071255E+002 -2.526825E+001 -9.269659E+001
 305.0000     -3.563813E+001 -1.019107E+002 -8.445253E-001 -1.094897E+002 -8.418317E-001 -1.094938E+002 -2.541522E+001 -9.099978E+001
 310.0000     -3.434242E+001 -9.800742E+001 -8.684642E-001 -1.119051E+002 -8.667200E-001 -1.119046E+002 -2.550270E+001 -8.873506E+001
 315.0000     -3.281887E+001 -9.529437E+001 -8.910680E-001 -1.143649E+002 -8.908213E-001 -1.143691E+002 -2.549441E+001 -8.573824E+001
 320.0000     -3.130841E+001 -9.401767E+001 -9.163343E-001 -1.168784E+002 -9.155975E-001 -1.168808E+002 -2.541283E+001 -8.256413E+001
 325.0000     -2.999262E+001 -9.315201E+001 -9.430021E-001 -1.194387E+002 -9.416198E-001 -1.194397E+002 -2.529928E+001 -7.947754E+001
 330.0000     -2.879106E+001 -9.300385E+001 -9.720402E-001 -1.220479E+002 -9.708884E-001 -1.220508E+002 -2.516586E+001 -7.633762E+001
 335.0000     -2.767240E+001 -9.339876E+001 -1.003727E+000 -1.247110E+002 -1.003164E+000 -1.247153E+002 -2.491133E+001 -7.295970E+001
 340.0000     -2.658125E+001 -9.473463E+001 -1.039999E+000 -1.274465E+002 -1.038050E+000 -1.274445E+002 -2.445637E+001 -6.951882E+001
 345.0000     -2.550152E+001 -9.636804E+001 -1.078299E+000 -1.302433E+002 -1.076637E+000 -1.302448E+002 -2.387727E+001 -6.647492E+001
 350.0000     -2.442233E+001 -9.796027E+001 -1.116262E+000 -1.331102E+002 -1.117463E+000 -1.331106E+002 -2.323759E+001 -6.423028E+001
 355.0000     -2.337390E+001 -9.955697E+001 -1.158668E+000 -1.360504E+002 -1.157584E+000 -1.360497E+002 -2.253056E+001 -6.234436E+001
 360.0000     -2.236659E+001 -1.013597E+002 -1.203264E+000 -1.390695E+002 -1.202927E+000 -1.390691E+002 -2.176826E+001 -6.107476E+001
 365.0000     -2.141332E+001 -1.035221E+002 -1.253571E+000 -1.421761E+002 -1.252517E+000 -1.421795E+002 -2.094092E+001 -6.046296E+001
 370.0000     -2.050354E+001 -1.058567E+002 -1.308701E+000 -1.453827E+002 -1.307839E+000 -1.453855E+002 -2.010454E+001 -6.046789E+001
 375.0000     -1.959639E+001 -1.084116E+002 -1.369711E+000 -1.486738E+002 -1.368661E+000 -1.486732E+002 -1.928175E+001 -6.102539E+001
 380.0000     -1.871457E+001 -1.112016E+002 -1.437320E+000 -1.520550E+002 -1.435735E+000 -1.520618E+002 -1.846707E+001 -6.204506E+001
 385.0000     -1.786638E+001 -1.141519E+002 -1.511884E+000 -1.555517E+002 -1.510483E+000 -1.555515E+002 -1.766141E+001 -6.353663E+001
 390.0000     -1.705413E+001 -1.172731E+002 -1.593681E+000 -1.591565E+002 -1.592667E+000 -1.591617E+002 -1.685236E+001 -6.561073E+001
 395.0000     -1.627439E+001 -1.205151E+002 -1.685175E+000 -1.628827E+002 -1.684827E+000 -1.628876E+002 -1.605422E+001 -6.810799E+001
 400.0000     -1.550349E+001 -1.239159E+002 -1.788653E+000 -1.667411E+002 -1.787980E+000 -1.667429E+002 -1.528753E+001 -7.092452E+001
 405.0000     -1.474208E+001 -1.274529E+002 -1.905466E+000 -1.707325E+002 -1.903021E+000 -1.707356E+002 -1.454179E+001 -7.407254E+001
 410.0000     -1.400604E+001 -1.312246E+002 -2.035630E+000 -1.748753E+002 -2.033779E+000 -1.748751E+002 -1.381218E+001 -7.755555E+001
 415.0000     -1.329200E+001 -1.352009E+002 -2.181847E+000 -1.791661E+002 -2.179595E+000 -1.791719E+002 -1.309451E+001 -8.142985E+001
 420.0000     -1.260030E+001 -1.394304E+002 -2.346807E+000  1.763797E+002 -2.344210E+000  1.763761E+002 -1.238981E+001 -8.563377E+001
 425.0000     -1.192284E+001 -1.438584E+002 -2.532644E+000  1.717701E+002 -2.530763E+000  1.717689E+002 -1.170323E+001 -9.020576E+001
 430.0000     -1.127067E+001 -1.485373E+002 -2.743535E+000  1.669981E+002 -2.742468E+000  1.669925E+002 -1.103165E+001 -9.510332E+001
 435.0000     -1.064287E+001 -1.534775E+002 -2.984473E+000  1.620380E+002 -2.982949E+000  1.620323E+002 -1.038314E+001 -1.003338E+002
 440.0000     -1.004698E+001 -1.587142E+002 -3.258228E+000  1.568768E+002 -3.258000E+000  1.568739E+002 -9.756158E+000 -1.058681E+002
 445.0000     -9.485304E+000 -1.642847E+002 -3.570687E+000  1.515208E+002 -3.570570E+000  1.515180E+002 -9.152658E+000 -1.116942E+002
 450.0000     -8.960238E+000 -1.701985E+002 -3.927353E+000  1.459777E+002 -3.927085E+000  1.459767E+002 -8.573245E+000 -1.178140E+002
 455.0000     -8.473572E+000 -1.765124E+002 -4.332262E+000  1.402559E+002 -4.331901E+000  1.402580E+002 -8.017073E+000 -1.241660E+002
 460.0000     -8.027858E+000  1.768025E+002 -4.794714E+000  1.343825E+002 -4.793700E+000  1.343788E+002 -7.483572E+000 -1.307674E+002
 465.0000     -7.629581E+000  1.696888E+002 -5.323154E+000  1.283709E+002 -5.322698E+000  1.283651E+002 -6.975927E+000 -1.375823E+002
 470.0000     -7.284120E+000  1.621270E+002 -5.926846E+000  1.222375E+002 -5.926863E+000  1.222283E+002 -6.500848E+000 -1.445963E+002
 475.0000     -7.001528E+000  1.540415E+002 -6.616242E+000  1.159972E+002 -6.617221E+000  1.159944E+002 -6.057881E+000 -1.517993E+002
 480.0000     -6.784526E+000  1.454109E+002 -7.401829E+000  1.097062E+002 -7.402180E+000  1.097055E+002 -5.650853E+000 -1.591876E+002
 485.0000     -6.637336E+000  1.361665E+002 -8.292023E+000  1.034327E+002 -8.292981E+000  1.034367E+002 -5.280260E+000 -1.666732E+002
 490.0000     -6.561415E+000  1.262447E+002 -9.295745E+000  9.728077E+001 -9.296798E+000  9.728494E+001 -4.944754E+000 -1.742200E+002
 495.0000     -6.564425E+000  1.155495E+002 -1.042815E+001  9.136048E+001 -1.042855E+001  9.136520E+001 -4.641125E+000  1.781956E+002
 500.0000     -6.647151E+000  1.039859E+002 -1.170072E+001  8.584971E+001 -1.170195E+001  8.585713E+001 -4.364618E+000  1.706108E+002
 505.0000     -6.803130E+000  9.144511E+001 -1.312628E+001  8.098540E+001 -1.312878E+001  8.099270E+001 -4.116963E+000  1.630457E+002
 510.0000     -7.014847E+000  7.780222E+001 -1.470523E+001  7.708942E+001 -1.470743E+001  7.708423E+001 -3.899635E+000  1.555620E+002
 515.0000     -7.259633E+000  6.292189E+001 -1.642026E+001  7.460826E+001 -1.642312E+001  7.461378E+001 -3.711993E+000  1.482261E+002
 520.0000     -7.497852E+000  4.676876E+001 -1.821793E+001  7.409363E+001 -1.822038E+001  7.409756E+001 -3.548360E+000  1.410482E+002
 525.0000     -7.664752E+000  2.946847E+001 -1.997250E+001  7.597196E+001 -1.997407E+001  7.598859E+001 -3.404248E+000  1.340505E+002
 530.0000     -7.705281E+000  1.134231E+001 -2.149565E+001  8.016908E+001 -2.149902E+001  8.017352E+001 -3.275465E+000  1.272308E+002
 535.0000     -7.576248E+000 -7.086807E+000 -2.261497E+001  8.563514E+001 -2.262063E+001  8.563205E+001 -3.159291E+000  1.206063E+002
 540.0000     -7.278658E+000 -2.514088E+001 -2.330758E+001  9.065322E+001 -2.331148E+001  9.063394E+001 -3.052743E+000  1.141778E+002
 545.0000     -6.844220E+000 -4.222336E+001 -2.372544E+001  9.392492E+001 -2.373085E+001  9.392393E+001 -2.953442E+000  1.079556E+002
 550.0000     -6.326478E+000 -5.800083E+001 -2.406771E+001  9.516674E+001 -2.407098E+001  9.516338E+001 -2.859551E+000  1.019596E+002
 555.0000     -5.781714E+000 -7.234903E+001 -2.447674E+001  9.474672E+001 -2.448173E+001  9.475671E+001 -2.767461E+000  9.617948E+001
 560.0000     -5.247357E+000 -8.528094E+001 -2.503239E+001  9.322729E+001 -2.503641E+001  9.322771E+001 -2.677576E+000  9.057843E+001
 565.0000     -4.747364E+000 -9.689880E+001 -2.576726E+001  9.107582E+001 -2.576782E+001  9.107253E+001 -2.588048E+000  8.513982E+001
 570.0000     -4.295956E+000 -1.073468E+002 -2.669125E+001  8.873358E+001 -2.669707E+001  8.873335E+001 -2.502635E+000  7.988396E+001
 575.0000     -3.895452E+000 -1.167783E+002 -2.781731E+001  8.654713E+001 -2.782171E+001  8.655284E+001 -2.420957E+000  7.483063E+001
 580.0000     -3.544976E+000 -1.253353E+002 -2.914820E+001  8.483093E+001 -2.914919E+001  8.483124E+001 -2.342986E+000  6.997635E+001
 585.0000     -3.241005E+000 -1.331133E+002 -3.068598E+001  8.391660E+001 -3.069322E+001  8.394264E+001 -2.266287E+000  6.528067E+001
 590.0000     -2.979186E+000 -1.402091E+002 -3.244688E+001  8.424535E+001 -3.245351E+001  8.429679E+001 -2.189294E+000  6.071412E+001
 595.0000     -2.753388E+000 -1.467167E+002 -3.443562E+001  8.655096E+001 -3.444105E+001  8.654407E+001 -2.114516E+000  5.628608E+001
 600.0000     -2.557402E+000 -1.527128E+002 -3.662101E+001  9.191476E+001 -3.661550E+001  9.194063E+001 -2.042711E+000  5.201027E+001
 605.0000     -2.385602E+000 -1.582652E+002 -3.880137E+001  1.019568E+002 -3.881275E+001  1.019870E+002 -1.975562E+000  4.788615E+001
 610.0000     -2.234505E+000 -1.634142E+002 -4.053741E+001  1.178479E+002 -4.054186E+001  1.177858E+002 -1.912605E+000  4.390562E+001
 615.0000     -2.103054E+000 -1.681980E+002 -4.115295E+001  1.366785E+002 -4.116042E+001  1.367034E+002 -1.852210E+000  4.005769E+001
 620.0000     -1.986786E+000 -1.726727E+002 -4.063099E+001  1.528935E+002 -4.063888E+001  1.529500E+002 -1.792966E+000  3.633887E+001
 625.0000     -1.887547E+000 -1.768707E+002 -3.963249E+001  1.637048E+002 -3.962809E+001  1.637616E+002 -1.733965E+000  3.272627E+001
 630.0000     -1.800464E+000  1.791729E+002 -3.860278E+001  1.701646E+002 -3.861155E+001  1.701283E+002 -1.677276E+000  2.922468E+001
 635.0000     -1.722523E+000  1.754438E+002 -3.774220E+001  1.736727E+002 -3.774425E+001  1.736049E+002 -1.621350E+000  2.584200E+001
 640.0000     -1.650526E+000  1.719105E+002 -3.708255E+001  1.754072E+002 -3.707852E+001  1.754142E+002 -1.567183E+000  2.257193E+001
 645.0000     -1.584582E+000  1.685640E+002 -3.657002E+001  1.761235E+002 -3.658395E+001  1.761139E+002 -1.514019E+000  1.941412E+001
 650.0000     -1.525980E+000  1.653965E+002 -3.624020E+001  1.761148E+002 -3.624059E+001  1.761590E+002 -1.463379E+000  1.634926E+001
 655.0000     -1.472740E+000  1.623857E+002 -3.603626E+001  1.757443E+002 -3.603326E+001  1.757451E+002 -1.413248E+000  1.338914E+001
 660.0000     -1.424415E+000  1.594967E+002 -3.594038E+001  1.750844E+002 -3.594255E+001  1.751038E+002 -1.367824E+000  1.052385E+001
 665.0000     -1.377604E+000  1.567126E+002 -3.595044E+001  1.742718E+002 -3.595635E+001  1.742713E+002 -1.326832E+000  7.743793E+000
 670.0000     -1.334459E+000  1.540418E+002 -3.605607E+001  1.733134E+002 -3.605523E+001  1.733785E+002 -1.287992E+000  5.049265E+000
 675.0000     -1.295437E+000  1.515085E+002 -3.623360E+001  1.723860E+002 -3.623776E+001  1.724024E+002 -1.248542E+000  2.423503E+000
 680.0000     -1.259269E+000  1.490890E+002 -3.650144E+001  1.714399E+002 -3.649831E+001  1.714725E+002 -1.209917E+000 -1.335371E-001
 685.0000     -1.227630E+000  1.467604E+002 -3.683224E+001  1.705895E+002 -3.683527E+001  1.705885E+002 -1.172314E+000 -2.608748E+000
 690.0000     -1.198876E+000  1.444889E+002 -3.724193E+001  1.698272E+002 -3.723777E+001  1.697809E+002 -1.138841E+000 -5.006615E+000
 695.0000     -1.171923E+000  1.422813E+002 -3.772545E+001  1.691158E+002 -3.772056E+001  1.691257E+002 -1.106876E+000 -7.326303E+000
 700.0000     -1.144910E+000  1.401733E+002 -3.827925E+001  1.685233E+002 -3.827546E+001  1.685498E+002 -1.076480E+000 -9.565367E+000
 705.0000     -1.117502E+000  1.381506E+002 -3.889985E+001  1.682548E+002 -3.890389E+001  1.682636E+002 -1.044173E+000 -1.175193E+001
 710.0000     -1.090449E+000  1.361881E+002 -3.959529E+001  1.681677E+002 -3.960767E+001  1.681471E+002 -1.013061E+000 -1.388825E+001
 715.0000     -1.067203E+000  1.342635E+002 -4.038065E+001  1.683023E+002 -4.039597E+001  1.683750E+002 -9.823137E-001 -1.598758E+001
 720.0000     -1.046070E+000  1.323902E+002 -4.127058E+001  1.691113E+002 -4.128331E+001  1.690498E+002 -9.542018E-001 -1.803753E+001
 725.0000     -1.028751E+000  1.305693E+002 -4.226481E+001  1.702616E+002 -4.228252E+001  1.703380E+002 -9.322974E-001 -2.001145E+001
 730.0000     -1.013442E+000  1.288147E+002 -4.338805E+001  1.724269E+002 -4.337290E+001  1.723706E+002 -9.123355E-001 -2.192656E+001
 735.0000     -9.985724E-001  1.271105E+002 -4.460322E+001  1.757123E+002 -4.457892E+001  1.754283E+002 -8.899908E-001 -2.379834E+001
 740.0000     -9.830196E-001  1.254591E+002 -4.591396E+001 -1.798556E+002 -4.591413E+001 -1.798080E+002 -8.631080E-001 -2.564006E+001
 745.0000     -9.670539E-001  1.238622E+002 -4.730002E+001 -1.727281E+002 -4.731260E+001 -1.728579E+002 -8.350015E-001 -2.744620E+001
 750.0000     -9.496728E-001  1.223147E+002 -4.867485E+001 -1.629201E+002 -4.869009E+001 -1.628790E+002 -8.118293E-001 -2.919484E+001
 755.0000     -9.315715E-001  1.208157E+002 -4.971202E+001 -1.491947E+002 -4.971858E+001 -1.493522E+002 -7.933236E-001 -3.088913E+001
 760.0000     -9.167239E-001  1.193328E+002 -5.010635E+001 -1.333595E+002 -5.012796E+001 -1.333591E+002 -7.755954E-001 -3.254321E+001
 765.0000     -9.061603E-001  1.178519E+002 -4.975466E+001 -1.176001E+002 -4.974215E+001 -1.176015E+002 -7.563350E-001 -3.415336E+001
 770.0000     -8.977337E-001  1.163930E+002 -4.877869E+001 -1.049416E+002 -4.878561E+001 -1.047896E+002 -7.378294E-001 -3.573507E+001
 775.0000     -8.868028E-001  1.149902E+002 -4.759299E+001 -9.522246E+001 -4.761931E+001 -9.524088E+001 -7.212947E-001 -3.729017E+001
 780.0000     -8.745075E-001  1.136331E+002 -4.638720E+001 -8.862746E+001 -4.638713E+001 -8.856236E+001 -7.078117E-001 -3.881646E+001
 785.0000     -8.590227E-001  1.123049E+002 -4.522025E+001 -8.404688E+001 -4.522144E+001 -8.394335E+001 -6.928922E-001 -4.028989E+001
 790.0000     -8.414394E-001  1.109838E+002 -4.416153E+001 -8.079385E+001 -4.418896E+001 -8.083796E+001 -6.774248E-001 -4.172545E+001
 795.0000     -8.246119E-001  1.096831E+002 -4.321627E+001 -7.872929E+001 -4.323600E+001 -7.862341E+001 -6.604486E-001 -4.311798E+001
 800.0000     -8.143960E-001  1.083999E+002 -4.239453E+001 -7.714500E+001 -4.240019E+001 -7.716855E+001 -6.460897E-001 -4.448497E+001
 805.0000     -8.083477E-001  1.071506E+002 -4.164826E+001 -7.623064E+001 -4.164734E+001 -7.614822E+001 -6.333506E-001 -4.583734E+001
 810.0000     -8.020134E-001  1.059467E+002 -4.098243E+001 -7.551383E+001 -4.098047E+001 -7.541953E+001 -6.224653E-001 -4.715704E+001
 815.0000     -7.913619E-001  1.047889E+002 -4.036816E+001 -7.513256E+001 -4.037638E+001 -7.506518E+001 -6.110461E-001 -4.845797E+001
 820.0000     -7.794397E-001  1.036436E+002 -3.982851E+001 -7.490378E+001 -3.983561E+001 -7.491807E+001 -6.005855E-001 -4.973403E+001
 825.0000     -7.701450E-001  1.024786E+002 -3.932916E+001 -7.496730E+001 -3.933553E+001 -7.499635E+001 -5.913954E-001 -5.097656E+001
 830.0000     -7.629206E-001  1.013066E+002 -3.888148E+001 -7.516947E+001 -3.888414E+001 -7.515252E+001 -5.823253E-001 -5.220015E+001
 835.0000     -7.562907E-001  1.001771E+002 -3.847736E+001 -7.549998E+001 -3.847428E+001 -7.545764E+001 -5.723798E-001 -5.338991E+001
 840.0000     -7.481104E-001  9.912704E+001 -3.810381E+001 -7.574355E+001 -3.810609E+001 -7.576139E+001 -5.597330E-001 -5.454947E+001
 845.0000     -7.388506E-001  9.810812E+001 -3.775851E+001 -7.609642E+001 -3.776757E+001 -7.610306E+001 -5.468681E-001 -5.569286E+001
 850.0000     -7.301067E-001  9.707472E+001 -3.744207E+001 -7.657205E+001 -3.744948E+001 -7.655756E+001 -5.351930E-001 -5.682019E+001
 855.0000     -7.228559E-001  9.602192E+001 -3.716343E+001 -7.705755E+001 -3.716984E+001 -7.705788E+001 -5.257074E-001 -5.793011E+001
 860.0000     -7.155273E-001  9.498032E+001 -3.690903E+001 -7.758676E+001 -3.690943E+001 -7.758607E+001 -5.171439E-001 -5.902507E+001
 865.0000     -7.071397E-001  9.397530E+001 -3.667093E+001 -7.814471E+001 -3.667617E+001 -7.817423E+001 -5.092607E-001 -6.009642E+001
 870.0000     -7.002334E-001  9.299380E+001 -3.645090E+001 -7.868959E+001 -3.645626E+001 -7.870059E+001 -5.004872E-001 -6.114275E+001
 875.0000     -6.975930E-001  9.202155E+001 -3.626037E+001 -7.929120E+001 -3.626431E+001 -7.931066E+001 -4.919661E-001 -6.216350E+001
 880.0000     -6.973729E-001  9.106214E+001 -3.608722E+001 -7.992497E+001 -3.609080E+001 -7.990951E+001 -4.833523E-001 -6.316576E+001
 885.0000     -6.946911E-001  9.010178E+001 -3.591705E+001 -8.055136E+001 -3.592125E+001 -8.054876E+001 -4.734709E-001 -6.414933E+001
 890.0000     -6.833348E-001  8.915389E+001 -3.576613E+001 -8.121676E+001 -3.577336E+001 -8.120403E+001 -4.643871E-001 -6.511314E+001
 895.0000     -6.708799E-001  8.823334E+001 -3.562289E+001 -8.181119E+001 -3.561991E+001 -8.178945E+001 -4.564854E-001 -6.605123E+001
 900.0000     -6.605189E-001  8.736043E+001 -3.549271E+001 -8.238519E+001 -3.549618E+001 -8.241343E+001 -4.514129E-001 -6.696798E+001
 905.0000     -6.543089E-001  8.651083E+001 -3.539023E+001 -8.297223E+001 -3.538817E+001 -8.298681E+001 -4.473157E-001 -6.786863E+001
 910.0000     -6.510451E-001  8.565729E+001 -3.528926E+001 -8.355748E+001 -3.529487E+001 -8.360088E+001 -4.431624E-001 -6.876887E+001
 915.0000     -6.464350E-001  8.478543E+001 -3.520366E+001 -8.423518E+001 -3.520369E+001 -8.421903E+001 -4.354762E-001 -6.967033E+001
 920.0000     -6.424785E-001  8.389798E+001 -3.512107E+001 -8.491146E+001 -3.512598E+001 -8.489992E+001 -4.271542E-001 -7.056324E+001
 925.0000     -6.372445E-001  8.302628E+001 -3.505617E+001 -8.562244E+001 -3.505563E+001 -8.557183E+001 -4.205515E-001 -7.142969E+001
 930.0000     -6.318825E-001  8.217973E+001 -3.499380E+001 -8.627847E+001 -3.499409E+001 -8.623537E+001 -4.154159E-001 -7.226591E+001
 935.0000     -6.272496E-001  8.135642E+001 -3.494561E+001 -8.688232E+001 -3.494540E+001 -8.686591E+001 -4.115412E-001 -7.308367E+001
 940.0000     -6.221249E-001  8.055204E+001 -3.490174E+001 -8.748684E+001 -3.490791E+001 -8.748473E+001 -4.084164E-001 -7.389333E+001
 945.0000     -6.172706E-001  7.975739E+001 -3.486972E+001 -8.808376E+001 -3.487354E+001 -8.809705E+001 -4.048379E-001 -7.469928E+001
 950.0000     -6.115316E-001  7.897866E+001 -3.484267E+001 -8.872156E+001 -3.484526E+001 -8.871635E+001 -3.986130E-001 -7.549728E+001
 955.0000     -6.062090E-001  7.820955E+001 -3.482703E+001 -8.930251E+001 -3.482434E+001 -8.932164E+001 -3.913378E-001 -7.628477E+001
 960.0000     -5.990400E-001  7.745667E+001 -3.480602E+001 -8.992809E+001 -3.480949E+001 -8.993797E+001 -3.851911E-001 -7.706322E+001
 980.0000     -5.814941E-001  7.449155E+001 -3.482868E+001 -9.226086E+001 -3.482701E+001 -9.230882E+001 -3.707506E-001 -8.007545E+001
1000.0000     -5.677572E-001  7.158982E+001 -3.492719E+001 -9.457652E+001 -3.492810E+001 -9.456264E+001 -3.487579E-001 -8.283736E+001
1020.0000     -5.498713E-001  6.882385E+001 -3.510975E+001 -9.682133E+001 -3.510558E+001 -9.679604E+001 -3.351525E-001 -8.545802E+001
1040.0000     -5.244525E-001  6.619717E+001 -3.534960E+001 -9.887103E+001 -3.534427E+001 -9.887673E+001 -3.227783E-001 -8.792877E+001
1060.0000     -5.246454E-001  6.373933E+001 -3.568459E+001 -1.007894E+002 -3.569549E+001 -1.008568E+002 -3.160962E-001 -9.032172E+001
1080.0000     -5.075245E-001  6.125211E+001 -3.606848E+001 -1.027785E+002 -3.607232E+001 -1.027719E+002 -3.027357E-001 -9.257281E+001
1100.0000     -4.967221E-001  5.887194E+001 -3.651985E+001 -1.045589E+002 -3.652719E+001 -1.045383E+002 -2.954158E-001 -9.470592E+001
1120.0000     -4.900082E-001  5.660975E+001 -3.704991E+001 -1.062426E+002 -3.705111E+001 -1.062555E+002 -2.865164E-001 -9.674896E+001
1140.0000     -4.708422E-001  5.437880E+001 -3.761623E+001 -1.078637E+002 -3.761457E+001 -1.077987E+002 -2.734316E-001 -9.864796E+001
1160.0000     -4.603709E-001  5.222739E+001 -3.827713E+001 -1.093425E+002 -3.827072E+001 -1.093516E+002 -2.689322E-001 -1.004822E+002
1180.0000     -4.491950E-001  5.024285E+001 -3.898970E+001 -1.105429E+002 -3.899664E+001 -1.105458E+002 -2.615995E-001 -1.022389E+002
1200.0000     -4.397458E-001  4.814219E+001 -3.980607E+001 -1.117818E+002 -3.979594E+001 -1.119275E+002 -2.497820E-001 -1.039985E+002
1220.0000     -4.319467E-001  4.626814E+001 -4.071390E+001 -1.127916E+002 -4.070759E+001 -1.128116E+002 -2.492940E-001 -1.056497E+002
1240.0000     -4.183908E-001  4.432327E+001 -4.173198E+001 -1.135988E+002 -4.173677E+001 -1.136034E+002 -2.429464E-001 -1.071707E+002
1260.0000     -4.143409E-001  4.250304E+001 -4.288494E+001 -1.140255E+002 -4.289681E+001 -1.140433E+002 -2.362800E-001 -1.086409E+002
1280.0000     -4.040729E-001  4.070678E+001 -4.422448E+001 -1.141249E+002 -4.422982E+001 -1.140754E+002 -2.337553E-001 -1.100710E+002
1300.0000     -3.971057E-001  3.895357E+001 -4.578564E+001 -1.134487E+002 -4.579825E+001 -1.135642E+002 -2.275940E-001 -1.114623E+002
1320.0000     -3.916792E-001  3.728017E+001 -4.764273E+001 -1.119682E+002 -4.764992E+001 -1.119812E+002 -2.303271E-001 -1.128428E+002
1340.0000     -3.812602E-001  3.554580E+001 -4.997636E+001 -1.086129E+002 -4.997263E+001 -1.085449E+002 -2.207168E-001 -1.141200E+002
1360.0000     -3.669581E-001  3.391965E+001 -5.289098E+001 -1.015762E+002 -5.287835E+001 -1.012056E+002 -2.134927E-001 -1.153348E+002
1380.0000     -3.643039E-001  3.234135E+001 -5.654902E+001 -8.406176E+001 -5.656247E+001 -8.400331E+001 -2.150892E-001 -1.165212E+002
1400.0000     -3.522996E-001  3.081920E+001 -5.924652E+001 -4.491912E+001 -5.920966E+001 -4.516196E+001 -2.121858E-001 -1.177116E+002
1420.0000     -3.528427E-001  2.927139E+001 -5.699105E+001 -4.314034E+000 -5.697261E+001 -3.962888E+000 -2.114877E-001 -1.188534E+002
1440.0000     -3.505737E-001  2.781909E+001 -5.344960E+001  1.434108E+001 -5.338535E+001  1.412734E+001 -2.131642E-001 -1.199334E+002
1460.0000     -3.356456E-001  2.626254E+001 -5.054483E+001  2.196274E+001 -5.057615E+001  2.178415E+001 -2.077283E-001 -1.210096E+002
1480.0000     -3.356706E-001  2.482983E+001 -4.842088E+001  2.578431E+001 -4.838263E+001  2.568996E+001 -2.053535E-001 -1.219639E+002
1500.0000     -3.293487E-001  2.345914E+001 -4.665345E+001  2.771517E+001 -4.665481E+001  2.767304E+001 -1.992950E-001 -1.229667E+002
1520.0000     -3.224009E-001  2.203171E+001 -4.522242E+001  2.879959E+001 -4.522682E+001  2.873346E+001 -1.974586E-001 -1.239310E+002
1540.0000     -3.201393E-001  2.067673E+001 -4.403113E+001  2.905971E+001 -4.402223E+001  2.903098E+001 -1.936169E-001 -1.249071E+002
1560.0000     -3.203613E-001  1.935695E+001 -4.299154E+001  2.909712E+001 -4.299665E+001  2.904717E+001 -1.917910E-001 -1.257914E+002
1580.0000     -3.109522E-001  1.803712E+001 -4.208326E+001  2.891155E+001 -4.208836E+001  2.890917E+001 -1.902627E-001 -1.266462E+002
1600.0000     -3.005379E-001  1.675402E+001 -4.126157E+001  2.859356E+001 -4.127314E+001  2.861266E+001 -1.857889E-001 -1.274710E+002
1620.0000     -2.995926E-001  1.552355E+001 -4.056694E+001  2.816331E+001 -4.056108E+001  2.820660E+001 -1.856284E-001 -1.282898E+002
1640.0000     -2.968199E-001  1.423182E+001 -3.992378E+001  2.758297E+001 -3.993235E+001  2.751643E+001 -1.906834E-001 -1.291774E+002
1660.0000     -2.919359E-001  1.296217E+001 -3.934510E+001  2.685431E+001 -3.933866E+001  2.698542E+001 -1.839697E-001 -1.299527E+002
1680.0000     -2.880127E-001  1.177439E+001 -3.881942E+001  2.638971E+001 -3.881828E+001  2.635348E+001 -1.865751E-001 -1.307178E+002
1700.0000     -2.869365E-001  1.053478E+001 -3.831931E+001  2.572625E+001 -3.834040E+001  2.572073E+001 -1.772609E-001 -1.314058E+002
1720.0000     -2.743713E-001  9.398785E+000 -3.788394E+001  2.510218E+001 -3.789307E+001  2.510666E+001 -1.854026E-001 -1.321181E+002
1740.0000     -2.722895E-001  8.223367E+000 -3.745921E+001  2.431607E+001 -3.746922E+001  2.432810E+001 -1.740760E-001 -1.328931E+002
1760.0000     -2.718492E-001  7.122755E+000 -3.709239E+001  2.372053E+001 -3.709127E+001  2.369959E+001 -1.841669E-001 -1.335477E+002
1780.0000     -2.704427E-001  5.928036E+000 -3.674053E+001  2.292936E+001 -3.674000E+001  2.291573E+001 -1.766296E-001 -1.342578E+002
1800.0000     -2.547704E-001  4.811772E+000 -3.639894E+001  2.228044E+001 -3.639734E+001  2.226035E+001 -1.710388E-001 -1.349047E+002
1820.0000     -2.521229E-001  3.731775E+000 -3.608756E+001  2.157888E+001 -3.609012E+001  2.157940E+001 -1.803340E-001 -1.355484E+002
1840.0000     -2.486695E-001  2.653733E+000 -3.579499E+001  2.086786E+001 -3.579605E+001  2.084491E+001 -1.769212E-001 -1.361553E+002
1860.0000     -2.568975E-001  1.541965E+000 -3.553217E+001  2.011752E+001 -3.554864E+001  2.012836E+001 -1.721494E-001 -1.367457E+002
1880.0000     -2.450175E-001  4.775719E-001 -3.528795E+001  1.946037E+001 -3.528180E+001  1.941912E+001 -1.749508E-001 -1.373461E+002
1900.0000     -2.316786E-001 -5.977436E-001 -3.503619E+001  1.869171E+001 -3.503831E+001  1.869080E+001 -1.751811E-001 -1.379528E+002
1920.0000     -2.303016E-001 -1.577963E+000 -3.481906E+001  1.806817E+001 -3.481859E+001  1.803359E+001 -1.791943E-001 -1.385459E+002
1940.0000     -2.329662E-001 -2.590752E+000 -3.461051E+001  1.738197E+001 -3.461507E+001  1.733372E+001 -1.767507E-001 -1.390583E+002
1960.0000     -2.268369E-001 -3.619358E+000 -3.440848E+001  1.663075E+001 -3.440936E+001  1.659509E+001 -1.674826E-001 -1.396443E+002
1980.0000     -2.354152E-001 -4.696927E+000 -3.422714E+001  1.588453E+001 -3.423288E+001  1.591624E+001 -1.698729E-001 -1.401386E+002
2000.0000     -2.251757E-001 -5.649907E+000 -3.404843E+001  1.530948E+001 -3.405315E+001  1.531445E+001 -1.755023E-001 -1.406432E+002
2020.0000     -2.261041E-001 -6.696301E+000 -3.388183E+001  1.456260E+001 -3.388109E+001  1.454175E+001 -1.756437E-001 -1.412127E+002
2040.0000     -2.140033E-001 -7.609623E+000 -3.372296E+001  1.399735E+001 -3.372354E+001  1.393806E+001 -1.791979E-001 -1.416816E+002
2060.0000     -2.172620E-001 -8.561492E+000 -3.357460E+001  1.331320E+001 -3.357571E+001  1.330579E+001 -1.806798E-001 -1.421769E+002
2080.0000     -2.193483E-001 -9.479829E+000 -3.341778E+001  1.264098E+001 -3.342149E+001  1.266751E+001 -1.631106E-001 -1.426264E+002
2100.0000     -2.206997E-001 -1.043016E+001 -3.330270E+001  1.198032E+001 -3.330173E+001  1.198249E+001 -1.725169E-001 -1.431461E+002
2120.0000     -2.158299E-001 -1.140918E+001 -3.316357E+001  1.135643E+001 -3.316972E+001  1.131518E+001 -1.741548E-001 -1.435787E+002
2140.0000     -2.073019E-001 -1.227066E+001 -3.304411E+001  1.075682E+001 -3.304632E+001  1.071896E+001 -1.785026E-001 -1.440334E+002
2160.0000     -2.100741E-001 -1.317471E+001 -3.293892E+001  1.011731E+001 -3.293781E+001  1.011355E+001 -1.778651E-001 -1.444918E+002
2180.0000     -2.169204E-001 -1.412440E+001 -3.282334E+001  9.416717E+000 -3.282858E+001  9.431546E+000 -1.734975E-001 -1.448863E+002
2200.0000     -1.999447E-001 -1.504592E+001 -3.272237E+001  8.739079E+000 -3.272575E+001  8.734512E+000 -1.770234E-001 -1.453345E+002
2220.0000     -2.046832E-001 -1.594320E+001 -3.262264E+001  8.125070E+000 -3.262485E+001  8.139920E+000 -1.765334E-001 -1.457665E+002
2240.0000     -1.935737E-001 -1.683461E+001 -3.252931E+001  7.517982E+000 -3.253466E+001  7.506509E+000 -1.757903E-001 -1.461764E+002
2260.0000     -1.939002E-001 -1.761901E+001 -3.244652E+001  7.038438E+000 -3.245314E+001  7.009328E+000 -1.809157E-001 -1.465650E+002
2280.0000     -1.997096E-001 -1.852752E+001 -3.237077E+001  6.377437E+000 -3.236889E+001  6.379538E+000 -1.776427E-001 -1.469835E+002
2300.0000     -2.048776E-001 -1.939454E+001 -3.228797E+001  5.820326E+000 -3.229596E+001  5.805820E+000 -1.767582E-001 -1.473475E+002
2320.0000     -2.001524E-001 -2.027549E+001 -3.219932E+001  5.179233E+000 -3.219919E+001  5.172571E+000 -1.663358E-001 -1.477197E+002
2340.0000     -1.953595E-001 -2.108165E+001 -3.213529E+001  4.609064E+000 -3.213828E+001  4.596735E+000 -1.809992E-001 -1.480819E+002
2360.0000     -1.945674E-001 -2.198154E+001 -3.207616E+001  3.981714E+000 -3.208083E+001  3.939999E+000 -1.805972E-001 -1.484915E+002
2380.0000     -1.873910E-001 -2.274288E+001 -3.200716E+001  3.384631E+000 -3.201004E+001  3.385698E+000 -1.804603E-001 -1.488726E+002
2400.0000     -1.988405E-001 -2.354581E+001 -3.195162E+001  2.867359E+000 -3.195149E+001  2.870785E+000 -1.671524E-001 -1.492530E+002
2420.0000     -1.960664E-001 -2.437379E+001 -3.191431E+001  2.297081E+000 -3.191397E+001  2.316711E+000 -1.813996E-001 -1.495087E+002
2440.0000     -1.877860E-001 -2.521596E+001 -3.184939E+001  1.788845E+000 -3.185248E+001  1.763471E+000 -1.764716E-001 -1.499067E+002
2460.0000     -1.890431E-001 -2.598299E+001 -3.180606E+001  1.217012E+000 -3.180918E+001  1.197932E+000 -1.797904E-001 -1.502388E+002
2480.0000     -1.928136E-001 -2.677630E+001 -3.175721E+001  6.897551E-001 -3.176210E+001  6.712095E-001 -1.786687E-001 -1.505991E+002
2500.0000     -1.826350E-001 -2.753780E+001 -3.169517E+001  1.659465E-001 -3.169480E+001  1.553814E-001 -1.737277E-001 -1.509039E+002
2520.0000     -1.921627E-001 -2.835205E+001 -3.167810E+001 -3.578258E-001 -3.168242E+001 -3.618792E-001 -1.720095E-001 -1.512167E+002
2540.0000     -1.872721E-001 -2.915076E+001 -3.161530E+001 -9.268129E-001 -3.162165E+001 -9.440798E-001 -1.738110E-001 -1.515603E+002
2560.0000     -1.808877E-001 -2.989364E+001 -3.159661E+001 -1.502766E+000 -3.159856E+001 -1.479379E+000 -1.870837E-001 -1.518969E+002
2580.0000     -1.783318E-001 -3.062267E+001 -3.156282E+001 -1.946994E+000 -3.156418E+001 -1.980286E+000 -1.837967E-001 -1.521712E+002
2600.0000     -1.753582E-001 -3.132246E+001 -3.152209E+001 -2.406286E+000 -3.152575E+001 -2.402428E+000 -1.754292E-001 -1.525150E+002
2620.0000     -1.744142E-001 -3.209646E+001 -3.149508E+001 -2.890426E+000 -3.149944E+001 -2.916599E+000 -1.751433E-001 -1.527931E+002
2640.0000     -1.742478E-001 -3.282155E+001 -3.146097E+001 -3.467145E+000 -3.146472E+001 -3.431168E+000 -1.811711E-001 -1.531030E+002
2660.0000     -1.773185E-001 -3.351468E+001 -3.144542E+001 -3.841130E+000 -3.144643E+001 -3.853883E+000 -1.704090E-001 -1.533643E+002
2680.0000     -1.753385E-001 -3.425834E+001 -3.142701E+001 -4.361769E+000 -3.142801E+001 -4.364980E+000 -1.832776E-001 -1.537140E+002
2700.0000     -1.763100E-001 -3.503040E+001 -3.140387E+001 -4.862892E+000 -3.140288E+001 -4.883899E+000 -1.790455E-001 -1.539618E+002
2720.0000     -1.782140E-001 -3.570450E+001 -3.138420E+001 -5.289966E+000 -3.138490E+001 -5.279120E+000 -1.796093E-001 -1.542139E+002
2740.0000     -1.724056E-001 -3.639281E+001 -3.135066E+001 -5.740219E+000 -3.135219E+001 -5.728331E+000 -1.715077E-001 -1.544669E+002
2760.0000     -1.693319E-001 -3.709961E+001 -3.132626E+001 -6.222123E+000 -3.132397E+001 -6.208786E+000 -1.772671E-001 -1.547490E+002
2780.0000     -1.688304E-001 -3.779719E+001 -3.131240E+001 -6.722644E+000 -3.131675E+001 -6.722995E+000 -1.842534E-001 -1.550686E+002
2800.0000     -1.677310E-001 -3.848802E+001 -3.128832E+001 -7.164402E+000 -3.129567E+001 -7.154053E+000 -1.754933E-001 -1.553161E+002
2820.0000     -1.666588E-001 -3.918520E+001 -3.127458E+001 -7.617230E+000 -3.127233E+001 -7.610433E+000 -1.755811E-001 -1.555491E+002
2840.0000     -1.691992E-001 -3.982166E+001 -3.126427E+001 -8.066291E+000 -3.126823E+001 -8.065091E+000 -1.809061E-001 -1.557997E+002
2860.0000     -1.679504E-001 -4.055097E+001 -3.124485E+001 -8.606408E+000 -3.124780E+001 -8.625168E+000 -1.785973E-001 -1.560646E+002
2880.0000     -1.655342E-001 -4.119079E+001 -3.122391E+001 -8.996595E+000 -3.122561E+001 -8.993732E+000 -1.776611E-001 -1.563222E+002
2900.0000     -1.735415E-001 -4.186449E+001 -3.122725E+001 -9.493766E+000 -3.122810E+001 -9.507291E+000 -1.769104E-001 -1.565857E+002
2920.0000     -1.617884E-001 -4.249355E+001 -3.122737E+001 -9.914593E+000 -3.122738E+001 -9.930202E+000 -1.804716E-001 -1.568303E+002
2940.0000     -1.640925E-001 -4.314333E+001 -3.120793E+001 -1.031225E+001 -3.121019E+001 -1.033839E+001 -1.805151E-001 -1.570450E+002
2960.0000     -1.672264E-001 -4.380178E+001 -3.119388E+001 -1.072034E+001 -3.119708E+001 -1.073835E+001 -1.772148E-001 -1.572517E+002
2980.0000     -1.714843E-001 -4.443854E+001 -3.119703E+001 -1.120392E+001 -3.119980E+001 -1.120328E+001 -1.799289E-001 -1.574569E+002
3000.0000     -1.685042E-001 -4.513405E+001 -3.117274E+001 -1.162990E+001 -3.116922E+001 -1.164832E+001 -1.722507E-001 -1.577760E+002
3025.0000     -1.693080E-001 -4.591872E+001 -3.116962E+001 -1.243388E+001 -3.116784E+001 -1.245921E+001 -1.835156E-001 -1.580802E+002
3050.0000     -1.774226E-001 -4.668234E+001 -3.118593E+001 -1.272357E+001 -3.118586E+001 -1.274545E+001 -1.752244E-001 -1.583458E+002
3075.0000     -1.775594E-001 -4.743536E+001 -3.116756E+001 -1.321555E+001 -3.117445E+001 -1.324007E+001 -1.758763E-001 -1.586180E+002
3100.0000     -1.652742E-001 -4.825582E+001 -3.115872E+001 -1.373481E+001 -3.116094E+001 -1.373322E+001 -1.759678E-001 -1.589229E+002
3125.0000     -1.715560E-001 -4.895706E+001 -3.113651E+001 -1.425293E+001 -3.113641E+001 -1.427118E+001 -1.723194E-001 -1.592372E+002
3150.0000     -1.772962E-001 -4.971116E+001 -3.113413E+001 -1.479115E+001 -3.113409E+001 -1.478341E+001 -1.770855E-001 -1.594914E+002
3175.0000     -1.807057E-001 -5.050321E+001 -3.114317E+001 -1.552347E+001 -3.114390E+001 -1.552667E+001 -1.821262E-001 -1.597426E+002
3200.0000     -1.719176E-001 -5.123116E+001 -3.111822E+001 -1.591529E+001 -3.112180E+001 -1.592500E+001 -1.762974E-001 -1.599681E+002
3225.0000     -1.747642E-001 -5.199551E+001 -3.110835E+001 -1.667471E+001 -3.111029E+001 -1.669644E+001 -1.723160E-001 -1.602588E+002
3250.0000     -1.793626E-001 -5.271056E+001 -3.114816E+001 -1.715315E+001 -3.115082E+001 -1.716347E+001 -1.778465E-001 -1.605159E+002
3275.0000     -1.707573E-001 -5.345836E+001 -3.114718E+001 -1.749977E+001 -3.115306E+001 -1.752297E+001 -1.721103E-001 -1.607562E+002
3300.0000     -1.835058E-001 -5.418543E+001 -3.111991E+001 -1.795052E+001 -3.112114E+001 -1.798036E+001 -1.718102E-001 -1.610377E+002
3325.0000     -1.767990E-001 -5.486852E+001 -3.106725E+001 -1.824272E+001 -3.107165E+001 -1.825514E+001 -1.669015E-001 -1.612316E+002
3350.0000     -1.765838E-001 -5.559851E+001 -3.105905E+001 -1.882442E+001 -3.106123E+001 -1.883176E+001 -1.701377E-001 -1.614839E+002
3375.0000     -1.835870E-001 -5.633213E+001 -3.103093E+001 -1.942587E+001 -3.103374E+001 -1.942478E+001 -1.679639E-001 -1.617650E+002
3400.0000     -1.729360E-001 -5.701456E+001 -3.096985E+001 -1.984824E+001 -3.097261E+001 -1.984635E+001 -1.689958E-001 -1.620244E+002
3425.0000     -1.826450E-001 -5.778445E+001 -3.091722E+001 -2.051322E+001 -3.092274E+001 -2.053242E+001 -1.660833E-001 -1.622181E+002
3450.0000     -1.798677E-001 -5.848188E+001 -3.086792E+001 -2.104261E+001 -3.087151E+001 -2.104137E+001 -1.671804E-001 -1.624296E+002
3475.0000     -1.868083E-001 -5.923119E+001 -3.080497E+001 -2.172430E+001 -3.080620E+001 -2.173303E+001 -1.711821E-001 -1.627023E+002
3500.0000     -1.958711E-001 -5.988760E+001 -3.072499E+001 -2.228999E+001 -3.073026E+001 -2.229734E+001 -1.692724E-001 -1.629973E+002
3525.0000     -1.983840E-001 -6.064275E+001 -3.063397E+001 -2.301774E+001 -3.063781E+001 -2.301890E+001 -1.675442E-001 -1.632479E+002
3550.0000     -2.046445E-001 -6.135408E+001 -3.051070E+001 -2.387084E+001 -3.051270E+001 -2.387811E+001 -1.634028E-001 -1.634490E+002
3575.0000     -2.113322E-001 -6.209839E+001 -3.042386E+001 -2.467158E+001 -3.042836E+001 -2.468907E+001 -1.716872E-001 -1.636712E+002
3600.0000     -2.257932E-001 -6.285909E+001 -3.023006E+001 -2.546546E+001 -3.022932E+001 -2.548087E+001 -1.665976E-001 -1.639631E+002
3625.0000     -2.320480E-001 -6.359016E+001 -3.003855E+001 -2.652557E+001 -3.004072E+001 -2.653009E+001 -1.720434E-001 -1.641803E+002
3650.0000     -2.449810E-001 -6.444719E+001 -2.976059E+001 -2.765202E+001 -2.976369E+001 -2.767663E+001 -1.602345E-001 -1.643974E+002
3675.0000     -2.855184E-001 -6.534261E+001 -2.946941E+001 -2.951124E+001 -2.947128E+001 -2.949706E+001 -1.695688E-001 -1.645920E+002
3700.0000     -3.032364E-001 -6.630990E+001 -2.904725E+001 -3.139018E+001 -2.904936E+001 -3.140147E+001 -1.741719E-001 -1.648662E+002
3725.0000     -3.711684E-001 -6.726779E+001 -2.849785E+001 -3.429627E+001 -2.849847E+001 -3.430235E+001 -1.785187E-001 -1.651632E+002
3750.0000     -4.628143E-001 -6.845860E+001 -2.782377E+001 -3.878263E+001 -2.782652E+001 -3.879088E+001 -1.895754E-001 -1.654288E+002
3775.0000     -6.456062E-001 -6.968234E+001 -2.699134E+001 -4.556498E+001 -2.699315E+001 -4.557115E+001 -1.994230E-001 -1.656826E+002
3800.0000     -9.827921E-001 -7.050978E+001 -2.610202E+001 -5.726203E+001 -2.610597E+001 -5.727483E+001 -2.318753E-001 -1.659864E+002
3825.0000     -1.472025E+000 -6.925352E+001 -2.575764E+001 -7.693522E+001 -2.576097E+001 -7.693937E+001 -2.694695E-001 -1.659598E+002
3850.0000     -1.535757E+000 -6.484318E+001 -2.734513E+001 -1.014556E+002 -2.734856E+001 -1.014608E+002 -2.701512E-001 -1.658011E+002
3875.0000     -1.062171E+000 -6.291901E+001 -3.106662E+001 -1.184808E+002 -3.107063E+001 -1.184829E+002 -2.315976E-001 -1.658603E+002
3900.0000     -6.805747E-001 -6.359316E+001 -3.558825E+001 -1.220565E+002 -3.559393E+001 -1.221149E+002 -2.100877E-001 -1.660581E+002
3925.0000     -4.935438E-001 -6.479366E+001 -3.987597E+001 -1.115137E+002 -3.987955E+001 -1.115672E+002 -1.888680E-001 -1.663018E+002
3950.0000     -3.930531E-001 -6.590766E+001 -4.253846E+001 -8.938397E+001 -4.253272E+001 -8.944329E+001 -1.833114E-001 -1.666112E+002
3975.0000     -3.290206E-001 -6.688248E+001 -4.289613E+001 -6.717706E+001 -4.291145E+001 -6.719920E+001 -1.764475E-001 -1.668026E+002
4000.0000     -2.984851E-001 -6.775569E+001 -4.215676E+001 -5.321440E+001 -4.215923E+001 -5.312551E+001 -1.724210E-001 -1.670973E+002
4025.0000     -2.762867E-001 -6.861407E+001 -4.128475E+001 -4.470910E+001 -4.128308E+001 -4.476492E+001 -1.679463E-001 -1.673105E+002
4050.0000     -2.568534E-001 -6.938137E+001 -4.055354E+001 -4.040642E+001 -4.054469E+001 -4.047495E+001 -1.723823E-001 -1.675807E+002
4075.0000     -2.402149E-001 -7.003716E+001 -4.003220E+001 -3.780346E+001 -4.003299E+001 -3.784765E+001 -1.702347E-001 -1.678132E+002
4100.0000     -2.386657E-001 -7.066862E+001 -3.962088E+001 -3.575216E+001 -3.963823E+001 -3.576186E+001 -1.733016E-001 -1.680101E+002
4125.0000     -2.292788E-001 -7.136378E+001 -3.948457E+001 -3.521650E+001 -3.948629E+001 -3.520371E+001 -1.700540E-001 -1.682076E+002
4150.0000     -2.280515E-001 -7.201368E+001 -3.920411E+001 -3.409128E+001 -3.920388E+001 -3.404850E+001 -1.676531E-001 -1.684546E+002
4175.0000     -2.175341E-001 -7.255368E+001 -3.903737E+001 -3.348021E+001 -3.904444E+001 -3.350286E+001 -1.683612E-001 -1.686819E+002
4200.0000     -2.267373E-001 -7.311216E+001 -3.894218E+001 -3.270283E+001 -3.894592E+001 -3.266547E+001 -1.696512E-001 -1.689736E+002
4225.0000     -2.244917E-001 -7.372236E+001 -3.883193E+001 -3.223507E+001 -3.884723E+001 -3.218565E+001 -1.663347E-001 -1.691230E+002
4250.0000     -2.211861E-001 -7.428145E+001 -3.879990E+001 -3.230863E+001 -3.880310E+001 -3.232891E+001 -1.702399E-001 -1.693808E+002
4275.0000     -2.159769E-001 -7.482246E+001 -3.880666E+001 -3.244148E+001 -3.881376E+001 -3.238750E+001 -1.639003E-001 -1.696459E+002
4300.0000     -2.205097E-001 -7.536687E+001 -3.883096E+001 -3.213854E+001 -3.882938E+001 -3.206543E+001 -1.649570E-001 -1.699370E+002
4325.0000     -2.223836E-001 -7.587101E+001 -3.886927E+001 -3.240836E+001 -3.886201E+001 -3.236457E+001 -1.733804E-001 -1.701883E+002
4350.0000     -2.229077E-001 -7.638466E+001 -3.897824E+001 -3.235815E+001 -3.897667E+001 -3.228126E+001 -1.712736E-001 -1.703707E+002
4375.0000     -2.177562E-001 -7.689031E+001 -3.913371E+001 -3.284434E+001 -3.913766E+001 -3.287552E+001 -1.769388E-001 -1.706170E+002
4400.0000     -2.222574E-001 -7.737971E+001 -3.926450E+001 -3.261573E+001 -3.926148E+001 -3.255430E+001 -1.776377E-001 -1.709324E+002
4425.0000     -2.211393E-001 -7.785383E+001 -3.954298E+001 -3.226060E+001 -3.953257E+001 -3.224570E+001 -1.832091E-001 -1.711492E+002
4450.0000     -2.276691E-001 -7.839236E+001 -3.974214E+001 -3.209974E+001 -3.974260E+001 -3.202372E+001 -1.791341E-001 -1.714824E+002
4475.0000     -2.240103E-001 -7.888712E+001 -3.990162E+001 -3.142424E+001 -3.991001E+001 -3.150673E+001 -1.755581E-001 -1.717483E+002
4500.0000     -2.263758E-001 -7.934615E+001 -4.017108E+001 -3.120663E+001 -4.017396E+001 -3.135028E+001 -1.820367E-001 -1.719587E+002
4525.0000     -2.244736E-001 -7.985570E+001 -4.048034E+001 -3.110373E+001 -4.049426E+001 -3.113933E+001 -1.942160E-001 -1.723715E+002
4550.0000     -2.266105E-001 -8.034151E+001 -4.085604E+001 -3.023664E+001 -4.085113E+001 -3.029162E+001 -1.941276E-001 -1.727092E+002
4575.0000     -2.280522E-001 -8.079317E+001 -4.127602E+001 -2.906520E+001 -4.127494E+001 -2.910009E+001 -1.988683E-001 -1.729821E+002
4600.0000     -2.336325E-001 -8.130085E+001 -4.165871E+001 -2.817363E+001 -4.166528E+001 -2.820596E+001 -2.079343E-001 -1.732845E+002
4625.0000     -2.319325E-001 -8.174327E+001 -4.215419E+001 -2.724860E+001 -4.216018E+001 -2.720029E+001 -2.218705E-001 -1.736416E+002
4650.0000     -2.336961E-001 -8.222726E+001 -4.317482E+001 -2.332053E+001 -4.318124E+001 -2.334768E+001 -2.306546E-001 -1.740207E+002
4675.0000     -2.303833E-001 -8.271898E+001 -4.378255E+001 -1.862029E+001 -4.377371E+001 -1.850442E+001 -2.508474E-001 -1.744722E+002
4700.0000     -2.402509E-001 -8.321521E+001 -4.463996E+001 -1.160613E+001 -4.464461E+001 -1.157682E+001 -2.622897E-001 -1.750030E+002
4725.0000     -2.425869E-001 -8.366325E+001 -4.536388E+001 -3.707564E-001 -4.538890E+001 -3.327881E-001 -2.996385E-001 -1.754558E+002
4750.0000     -2.444659E-001 -8.410530E+001 -4.562149E+001  1.512368E+001 -4.562230E+001  1.527144E+001 -3.428796E-001 -1.760927E+002
4775.0000     -2.409739E-001 -8.458063E+001 -4.441317E+001  3.519259E+001 -4.442582E+001  3.516367E+001 -4.048453E-001 -1.767235E+002
4800.0000     -2.545517E-001 -8.507175E+001 -4.184510E+001  4.901833E+001 -4.185508E+001  4.913577E+001 -5.200385E-001 -1.774828E+002
4825.0000     -2.654235E-001 -8.557354E+001 -3.836540E+001  5.482283E+001 -3.835872E+001  5.487153E+001 -6.997170E-001 -1.781502E+002
4850.0000     -2.760364E-001 -8.601396E+001 -3.489038E+001  5.101696E+001 -3.489083E+001  5.097408E+001 -1.001538E+000 -1.783569E+002
4875.0000     -2.935005E-001 -8.637273E+001 -3.206199E+001  3.854440E+001 -3.206670E+001  3.855217E+001 -1.385489E+000 -1.769442E+002
4900.0000     -2.933442E-001 -8.669254E+001 -3.036631E+001  1.951554E+001 -3.036621E+001  1.950429E+001 -1.493075E+000 -1.735537E+002
4925.0000     -2.876805E-001 -8.707279E+001 -3.019180E+001  1.197729E+000 -3.019475E+001  1.203912E+000 -1.193272E+000 -1.711084E+002
4950.0000     -2.796356E-001 -8.754652E+001 -3.088763E+001 -1.266379E+001 -3.089347E+001 -1.268516E+001 -8.522484E-001 -1.707018E+002
4975.0000     -2.744453E-001 -8.796998E+001 -3.187661E+001 -2.097074E+001 -3.188305E+001 -2.097323E+001 -6.143599E-001 -1.712006E+002
5000.0000     -2.701405E-001 -8.838277E+001 -3.266570E+001 -2.640546E+001 -3.266356E+001 -2.637811E+001 -4.824489E-001 -1.719506E+002
5025.0000     -2.724016E-001 -8.891782E+001 -3.331345E+001 -3.099235E+001 -3.331154E+001 -3.107724E+001 -4.051597E-001 -1.726673E+002
5050.0000     -2.816868E-001 -8.941238E+001 -3.406487E+001 -3.575676E+001 -3.407250E+001 -3.571056E+001 -3.501629E-001 -1.733086E+002
5075.0000     -2.803181E-001 -8.988654E+001 -3.470914E+001 -3.699309E+001 -3.470467E+001 -3.701782E+001 -3.174511E-001 -1.737985E+002
5100.0000     -2.914345E-001 -9.036993E+001 -3.522810E+001 -3.974539E+001 -3.523137E+001 -3.980856E+001 -2.943496E-001 -1.742735E+002
5125.0000     -2.879905E-001 -9.075262E+001 -3.594357E+001 -4.229519E+001 -3.595128E+001 -4.229759E+001 -2.790232E-001 -1.747686E+002
5150.0000     -2.875228E-001 -9.127429E+001 -3.657997E+001 -4.196784E+001 -3.658134E+001 -4.196896E+001 -2.638773E-001 -1.751957E+002
5175.0000     -2.843786E-001 -9.171306E+001 -3.690358E+001 -4.127529E+001 -3.691531E+001 -4.129939E+001 -2.412840E-001 -1.756366E+002
5200.0000     -2.889834E-001 -9.222355E+001 -3.729926E+001 -4.214878E+001 -3.730442E+001 -4.221405E+001 -2.401076E-001 -1.760400E+002
5225.0000     -2.990645E-001 -9.264233E+001 -3.741745E+001 -4.490510E+001 -3.742067E+001 -4.489775E+001 -2.390535E-001 -1.764738E+002
5250.0000     -3.006091E-001 -9.311254E+001 -3.804312E+001 -4.532472E+001 -3.804113E+001 -4.532154E+001 -2.392301E-001 -1.767769E+002
5275.0000     -3.058414E-001 -9.358981E+001 -3.867098E+001 -4.589145E+001 -3.866811E+001 -4.591273E+001 -2.294137E-001 -1.770814E+002
5300.0000     -2.968368E-001 -9.408637E+001 -3.885005E+001 -4.588400E+001 -3.885796E+001 -4.590909E+001 -2.254830E-001 -1.774469E+002
5325.0000     -3.153084E-001 -9.456492E+001 -3.914502E+001 -4.711123E+001 -3.913592E+001 -4.712900E+001 -2.278613E-001 -1.777803E+002
5350.0000     -3.164766E-001 -9.497533E+001 -3.953993E+001 -4.549540E+001 -3.954133E+001 -4.544704E+001 -2.164427E-001 -1.781167E+002
5375.0000     -3.119038E-001 -9.544498E+001 -3.999427E+001 -4.595517E+001 -4.000308E+001 -4.591538E+001 -2.162478E-001 -1.784506E+002
5400.0000     -3.276094E-001 -9.596018E+001 -4.000715E+001 -4.910363E+001 -4.000597E+001 -4.908562E+001 -2.193845E-001 -1.788380E+002
5425.0000     -3.206638E-001 -9.644305E+001 -4.058613E+001 -4.769083E+001 -4.059610E+001 -4.774391E+001 -2.173761E-001 -1.791403E+002
5450.0000     -3.273223E-001 -9.691866E+001 -4.103485E+001 -4.710191E+001 -4.104033E+001 -4.710117E+001 -2.213368E-001 -1.794555E+002
5475.0000     -3.305237E-001 -9.744833E+001 -4.106465E+001 -4.754263E+001 -4.107563E+001 -4.756841E+001 -2.172259E-001 -1.797881E+002
5500.0000     -3.297659E-001 -9.796541E+001 -4.109799E+001 -4.893676E+001 -4.110094E+001 -4.894362E+001 -2.132268E-001  1.798880E+002
5525.0000     -3.385295E-001 -9.843759E+001 -4.173036E+001 -4.997966E+001 -4.171996E+001 -5.004207E+001 -2.303118E-001  1.795605E+002
5550.0000     -3.390445E-001 -9.892992E+001 -4.200380E+001 -5.097856E+001 -4.200998E+001 -5.102875E+001 -2.211839E-001  1.792116E+002
5575.0000     -3.545943E-001 -9.945898E+001 -4.249418E+001 -5.320667E+001 -4.251466E+001 -5.328119E+001 -2.269539E-001  1.789112E+002
5600.0000     -3.485031E-001 -9.995992E+001 -4.290771E+001 -5.026125E+001 -4.291068E+001 -5.017509E+001 -2.133648E-001  1.786321E+002
5625.0000     -3.589261E-001 -1.005925E+002 -4.277888E+001 -5.422662E+001 -4.277573E+001 -5.415751E+001 -2.178666E-001  1.782401E+002
5650.0000     -3.635477E-001 -1.010502E+002 -4.362201E+001 -5.380178E+001 -4.360229E+001 -5.383681E+001 -2.266942E-001  1.778808E+002
5675.0000     -3.747836E-001 -1.015771E+002 -4.364583E+001 -5.479541E+001 -4.364407E+001 -5.480465E+001 -2.224023E-001  1.775341E+002
5700.0000     -3.829288E-001 -1.020974E+002 -4.432116E+001 -5.947265E+001 -4.433765E+001 -5.961309E+001 -2.309365E-001  1.771928E+002
5725.0000     -3.823806E-001 -1.026738E+002 -4.511855E+001 -5.588021E+001 -4.512873E+001 -5.594139E+001 -2.267376E-001  1.768942E+002
5750.0000     -3.858584E-001 -1.032814E+002 -4.481426E+001 -5.650803E+001 -4.482026E+001 -5.671708E+001 -2.287845E-001  1.765588E+002
5775.0000     -3.888085E-001 -1.037938E+002 -4.553360E+001 -5.751589E+001 -4.553632E+001 -5.751943E+001 -2.352896E-001  1.762872E+002
5800.0000     -4.042009E-001 -1.043852E+002 -4.574914E+001 -6.219311E+001 -4.575860E+001 -6.222341E+001 -2.328956E-001  1.758827E+002
5825.0000     -4.106078E-001 -1.049742E+002 -4.658475E+001 -6.342600E+001 -4.658786E+001 -6.349651E+001 -2.328535E-001  1.756136E+002
5850.0000     -4.116510E-001 -1.056039E+002 -4.732632E+001 -6.122502E+001 -4.732622E+001 -6.128240E+001 -2.339105E-001  1.753113E+002
5875.0000     -4.314356E-001 -1.061284E+002 -4.735588E+001 -6.805309E+001 -4.735766E+001 -6.776172E+001 -2.399554E-001  1.749074E+002
5900.0000     -4.290475E-001 -1.067719E+002 -4.756966E+001 -7.131143E+001 -4.753500E+001 -7.130096E+001 -2.406299E-001  1.745059E+002
5925.0000     -4.338855E-001 -1.073536E+002 -4.850734E+001 -7.046706E+001 -4.855001E+001 -7.066084E+001 -2.349005E-001  1.742097E+002
5950.0000     -4.492649E-001 -1.080791E+002 -4.954263E+001 -7.300687E+001 -4.953969E+001 -7.306084E+001 -2.414760E-001  1.738490E+002
5975.0000     -4.640470E-001 -1.086660E+002 -5.009312E+001 -7.100150E+001 -5.009515E+001 -7.102673E+001 -2.353550E-001  1.735407E+002
6000.0000     -4.612051E-001 -1.093768E+002 -4.941669E+001 -7.222809E+001 -4.941175E+001 -7.218636E+001 -2.391112E-001  1.731858E+002
6025.0000     -4.770439E-001 -1.100429E+002 -5.005301E+001 -7.700191E+001 -5.004463E+001 -7.693711E+001 -2.378395E-001  1.727999E+002
6050.0000     -4.860097E-001 -1.107863E+002 -5.035395E+001 -8.159387E+001 -5.036700E+001 -8.159373E+001 -2.345525E-001  1.724987E+002
6075.0000     -5.042821E-001 -1.114558E+002 -5.131587E+001 -8.921434E+001 -5.129192E+001 -8.916722E+001 -2.405887E-001  1.721935E+002
6100.0000     -5.085372E-001 -1.122593E+002 -5.118619E+001 -8.731238E+001 -5.120686E+001 -8.733684E+001 -2.400757E-001  1.717905E+002
6125.0000     -5.269769E-001 -1.129503E+002 -5.163829E+001 -9.280125E+001 -5.158132E+001 -9.288342E+001 -2.408852E-001  1.713707E+002
6150.0000     -5.491802E-001 -1.137000E+002 -5.181645E+001 -9.835198E+001 -5.180497E+001 -9.795082E+001 -2.393949E-001  1.710099E+002
6175.0000     -5.610522E-001 -1.145008E+002 -5.268861E+001 -1.043956E+002 -5.269397E+001 -1.044777E+002 -2.469334E-001  1.706739E+002
6200.0000     -5.686392E-001 -1.153550E+002 -5.163760E+001 -1.000956E+002 -5.165595E+001 -9.985689E+001 -2.362699E-001  1.703092E+002
6225.0000     -5.904348E-001 -1.162124E+002 -5.146469E+001 -1.072508E+002 -5.142566E+001 -1.072421E+002 -2.493240E-001  1.699653E+002
6250.0000     -6.087567E-001 -1.170292E+002 -5.185947E+001 -1.028190E+002 -5.182032E+001 -1.030842E+002 -2.367587E-001  1.695795E+002
6275.0000     -6.399726E-001 -1.179788E+002 -4.956203E+001 -1.051489E+002 -4.954876E+001 -1.051056E+002 -2.388632E-001  1.691962E+002
6300.0000     -6.694002E-001 -1.189312E+002 -4.895497E+001 -1.120199E+002 -4.892730E+001 -1.120388E+002 -2.418991E-001  1.689100E+002
6325.0000     -6.786478E-001 -1.199188E+002 -4.859304E+001 -1.115986E+002 -4.856075E+001 -1.117752E+002 -2.417774E-001  1.685268E+002
6350.0000     -7.190230E-001 -1.208600E+002 -4.753017E+001 -1.141423E+002 -4.755418E+001 -1.140711E+002 -2.439901E-001  1.681134E+002
6375.0000     -7.571843E-001 -1.219556E+002 -4.659371E+001 -1.110363E+002 -4.661635E+001 -1.110256E+002 -2.505045E-001  1.676975E+002
6400.0000     -7.995117E-001 -1.231044E+002 -4.484944E+001 -1.103637E+002 -4.486238E+001 -1.103510E+002 -2.563116E-001  1.672989E+002
6425.0000     -8.392677E-001 -1.243269E+002 -4.381781E+001 -1.170778E+002 -4.380746E+001 -1.169019E+002 -2.498583E-001  1.669554E+002
6450.0000     -8.970287E-001 -1.254556E+002 -4.243409E+001 -1.193095E+002 -4.242819E+001 -1.193710E+002 -2.615160E-001  1.665763E+002
6475.0000     -9.618000E-001 -1.267266E+002 -4.176122E+001 -1.203390E+002 -4.176585E+001 -1.202722E+002 -2.571074E-001  1.661615E+002
6500.0000     -1.037203E+000 -1.280715E+002 -4.034623E+001 -1.223255E+002 -4.035872E+001 -1.224188E+002 -2.587082E-001  1.658168E+002
6525.0000     -1.104188E+000 -1.295341E+002 -3.958373E+001 -1.232475E+002 -3.959155E+001 -1.232373E+002 -2.561713E-001  1.654554E+002
6550.0000     -1.212828E+000 -1.310341E+002 -3.813445E+001 -1.231637E+002 -3.812811E+001 -1.231349E+002 -2.609873E-001  1.650600E+002
6575.0000     -1.340324E+000 -1.325816E+002 -3.687117E+001 -1.255708E+002 -3.687469E+001 -1.255993E+002 -2.689345E-001  1.646282E+002
6600.0000     -1.490497E+000 -1.342968E+002 -3.548187E+001 -1.274418E+002 -3.548584E+001 -1.274581E+002 -2.737790E-001  1.641847E+002
6625.0000     -1.679454E+000 -1.360797E+002 -3.410762E+001 -1.317243E+002 -3.410895E+001 -1.317176E+002 -2.821544E-001  1.637718E+002
6650.0000     -1.904314E+000 -1.378430E+002 -3.289170E+001 -1.346216E+002 -3.289436E+001 -1.346376E+002 -2.813393E-001  1.633704E+002
6675.0000     -2.200274E+000 -1.394434E+002 -3.147166E+001 -1.392225E+002 -3.146892E+001 -1.392261E+002 -2.930927E-001  1.629733E+002
6700.0000     -2.569745E+000 -1.409964E+002 -3.018552E+001 -1.443462E+002 -3.018903E+001 -1.443756E+002 -2.931768E-001  1.625676E+002
6725.0000     -3.012260E+000 -1.420637E+002 -2.893903E+001 -1.510474E+002 -2.894025E+001 -1.510439E+002 -3.074324E-001  1.621372E+002
6750.0000     -3.511070E+000 -1.422486E+002 -2.773366E+001 -1.587441E+002 -2.773493E+001 -1.587528E+002 -3.220898E-001  1.618150E+002
6775.0000     -3.996705E+000 -1.411973E+002 -2.682350E+001 -1.673494E+002 -2.682600E+001 -1.673637E+002 -3.229683E-001  1.615379E+002
6800.0000     -4.344111E+000 -1.389681E+002 -2.612518E+001 -1.769051E+002 -2.612960E+001 -1.769161E+002 -3.322491E-001  1.612233E+002
6825.0000     -4.442683E+000 -1.363545E+002 -2.572687E+001  1.739258E+002 -2.573077E+001  1.738965E+002 -3.347484E-001  1.607931E+002
6850.0000     -4.299267E+000 -1.344295E+002 -2.556803E+001  1.646642E+002 -2.557065E+001  1.646532E+002 -3.342030E-001  1.604083E+002
6875.0000     -4.019907E+000 -1.338707E+002 -2.569617E+001  1.560856E+002 -2.569990E+001  1.560690E+002 -3.270976E-001  1.600018E+002
6900.0000     -3.751618E+000 -1.347176E+002 -2.604984E+001  1.496436E+002 -2.605094E+001  1.496526E+002 -3.232507E-001  1.596075E+002
6925.0000     -3.559597E+000 -1.365966E+002 -2.644934E+001  1.442782E+002 -2.645104E+001  1.442719E+002 -3.244642E-001  1.592625E+002
6950.0000     -3.460498E+000 -1.392221E+002 -2.697076E+001  1.403583E+002 -2.697117E+001  1.403541E+002 -3.185087E-001  1.587603E+002
6975.0000     -3.475889E+000 -1.423956E+002 -2.748896E+001  1.385669E+002 -2.749088E+001  1.385751E+002 -3.168125E-001  1.582987E+002
7000.0000     -3.599213E+000 -1.457702E+002 -2.791635E+001  1.380371E+002 -2.791845E+001  1.380150E+002 -3.176624E-001  1.579449E+002
7025.0000     -3.844060E+000 -1.494732E+002 -2.820539E+001  1.395009E+002 -2.820697E+001  1.394783E+002 -3.216979E-001  1.575038E+002
7050.0000     -4.219923E+000 -1.532623E+002 -2.833108E+001  1.417571E+002 -2.833234E+001  1.417392E+002 -3.331584E-001  1.569859E+002
7075.0000     -4.732006E+000 -1.572350E+002 -2.815394E+001  1.447050E+002 -2.815183E+001  1.446823E+002 -3.364404E-001  1.564547E+002
7100.0000     -5.447156E+000 -1.609897E+002 -2.753215E+001  1.478882E+002 -2.753667E+001  1.478809E+002 -3.526678E-001  1.559082E+002
7125.0000     -6.326172E+000 -1.641252E+002 -2.671455E+001  1.487845E+002 -2.671725E+001  1.487814E+002 -3.548899E-001  1.554933E+002
7150.0000     -7.380191E+000 -1.662260E+002 -2.573157E+001  1.479362E+002 -2.573462E+001  1.479266E+002 -3.790965E-001  1.550038E+002
7175.0000     -8.526866E+000 -1.669792E+002 -2.485825E+001  1.451944E+002 -2.485891E+001  1.451689E+002 -3.913728E-001  1.544946E+002
7200.0000     -9.639675E+000 -1.666668E+002 -2.408299E+001  1.408504E+002 -2.408368E+001  1.408553E+002 -4.195865E-001  1.541096E+002
7225.0000     -1.070157E+001 -1.664102E+002 -2.357411E+001  1.358074E+002 -2.357753E+001  1.357898E+002 -4.323805E-001  1.536879E+002
7250.0000     -1.191903E+001 -1.671999E+002 -2.322704E+001  1.311307E+002 -2.322637E+001  1.311165E+002 -4.616670E-001  1.532183E+002
7275.0000     -1.367757E+001 -1.691611E+002 -2.299464E+001  1.270567E+002 -2.299952E+001  1.270474E+002 -4.945613E-001  1.527199E+002
7300.0000     -1.662520E+001 -1.706432E+002 -2.270379E+001  1.235449E+002 -2.270524E+001  1.235263E+002 -5.336689E-001  1.522833E+002
7325.0000     -2.197179E+001 -1.643338E+002 -2.231871E+001  1.198437E+002 -2.232140E+001  1.198238E+002 -5.769680E-001  1.519599E+002
7350.0000     -2.845706E+001 -9.595669E+001 -2.185986E+001  1.152097E+002 -2.186103E+001  1.151924E+002 -6.372758E-001  1.516411E+002
7375.0000     -2.027203E+001 -4.792336E+001 -2.148077E+001  1.084937E+002 -2.148088E+001  1.084961E+002 -6.920215E-001  1.514626E+002
7400.0000     -1.528302E+001 -4.353727E+001 -2.137472E+001  1.004828E+002 -2.137741E+001  1.004850E+002 -7.104290E-001  1.514050E+002
7425.0000     -1.218850E+001 -4.478642E+001 -2.167133E+001  9.245628E+001 -2.167156E+001  9.245596E+001 -7.215148E-001  1.515401E+002
7450.0000     -9.931052E+000 -4.760977E+001 -2.223674E+001  8.497993E+001 -2.223639E+001  8.496362E+001 -6.808673E-001  1.517237E+002
7475.0000     -8.199691E+000 -5.145501E+001 -2.322616E+001  7.919518E+001 -2.322675E+001  7.918410E+001 -6.520791E-001  1.515875E+002
7500.0000     -6.816704E+000 -5.569687E+001 -2.441105E+001  7.596807E+001 -2.441226E+001  7.595834E+001 -6.024166E-001  1.512696E+002
7525.0000     -5.741241E+000 -6.008031E+001 -2.557276E+001  7.607865E+001 -2.557553E+001  7.604155E+001 -5.656593E-001  1.509023E+002
7550.0000     -4.890594E+000 -6.439055E+001 -2.658601E+001  7.896023E+001 -2.658609E+001  7.894703E+001 -5.238545E-001  1.504317E+002
7575.0000     -4.210966E+000 -6.865311E+001 -2.722086E+001  8.279574E+001 -2.722557E+001  8.281058E+001 -4.972754E-001  1.499673E+002
7600.0000     -3.669621E+000 -7.260816E+001 -2.755690E+001  8.739471E+001 -2.755622E+001  8.738911E+001 -4.633878E-001  1.493354E+002
7625.0000     -3.237761E+000 -7.622173E+001 -2.753023E+001  9.213966E+001 -2.753039E+001  9.213290E+001 -4.526245E-001  1.487903E+002
7650.0000     -2.894216E+000 -7.956450E+001 -2.740902E+001  9.558518E+001 -2.741240E+001  9.555020E+001 -4.421935E-001  1.482032E+002
7675.0000     -2.602467E+000 -8.271558E+001 -2.702925E+001  9.870110E+001 -2.703105E+001  9.869158E+001 -4.427277E-001  1.476975E+002
7700.0000     -2.382071E+000 -8.562869E+001 -2.669317E+001  1.002421E+002 -2.669535E+001  1.002317E+002 -4.461951E-001  1.471825E+002
7725.0000     -2.178337E+000 -8.829362E+001 -2.625281E+001  1.011749E+002 -2.625298E+001  1.011605E+002 -4.462080E-001  1.466316E+002
7750.0000     -2.008206E+000 -9.076643E+001 -2.591569E+001  1.006828E+002 -2.591903E+001  1.006695E+002 -4.703572E-001  1.460334E+002
7775.0000     -1.864735E+000 -9.307584E+001 -2.558172E+001  1.000174E+002 -2.558827E+001  9.999503E+001 -4.790611E-001  1.455287E+002
7800.0000     -1.751595E+000 -9.527344E+001 -2.538880E+001  9.943102E+001 -2.538942E+001  9.943430E+001 -4.990718E-001  1.450765E+002
7825.0000     -1.651053E+000 -9.728319E+001 -2.517360E+001  9.852658E+001 -2.517811E+001  9.852079E+001 -5.229539E-001  1.446884E+002
7850.0000     -1.556275E+000 -9.928006E+001 -2.509130E+001  9.766357E+001 -2.509357E+001  9.765505E+001 -5.249580E-001  1.443220E+002
7875.0000     -1.486619E+000 -1.010779E+002 -2.514066E+001  9.743416E+001 -2.514147E+001  9.743211E+001 -5.237771E-001  1.440369E+002
7900.0000     -1.404038E+000 -1.028168E+002 -2.503882E+001  9.762189E+001 -2.503940E+001  9.761331E+001 -5.050085E-001  1.436969E+002
7925.0000     -1.352995E+000 -1.044841E+002 -2.488509E+001  9.868890E+001 -2.488399E+001  9.870412E+001 -4.834327E-001  1.432809E+002
7950.0000     -1.287520E+000 -1.060892E+002 -2.464984E+001  9.846995E+001 -2.465338E+001  9.845195E+001 -4.628121E-001  1.428164E+002
7975.0000     -1.237920E+000 -1.075774E+002 -2.442356E+001  9.899180E+001 -2.442339E+001  9.899169E+001 -4.625660E-001  1.422422E+002
8000.0000     -1.206613E+000 -1.090685E+002 -2.420073E+001  9.905564E+001 -2.420202E+001  9.904093E+001 -4.406477E-001  1.416671E+002
8025.0000     -1.160821E+000 -1.105257E+002 -2.388807E+001  9.872748E+001 -2.388846E+001  9.871402E+001 -4.372880E-001  1.410962E+002
8050.0000     -1.127900E+000 -1.119019E+002 -2.365115E+001  9.815400E+001 -2.365233E+001  9.815295E+001 -4.296179E-001  1.403690E+002
8075.0000     -1.087366E+000 -1.132579E+002 -2.341701E+001  9.723486E+001 -2.342059E+001  9.723705E+001 -4.342900E-001  1.396740E+002
8100.0000     -1.063500E+000 -1.146193E+002 -2.319900E+001  9.650826E+001 -2.319798E+001  9.654023E+001 -4.175320E-001  1.391085E+002
8125.0000     -1.054642E+000 -1.158652E+002 -2.298360E+001  9.656944E+001 -2.298643E+001  9.657757E+001 -4.370584E-001  1.385161E+002
8150.0000     -1.020786E+000 -1.172193E+002 -2.275690E+001  9.560906E+001 -2.275847E+001  9.561276E+001 -4.250898E-001  1.378890E+002
8175.0000     -1.008421E+000 -1.183196E+002 -2.255943E+001  9.458633E+001 -2.255947E+001  9.458857E+001 -4.514239E-001  1.372299E+002
8200.0000     -1.015754E+000 -1.193910E+002 -2.224026E+001  9.497889E+001 -2.224113E+001  9.497941E+001 -4.519750E-001  1.365658E+002
8225.0000     -1.000081E+000 -1.205737E+002 -2.210299E+001  9.333627E+001 -2.210542E+001  9.333348E+001 -4.686472E-001  1.359145E+002
8250.0000     -9.850501E-001 -1.218144E+002 -2.187139E+001  9.216087E+001 -2.187202E+001  9.215062E+001 -4.794835E-001  1.351866E+002
8275.0000     -9.523975E-001 -1.229265E+002 -2.163220E+001  9.109950E+001 -2.163325E+001  9.109960E+001 -5.029404E-001  1.344426E+002
8300.0000     -9.514520E-001 -1.240208E+002 -2.145832E+001  8.987763E+001 -2.145948E+001  8.985739E+001 -5.201938E-001  1.336178E+002
8325.0000     -9.346663E-001 -1.251027E+002 -2.127827E+001  8.888487E+001 -2.127779E+001  8.888236E+001 -5.491295E-001  1.328490E+002
8350.0000     -9.279220E-001 -1.261125E+002 -2.105249E+001  8.772562E+001 -2.105478E+001  8.771189E+001 -5.687405E-001  1.321895E+002
8375.0000     -9.311295E-001 -1.273376E+002 -2.086887E+001  8.655391E+001 -2.086904E+001  8.654829E+001 -5.960464E-001  1.314103E+002
8400.0000     -9.329094E-001 -1.283950E+002 -2.070415E+001  8.572818E+001 -2.070481E+001  8.571466E+001 -6.558769E-001  1.305468E+002
8425.0000     -9.262856E-001 -1.293396E+002 -2.043827E+001  8.448803E+001 -2.043972E+001  8.446254E+001 -6.890072E-001  1.297259E+002
8450.0000     -9.333228E-001 -1.302966E+002 -2.022565E+001  8.294105E+001 -2.022563E+001  8.292326E+001 -7.520052E-001  1.287693E+002
8475.0000     -9.079207E-001 -1.314108E+002 -2.000328E+001  8.123090E+001 -2.000267E+001  8.121737E+001 -8.361830E-001  1.279674E+002
8500.0000     -9.173595E-001 -1.325002E+002 -1.983775E+001  7.939340E+001 -1.983772E+001  7.937599E+001 -9.044792E-001  1.268121E+002
