! Mini-Circuits
! S2P DATA File Format
! Type: LOW PASS FILTER
! Model: LFCG-320+
! All S Parameters are in dB deg format
! TEST CONDITIONS: INPUT POWER = 0 dBm @ Temperature = +125 deg C
# MHz S dB R 50
!Frequency        S11 dB  S11 DEG   S21 dB  S21 DEG   S12 dB  S12 DEG   S22 dB  S22 DEG
  10.0000     -3.341230E+001  2.106635E+001 -2.280573E-001 -3.541965E+000 -2.300916E-001 -3.524735E+000 -3.302726E+001  1.972290E+001
  11.0000     -3.284394E+001  1.775571E+001 -2.337441E-001 -3.857736E+000 -2.313694E-001 -3.840159E+000 -3.269762E+001  1.517863E+001
  12.0000     -3.246441E+001  1.276184E+001 -2.341974E-001 -4.177931E+000 -2.336401E-001 -4.153686E+000 -3.247269E+001  1.280724E+001
  13.0000     -3.233253E+001  9.116240E+000 -2.359835E-001 -4.491467E+000 -2.357330E-001 -4.477613E+000 -3.230366E+001  1.006693E+001
  14.0000     -3.233142E+001  5.700545E+000 -2.365895E-001 -4.810163E+000 -2.370966E-001 -4.792437E+000 -3.225554E+001  7.991087E+000
  15.0000     -3.224186E+001  3.935903E+000 -2.394194E-001 -5.135268E+000 -2.390049E-001 -5.123476E+000 -3.224954E+001  5.931196E+000
  16.0000     -3.219147E+001  1.467469E+000 -2.417221E-001 -5.467404E+000 -2.392304E-001 -5.451836E+000 -3.225300E+001  4.512785E+000
  17.0000     -3.219332E+001  2.351765E-001 -2.428862E-001 -5.787589E+000 -2.413135E-001 -5.783104E+000 -3.234523E+001  2.936419E+000
  18.0000     -3.226856E+001 -5.618933E-001 -2.437779E-001 -6.128029E+000 -2.429563E-001 -6.110181E+000 -3.242793E+001  1.797185E+000
  19.0000     -3.225552E+001 -2.429478E+000 -2.454078E-001 -6.458805E+000 -2.455926E-001 -6.443650E+000 -3.247541E+001  1.009465E+000
  20.0000     -3.229888E+001 -2.998570E+000 -2.466331E-001 -6.774726E+000 -2.466487E-001 -6.776568E+000 -3.257861E+001  7.082580E-001
  30.0000     -3.284320E+001 -2.103372E+000 -2.627382E-001 -1.007219E+001 -2.629914E-001 -1.006484E+001 -3.231203E+001 -4.631362E+000
  40.0000     -3.247903E+001 -2.245783E+000 -2.799794E-001 -1.332659E+001 -2.784665E-001 -1.330867E+001 -3.136985E+001 -7.317234E+000
  50.0000     -3.222583E+001 -1.011446E+001 -2.886971E-001 -1.658294E+001 -2.978529E-001 -1.652596E+001 -2.994545E+001 -1.174768E+001
  60.0000     -3.234153E+001 -1.726800E+001 -3.149162E-001 -1.978278E+001 -3.164362E-001 -1.977847E+001 -2.894888E+001 -1.947094E+001
  70.0000     -3.232346E+001 -2.318869E+001 -3.362421E-001 -2.302068E+001 -3.343152E-001 -2.302582E+001 -2.864838E+001 -2.621008E+001
  80.0000     -3.209039E+001 -2.824286E+001 -3.499585E-001 -2.627698E+001 -3.490473E-001 -2.629502E+001 -2.825260E+001 -3.020558E+001
  90.0000     -3.219219E+001 -3.539326E+001 -3.646684E-001 -2.955615E+001 -3.663135E-001 -2.955995E+001 -2.750572E+001 -3.507650E+001
 100.0000     -3.267497E+001 -4.378316E+001 -3.828821E-001 -3.283580E+001 -3.835525E-001 -3.283378E+001 -2.685228E+001 -4.103161E+001
 110.0000     -3.311100E+001 -5.118258E+001 -3.995954E-001 -3.613790E+001 -4.008406E-001 -3.615508E+001 -2.630232E+001 -4.583102E+001
 120.0000     -3.318294E+001 -5.824631E+001 -4.189460E-001 -3.947933E+001 -4.199242E-001 -3.948359E+001 -2.587247E+001 -5.047403E+001
 130.0000     -3.331364E+001 -6.541122E+001 -4.386731E-001 -4.285321E+001 -4.393891E-001 -4.285853E+001 -2.530257E+001 -5.455888E+001
 140.0000     -3.349792E+001 -7.686310E+001 -4.603260E-001 -4.626013E+001 -4.608253E-001 -4.626925E+001 -2.479410E+001 -5.865215E+001
 150.0000     -3.369187E+001 -8.696569E+001 -4.820009E-001 -4.970358E+001 -4.833404E-001 -4.970985E+001 -2.440421E+001 -6.315607E+001
 160.0000     -3.403621E+001 -9.282849E+001 -5.015060E-001 -5.316118E+001 -5.024147E-001 -5.315931E+001 -2.407395E+001 -6.748106E+001
 170.0000     -3.398481E+001 -1.002592E+002 -5.245315E-001 -5.668829E+001 -5.259552E-001 -5.669070E+001 -2.378737E+001 -7.102396E+001
 180.0000     -3.389880E+001 -1.104979E+002 -5.481956E-001 -6.025777E+001 -5.501833E-001 -6.025645E+001 -2.354706E+001 -7.458353E+001
 190.0000     -3.399971E+001 -1.192050E+002 -5.725161E-001 -6.387830E+001 -5.745424E-001 -6.387937E+001 -2.327978E+001 -7.837236E+001
 200.0000     -3.412807E+001 -1.249566E+002 -5.973127E-001 -6.755692E+001 -5.987684E-001 -6.756416E+001 -2.309448E+001 -8.178432E+001
 210.0000     -3.402160E+001 -1.295413E+002 -6.237954E-001 -7.130499E+001 -6.251074E-001 -7.130799E+001 -2.304031E+001 -8.493977E+001
 215.0000     -3.408672E+001 -1.324780E+002 -6.373135E-001 -7.320675E+001 -6.388646E-001 -7.321174E+001 -2.302474E+001 -8.656738E+001
 220.0000     -3.426374E+001 -1.358854E+002 -6.513876E-001 -7.513235E+001 -6.527036E-001 -7.513216E+001 -2.300724E+001 -8.810770E+001
 225.0000     -3.440618E+001 -1.393414E+002 -6.650925E-001 -7.706779E+001 -6.680560E-001 -7.707469E+001 -2.298482E+001 -8.939008E+001
 230.0000     -3.454923E+001 -1.421940E+002 -6.801376E-001 -7.902901E+001 -6.823269E-001 -7.903410E+001 -2.297605E+001 -9.055075E+001
 235.0000     -3.464940E+001 -1.442733E+002 -6.956162E-001 -8.101060E+001 -6.982647E-001 -8.101611E+001 -2.297077E+001 -9.183100E+001
 240.0000     -3.475749E+001 -1.450815E+002 -7.123215E-001 -8.301865E+001 -7.147368E-001 -8.302413E+001 -2.299394E+001 -9.323893E+001
 245.0000     -3.492221E+001 -1.448610E+002 -7.299458E-001 -8.505523E+001 -7.320353E-001 -8.505787E+001 -2.303211E+001 -9.458006E+001
 250.0000     -3.512920E+001 -1.437142E+002 -7.468590E-001 -8.711311E+001 -7.495096E-001 -8.711749E+001 -2.310812E+001 -9.575210E+001
 255.0000     -3.524007E+001 -1.417384E+002 -7.671723E-001 -8.919730E+001 -7.667345E-001 -8.920473E+001 -2.316671E+001 -9.636281E+001
 260.0000     -3.547859E+001 -1.401552E+002 -7.846434E-001 -9.131078E+001 -7.845390E-001 -9.131422E+001 -2.328131E+001 -9.677042E+001
 265.0000     -3.565522E+001 -1.395597E+002 -8.021169E-001 -9.344327E+001 -8.028134E-001 -9.345233E+001 -2.343909E+001 -9.700010E+001
 270.0000     -3.570905E+001 -1.381748E+002 -8.211710E-001 -9.561240E+001 -8.227632E-001 -9.561627E+001 -2.361142E+001 -9.723789E+001
 275.0000     -3.567987E+001 -1.351984E+002 -8.433719E-001 -9.781364E+001 -8.440074E-001 -9.782169E+001 -2.373870E+001 -9.757982E+001
 280.0000     -3.541014E+001 -1.301978E+002 -8.668266E-001 -1.000491E+002 -8.674180E-001 -1.000552E+002 -2.385687E+001 -9.794031E+001
 285.0000     -3.487912E+001 -1.248402E+002 -8.906782E-001 -1.023276E+002 -8.908568E-001 -1.023285E+002 -2.402262E+001 -9.801685E+001
 290.0000     -3.415098E+001 -1.202065E+002 -9.127940E-001 -1.046443E+002 -9.131544E-001 -1.046510E+002 -2.423895E+001 -9.750902E+001
 295.0000     -3.348016E+001 -1.160692E+002 -9.347376E-001 -1.070041E+002 -9.358031E-001 -1.070059E+002 -2.446734E+001 -9.631985E+001
 300.0000     -3.278611E+001 -1.123330E+002 -9.609939E-001 -1.094003E+002 -9.613309E-001 -1.094057E+002 -2.464915E+001 -9.480059E+001
 305.0000     -3.209673E+001 -1.086842E+002 -9.899537E-001 -1.118317E+002 -9.903289E-001 -1.118387E+002 -2.477594E+001 -9.295967E+001
 310.0000     -3.119201E+001 -1.058049E+002 -1.019059E+000 -1.143207E+002 -1.020112E+000 -1.143223E+002 -2.483654E+001 -9.060483E+001
 315.0000     -3.005748E+001 -1.033695E+002 -1.047665E+000 -1.168551E+002 -1.049876E+000 -1.168626E+002 -2.478819E+001 -8.762988E+001
 320.0000     -2.889197E+001 -1.019885E+002 -1.079302E+000 -1.194486E+002 -1.080101E+000 -1.194508E+002 -2.466977E+001 -8.446869E+001
 325.0000     -2.782820E+001 -1.010697E+002 -1.112517E+000 -1.220855E+002 -1.113248E+000 -1.220927E+002 -2.451291E+001 -8.140150E+001
 330.0000     -2.682819E+001 -1.008054E+002 -1.148959E+000 -1.247831E+002 -1.149857E+000 -1.247910E+002 -2.433092E+001 -7.835749E+001
 335.0000     -2.587314E+001 -1.009890E+002 -1.188584E+000 -1.275409E+002 -1.190209E+000 -1.275435E+002 -2.402788E+001 -7.514613E+001
 340.0000     -2.492297E+001 -1.019969E+002 -1.232721E+000 -1.303675E+002 -1.233431E+000 -1.303692E+002 -2.353733E+001 -7.203260E+001
 345.0000     -2.396402E+001 -1.032635E+002 -1.280383E+000 -1.332662E+002 -1.280813E+000 -1.332665E+002 -2.293601E+001 -6.938425E+001
 350.0000     -2.299711E+001 -1.046138E+002 -1.328747E+000 -1.362347E+002 -1.331428E+000 -1.362373E+002 -2.227568E+001 -6.750362E+001
 355.0000     -2.205319E+001 -1.060582E+002 -1.381087E+000 -1.392849E+002 -1.382675E+000 -1.392853E+002 -2.156737E+001 -6.596229E+001
 360.0000     -2.113366E+001 -1.077347E+002 -1.438211E+000 -1.424146E+002 -1.439801E+000 -1.424158E+002 -2.080274E+001 -6.510171E+001
 365.0000     -2.024907E+001 -1.097915E+002 -1.501369E+000 -1.456428E+002 -1.502748E+000 -1.456493E+002 -1.999300E+001 -6.487607E+001
 370.0000     -1.940065E+001 -1.120543E+002 -1.570882E+000 -1.489721E+002 -1.571894E+000 -1.489770E+002 -1.917638E+001 -6.526427E+001
 375.0000     -1.855394E+001 -1.145822E+002 -1.647625E+000 -1.523913E+002 -1.648672E+000 -1.523975E+002 -1.837573E+001 -6.616590E+001
 380.0000     -1.772986E+001 -1.173537E+002 -1.732474E+000 -1.559162E+002 -1.733472E+000 -1.559203E+002 -1.758621E+001 -6.752805E+001
 385.0000     -1.693702E+001 -1.203207E+002 -1.826876E+000 -1.595541E+002 -1.827773E+000 -1.595560E+002 -1.680513E+001 -6.935489E+001
 390.0000     -1.617429E+001 -1.234760E+002 -1.929992E+000 -1.633110E+002 -1.931809E+000 -1.633161E+002 -1.602611E+001 -7.172674E+001
 395.0000     -1.544058E+001 -1.267935E+002 -2.045990E+000 -1.671934E+002 -2.047128E+000 -1.671991E+002 -1.526031E+001 -7.454824E+001
 400.0000     -1.471686E+001 -1.302869E+002 -2.175601E+000 -1.712138E+002 -2.177900E+000 -1.712146E+002 -1.452268E+001 -7.767372E+001
 405.0000     -1.400280E+001 -1.339773E+002 -2.321981E+000 -1.753715E+002 -2.323708E+000 -1.753786E+002 -1.381154E+001 -8.115030E+001
 410.0000     -1.331540E+001 -1.379269E+002 -2.486652E+000 -1.796891E+002 -2.487038E+000 -1.796886E+002 -1.311550E+001 -8.495885E+001
 415.0000     -1.265081E+001 -1.421102E+002 -2.670617E+000  1.758486E+002 -2.671473E+000  1.758410E+002 -1.243583E+001 -8.915827E+001
 420.0000     -1.201111E+001 -1.465591E+002 -2.877733E+000  1.712197E+002 -2.879243E+000  1.712128E+002 -1.177180E+001 -9.369228E+001
 425.0000     -1.139127E+001 -1.512428E+002 -3.111436E+000  1.664366E+002 -3.112598E+000  1.664296E+002 -1.112677E+001 -9.858710E+001
 430.0000     -1.079963E+001 -1.561996E+002 -3.375176E+000  1.614954E+002 -3.377487E+000  1.614852E+002 -1.050083E+001 -1.038139E+002
 435.0000     -1.023850E+001 -1.614565E+002 -3.676103E+000  1.563722E+002 -3.677464E+000  1.563656E+002 -9.899323E+000 -1.093578E+002
 440.0000     -9.713952E+000 -1.670399E+002 -4.016034E+000  1.510654E+002 -4.018762E+000  1.510579E+002 -9.323401E+000 -1.152189E+002
 445.0000     -9.229155E+000 -1.729841E+002 -4.403875E+000  1.455822E+002 -4.406350E+000  1.455777E+002 -8.772558E+000 -1.213620E+002
 450.0000     -8.790821E+000 -1.793009E+002 -4.843313E+000  1.399345E+002 -4.845910E+000  1.399353E+002 -8.246809E+000 -1.277838E+002
 455.0000     -8.398048E+000  1.739536E+002 -5.338652E+000  1.341565E+002 -5.342414E+000  1.341543E+002 -7.747329E+000 -1.344413E+002
 460.0000     -8.058518E+000  1.667995E+002 -5.902678E+000  1.282760E+002 -5.905364E+000  1.282693E+002 -7.273064E+000 -1.413130E+002
 465.0000     -7.775667E+000  1.591796E+002 -6.540390E+000  1.223206E+002 -6.544763E+000  1.223109E+002 -6.827542E+000 -1.483682E+002
 470.0000     -7.558381E+000  1.510540E+002 -7.264530E+000  1.163277E+002 -7.268649E+000  1.163181E+002 -6.414820E+000 -1.555920E+002
 475.0000     -7.415284E+000  1.423503E+002 -8.083209E+000  1.103401E+002 -8.088655E+000  1.103284E+002 -6.034282E+000 -1.629694E+002
 480.0000     -7.351434E+000  1.330188E+002 -9.006899E+000  1.044255E+002 -9.012259E+000  1.044191E+002 -5.687480E+000 -1.704889E+002
 485.0000     -7.370415E+000  1.229685E+002 -1.004400E+001  9.869695E+001 -1.004958E+001  9.869649E+001 -5.374528E+000 -1.780571E+002
 490.0000     -7.473855E+000  1.120888E+002 -1.119923E+001  9.329966E+001 -1.120446E+001  9.330878E+001 -5.092784E+000  1.743654E+002
 495.0000     -7.665155E+000  1.002369E+002 -1.248140E+001  8.840627E+001 -1.248623E+001  8.840803E+001 -4.838219E+000  1.667844E+002
 500.0000     -7.935179E+000  8.726749E+001 -1.389279E+001  8.426521E+001 -1.389823E+001  8.426752E+001 -4.606996E+000  1.592571E+002
 505.0000     -8.261964E+000  7.302243E+001 -1.542232E+001  8.116960E+001 -1.542997E+001  8.118048E+001 -4.398107E+000  1.517841E+002
 510.0000     -8.606705E+000  5.733100E+001 -1.703969E+001  7.949688E+001 -1.704578E+001  7.950848E+001 -4.213605E+000  1.444336E+002
 515.0000     -8.908235E+000  4.013409E+001 -1.867142E+001  7.959412E+001 -1.867724E+001  7.959787E+001 -4.050563E+000  1.372547E+002
 520.0000     -9.085684E+000  2.162743E+001 -2.020631E+001  8.157387E+001 -2.021128E+001  8.159066E+001 -3.904868E+000  1.302624E+002
 525.0000     -9.056956E+000  2.364588E+000 -2.150427E+001  8.505178E+001 -2.151121E+001  8.506507E+001 -3.771851E+000  1.234542E+002
 530.0000     -8.790348E+000 -1.685558E+001 -2.248946E+001  8.900729E+001 -2.249724E+001  8.902168E+001 -3.647858E+000  1.168320E+002
 535.0000     -8.313588E+000 -3.520934E+001 -2.319521E+001  9.234163E+001 -2.320173E+001  9.234251E+001 -3.531740E+000  1.104055E+002
 540.0000     -7.703734E+000 -5.212712E+001 -2.374500E+001  9.431573E+001 -2.375170E+001  9.431258E+001 -3.422430E+000  1.041695E+002
 545.0000     -7.037909E+000 -6.738068E+001 -2.427276E+001  9.489216E+001 -2.427877E+001  9.489773E+001 -3.316730E+000  9.813453E+001
 550.0000     -6.377057E+000 -8.102946E+001 -2.487042E+001  9.435258E+001 -2.487701E+001  9.434703E+001 -3.213587E+000  9.232230E+001
 555.0000     -5.757807E+000 -9.323222E+001 -2.560032E+001  9.308681E+001 -2.560707E+001  9.306228E+001 -3.111053E+000  8.671433E+001
 560.0000     -5.196823E+000 -1.041484E+002 -2.648830E+001  9.143083E+001 -2.649599E+001  9.144138E+001 -3.010754E+000  8.128541E+001
 565.0000     -4.698458E+000 -1.139332E+002 -2.755062E+001  8.983706E+001 -2.755834E+001  8.983456E+001 -2.911149E+000  7.601086E+001
 570.0000     -4.263857E+000 -1.227671E+002 -2.879213E+001  8.856596E+001 -2.880326E+001  8.856566E+001 -2.815264E+000  7.091515E+001
 575.0000     -3.886119E+000 -1.307859E+002 -3.023017E+001  8.804205E+001 -3.023915E+001  8.804620E+001 -2.723684E+000  6.602020E+001
 580.0000     -3.559024E+000 -1.381105E+002 -3.185569E+001  8.867684E+001 -3.186255E+001  8.868903E+001 -2.634979E+000  6.132640E+001
 585.0000     -3.277888E+000 -1.448112E+002 -3.366261E+001  9.106664E+001 -3.367673E+001  9.109491E+001 -2.548017E+000  5.679187E+001
 590.0000     -3.036771E+000 -1.509649E+002 -3.559873E+001  9.609490E+001 -3.561135E+001  9.608764E+001 -2.461158E+000  5.238125E+001
 595.0000     -2.827740E+000 -1.566435E+002 -3.753653E+001  1.048674E+002 -3.754081E+001  1.047993E+002 -2.377318E+000  4.811260E+001
 600.0000     -2.646092E+000 -1.619180E+002 -3.912465E+001  1.177495E+002 -3.911505E+001  1.178414E+002 -2.296152E+000  4.398749E+001
 605.0000     -2.485287E+000 -1.668344E+002 -3.989968E+001  1.336819E+002 -3.989846E+001  1.337005E+002 -2.220203E+000  4.001034E+001
 610.0000     -2.343392E+000 -1.714273E+002 -3.976590E+001  1.484891E+002 -3.977504E+001  1.483863E+002 -2.148129E+000  3.617562E+001
 615.0000     -2.219094E+000 -1.757201E+002 -3.909889E+001  1.593675E+002 -3.910598E+001  1.594783E+002 -2.079056E+000  3.247612E+001
 620.0000     -2.109276E+000 -1.797533E+002 -3.829231E+001  1.665990E+002 -3.829214E+001  1.665727E+002 -2.012047E+000  2.889484E+001
 625.0000     -2.014443E+000  1.764384E+002 -3.754179E+001  1.709989E+002 -3.754544E+001  1.709346E+002 -1.945777E+000  2.541871E+001
 630.0000     -1.931894E+000  1.728348E+002 -3.694487E+001  1.734353E+002 -3.694312E+001  1.734484E+002 -1.882119E+000  2.205214E+001
 635.0000     -1.856858E+000  1.694198E+002 -3.648193E+001  1.746927E+002 -3.649194E+001  1.746934E+002 -1.819030E+000  1.879617E+001
 640.0000     -1.787135E+000  1.661740E+002 -3.615555E+001  1.752025E+002 -3.616401E+001  1.751643E+002 -1.758523E+000  1.565378E+001
 645.0000     -1.722795E+000  1.630875E+002 -3.595945E+001  1.751700E+002 -3.595796E+001  1.751484E+002 -1.699411E+000  1.261555E+001
 650.0000     -1.665521E+000  1.601532E+002 -3.586783E+001  1.748217E+002 -3.587405E+001  1.748565E+002 -1.642378E+000  9.671042E+000
 655.0000     -1.611899E+000  1.573571E+002 -3.587257E+001  1.742994E+002 -3.587904E+001  1.743081E+002 -1.586842E+000  6.827524E+000
 660.0000     -1.563860E+000  1.546635E+002 -3.596621E+001  1.736800E+002 -3.598059E+001  1.736398E+002 -1.535410E+000  4.071971E+000
 665.0000     -1.516816E+000  1.520527E+002 -3.614981E+001  1.729158E+002 -3.615787E+001  1.729103E+002 -1.489056E+000  1.402055E+000
 670.0000     -1.473040E+000  1.495481E+002 -3.641539E+001  1.722294E+002 -3.641560E+001  1.722110E+002 -1.444807E+000 -1.188384E+000
 675.0000     -1.433357E+000  1.471571E+002 -3.674023E+001  1.714756E+002 -3.674077E+001  1.715123E+002 -1.400942E+000 -3.716238E+000
 680.0000     -1.396981E+000  1.448762E+002 -3.714650E+001  1.708430E+002 -3.714338E+001  1.708710E+002 -1.358225E+000 -6.174184E+000
 685.0000     -1.365180E+000  1.426717E+002 -3.761546E+001  1.704174E+002 -3.761439E+001  1.703815E+002 -1.316261E+000 -8.554791E+000
 690.0000     -1.335935E+000  1.405173E+002 -3.815975E+001  1.701082E+002 -3.815793E+001  1.700988E+002 -1.278777E+000 -1.085869E+001
 695.0000     -1.309040E+000  1.384182E+002 -3.877305E+001  1.700259E+002 -3.877001E+001  1.700065E+002 -1.243472E+000 -1.308926E+001
 700.0000     -1.280722E+000  1.364106E+002 -3.945318E+001  1.701435E+002 -3.945270E+001  1.702295E+002 -1.209020E+000 -1.524418E+001
 705.0000     -1.252670E+000  1.344838E+002 -4.021924E+001  1.707504E+002 -4.022325E+001  1.707556E+002 -1.173223E+000 -1.734874E+001
 710.0000     -1.225374E+000  1.326080E+002 -4.108477E+001  1.717454E+002 -4.107039E+001  1.717912E+002 -1.138296E+000 -1.940583E+001
 715.0000     -1.200586E+000  1.307651E+002 -4.202235E+001  1.733622E+002 -4.202676E+001  1.732857E+002 -1.104442E+000 -2.142928E+001
 720.0000     -1.178910E+000  1.289643E+002 -4.304945E+001  1.756991E+002 -4.305434E+001  1.757667E+002 -1.072895E+000 -2.340432E+001
 725.0000     -1.160431E+000  1.272125E+002 -4.417793E+001  1.792536E+002 -4.419450E+001  1.792100E+002 -1.047405E+000 -2.530592E+001
 730.0000     -1.144358E+000  1.255227E+002 -4.538480E+001 -1.756975E+002 -4.538484E+001 -1.756361E+002 -1.023898E+000 -2.714579E+001
 735.0000     -1.128538E+000  1.238760E+002 -4.660195E+001 -1.685424E+002 -4.659874E+001 -1.684938E+002 -9.987342E-001 -2.894808E+001
 740.0000     -1.113410E+000  1.222789E+002 -4.776591E+001 -1.588777E+002 -4.773217E+001 -1.588734E+002 -9.693188E-001 -3.072408E+001
 745.0000     -1.096090E+000  1.207320E+002 -4.853587E+001 -1.466926E+002 -4.851827E+001 -1.466084E+002 -9.390232E-001 -3.246660E+001
 750.0000     -1.079025E+000  1.192355E+002 -4.880259E+001 -1.328625E+002 -4.881901E+001 -1.328451E+002 -9.126440E-001 -3.415039E+001
 755.0000     -1.060572E+000  1.177819E+002 -4.849279E+001 -1.192424E+002 -4.852951E+001 -1.192540E+002 -8.913498E-001 -3.577879E+001
 760.0000     -1.044943E+000  1.163398E+002 -4.774741E+001 -1.077046E+002 -4.773209E+001 -1.075818E+002 -8.705804E-001 -3.736937E+001
 765.0000     -1.033899E+000  1.149022E+002 -4.673309E+001 -9.890611E+001 -4.672585E+001 -9.892262E+001 -8.484256E-001 -3.892559E+001
 770.0000     -1.024993E+000  1.134843E+002 -4.569751E+001 -9.257936E+001 -4.568555E+001 -9.245789E+001 -8.272582E-001 -4.044870E+001
 775.0000     -1.013105E+000  1.121197E+002 -4.467061E+001 -8.778658E+001 -4.466175E+001 -8.776326E+001 -8.081411E-001 -4.194341E+001
 780.0000     -1.000219E+000  1.107943E+002 -4.372020E+001 -8.448175E+001 -4.371611E+001 -8.443424E+001 -7.925315E-001 -4.341677E+001
 785.0000     -9.837359E-001  1.094965E+002 -4.285188E+001 -8.194769E+001 -4.286651E+001 -8.196658E+001 -7.754897E-001 -4.483538E+001
 790.0000     -9.656244E-001  1.082009E+002 -4.207381E+001 -8.023100E+001 -4.207511E+001 -8.023161E+001 -7.574147E-001 -4.622201E+001
 795.0000     -9.485237E-001  1.069257E+002 -4.134804E+001 -7.900119E+001 -4.135959E+001 -7.902126E+001 -7.391499E-001 -4.756761E+001
 800.0000     -9.372682E-001  1.056681E+002 -4.071495E+001 -7.825662E+001 -4.071924E+001 -7.827951E+001 -7.224296E-001 -4.888875E+001
 805.0000     -9.309751E-001  1.044489E+002 -4.014351E+001 -7.771458E+001 -4.013818E+001 -7.773452E+001 -7.079979E-001 -5.018908E+001
 810.0000     -9.242555E-001  1.032678E+002 -3.961182E+001 -7.743052E+001 -3.962284E+001 -7.744225E+001 -6.952282E-001 -5.146587E+001
 815.0000     -9.128594E-001  1.021338E+002 -3.913992E+001 -7.729950E+001 -3.913912E+001 -7.730705E+001 -6.822869E-001 -5.272088E+001
 820.0000     -9.003209E-001  1.010135E+002 -3.869529E+001 -7.734011E+001 -3.870553E+001 -7.733218E+001 -6.704891E-001 -5.394995E+001
 825.0000     -8.902641E-001  9.986800E+001 -3.830468E+001 -7.747031E+001 -3.830923E+001 -7.747878E+001 -6.599664E-001 -5.515255E+001
 830.0000     -8.821458E-001  9.871542E+001 -3.794095E+001 -7.779233E+001 -3.794731E+001 -7.772898E+001 -6.494807E-001 -5.633306E+001
 835.0000     -8.741760E-001  9.760645E+001 -3.761836E+001 -7.808925E+001 -3.762569E+001 -7.807008E+001 -6.374399E-001 -5.748195E+001
 840.0000     -8.643807E-001  9.657422E+001 -3.731663E+001 -7.843618E+001 -3.732235E+001 -7.846521E+001 -6.244308E-001 -5.860530E+001
 845.0000     -8.545146E-001  9.557230E+001 -3.703764E+001 -7.884200E+001 -3.703948E+001 -7.885034E+001 -6.096402E-001 -5.970823E+001
 850.0000     -8.450541E-001  9.455164E+001 -3.678654E+001 -7.928137E+001 -3.679056E+001 -7.932847E+001 -5.972932E-001 -6.079668E+001
 855.0000     -8.367912E-001  9.351162E+001 -3.655061E+001 -7.980512E+001 -3.655661E+001 -7.979259E+001 -5.859558E-001 -6.187281E+001
 860.0000     -8.288686E-001  9.248355E+001 -3.634165E+001 -8.033273E+001 -3.634818E+001 -8.034633E+001 -5.759457E-001 -6.293213E+001
 865.0000     -8.195193E-001  9.148875E+001 -3.614966E+001 -8.088750E+001 -3.615368E+001 -8.088661E+001 -5.669644E-001 -6.396706E+001
 870.0000     -8.124017E-001  9.052393E+001 -3.596913E+001 -8.142374E+001 -3.597475E+001 -8.144229E+001 -5.568275E-001 -6.497781E+001
 875.0000     -8.091789E-001  8.956777E+001 -3.581952E+001 -8.200521E+001 -3.581849E+001 -8.200978E+001 -5.473426E-001 -6.596561E+001
 880.0000     -8.080015E-001  8.862577E+001 -3.567719E+001 -8.259257E+001 -3.567777E+001 -8.262470E+001 -5.376075E-001 -6.693690E+001
 885.0000     -8.036458E-001  8.767886E+001 -3.554523E+001 -8.317993E+001 -3.554947E+001 -8.323203E+001 -5.264187E-001 -6.788871E+001
 890.0000     -7.914290E-001  8.674409E+001 -3.541833E+001 -8.383409E+001 -3.542155E+001 -8.382200E+001 -5.167320E-001 -6.881786E+001
 895.0000     -7.770279E-001  8.583118E+001 -3.530038E+001 -8.441857E+001 -3.530517E+001 -8.441325E+001 -5.069366E-001 -6.972865E+001
 900.0000     -7.663433E-001  8.495818E+001 -3.520755E+001 -8.495047E+001 -3.521012E+001 -8.500089E+001 -5.007298E-001 -7.061288E+001
 905.0000     -7.584119E-001  8.412246E+001 -3.512707E+001 -8.558842E+001 -3.513042E+001 -8.554566E+001 -4.961322E-001 -7.148164E+001
 910.0000     -7.544894E-001  8.327271E+001 -3.505330E+001 -8.613722E+001 -3.505682E+001 -8.610692E+001 -4.901326E-001 -7.235495E+001
 915.0000     -7.491199E-001  8.240633E+001 -3.499002E+001 -8.676341E+001 -3.498958E+001 -8.674504E+001 -4.825312E-001 -7.322532E+001
 920.0000     -7.445961E-001  8.152634E+001 -3.492619E+001 -8.741494E+001 -3.493454E+001 -8.740102E+001 -4.737451E-001 -7.409049E+001
 925.0000     -7.399791E-001  8.065970E+001 -3.487658E+001 -8.806687E+001 -3.487947E+001 -8.805166E+001 -4.657444E-001 -7.493060E+001
 930.0000     -7.338418E-001  7.982204E+001 -3.483674E+001 -8.868378E+001 -3.484515E+001 -8.870782E+001 -4.597851E-001 -7.574098E+001
 935.0000     -7.290584E-001  7.900404E+001 -3.480682E+001 -8.929848E+001 -3.481167E+001 -8.930580E+001 -4.554842E-001 -7.653103E+001
 940.0000     -7.232752E-001  7.820500E+001 -3.479025E+001 -8.987993E+001 -3.478981E+001 -8.989405E+001 -4.512904E-001 -7.731755E+001
 945.0000     -7.171347E-001  7.741798E+001 -3.477461E+001 -9.045836E+001 -3.477728E+001 -9.045651E+001 -4.465536E-001 -7.809590E+001
 950.0000     -7.115027E-001  7.664227E+001 -3.475529E+001 -9.104459E+001 -3.476682E+001 -9.103668E+001 -4.394682E-001 -7.886749E+001
 955.0000     -7.045002E-001  7.587492E+001 -3.475100E+001 -9.164127E+001 -3.475531E+001 -9.163998E+001 -4.317499E-001 -7.963695E+001
 960.0000     -6.966972E-001  7.512195E+001 -3.474956E+001 -9.221136E+001 -3.475475E+001 -9.220498E+001 -4.247312E-001 -8.038936E+001
 980.0000     -6.769506E-001  7.215746E+001 -3.483076E+001 -9.445630E+001 -3.482971E+001 -9.447543E+001 -4.077321E-001 -8.331142E+001
1000.0000     -6.616059E-001  6.926774E+001 -3.498380E+001 -9.667133E+001 -3.498994E+001 -9.666373E+001 -3.845844E-001 -8.599486E+001
1020.0000     -6.395447E-001  6.650652E+001 -3.521214E+001 -9.882932E+001 -3.521722E+001 -9.877205E+001 -3.706514E-001 -8.853633E+001
1040.0000     -6.115324E-001  6.386652E+001 -3.549769E+001 -1.007467E+002 -3.550117E+001 -1.007821E+002 -3.569176E-001 -9.094125E+001
1060.0000     -6.093339E-001  6.141453E+001 -3.587914E+001 -1.026030E+002 -3.589015E+001 -1.026058E+002 -3.491951E-001 -9.327238E+001
1080.0000     -5.878258E-001  5.892859E+001 -3.630019E+001 -1.044636E+002 -3.630832E+001 -1.044581E+002 -3.354776E-001 -9.546923E+001
1100.0000     -5.736806E-001  5.653889E+001 -3.679857E+001 -1.061866E+002 -3.680785E+001 -1.061651E+002 -3.264711E-001 -9.754781E+001
1120.0000     -5.652894E-001  5.427359E+001 -3.737398E+001 -1.077079E+002 -3.737188E+001 -1.077504E+002 -3.170531E-001 -9.953403E+001
1140.0000     -5.441970E-001  5.203873E+001 -3.798361E+001 -1.091840E+002 -3.799091E+001 -1.091803E+002 -3.037527E-001 -1.013869E+002
1160.0000     -5.317695E-001  4.986767E+001 -3.869099E+001 -1.104509E+002 -3.869416E+001 -1.105240E+002 -2.980295E-001 -1.031800E+002
1180.0000     -5.194928E-001  4.787925E+001 -3.947554E+001 -1.116047E+002 -3.947231E+001 -1.115199E+002 -2.905818E-001 -1.049076E+002
1200.0000     -5.083175E-001  4.577059E+001 -4.034681E+001 -1.126065E+002 -4.034640E+001 -1.126296E+002 -2.792349E-001 -1.066306E+002
1220.0000     -4.982376E-001  4.386802E+001 -4.132591E+001 -1.133862E+002 -4.134402E+001 -1.133375E+002 -2.781712E-001 -1.082455E+002
1240.0000     -4.854095E-001  4.191893E+001 -4.245720E+001 -1.137949E+002 -4.244550E+001 -1.138126E+002 -2.710384E-001 -1.097347E+002
1260.0000     -4.790104E-001  4.008708E+001 -4.372340E+001 -1.137751E+002 -4.373193E+001 -1.136662E+002 -2.647205E-001 -1.111831E+002
1280.0000     -4.679652E-001  3.826694E+001 -4.519593E+001 -1.131322E+002 -4.519058E+001 -1.130978E+002 -2.622591E-001 -1.125867E+002
1300.0000     -4.621159E-001  3.650697E+001 -4.696098E+001 -1.115848E+002 -4.695217E+001 -1.115804E+002 -2.551495E-001 -1.139541E+002
1320.0000     -4.531339E-001  3.482433E+001 -4.909218E+001 -1.081693E+002 -4.904235E+001 -1.081248E+002 -2.578615E-001 -1.153116E+002
1340.0000     -4.432855E-001  3.306721E+001 -5.162816E+001 -1.015500E+002 -5.165795E+001 -1.014569E+002 -2.478067E-001 -1.165600E+002
1360.0000     -4.299865E-001  3.142934E+001 -5.480653E+001 -8.726370E+001 -5.479672E+001 -8.715271E+001 -2.407503E-001 -1.177554E+002
1380.0000     -4.253068E-001  2.984649E+001 -5.754142E+001 -5.676416E+001 -5.757146E+001 -5.662946E+001 -2.416772E-001 -1.189279E+002
1400.0000     -4.120294E-001  2.829618E+001 -5.675954E+001 -1.781211E+001 -5.675005E+001 -1.782717E+001 -2.394695E-001 -1.201006E+002
1420.0000     -4.140508E-001  2.674031E+001 -5.373460E+001  5.278661E+000 -5.372638E+001  5.315540E+000 -2.389590E-001 -1.212291E+002
1440.0000     -4.093891E-001  2.528680E+001 -5.093476E+001  1.563459E+001 -5.092667E+001  1.559564E+001 -2.400151E-001 -1.222908E+002
1460.0000     -3.942057E-001  2.370223E+001 -4.872923E+001  2.081821E+001 -4.870626E+001  2.079028E+001 -2.346372E-001 -1.233502E+002
1480.0000     -3.959599E-001  2.225329E+001 -4.692602E+001  2.357339E+001 -4.691667E+001  2.369794E+001 -2.310626E-001 -1.242868E+002
1500.0000     -3.886114E-001  2.086824E+001 -4.547514E+001  2.513721E+001 -4.545635E+001  2.511080E+001 -2.256590E-001 -1.252834E+002
1520.0000     -3.802181E-001  1.941938E+001 -4.421997E+001  2.578816E+001 -4.422238E+001  2.586003E+001 -2.250747E-001 -1.262380E+002
1540.0000     -3.779352E-001  1.805164E+001 -4.315773E+001  2.617631E+001 -4.315485E+001  2.613473E+001 -2.209967E-001 -1.272020E+002
1560.0000     -3.763118E-001  1.671994E+001 -4.222215E+001  2.607117E+001 -4.223274E+001  2.618202E+001 -2.199248E-001 -1.280790E+002
1580.0000     -3.665505E-001  1.537609E+001 -4.141553E+001  2.597340E+001 -4.140799E+001  2.596635E+001 -2.182654E-001 -1.289276E+002
1600.0000     -3.576038E-001  1.407861E+001 -4.067279E+001  2.559461E+001 -4.066541E+001  2.562535E+001 -2.140113E-001 -1.297505E+002
1620.0000     -3.543757E-001  1.284670E+001 -4.001096E+001  2.527592E+001 -4.001845E+001  2.525553E+001 -2.141763E-001 -1.305693E+002
1640.0000     -3.499058E-001  1.152662E+001 -3.942310E+001  2.467875E+001 -3.943639E+001  2.467512E+001 -2.200517E-001 -1.314546E+002
1660.0000     -3.465481E-001  1.024125E+001 -3.887766E+001  2.403191E+001 -3.888822E+001  2.401392E+001 -2.132215E-001 -1.322218E+002
1680.0000     -3.421155E-001  9.050300E+000 -3.839869E+001  2.341682E+001 -3.839688E+001  2.346037E+001 -2.158781E-001 -1.329866E+002
1700.0000     -3.411632E-001  7.789389E+000 -3.795287E+001  2.278979E+001 -3.795286E+001  2.282919E+001 -2.066235E-001 -1.336765E+002
1720.0000     -3.300879E-001  6.633149E+000 -3.752568E+001  2.225728E+001 -3.753437E+001  2.223022E+001 -2.153710E-001 -1.343890E+002
1740.0000     -3.275633E-001  5.452919E+000 -3.712671E+001  2.150156E+001 -3.713124E+001  2.142635E+001 -2.050407E-001 -1.351716E+002
1760.0000     -3.251869E-001  4.332693E+000 -3.677504E+001  2.083825E+001 -3.677905E+001  2.083719E+001 -2.153693E-001 -1.358252E+002
1780.0000     -3.249596E-001  3.132807E+000 -3.644681E+001  2.005821E+001 -3.645564E+001  2.005198E+001 -2.092135E-001 -1.365366E+002
1800.0000     -3.081305E-001  2.017469E+000 -3.612592E+001  1.940477E+001 -3.613258E+001  1.939916E+001 -2.033367E-001 -1.371891E+002
1820.0000     -3.047708E-001  9.211879E-001 -3.583708E+001  1.874679E+001 -3.584751E+001  1.875782E+001 -2.115761E-001 -1.378356E+002
1840.0000     -3.023631E-001 -1.639287E-001 -3.555972E+001  1.803801E+001 -3.556295E+001  1.802048E+001 -2.080549E-001 -1.384434E+002
1860.0000     -3.100938E-001 -1.270913E+000 -3.531691E+001  1.729095E+001 -3.531823E+001  1.728158E+001 -2.034337E-001 -1.390428E+002
1880.0000     -2.967891E-001 -2.351900E+000 -3.506903E+001  1.664727E+001 -3.507743E+001  1.657948E+001 -2.057551E-001 -1.396430E+002
1900.0000     -2.858108E-001 -3.440510E+000 -3.483288E+001  1.590057E+001 -3.484169E+001  1.587708E+001 -2.068370E-001 -1.402595E+002
1920.0000     -2.857081E-001 -4.422432E+000 -3.463993E+001  1.518714E+001 -3.463443E+001  1.518189E+001 -2.106599E-001 -1.408553E+002
1940.0000     -2.879868E-001 -5.451796E+000 -3.443747E+001  1.453601E+001 -3.443913E+001  1.453608E+001 -2.076258E-001 -1.413730E+002
1960.0000     -2.840762E-001 -6.498552E+000 -3.424331E+001  1.379780E+001 -3.424585E+001  1.381743E+001 -1.984342E-001 -1.419757E+002
1980.0000     -2.927952E-001 -7.578826E+000 -3.407348E+001  1.313024E+001 -3.407764E+001  1.310392E+001 -2.004476E-001 -1.424736E+002
2000.0000     -2.807527E-001 -8.547170E+000 -3.390188E+001  1.253366E+001 -3.390509E+001  1.251566E+001 -2.057516E-001 -1.429855E+002
2020.0000     -2.834917E-001 -9.603185E+000 -3.374224E+001  1.176402E+001 -3.374294E+001  1.178915E+001 -2.048774E-001 -1.435650E+002
2040.0000     -2.717268E-001 -1.051648E+001 -3.358614E+001  1.115633E+001 -3.358756E+001  1.117144E+001 -2.084197E-001 -1.440436E+002
2060.0000     -2.737010E-001 -1.148514E+001 -3.345160E+001  1.048641E+001 -3.345610E+001  1.053246E+001 -2.091790E-001 -1.445461E+002
2080.0000     -2.774220E-001 -1.241358E+001 -3.330035E+001  9.855813E+000 -3.329926E+001  9.867352E+000 -1.911732E-001 -1.450157E+002
2100.0000     -2.777646E-001 -1.336187E+001 -3.318604E+001  9.211182E+000 -3.318937E+001  9.182031E+000 -2.003826E-001 -1.455373E+002
2120.0000     -2.712915E-001 -1.435596E+001 -3.305548E+001  8.513248E+000 -3.305950E+001  8.517249E+000 -2.030346E-001 -1.459845E+002
2140.0000     -2.639924E-001 -1.523191E+001 -3.293842E+001  7.899479E+000 -3.294670E+001  7.918546E+000 -2.074523E-001 -1.464513E+002
2160.0000     -2.669610E-001 -1.612947E+001 -3.283620E+001  7.288962E+000 -3.284188E+001  7.308373E+000 -2.073143E-001 -1.469252E+002
2180.0000     -2.723849E-001 -1.708740E+001 -3.273266E+001  6.572385E+000 -3.273758E+001  6.602821E+000 -2.019703E-001 -1.473357E+002
2200.0000     -2.549018E-001 -1.802468E+001 -3.263749E+001  5.912785E+000 -3.263999E+001  5.923745E+000 -2.064956E-001 -1.477967E+002
2220.0000     -2.584970E-001 -1.891209E+001 -3.254111E+001  5.309662E+000 -3.254567E+001  5.302321E+000 -2.066086E-001 -1.482446E+002
2240.0000     -2.442734E-001 -1.980638E+001 -3.245117E+001  4.730767E+000 -3.245702E+001  4.699776E+000 -2.049404E-001 -1.486703E+002
2260.0000     -2.438605E-001 -2.059505E+001 -3.237314E+001  4.187027E+000 -3.237658E+001  4.211198E+000 -2.106379E-001 -1.490750E+002
2280.0000     -2.497708E-001 -2.149230E+001 -3.229123E+001  3.557789E+000 -3.229996E+001  3.524949E+000 -2.073331E-001 -1.495130E+002
2300.0000     -2.532785E-001 -2.236434E+001 -3.222124E+001  2.981676E+000 -3.222543E+001  2.985858E+000 -2.059458E-001 -1.498921E+002
2320.0000     -2.474856E-001 -2.325593E+001 -3.213016E+001  2.349358E+000 -3.213282E+001  2.335031E+000 -1.965505E-001 -1.502807E+002
2340.0000     -2.412219E-001 -2.406184E+001 -3.207439E+001  1.759511E+000 -3.207909E+001  1.724171E+000 -2.110718E-001 -1.506533E+002
2360.0000     -2.391361E-001 -2.496774E+001 -3.201962E+001  1.079728E+000 -3.202187E+001  1.057519E+000 -2.107915E-001 -1.510854E+002
2380.0000     -2.323173E-001 -2.573807E+001 -3.195365E+001  5.858350E-001 -3.195148E+001  5.635570E-001 -2.110792E-001 -1.514812E+002
2400.0000     -2.444460E-001 -2.653211E+001 -3.189826E+001 -2.118836E-002 -3.189779E+001 -2.758001E-002 -1.979207E-001 -1.518780E+002
2420.0000     -2.399460E-001 -2.736706E+001 -3.186182E+001 -5.908719E-001 -3.185991E+001 -6.398046E-001 -2.127466E-001 -1.521525E+002
2440.0000     -2.310553E-001 -2.822140E+001 -3.181763E+001 -1.220943E+000 -3.181700E+001 -1.208858E+000 -2.090917E-001 -1.525676E+002
2460.0000     -2.315837E-001 -2.897820E+001 -3.176308E+001 -1.694085E+000 -3.176324E+001 -1.674149E+000 -2.121542E-001 -1.529162E+002
2480.0000     -2.335744E-001 -2.977380E+001 -3.172279E+001 -2.257268E+000 -3.172249E+001 -2.285306E+000 -2.126641E-001 -1.532973E+002
2500.0000     -2.237241E-001 -3.054903E+001 -3.165897E+001 -2.689133E+000 -3.166258E+001 -2.734910E+000 -2.063037E-001 -1.536222E+002
2520.0000     -2.348520E-001 -3.135595E+001 -3.164072E+001 -3.319272E+000 -3.164158E+001 -3.336059E+000 -2.049804E-001 -1.539602E+002
2540.0000     -2.280047E-001 -3.216434E+001 -3.158962E+001 -3.846062E+000 -3.159220E+001 -3.808892E+000 -2.064303E-001 -1.543133E+002
2560.0000     -2.213500E-001 -3.292816E+001 -3.156013E+001 -4.479435E+000 -3.156036E+001 -4.454481E+000 -2.195692E-001 -1.546644E+002
2580.0000     -2.206755E-001 -3.365296E+001 -3.153422E+001 -4.929812E+000 -3.153806E+001 -4.941492E+000 -2.164748E-001 -1.549561E+002
2600.0000     -2.165853E-001 -3.435368E+001 -3.149453E+001 -5.432760E+000 -3.150533E+001 -5.416266E+000 -2.089778E-001 -1.553260E+002
2620.0000     -2.173613E-001 -3.514027E+001 -3.147189E+001 -5.930289E+000 -3.147391E+001 -5.917666E+000 -2.085302E-001 -1.556248E+002
2640.0000     -2.184994E-001 -3.586853E+001 -3.144201E+001 -6.345576E+000 -3.144913E+001 -6.348067E+000 -2.133620E-001 -1.559553E+002
2660.0000     -2.202444E-001 -3.657174E+001 -3.141926E+001 -6.858063E+000 -3.142150E+001 -6.890169E+000 -2.050405E-001 -1.562443E+002
2680.0000     -2.185168E-001 -3.732934E+001 -3.140557E+001 -7.383564E+000 -3.140854E+001 -7.406628E+000 -2.182162E-001 -1.566076E+002
2700.0000     -2.205871E-001 -3.810613E+001 -3.137477E+001 -7.911243E+000 -3.138195E+001 -7.926494E+000 -2.140770E-001 -1.568849E+002
2720.0000     -2.214536E-001 -3.877045E+001 -3.136310E+001 -8.362826E+000 -3.136421E+001 -8.334949E+000 -2.165848E-001 -1.571633E+002
2740.0000     -2.148982E-001 -3.947284E+001 -3.133092E+001 -8.806561E+000 -3.133377E+001 -8.800968E+000 -2.080844E-001 -1.574412E+002
2760.0000     -2.122333E-001 -4.018143E+001 -3.131006E+001 -9.249844E+000 -3.130927E+001 -9.279349E+000 -2.131609E-001 -1.577460E+002
2780.0000     -2.097407E-001 -4.088200E+001 -3.129075E+001 -9.775584E+000 -3.129731E+001 -9.794407E+000 -2.209991E-001 -1.580840E+002
2800.0000     -2.075537E-001 -4.158342E+001 -3.127020E+001 -1.024948E+001 -3.127493E+001 -1.024595E+001 -2.124843E-001 -1.583543E+002
2820.0000     -2.064757E-001 -4.228033E+001 -3.125499E+001 -1.073482E+001 -3.125837E+001 -1.069940E+001 -2.126429E-001 -1.586151E+002
2840.0000     -2.073786E-001 -4.290985E+001 -3.124614E+001 -1.119536E+001 -3.124924E+001 -1.122726E+001 -2.189996E-001 -1.588909E+002
2860.0000     -2.059641E-001 -4.365630E+001 -3.122634E+001 -1.172352E+001 -3.123005E+001 -1.169851E+001 -2.168493E-001 -1.591881E+002
2880.0000     -2.044199E-001 -4.430273E+001 -3.121465E+001 -1.220003E+001 -3.121922E+001 -1.217773E+001 -2.169528E-001 -1.594656E+002
2900.0000     -2.099122E-001 -4.497783E+001 -3.121087E+001 -1.263541E+001 -3.120844E+001 -1.266380E+001 -2.162827E-001 -1.597551E+002
2920.0000     -1.959102E-001 -4.562219E+001 -3.120179E+001 -1.317469E+001 -3.120632E+001 -1.317168E+001 -2.213181E-001 -1.600277E+002
2940.0000     -1.988881E-001 -4.627385E+001 -3.118973E+001 -1.355294E+001 -3.118880E+001 -1.357690E+001 -2.227275E-001 -1.602666E+002
2960.0000     -2.003377E-001 -4.692034E+001 -3.118335E+001 -1.397048E+001 -3.118503E+001 -1.398847E+001 -2.191235E-001 -1.605033E+002
2980.0000     -2.031302E-001 -4.757570E+001 -3.117293E+001 -1.450267E+001 -3.117972E+001 -1.449916E+001 -2.232106E-001 -1.607426E+002
3000.0000     -1.997128E-001 -4.827089E+001 -3.117218E+001 -1.495611E+001 -3.117635E+001 -1.496445E+001 -2.158836E-001 -1.610780E+002
3025.0000     -1.969449E-001 -4.905957E+001 -3.113799E+001 -1.555407E+001 -3.114208E+001 -1.556310E+001 -2.257848E-001 -1.614160E+002
3050.0000     -2.039681E-001 -4.983399E+001 -3.118311E+001 -1.607454E+001 -3.118529E+001 -1.609371E+001 -2.217491E-001 -1.617088E+002
3075.0000     -2.033549E-001 -5.058274E+001 -3.115824E+001 -1.656922E+001 -3.115576E+001 -1.658499E+001 -2.230117E-001 -1.620213E+002
3100.0000     -1.897175E-001 -5.142798E+001 -3.112562E+001 -1.720335E+001 -3.113240E+001 -1.722297E+001 -2.251570E-001 -1.623600E+002
3125.0000     -1.958586E-001 -5.213834E+001 -3.112092E+001 -1.771431E+001 -3.112182E+001 -1.774704E+001 -2.225460E-001 -1.627013E+002
3150.0000     -1.993184E-001 -5.288866E+001 -3.111892E+001 -1.836585E+001 -3.112738E+001 -1.835450E+001 -2.285523E-001 -1.629893E+002
3175.0000     -2.030236E-001 -5.370284E+001 -3.112182E+001 -1.907739E+001 -3.112290E+001 -1.908387E+001 -2.357293E-001 -1.632831E+002
3200.0000     -1.936095E-001 -5.444214E+001 -3.109415E+001 -1.954960E+001 -3.110004E+001 -1.954739E+001 -2.318491E-001 -1.635502E+002
3225.0000     -1.944704E-001 -5.522201E+001 -3.109937E+001 -2.015719E+001 -3.110437E+001 -2.016045E+001 -2.281447E-001 -1.638726E+002
3250.0000     -2.014261E-001 -5.594857E+001 -3.111730E+001 -2.083720E+001 -3.112160E+001 -2.083166E+001 -2.359527E-001 -1.641735E+002
3275.0000     -1.900710E-001 -5.671919E+001 -3.110137E+001 -2.113234E+001 -3.111072E+001 -2.113471E+001 -2.313696E-001 -1.644417E+002
3300.0000     -2.045169E-001 -5.747949E+001 -3.108700E+001 -2.157316E+001 -3.108969E+001 -2.155663E+001 -2.327947E-001 -1.647679E+002
3325.0000     -1.984409E-001 -5.816151E+001 -3.104097E+001 -2.198678E+001 -3.104305E+001 -2.199465E+001 -2.313932E-001 -1.649905E+002
3350.0000     -1.962384E-001 -5.892281E+001 -3.099008E+001 -2.260559E+001 -3.099594E+001 -2.263193E+001 -2.340388E-001 -1.652899E+002
3375.0000     -2.044527E-001 -5.967180E+001 -3.094356E+001 -2.326837E+001 -3.094695E+001 -2.329095E+001 -2.359012E-001 -1.656243E+002
3400.0000     -1.923395E-001 -6.037403E+001 -3.088512E+001 -2.387366E+001 -3.088771E+001 -2.389021E+001 -2.394039E-001 -1.659100E+002
3425.0000     -2.037050E-001 -6.116959E+001 -3.083172E+001 -2.452779E+001 -3.083166E+001 -2.453753E+001 -2.374938E-001 -1.661521E+002
3450.0000     -1.986948E-001 -6.188096E+001 -3.075771E+001 -2.513450E+001 -3.076327E+001 -2.514291E+001 -2.417533E-001 -1.664006E+002
3475.0000     -2.077402E-001 -6.268060E+001 -3.067776E+001 -2.596638E+001 -3.068188E+001 -2.597762E+001 -2.473960E-001 -1.667185E+002
3500.0000     -2.187572E-001 -6.335949E+001 -3.058620E+001 -2.660548E+001 -3.058874E+001 -2.662718E+001 -2.476726E-001 -1.670572E+002
3525.0000     -2.211691E-001 -6.415922E+001 -3.045308E+001 -2.754232E+001 -3.046010E+001 -2.753786E+001 -2.476060E-001 -1.673488E+002
3550.0000     -2.298436E-001 -6.491685E+001 -3.030394E+001 -2.851291E+001 -3.030522E+001 -2.850970E+001 -2.460512E-001 -1.675894E+002
3575.0000     -2.395846E-001 -6.570742E+001 -3.012902E+001 -2.973147E+001 -3.013562E+001 -2.975575E+001 -2.570640E-001 -1.678590E+002
3600.0000     -2.580214E-001 -6.652218E+001 -2.992476E+001 -3.076336E+001 -2.992651E+001 -3.075808E+001 -2.551165E-001 -1.681886E+002
3625.0000     -2.728952E-001 -6.733064E+001 -2.963865E+001 -3.234346E+001 -2.964352E+001 -3.235858E+001 -2.639739E-001 -1.684574E+002
3650.0000     -2.971359E-001 -6.828241E+001 -2.929023E+001 -3.421442E+001 -2.929393E+001 -3.423193E+001 -2.562316E-001 -1.687184E+002
3675.0000     -3.603752E-001 -6.930059E+001 -2.883535E+001 -3.685617E+001 -2.883813E+001 -3.687824E+001 -2.687883E-001 -1.689704E+002
3700.0000     -4.165631E-001 -7.037801E+001 -2.830049E+001 -4.052018E+001 -2.830153E+001 -4.053409E+001 -2.800671E-001 -1.692902E+002
3725.0000     -5.591223E-001 -7.145309E+001 -2.759237E+001 -4.606588E+001 -2.759746E+001 -4.606033E+001 -2.928222E-001 -1.696231E+002
3750.0000     -7.899688E-001 -7.249522E+001 -2.679928E+001 -5.518277E+001 -2.680629E+001 -5.519721E+001 -3.174633E-001 -1.699205E+002
3775.0000     -1.179958E+000 -7.247499E+001 -2.625781E+001 -6.984996E+001 -2.626238E+001 -6.988051E+001 -3.444451E-001 -1.700939E+002
3800.0000     -1.488917E+000 -6.973974E+001 -2.683481E+001 -9.116325E+001 -2.684017E+001 -9.120164E+001 -3.749137E-001 -1.701617E+002
3825.0000     -1.244575E+000 -6.670081E+001 -2.942703E+001 -1.112941E+002 -2.943146E+001 -1.113285E+002 -3.598382E-001 -1.700506E+002
3850.0000     -8.411394E-001 -6.626041E+001 -3.335947E+001 -1.208463E+002 -3.337052E+001 -1.208289E+002 -3.263361E-001 -1.702212E+002
3875.0000     -5.906914E-001 -6.719931E+001 -3.758781E+001 -1.178778E+002 -3.759681E+001 -1.178997E+002 -3.061573E-001 -1.705477E+002
3900.0000     -4.378818E-001 -6.835453E+001 -4.091226E+001 -1.023026E+002 -4.092358E+001 -1.023616E+002 -3.038203E-001 -1.708235E+002
3925.0000     -3.689548E-001 -6.940631E+001 -4.241246E+001 -8.098102E+001 -4.242433E+001 -8.103167E+001 -2.949193E-001 -1.711116E+002
3950.0000     -3.245148E-001 -7.032868E+001 -4.222275E+001 -6.372764E+001 -4.222381E+001 -6.374018E+001 -2.970044E-001 -1.714397E+002
3975.0000     -2.913264E-001 -7.117626E+001 -4.152681E+001 -5.328207E+001 -4.151968E+001 -5.339014E+001 -2.937874E-001 -1.716650E+002
4000.0000     -2.753578E-001 -7.195172E+001 -4.081701E+001 -4.725048E+001 -4.081284E+001 -4.734966E+001 -2.952926E-001 -1.719865E+002
4025.0000     -2.629084E-001 -7.276971E+001 -4.027098E+001 -4.348980E+001 -4.026947E+001 -4.351886E+001 -2.929184E-001 -1.722228E+002
4050.0000     -2.523968E-001 -7.347376E+001 -3.981757E+001 -4.113451E+001 -3.983170E+001 -4.117949E+001 -2.997363E-001 -1.725274E+002
4075.0000     -2.392610E-001 -7.411323E+001 -3.946425E+001 -3.985909E+001 -3.946816E+001 -3.990494E+001 -3.007923E-001 -1.728037E+002
4100.0000     -2.423886E-001 -7.474776E+001 -3.927825E+001 -3.882113E+001 -3.926875E+001 -3.872337E+001 -3.071973E-001 -1.730395E+002
4125.0000     -2.344993E-001 -7.544251E+001 -3.907364E+001 -3.794277E+001 -3.907534E+001 -3.792300E+001 -3.054145E-001 -1.732919E+002
4150.0000     -2.360045E-001 -7.609609E+001 -3.908509E+001 -3.780790E+001 -3.909230E+001 -3.779612E+001 -3.070947E-001 -1.735685E+002
4175.0000     -2.280485E-001 -7.663564E+001 -3.897952E+001 -3.702956E+001 -3.898360E+001 -3.708423E+001 -3.097497E-001 -1.738367E+002
4200.0000     -2.377017E-001 -7.722012E+001 -3.891001E+001 -3.697479E+001 -3.892556E+001 -3.702560E+001 -3.148120E-001 -1.741820E+002
4225.0000     -2.404235E-001 -7.785635E+001 -3.892374E+001 -3.639162E+001 -3.892428E+001 -3.642422E+001 -3.129208E-001 -1.743663E+002
4250.0000     -2.358306E-001 -7.842589E+001 -3.892237E+001 -3.630203E+001 -3.892452E+001 -3.635257E+001 -3.191891E-001 -1.746620E+002
4275.0000     -2.333318E-001 -7.900185E+001 -3.898329E+001 -3.649550E+001 -3.898472E+001 -3.641800E+001 -3.173873E-001 -1.749644E+002
4300.0000     -2.408902E-001 -7.954414E+001 -3.905439E+001 -3.635149E+001 -3.905978E+001 -3.634197E+001 -3.200803E-001 -1.752994E+002
4325.0000     -2.413671E-001 -8.009289E+001 -3.914993E+001 -3.653419E+001 -3.914500E+001 -3.648220E+001 -3.327138E-001 -1.756009E+002
4350.0000     -2.449076E-001 -8.064062E+001 -3.930558E+001 -3.648038E+001 -3.930968E+001 -3.653345E+001 -3.332387E-001 -1.758261E+002
4375.0000     -2.384539E-001 -8.117059E+001 -3.946923E+001 -3.623367E+001 -3.947567E+001 -3.623528E+001 -3.402806E-001 -1.761293E+002
4400.0000     -2.472198E-001 -8.168185E+001 -3.973669E+001 -3.677248E+001 -3.973741E+001 -3.677141E+001 -3.459375E-001 -1.764877E+002
4425.0000     -2.474725E-001 -8.217810E+001 -4.004337E+001 -3.695585E+001 -4.004237E+001 -3.697417E+001 -3.558187E-001 -1.767592E+002
4450.0000     -2.539310E-001 -8.277875E+001 -4.029919E+001 -3.550155E+001 -4.028867E+001 -3.560889E+001 -3.534082E-001 -1.771343E+002
4475.0000     -2.539769E-001 -8.329604E+001 -4.060119E+001 -3.481561E+001 -4.060795E+001 -3.480799E+001 -3.536922E-001 -1.774363E+002
4500.0000     -2.560242E-001 -8.378345E+001 -4.092408E+001 -3.442580E+001 -4.092745E+001 -3.433474E+001 -3.641940E-001 -1.777078E+002
4525.0000     -2.589222E-001 -8.432903E+001 -4.133788E+001 -3.342175E+001 -4.134478E+001 -3.333013E+001 -3.817846E-001 -1.781786E+002
4550.0000     -2.616526E-001 -8.483806E+001 -4.181982E+001 -3.198254E+001 -4.180268E+001 -3.198383E+001 -3.884873E-001 -1.785796E+002
4575.0000     -2.650221E-001 -8.535182E+001 -4.238503E+001 -2.942508E+001 -4.240133E+001 -2.948988E+001 -3.970668E-001 -1.789143E+002
4600.0000     -2.726695E-001 -8.587475E+001 -4.290757E+001 -2.612850E+001 -4.292129E+001 -2.611157E+001 -4.142616E-001 -1.792926E+002
4625.0000     -2.694319E-001 -8.634233E+001 -4.376358E+001 -2.154689E+001 -4.377148E+001 -2.151419E+001 -4.369568E-001 -1.797214E+002
4650.0000     -2.798008E-001 -8.689095E+001 -4.459614E+001 -1.682429E+001 -4.459403E+001 -1.679741E+001 -4.614883E-001  1.797630E+002
4675.0000     -2.771016E-001 -8.739320E+001 -4.517667E+001 -1.985529E+000 -4.517360E+001 -1.981032E+000 -4.958604E-001  1.792325E+002
4700.0000     -2.900200E-001 -8.795194E+001 -4.520603E+001  1.252079E+001 -4.520816E+001  1.240100E+001 -5.343322E-001  1.785872E+002
4725.0000     -2.965220E-001 -8.843378E+001 -4.371965E+001  2.911249E+001 -4.371599E+001  2.925031E+001 -6.100950E-001  1.780121E+002
4750.0000     -3.025351E-001 -8.891248E+001 -4.137202E+001  4.185711E+001 -4.137275E+001  4.180817E+001 -7.195908E-001  1.772919E+002
4775.0000     -3.090023E-001 -8.941675E+001 -3.827864E+001  4.672829E+001 -3.827515E+001  4.676335E+001 -8.906908E-001  1.767198E+002
4800.0000     -3.252160E-001 -8.992430E+001 -3.505973E+001  4.262107E+001 -3.506553E+001  4.261528E+001 -1.162852E+000  1.765829E+002
4825.0000     -3.448601E-001 -9.041174E+001 -3.242782E+001  3.127460E+001 -3.242840E+001  3.126051E+001 -1.472515E+000  1.778521E+002
4850.0000     -3.492503E-001 -9.075835E+001 -3.084099E+001  1.391008E+001 -3.084550E+001  1.388040E+001 -1.575366E+000 -1.793831E+002
4875.0000     -3.443369E-001 -9.114976E+001 -3.059391E+001 -3.258032E+000 -3.059976E+001 -3.254389E+000 -1.349003E+000 -1.772117E+002
4900.0000     -3.377205E-001 -9.157821E+001 -3.123913E+001 -1.621957E+001 -3.124302E+001 -1.624512E+001 -1.043216E+000 -1.766937E+002
4925.0000     -3.318173E-001 -9.210022E+001 -3.196469E+001 -2.496805E+001 -3.197127E+001 -2.496369E+001 -8.249844E-001 -1.771565E+002
4950.0000     -3.307387E-001 -9.265719E+001 -3.277582E+001 -3.085039E+001 -3.277880E+001 -3.086498E+001 -6.933934E-001 -1.777971E+002
4975.0000     -3.336633E-001 -9.312111E+001 -3.356655E+001 -3.552899E+001 -3.357516E+001 -3.557521E+001 -6.068156E-001 -1.784612E+002
5000.0000     -3.332188E-001 -9.358421E+001 -3.422976E+001 -3.808922E+001 -3.423288E+001 -3.811797E+001 -5.592148E-001 -1.791054E+002
5025.0000     -3.401271E-001 -9.413454E+001 -3.474189E+001 -4.044598E+001 -3.473829E+001 -4.047264E+001 -5.283942E-001 -1.796821E+002
5050.0000     -3.461564E-001 -9.468631E+001 -3.530262E+001 -4.408536E+001 -3.530898E+001 -4.406715E+001 -5.016357E-001  1.797653E+002
5075.0000     -3.515057E-001 -9.522773E+001 -3.582786E+001 -4.484253E+001 -3.583640E+001 -4.486769E+001 -4.878249E-001  1.793527E+002
5100.0000     -3.632723E-001 -9.571439E+001 -3.632030E+001 -4.719362E+001 -3.632423E+001 -4.723081E+001 -4.766670E-001  1.789214E+002
5125.0000     -3.596120E-001 -9.617873E+001 -3.684069E+001 -4.761955E+001 -3.684618E+001 -4.757611E+001 -4.655846E-001  1.784544E+002
5150.0000     -3.654380E-001 -9.672407E+001 -3.741129E+001 -4.885730E+001 -3.741413E+001 -4.887975E+001 -4.615035E-001  1.780284E+002
5175.0000     -3.613410E-001 -9.722803E+001 -3.783078E+001 -4.861238E+001 -3.783134E+001 -4.853254E+001 -4.464689E-001  1.776264E+002
5200.0000     -3.727546E-001 -9.779449E+001 -3.811325E+001 -4.874349E+001 -3.811794E+001 -4.875146E+001 -4.445756E-001  1.772428E+002
5225.0000     -3.795323E-001 -9.824805E+001 -3.817446E+001 -4.965069E+001 -3.817699E+001 -4.970953E+001 -4.442558E-001  1.768089E+002
5250.0000     -3.898081E-001 -9.878526E+001 -3.879960E+001 -5.292659E+001 -3.879838E+001 -5.298609E+001 -4.539110E-001  1.765076E+002
5275.0000     -3.971855E-001 -9.929949E+001 -3.931860E+001 -5.308367E+001 -3.932821E+001 -5.310646E+001 -4.445453E-001  1.761627E+002
5300.0000     -3.875470E-001 -9.984109E+001 -3.968426E+001 -5.247831E+001 -3.970464E+001 -5.241372E+001 -4.440491E-001  1.757979E+002
5325.0000     -4.106414E-001 -1.003595E+002 -3.999735E+001 -5.340866E+001 -4.001900E+001 -5.342803E+001 -4.469397E-001  1.754538E+002
5350.0000     -4.143561E-001 -1.007969E+002 -4.062615E+001 -5.281037E+001 -4.063909E+001 -5.282280E+001 -4.392697E-001  1.751127E+002
5375.0000     -4.139473E-001 -1.013579E+002 -4.068727E+001 -5.360613E+001 -4.071283E+001 -5.354447E+001 -4.400456E-001  1.747376E+002
5400.0000     -4.255219E-001 -1.018962E+002 -4.098482E+001 -5.269804E+001 -4.099150E+001 -5.277181E+001 -4.404514E-001  1.743556E+002
5425.0000     -4.247124E-001 -1.024678E+002 -4.134044E+001 -5.458213E+001 -4.133259E+001 -5.458554E+001 -4.422610E-001  1.740392E+002
5450.0000     -4.391491E-001 -1.029864E+002 -4.187758E+001 -5.439202E+001 -4.189395E+001 -5.430632E+001 -4.468343E-001  1.737084E+002
5475.0000     -4.411536E-001 -1.035476E+002 -4.205135E+001 -5.430892E+001 -4.204655E+001 -5.436277E+001 -4.443757E-001  1.733785E+002
5500.0000     -4.456827E-001 -1.041243E+002 -4.219036E+001 -5.555424E+001 -4.218655E+001 -5.557343E+001 -4.426583E-001  1.730238E+002
5525.0000     -4.564756E-001 -1.046449E+002 -4.273336E+001 -5.861750E+001 -4.271688E+001 -5.847660E+001 -4.622287E-001  1.726761E+002
5550.0000     -4.567602E-001 -1.052127E+002 -4.309634E+001 -5.757228E+001 -4.311467E+001 -5.771511E+001 -4.512481E-001  1.722992E+002
5575.0000     -4.761392E-001 -1.057888E+002 -4.331239E+001 -5.937033E+001 -4.331988E+001 -5.937645E+001 -4.577285E-001  1.719718E+002
5600.0000     -4.736218E-001 -1.063416E+002 -4.398896E+001 -5.967828E+001 -4.399578E+001 -5.986513E+001 -4.471690E-001  1.716799E+002
5625.0000     -4.873190E-001 -1.070260E+002 -4.427137E+001 -6.047741E+001 -4.427631E+001 -6.048985E+001 -4.507417E-001  1.712829E+002
5650.0000     -4.968643E-001 -1.075632E+002 -4.440172E+001 -6.305067E+001 -4.440312E+001 -6.297372E+001 -4.607885E-001  1.708827E+002
5675.0000     -5.079815E-001 -1.081458E+002 -4.506086E+001 -6.221955E+001 -4.506459E+001 -6.229439E+001 -4.547427E-001  1.705470E+002
5700.0000     -5.214089E-001 -1.087345E+002 -4.548559E+001 -6.611690E+001 -4.549186E+001 -6.624966E+001 -4.611702E-001  1.702040E+002
5725.0000     -5.241193E-001 -1.093745E+002 -4.611665E+001 -6.343520E+001 -4.615766E+001 -6.360422E+001 -4.597353E-001  1.698691E+002
5750.0000     -5.312421E-001 -1.100427E+002 -4.624316E+001 -6.405988E+001 -4.628164E+001 -6.414036E+001 -4.641352E-001  1.695348E+002
5775.0000     -5.381930E-001 -1.106237E+002 -4.661499E+001 -6.780141E+001 -4.663084E+001 -6.785548E+001 -4.714782E-001  1.692234E+002
5800.0000     -5.567694E-001 -1.112770E+002 -4.720924E+001 -7.171212E+001 -4.723987E+001 -7.175320E+001 -4.684143E-001  1.688073E+002
5825.0000     -5.677352E-001 -1.119172E+002 -4.770973E+001 -7.368719E+001 -4.771875E+001 -7.357254E+001 -4.694777E-001  1.685184E+002
5850.0000     -5.740803E-001 -1.126235E+002 -4.864594E+001 -7.697901E+001 -4.868919E+001 -7.678160E+001 -4.721583E-001  1.682043E+002
5875.0000     -5.967625E-001 -1.132216E+002 -4.870636E+001 -7.721887E+001 -4.873618E+001 -7.724844E+001 -4.739275E-001  1.677753E+002
5900.0000     -5.955137E-001 -1.139348E+002 -4.935349E+001 -7.983707E+001 -4.935635E+001 -7.986451E+001 -4.740536E-001  1.673985E+002
5925.0000     -6.104828E-001 -1.146166E+002 -4.925093E+001 -8.376295E+001 -4.923783E+001 -8.384280E+001 -4.679132E-001  1.670795E+002
5950.0000     -6.305441E-001 -1.153648E+002 -5.098608E+001 -8.796424E+001 -5.093617E+001 -8.807458E+001 -4.775145E-001  1.667221E+002
5975.0000     -6.480859E-001 -1.160322E+002 -5.134364E+001 -8.838728E+001 -5.137928E+001 -8.864433E+001 -4.728512E-001  1.663914E+002
6000.0000     -6.504751E-001 -1.168174E+002 -5.136724E+001 -8.461159E+001 -5.132306E+001 -8.456332E+001 -4.735970E-001  1.660291E+002
6025.0000     -6.705489E-001 -1.175580E+002 -5.147089E+001 -9.743114E+001 -5.146780E+001 -9.734486E+001 -4.764417E-001  1.656380E+002
6050.0000     -6.876473E-001 -1.183778E+002 -5.159092E+001 -9.824939E+001 -5.162573E+001 -9.859476E+001 -4.708060E-001  1.653250E+002
6075.0000     -7.091900E-001 -1.191460E+002 -5.095236E+001 -9.956245E+001 -5.093209E+001 -9.940276E+001 -4.773577E-001  1.649697E+002
6100.0000     -7.237390E-001 -1.200287E+002 -5.193165E+001 -1.086827E+002 -5.192306E+001 -1.087821E+002 -4.784675E-001  1.645750E+002
6125.0000     -7.529937E-001 -1.208435E+002 -5.074457E+001 -1.108548E+002 -5.077672E+001 -1.107995E+002 -4.798959E-001  1.641318E+002
6150.0000     -7.777826E-001 -1.216773E+002 -5.078404E+001 -1.155843E+002 -5.081078E+001 -1.155676E+002 -4.753956E-001  1.637874E+002
6175.0000     -7.976817E-001 -1.225854E+002 -5.166693E+001 -1.167307E+002 -5.160333E+001 -1.168134E+002 -4.816887E-001  1.634361E+002
6200.0000     -8.181916E-001 -1.235007E+002 -5.086712E+001 -1.204765E+002 -5.085237E+001 -1.205175E+002 -4.738039E-001  1.630692E+002
6225.0000     -8.485473E-001 -1.245290E+002 -4.963441E+001 -1.181834E+002 -4.960677E+001 -1.181811E+002 -4.856635E-001  1.626876E+002
6250.0000     -8.808374E-001 -1.254391E+002 -4.917245E+001 -1.215487E+002 -4.918711E+001 -1.216740E+002 -4.771982E-001  1.622956E+002
6275.0000     -9.204422E-001 -1.264967E+002 -4.766360E+001 -1.207306E+002 -4.767329E+001 -1.206039E+002 -4.773567E-001  1.619214E+002
6300.0000     -9.670232E-001 -1.275729E+002 -4.674847E+001 -1.250969E+002 -4.677110E+001 -1.251726E+002 -4.804002E-001  1.616167E+002
6325.0000     -9.939610E-001 -1.287064E+002 -4.585075E+001 -1.268741E+002 -4.586901E+001 -1.268798E+002 -4.837105E-001  1.612145E+002
6350.0000     -1.052448E+000 -1.298422E+002 -4.488255E+001 -1.259841E+002 -4.487900E+001 -1.261156E+002 -4.814023E-001  1.607904E+002
6375.0000     -1.113067E+000 -1.310478E+002 -4.375592E+001 -1.262336E+002 -4.375958E+001 -1.263514E+002 -4.899356E-001  1.603895E+002
6400.0000     -1.179773E+000 -1.323502E+002 -4.218587E+001 -1.271456E+002 -4.219754E+001 -1.271448E+002 -4.968415E-001  1.600149E+002
6425.0000     -1.255689E+000 -1.337544E+002 -4.097448E+001 -1.304106E+002 -4.097555E+001 -1.303677E+002 -4.892202E-001  1.596477E+002
6450.0000     -1.346129E+000 -1.350625E+002 -3.964063E+001 -1.326759E+002 -3.965163E+001 -1.326877E+002 -5.025342E-001  1.592387E+002
6475.0000     -1.458425E+000 -1.365511E+002 -3.851242E+001 -1.337530E+002 -3.850673E+001 -1.337029E+002 -4.992996E-001  1.588074E+002
6500.0000     -1.585782E+000 -1.380022E+002 -3.741362E+001 -1.378326E+002 -3.742039E+001 -1.378257E+002 -4.990047E-001  1.584875E+002
6525.0000     -1.725883E+000 -1.396277E+002 -3.619732E+001 -1.398095E+002 -3.619827E+001 -1.398253E+002 -5.022867E-001  1.580950E+002
6550.0000     -1.915283E+000 -1.411879E+002 -3.505099E+001 -1.420068E+002 -3.505434E+001 -1.419945E+002 -5.066657E-001  1.577077E+002
6575.0000     -2.143909E+000 -1.428241E+002 -3.368453E+001 -1.440901E+002 -3.369127E+001 -1.441175E+002 -5.128391E-001  1.572353E+002
6600.0000     -2.426437E+000 -1.443784E+002 -3.225865E+001 -1.494711E+002 -3.225781E+001 -1.494601E+002 -5.229205E-001  1.568349E+002
6625.0000     -2.756508E+000 -1.457287E+002 -3.107072E+001 -1.542430E+002 -3.107381E+001 -1.542621E+002 -5.273302E-001  1.564211E+002
6650.0000     -3.140075E+000 -1.466308E+002 -2.991091E+001 -1.606857E+002 -2.990790E+001 -1.606805E+002 -5.340880E-001  1.560740E+002
6675.0000     -3.565909E+000 -1.467889E+002 -2.875010E+001 -1.677013E+002 -2.875618E+001 -1.677227E+002 -5.475563E-001  1.556892E+002
6700.0000     -3.965475E+000 -1.462264E+002 -2.795464E+001 -1.759802E+002 -2.795638E+001 -1.759743E+002 -5.439599E-001  1.553358E+002
6725.0000     -4.267653E+000 -1.448990E+002 -2.725475E+001  1.759806E+002 -2.725362E+001  1.759595E+002 -5.542695E-001  1.549321E+002
6750.0000     -4.392979E+000 -1.431544E+002 -2.680357E+001  1.676192E+002 -2.681236E+001  1.676045E+002 -5.581666E-001  1.546450E+002
6775.0000     -4.358094E+000 -1.417673E+002 -2.658403E+001  1.592952E+002 -2.659010E+001  1.592909E+002 -5.509227E-001  1.543522E+002
6800.0000     -4.206454E+000 -1.413836E+002 -2.663009E+001  1.518126E+002 -2.663441E+001  1.518091E+002 -5.514100E-001  1.539998E+002
6825.0000     -4.037134E+000 -1.420329E+002 -2.677827E+001  1.453702E+002 -2.678612E+001  1.453671E+002 -5.452980E-001  1.535550E+002
6850.0000     -3.912054E+000 -1.436314E+002 -2.706404E+001  1.406503E+002 -2.707068E+001  1.406408E+002 -5.422066E-001  1.531069E+002
6875.0000     -3.862800E+000 -1.458705E+002 -2.735765E+001  1.369562E+002 -2.736704E+001  1.369601E+002 -5.410813E-001  1.526616E+002
6900.0000     -3.910370E+000 -1.485787E+002 -2.778567E+001  1.342526E+002 -2.778725E+001  1.342650E+002 -5.376658E-001  1.522329E+002
6925.0000     -4.062776E+000 -1.516614E+002 -2.813206E+001  1.332523E+002 -2.813594E+001  1.332537E+002 -5.418004E-001  1.518505E+002
6950.0000     -4.319489E+000 -1.549906E+002 -2.834656E+001  1.334256E+002 -2.835623E+001  1.334375E+002 -5.417720E-001  1.513407E+002
6975.0000     -4.710139E+000 -1.584771E+002 -2.842336E+001  1.352648E+002 -2.842683E+001  1.352696E+002 -5.460517E-001  1.508683E+002
7000.0000     -5.237999E+000 -1.618540E+002 -2.821262E+001  1.375251E+002 -2.821887E+001  1.375118E+002 -5.532059E-001  1.504876E+002
7025.0000     -5.928856E+000 -1.651096E+002 -2.779686E+001  1.396742E+002 -2.779724E+001  1.396577E+002 -5.606060E-001  1.500042E+002
7050.0000     -6.795378E+000 -1.677156E+002 -2.702890E+001  1.400583E+002 -2.702994E+001  1.400580E+002 -5.797194E-001  1.495331E+002
7075.0000     -7.801414E+000 -1.696277E+002 -2.623474E+001  1.393036E+002 -2.623754E+001  1.392938E+002 -5.880675E-001  1.490259E+002
7100.0000     -8.940418E+000 -1.703277E+002 -2.540250E+001  1.369984E+002 -2.540621E+001  1.369869E+002 -6.097425E-001  1.485415E+002
7125.0000     -1.010158E+001 -1.699314E+002 -2.472758E+001  1.331551E+002 -2.472873E+001  1.331275E+002 -6.154968E-001  1.481561E+002
7150.0000     -1.132269E+001 -1.690436E+002 -2.422657E+001  1.287007E+002 -2.423038E+001  1.286951E+002 -6.398654E-001  1.476921E+002
7175.0000     -1.276417E+001 -1.680430E+002 -2.387069E+001  1.245564E+002 -2.387451E+001  1.245429E+002 -6.577621E-001  1.472128E+002
7200.0000     -1.470461E+001 -1.660933E+002 -2.353858E+001  1.207320E+002 -2.354235E+001  1.207275E+002 -6.934002E-001  1.468458E+002
7225.0000     -1.755442E+001 -1.595256E+002 -2.316374E+001  1.170325E+002 -2.316589E+001  1.170335E+002 -7.229210E-001  1.464788E+002
7250.0000     -2.103661E+001 -1.369925E+002 -2.282225E+001  1.127425E+002 -2.282460E+001  1.127259E+002 -7.646555E-001  1.460751E+002
7275.0000     -2.101864E+001 -9.379385E+001 -2.246374E+001  1.076890E+002 -2.246889E+001  1.076928E+002 -8.119467E-001  1.457737E+002
7300.0000     -1.724036E+001 -6.998856E+001 -2.223064E+001  1.014846E+002 -2.223585E+001  1.014804E+002 -8.504587E-001  1.456036E+002
7325.0000     -1.394468E+001 -6.314306E+001 -2.216379E+001  9.443369E+001 -2.216830E+001  9.444110E+001 -8.702923E-001  1.456523E+002
7350.0000     -1.149038E+001 -6.218043E+001 -2.246681E+001  8.729069E+001 -2.246976E+001  8.728604E+001 -8.776826E-001  1.455788E+002
7375.0000     -9.577610E+000 -6.335803E+001 -2.302507E+001  8.111958E+001 -2.302812E+001  8.112450E+001 -8.681287E-001  1.454920E+002
7400.0000     -8.053130E+000 -6.581644E+001 -2.382984E+001  7.607802E+001 -2.383513E+001  7.608231E+001 -8.167225E-001  1.452894E+002
7425.0000     -6.837752E+000 -6.906013E+001 -2.484641E+001  7.328318E+001 -2.485125E+001  7.327564E+001 -7.771951E-001  1.450764E+002
7450.0000     -5.855728E+000 -7.251547E+001 -2.580733E+001  7.335456E+001 -2.581219E+001  7.334563E+001 -7.277174E-001  1.448345E+002
7475.0000     -5.066764E+000 -7.621552E+001 -2.661385E+001  7.489497E+001 -2.661966E+001  7.493159E+001 -7.059655E-001  1.443519E+002
7500.0000     -4.420390E+000 -7.979950E+001 -2.721744E+001  7.790905E+001 -2.722102E+001  7.791265E+001 -6.746099E-001  1.438005E+002
7525.0000     -3.929047E+000 -8.333164E+001 -2.766290E+001  8.195770E+001 -2.766963E+001  8.196899E+001 -6.630144E-001  1.432601E+002
7550.0000     -3.505595E+000 -8.646378E+001 -2.756507E+001  8.621354E+001 -2.756643E+001  8.622588E+001 -6.417171E-001  1.427584E+002
7575.0000     -3.162531E+000 -8.956811E+001 -2.738213E+001  8.920988E+001 -2.738343E+001  8.923494E+001 -6.379475E-001  1.422881E+002
7600.0000     -2.882719E+000 -9.239570E+001 -2.714498E+001  9.125507E+001 -2.714302E+001  9.125791E+001 -6.220838E-001  1.416454E+002
7625.0000     -2.653990E+000 -9.501974E+001 -2.684161E+001  9.290988E+001 -2.684335E+001  9.292486E+001 -6.269754E-001  1.411024E+002
7650.0000     -2.460622E+000 -9.748451E+001 -2.650604E+001  9.341617E+001 -2.651037E+001  9.341656E+001 -6.280857E-001  1.405791E+002
7675.0000     -2.292660E+000 -9.994623E+001 -2.628278E+001  9.388554E+001 -2.628134E+001  9.388958E+001 -6.415771E-001  1.400900E+002
7700.0000     -2.163278E+000 -1.020499E+002 -2.588655E+001  9.378126E+001 -2.589101E+001  9.380402E+001 -6.566995E-001  1.396757E+002
7725.0000     -2.036694E+000 -1.041487E+002 -2.570712E+001  9.309644E+001 -2.571206E+001  9.307443E+001 -6.606261E-001  1.392119E+002
7750.0000     -1.932253E+000 -1.060600E+002 -2.551336E+001  9.233620E+001 -2.551722E+001  9.235296E+001 -6.829829E-001  1.387771E+002
7775.0000     -1.841647E+000 -1.079457E+002 -2.539712E+001  9.188933E+001 -2.540221E+001  9.192351E+001 -6.800116E-001  1.384361E+002
7800.0000     -1.759431E+000 -1.096520E+002 -2.524404E+001  9.182005E+001 -2.524891E+001  9.181558E+001 -6.706105E-001  1.381091E+002
7825.0000     -1.694081E+000 -1.113813E+002 -2.516878E+001  9.187475E+001 -2.517495E+001  9.186980E+001 -6.621332E-001  1.376931E+002
7850.0000     -1.625178E+000 -1.130150E+002 -2.494476E+001  9.186588E+001 -2.494865E+001  9.188582E+001 -6.342945E-001  1.372178E+002
7875.0000     -1.575441E+000 -1.145871E+002 -2.481974E+001  9.169407E+001 -2.482092E+001  9.171539E+001 -6.172909E-001  1.367459E+002
7900.0000     -1.518268E+000 -1.161366E+002 -2.460897E+001  9.175419E+001 -2.460966E+001  9.174635E+001 -6.008582E-001  1.362204E+002
7925.0000     -1.474663E+000 -1.176040E+002 -2.438042E+001  9.160525E+001 -2.438122E+001  9.161301E+001 -5.873287E-001  1.356354E+002
7950.0000     -1.445465E+000 -1.190081E+002 -2.414301E+001  9.155904E+001 -2.414908E+001  9.157993E+001 -5.847545E-001  1.350802E+002
7975.0000     -1.411075E+000 -1.203795E+002 -2.397552E+001  9.115788E+001 -2.397743E+001  9.117568E+001 -5.925645E-001  1.344392E+002
8000.0000     -1.378292E+000 -1.216490E+002 -2.364151E+001  9.025867E+001 -2.364383E+001  9.029895E+001 -5.781591E-001  1.338748E+002
8025.0000     -1.354559E+000 -1.230098E+002 -2.342412E+001  8.983662E+001 -2.342722E+001  8.984557E+001 -5.830429E-001  1.332898E+002
8050.0000     -1.323123E+000 -1.242553E+002 -2.321961E+001  8.900272E+001 -2.322138E+001  8.900847E+001 -5.838951E-001  1.325399E+002
8075.0000     -1.298528E+000 -1.254455E+002 -2.298634E+001  8.806455E+001 -2.298592E+001  8.807728E+001 -5.961506E-001  1.318505E+002
8100.0000     -1.285162E+000 -1.267395E+002 -2.282869E+001  8.722640E+001 -2.283150E+001  8.722713E+001 -5.828717E-001  1.312418E+002
8125.0000     -1.269420E+000 -1.279171E+002 -2.258922E+001  8.654793E+001 -2.259225E+001  8.656369E+001 -6.054385E-001  1.306525E+002
8150.0000     -1.245526E+000 -1.291086E+002 -2.236503E+001  8.564445E+001 -2.236475E+001  8.562998E+001 -6.003816E-001  1.299766E+002
8175.0000     -1.241198E+000 -1.301482E+002 -2.218928E+001  8.484441E+001 -2.219084E+001  8.489042E+001 -6.358410E-001  1.292791E+002
8200.0000     -1.216244E+000 -1.313001E+002 -2.197171E+001  8.363383E+001 -2.197120E+001  8.363185E+001 -6.340339E-001  1.285445E+002
8225.0000     -1.233849E+000 -1.322901E+002 -2.176714E+001  8.299684E+001 -2.176933E+001  8.299849E+001 -6.634390E-001  1.278676E+002
8250.0000     -1.228551E+000 -1.335050E+002 -2.153148E+001  8.178300E+001 -2.153184E+001  8.180052E+001 -6.839637E-001  1.271047E+002
8275.0000     -1.192486E+000 -1.345961E+002 -2.134481E+001  8.045327E+001 -2.134333E+001  8.043701E+001 -7.171838E-001  1.263021E+002
8300.0000     -1.198684E+000 -1.356557E+002 -2.118315E+001  7.913946E+001 -2.118582E+001  7.917168E+001 -7.470936E-001  1.254210E+002
8325.0000     -1.185839E+000 -1.366371E+002 -2.097098E+001  7.795193E+001 -2.096984E+001  7.796124E+001 -7.922490E-001  1.246174E+002
8350.0000     -1.190733E+000 -1.376379E+002 -2.077411E+001  7.678402E+001 -2.077617E+001  7.680424E+001 -8.347936E-001  1.238853E+002
8375.0000     -1.185533E+000 -1.388731E+002 -2.058652E+001  7.510272E+001 -2.058647E+001  7.512017E+001 -8.884338E-001  1.230408E+002
8400.0000     -1.177304E+000 -1.398628E+002 -2.042520E+001  7.371119E+001 -2.042448E+001  7.372633E+001 -9.808356E-001  1.221196E+002
8425.0000     -1.189628E+000 -1.408146E+002 -2.022109E+001  7.243219E+001 -2.022157E+001  7.243896E+001 -1.058024E+000  1.212148E+002
8450.0000     -1.199799E+000 -1.417552E+002 -2.002727E+001  7.039856E+001 -2.002820E+001  7.039799E+001 -1.171001E+000  1.202441E+002
8475.0000     -1.182881E+000 -1.428260E+002 -1.982254E+001  6.837017E+001 -1.982649E+001  6.838657E+001 -1.321232E+000  1.194859E+002
8500.0000     -1.181791E+000 -1.438542E+002 -1.967155E+001  6.576602E+001 -1.967192E+001  6.577196E+001 -1.470587E+000  1.184727E+002
