! Mini-Circuits
! S2P DATA File Format
! Type: LOW PASS FILTER
! Model: LFCG-320+
! All S Parameters are in dB deg format
! TEST CONDITIONS: INPUT POWER = 0 dBm @ Temperature = -55 deg C
# MHz S dB R 50
!Frequency        S11 dB  S11 DEG   S21 dB  S21 DEG   S12 dB  S12 DEG   S22 dB  S22 DEG
  10.0000     -3.674116E+001  3.693490E+001 -1.610088E-001 -3.458683E+000 -1.563154E-001 -3.440033E+000 -3.631340E+001  3.251461E+001
  11.0000     -3.592760E+001  3.042287E+001 -1.652818E-001 -3.749536E+000 -1.576211E-001 -3.728013E+000 -3.598753E+001  2.492192E+001
  12.0000     -3.556654E+001  2.122477E+001 -1.650488E-001 -4.047318E+000 -1.602267E-001 -4.024312E+000 -3.569957E+001  2.140396E+001
  13.0000     -3.548148E+001  1.558378E+001 -1.667685E-001 -4.349844E+000 -1.610094E-001 -4.337054E+000 -3.548899E+001  1.758966E+001
  14.0000     -3.550459E+001  1.040902E+001 -1.667037E-001 -4.636529E+000 -1.628048E-001 -4.631455E+000 -3.544623E+001  1.335723E+001
  15.0000     -3.542121E+001  6.758498E+000 -1.695212E-001 -4.952695E+000 -1.641953E-001 -4.951887E+000 -3.550027E+001  1.073254E+001
  16.0000     -3.539659E+001  3.131099E+000 -1.708384E-001 -5.255227E+000 -1.636261E-001 -5.259100E+000 -3.556831E+001  7.936009E+000
  17.0000     -3.538235E+001  8.352568E-001 -1.711912E-001 -5.573053E+000 -1.660211E-001 -5.578823E+000 -3.571947E+001  5.671314E+000
  18.0000     -3.551855E+001 -5.375596E-001 -1.729434E-001 -5.895566E+000 -1.672917E-001 -5.889196E+000 -3.579293E+001  3.646178E+000
  19.0000     -3.553611E+001 -3.361423E+000 -1.731674E-001 -6.208268E+000 -1.691718E-001 -6.208643E+000 -3.589339E+001  2.631028E+000
  20.0000     -3.556998E+001 -4.684389E+000 -1.748755E-001 -6.512801E+000 -1.695183E-001 -6.527312E+000 -3.605878E+001  9.779838E-001
  30.0000     -3.680284E+001 -3.320515E+000 -1.867180E-001 -9.671691E+000 -1.828930E-001 -9.691143E+000 -3.594891E+001 -6.405212E+000
  40.0000     -3.636496E+001 -1.557235E+000 -1.994192E-001 -1.279933E+001 -1.947639E-001 -1.281164E+001 -3.464995E+001 -8.521953E+000
  50.0000     -3.607244E+001 -1.173521E+001 -2.095645E-001 -1.591484E+001 -2.111243E-001 -1.591340E+001 -3.302238E+001 -1.266882E+001
  60.0000     -3.624629E+001 -2.132078E+001 -2.272540E-001 -1.904439E+001 -2.235254E-001 -1.905674E+001 -3.146662E+001 -2.129050E+001
  70.0000     -3.625775E+001 -2.759497E+001 -2.427089E-001 -2.217145E+001 -2.361623E-001 -2.219260E+001 -3.109489E+001 -2.818619E+001
  80.0000     -3.591185E+001 -3.161605E+001 -2.520777E-001 -2.533653E+001 -2.461993E-001 -2.535701E+001 -3.060970E+001 -3.137617E+001
  90.0000     -3.603406E+001 -3.911840E+001 -2.624340E-001 -2.850317E+001 -2.584325E-001 -2.851506E+001 -2.972190E+001 -3.528465E+001
 100.0000     -3.674654E+001 -4.875771E+001 -2.740576E-001 -3.167530E+001 -2.700984E-001 -3.167983E+001 -2.888822E+001 -4.054065E+001
 110.0000     -3.751509E+001 -5.646606E+001 -2.868094E-001 -3.488284E+001 -2.829201E-001 -3.489777E+001 -2.824136E+001 -4.487530E+001
 120.0000     -3.766838E+001 -6.265963E+001 -3.000299E-001 -3.811155E+001 -2.963707E-001 -3.812196E+001 -2.776096E+001 -4.848060E+001
 130.0000     -3.796578E+001 -6.925407E+001 -3.140278E-001 -4.138076E+001 -3.100864E-001 -4.138771E+001 -2.707319E+001 -5.160369E+001
 140.0000     -3.833428E+001 -8.375152E+001 -3.298514E-001 -4.467649E+001 -3.259418E-001 -4.468561E+001 -2.649489E+001 -5.477448E+001
 150.0000     -3.881079E+001 -9.624541E+001 -3.466628E-001 -4.800669E+001 -3.427996E-001 -4.800766E+001 -2.602936E+001 -5.868474E+001
 160.0000     -3.981793E+001 -1.015887E+002 -3.591726E-001 -5.134886E+001 -3.552324E-001 -5.135107E+001 -2.563399E+001 -6.238973E+001
 170.0000     -3.992677E+001 -1.097693E+002 -3.755288E-001 -5.476283E+001 -3.716781E-001 -5.476235E+001 -2.529827E+001 -6.526554E+001
 180.0000     -3.966586E+001 -1.244386E+002 -3.919342E-001 -5.820938E+001 -3.894334E-001 -5.820680E+001 -2.500373E+001 -6.829117E+001
 190.0000     -3.979926E+001 -1.379918E+002 -4.092185E-001 -6.170237E+001 -4.057663E-001 -6.170489E+001 -2.467294E+001 -7.176940E+001
 200.0000     -4.017690E+001 -1.466556E+002 -4.257431E-001 -6.526257E+001 -4.229558E-001 -6.525679E+001 -2.443852E+001 -7.502584E+001
 210.0000     -4.010970E+001 -1.521063E+002 -4.448915E-001 -6.886816E+001 -4.404335E-001 -6.886797E+001 -2.434984E+001 -7.790584E+001
 215.0000     -4.016327E+001 -1.569874E+002 -4.543563E-001 -7.069946E+001 -4.500709E-001 -7.070702E+001 -2.431227E+001 -7.947987E+001
 220.0000     -4.028150E+001 -1.637510E+002 -4.635003E-001 -7.255260E+001 -4.596958E-001 -7.255693E+001 -2.426618E+001 -8.095522E+001
 225.0000     -4.021188E+001 -1.703375E+002 -4.725565E-001 -7.441676E+001 -4.694226E-001 -7.442982E+001 -2.421185E+001 -8.223781E+001
 230.0000     -4.025200E+001 -1.758382E+002 -4.827731E-001 -7.630214E+001 -4.798405E-001 -7.630871E+001 -2.416829E+001 -8.335103E+001
 235.0000     -4.029408E+001 -1.796449E+002 -4.938433E-001 -7.820949E+001 -4.906457E-001 -7.821529E+001 -2.413161E+001 -8.467760E+001
 240.0000     -4.058476E+001  1.783444E+002 -5.053276E-001 -8.013954E+001 -5.023463E-001 -8.014388E+001 -2.412991E+001 -8.618335E+001
 245.0000     -4.109586E+001  1.770871E+002 -5.171316E-001 -8.209542E+001 -5.140074E-001 -8.209819E+001 -2.414035E+001 -8.765975E+001
 250.0000     -4.193893E+001  1.768539E+002 -5.282727E-001 -8.406611E+001 -5.261815E-001 -8.407236E+001 -2.418431E+001 -8.892686E+001
 255.0000     -4.276255E+001  1.788193E+002 -5.428693E-001 -8.606827E+001 -5.384224E-001 -8.607610E+001 -2.422026E+001 -8.964463E+001
 260.0000     -4.370267E+001  1.786136E+002 -5.546052E-001 -8.809542E+001 -5.501161E-001 -8.809541E+001 -2.430885E+001 -9.010688E+001
 265.0000     -4.438403E+001  1.763805E+002 -5.665151E-001 -9.013581E+001 -5.620342E-001 -9.014573E+001 -2.444155E+001 -9.045529E+001
 270.0000     -4.508598E+001  1.772450E+002 -5.791228E-001 -9.221455E+001 -5.751806E-001 -9.221414E+001 -2.459636E+001 -9.083417E+001
 275.0000     -4.627226E+001 -1.771501E+002 -5.944490E-001 -9.431611E+001 -5.898351E-001 -9.432547E+001 -2.468982E+001 -9.147635E+001
 280.0000     -4.767990E+001 -1.602303E+002 -6.106288E-001 -9.645195E+001 -6.067791E-001 -9.645798E+001 -2.478495E+001 -9.223976E+001
 285.0000     -4.746409E+001 -1.339749E+002 -6.272528E-001 -9.862688E+001 -6.224690E-001 -9.862792E+001 -2.493529E+001 -9.265412E+001
 290.0000     -4.515394E+001 -1.143935E+002 -6.418012E-001 -1.008378E+002 -6.365181E-001 -1.008363E+002 -2.514743E+001 -9.253255E+001
 295.0000     -4.308927E+001 -1.017806E+002 -6.561905E-001 -1.030813E+002 -6.513717E-001 -1.030809E+002 -2.540070E+001 -9.169708E+001
 300.0000     -4.113873E+001 -9.320625E+001 -6.722980E-001 -1.053563E+002 -6.676493E-001 -1.053626E+002 -2.559866E+001 -9.065270E+001
 305.0000     -3.945758E+001 -8.732590E+001 -6.917365E-001 -1.076690E+002 -6.870683E-001 -1.076789E+002 -2.576340E+001 -8.922677E+001
 310.0000     -3.751135E+001 -8.400740E+001 -7.120453E-001 -1.100310E+002 -7.074512E-001 -1.100346E+002 -2.586886E+001 -8.716521E+001
 315.0000     -3.539847E+001 -8.243226E+001 -7.299266E-001 -1.124328E+002 -7.271315E-001 -1.124421E+002 -2.588194E+001 -8.439809E+001
 320.0000     -3.346225E+001 -8.263140E+001 -7.505934E-001 -1.148887E+002 -7.463725E-001 -1.148922E+002 -2.584101E+001 -8.138561E+001
 325.0000     -3.184699E+001 -8.280787E+001 -7.722096E-001 -1.173852E+002 -7.677524E-001 -1.173900E+002 -2.578032E+001 -7.849945E+001
 330.0000     -3.044604E+001 -8.362020E+001 -7.946879E-001 -1.199281E+002 -7.914010E-001 -1.199366E+002 -2.572037E+001 -7.552151E+001
 335.0000     -2.917925E+001 -8.475703E+001 -8.211036E-001 -1.225249E+002 -8.173389E-001 -1.225334E+002 -2.554951E+001 -7.211349E+001
 340.0000     -2.798383E+001 -8.686914E+001 -8.507437E-001 -1.251846E+002 -8.455404E-001 -1.251889E+002 -2.515847E+001 -6.841306E+001
 345.0000     -2.680570E+001 -8.910287E+001 -8.813049E-001 -1.279117E+002 -8.768798E-001 -1.279149E+002 -2.463228E+001 -6.502476E+001
 350.0000     -2.563196E+001 -9.112270E+001 -9.132095E-001 -1.306971E+002 -9.106017E-001 -1.307025E+002 -2.403302E+001 -6.237648E+001
 355.0000     -2.450042E+001 -9.302999E+001 -9.458355E-001 -1.335557E+002 -9.423705E-001 -1.335570E+002 -2.334631E+001 -6.004681E+001
 360.0000     -2.341633E+001 -9.504737E+001 -9.816557E-001 -1.364832E+002 -9.788885E-001 -1.364869E+002 -2.259147E+001 -5.836280E+001
 365.0000     -2.239307E+001 -9.743874E+001 -1.022563E+000 -1.395031E+002 -1.018243E+000 -1.395065E+002 -2.175659E+001 -5.734071E+001
 370.0000     -2.142752E+001 -9.995132E+001 -1.067114E+000 -1.426034E+002 -1.062482E+000 -1.426114E+002 -2.090196E+001 -5.694578E+001
 375.0000     -2.046806E+001 -1.026900E+002 -1.116087E+000 -1.457952E+002 -1.111921E+000 -1.457984E+002 -2.006101E+001 -5.713818E+001
 380.0000     -1.953879E+001 -1.055795E+002 -1.170336E+000 -1.490757E+002 -1.166133E+000 -1.490792E+002 -1.922584E+001 -5.779917E+001
 385.0000     -1.864972E+001 -1.085929E+002 -1.230601E+000 -1.524536E+002 -1.226790E+000 -1.524597E+002 -1.839528E+001 -5.897931E+001
 390.0000     -1.779944E+001 -1.117577E+002 -1.296827E+000 -1.559402E+002 -1.293100E+000 -1.559467E+002 -1.755924E+001 -6.075116E+001
 395.0000     -1.698430E+001 -1.149984E+002 -1.370913E+000 -1.595418E+002 -1.367549E+000 -1.595469E+002 -1.673270E+001 -6.298859E+001
 400.0000     -1.617513E+001 -1.183371E+002 -1.454361E+000 -1.632748E+002 -1.450789E+000 -1.632730E+002 -1.593981E+001 -6.552757E+001
 405.0000     -1.537527E+001 -1.218153E+002 -1.548977E+000 -1.671223E+002 -1.544414E+000 -1.671264E+002 -1.516812E+001 -6.840107E+001
 410.0000     -1.460378E+001 -1.254962E+002 -1.654590E+000 -1.711269E+002 -1.649732E+000 -1.711256E+002 -1.441222E+001 -7.159512E+001
 415.0000     -1.385472E+001 -1.293561E+002 -1.772407E+000 -1.752719E+002 -1.768074E+000 -1.752745E+002 -1.366600E+001 -7.518858E+001
 420.0000     -1.312625E+001 -1.334344E+002 -1.906120E+000 -1.795727E+002 -1.901404E+000 -1.795800E+002 -1.293198E+001 -7.911114E+001
 425.0000     -1.241019E+001 -1.376897E+002 -2.057408E+000  1.759671E+002 -2.052641E+000  1.759634E+002 -1.221193E+001 -8.339723E+001
 430.0000     -1.171473E+001 -1.421643E+002 -2.229059E+000  1.713446E+002 -2.225046E+000  1.713415E+002 -1.150575E+001 -8.802992E+001
 435.0000     -1.104071E+001 -1.468749E+002 -2.426157E+000  1.665364E+002 -2.421719E+000  1.665301E+002 -1.082092E+001 -9.298315E+001
 440.0000     -1.039358E+001 -1.518476E+002 -2.650099E+000  1.615226E+002 -2.646525E+000  1.615171E+002 -1.015671E+001 -9.825560E+001
 445.0000     -9.775848E+000 -1.571307E+002 -2.907550E+000  1.563015E+002 -2.903204E+000  1.562968E+002 -9.514439E+000 -1.038118E+002
 450.0000     -9.189451E+000 -1.627476E+002 -3.200052E+000  1.508830E+002 -3.197759E+000  1.508733E+002 -8.895296E+000 -1.096744E+002
 455.0000     -8.634138E+000 -1.687317E+002 -3.535924E+000  1.452618E+002 -3.532141E+000  1.452558E+002 -8.295336E+000 -1.157653E+002
 460.0000     -8.113762E+000 -1.750644E+002 -3.921257E+000  1.394574E+002 -3.916441E+000  1.394469E+002 -7.715687E+000 -1.221252E+002
 465.0000     -7.631200E+000  1.782058E+002 -4.363319E+000  1.334714E+002 -4.359335E+000  1.334586E+002 -7.157795E+000 -1.287146E+002
 470.0000     -7.192883E+000  1.710484E+002 -4.872575E+000  1.273088E+002 -4.869514E+000  1.273010E+002 -6.630497E+000 -1.355351E+002
 475.0000     -6.809888E+000  1.634108E+002 -5.458808E+000  1.209818E+002 -5.456149E+000  1.209734E+002 -6.133862E+000 -1.425733E+002
 480.0000     -6.482994E+000  1.552710E+002 -6.130466E+000  1.145085E+002 -6.127742E+000  1.145031E+002 -5.673285E+000 -1.498264E+002
 485.0000     -6.215789E+000  1.465741E+002 -6.898219E+000  1.079517E+002 -6.895890E+000  1.079485E+002 -5.249700E+000 -1.572244E+002
 490.0000     -6.009115E+000  1.372778E+002 -7.770236E+000  1.013788E+002 -7.768294E+000  1.013762E+002 -4.863050E+000 -1.647218E+002
 495.0000     -5.873847E+000  1.273055E+002 -8.762839E+000  9.485158E+001 -8.760648E+000  9.485408E+001 -4.510275E+000 -1.723041E+002
 500.0000     -5.814655E+000  1.166005E+002 -9.894490E+000  8.851588E+001 -9.892261E+000  8.851185E+001 -4.188601E+000 -1.799258E+002
 505.0000     -5.827179E+000  1.050905E+002 -1.117881E+001  8.251122E+001 -1.117786E+001  8.251074E+001 -3.898898E+000  1.724292E+002
 510.0000     -5.905572E+000  9.267028E+001 -1.263562E+001  7.707262E+001 -1.263443E+001  7.707027E+001 -3.645180E+000  1.648303E+002
 515.0000     -6.037802E+000  7.922500E+001 -1.427396E+001  7.255396E+001 -1.427299E+001  7.255608E+001 -3.427815E+000  1.573422E+002
 520.0000     -6.207303E+000  6.469674E+001 -1.609311E+001  6.947515E+001 -1.609342E+001  6.947792E+001 -3.241522E+000  1.499917E+002
 525.0000     -6.377334E+000  4.908133E+001 -1.804872E+001  6.852319E+001 -1.804886E+001  6.852890E+001 -3.080294E+000  1.428001E+002
 530.0000     -6.506114E+000  3.246189E+001 -2.002100E+001  7.043119E+001 -2.002085E+001  7.043867E+001 -2.941047E+000  1.357785E+002
 535.0000     -6.548435E+000  1.506545E+001 -2.177355E+001  7.552113E+001 -2.177393E+001  7.552480E+001 -2.819232E+000  1.289546E+002
 540.0000     -6.474721E+000 -2.677338E+000 -2.302217E+001  8.273946E+001 -2.302395E+001  8.272287E+001 -2.711976E+000  1.223270E+002
 545.0000     -6.267351E+000 -2.022641E+001 -2.366795E+001  8.963422E+001 -2.366848E+001  8.962866E+001 -2.615315E+000  1.159188E+002
 550.0000     -5.941845E+000 -3.707721E+001 -2.391085E+001  9.416983E+001 -2.391067E+001  9.418137E+001 -2.526737E+000  1.097429E+002
 555.0000     -5.536669E+000 -5.286933E+001 -2.404978E+001  9.594562E+001 -2.404820E+001  9.594369E+001 -2.442358E+000  1.037905E+002
 560.0000     -5.090139E+000 -6.741711E+001 -2.427722E+001  9.552071E+001 -2.427434E+001  9.551466E+001 -2.360157E+000  9.803489E+001
 565.0000     -4.638722E+000 -8.064477E+001 -2.467860E+001  9.364751E+001 -2.467898E+001  9.365606E+001 -2.279505E+000  9.244861E+001
 570.0000     -4.209796E+000 -9.260932E+001 -2.529083E+001  9.105679E+001 -2.529204E+001  9.104258E+001 -2.202318E+000  8.705272E+001
 575.0000     -3.814522E+000 -1.034189E+002 -2.611989E+001  8.815095E+001 -2.612014E+001  8.813472E+001 -2.129366E+000  8.185849E+001
 580.0000     -3.459762E+000 -1.132047E+002 -2.715776E+001  8.532435E+001 -2.716042E+001  8.530247E+001 -2.060236E+000  7.687048E+001
 585.0000     -3.147397E+000 -1.220752E+002 -2.841204E+001  8.279042E+001 -2.841219E+001  8.278298E+001 -1.992592E+000  7.204069E+001
 590.0000     -2.875341E+000 -1.301342E+002 -2.988236E+001  8.089095E+001 -2.988504E+001  8.088685E+001 -1.923869E+000  6.734784E+001
 595.0000     -2.639319E+000 -1.374828E+002 -3.158952E+001  7.997285E+001 -3.158696E+001  7.996842E+001 -1.856993E+000  6.279279E+001
 600.0000     -2.433908E+000 -1.442229E+002 -3.355544E+001  8.059963E+001 -3.355270E+001  8.057561E+001 -1.792516E+000  5.839229E+001
 605.0000     -2.253837E+000 -1.504268E+002 -3.578582E+001  8.372857E+001 -3.578497E+001  8.368600E+001 -1.732889E+000  5.414520E+001
 610.0000     -2.095354E+000 -1.561545E+002 -3.823453E+001  9.091555E+001 -3.824105E+001  9.086195E+001 -1.676637E+000  5.004202E+001
 615.0000     -1.959218E+000 -1.614498E+002 -4.060205E+001  1.045723E+002 -4.060405E+001  1.044068E+002 -1.622836E+000  4.607359E+001
 620.0000     -1.838764E+000 -1.663770E+002 -4.207095E+001  1.248992E+002 -4.208456E+001  1.250173E+002 -1.570654E+000  4.223486E+001
 625.0000     -1.736543E+000 -1.709803E+002 -4.194949E+001  1.460692E+002 -4.194663E+001  1.460201E+002 -1.518536E+000  3.850794E+001
 630.0000     -1.647694E+000 -1.752960E+002 -4.082110E+001  1.607176E+002 -4.081746E+001  1.607836E+002 -1.468037E+000  3.489973E+001
 635.0000     -1.568385E+000 -1.793472E+002 -3.953883E+001  1.691928E+002 -3.953928E+001  1.692401E+002 -1.418144E+000  3.140994E+001
 640.0000     -1.494947E+000  1.768330E+002 -3.844478E+001  1.737021E+002 -3.843823E+001  1.736585E+002 -1.369382E+000  2.804090E+001
 645.0000     -1.428749E+000  1.732306E+002 -3.757903E+001  1.758852E+002 -3.758139E+001  1.758636E+002 -1.321834E+000  2.478080E+001
 650.0000     -1.369664E+000  1.698276E+002 -3.693942E+001  1.767329E+002 -3.693328E+001  1.766969E+002 -1.275704E+000  2.161864E+001
 655.0000     -1.316169E+000  1.666070E+002 -3.648038E+001  1.767492E+002 -3.648862E+001  1.767404E+002 -1.230406E+000  1.856373E+001
 660.0000     -1.268275E+000  1.635289E+002 -3.617605E+001  1.763265E+002 -3.618136E+001  1.762890E+002 -1.189196E+000  1.560713E+001
 665.0000     -1.221375E+000  1.605708E+002 -3.600924E+001  1.755269E+002 -3.601618E+001  1.755024E+002 -1.152277E+000  1.273337E+001
 670.0000     -1.178052E+000  1.577440E+002 -3.595822E+001  1.745641E+002 -3.595707E+001  1.745837E+002 -1.117735E+000  9.950758E+000
 675.0000     -1.139575E+000  1.550656E+002 -3.600331E+001  1.735279E+002 -3.599277E+001  1.734788E+002 -1.083017E+000  7.237513E+000
 680.0000     -1.103989E+000  1.525128E+002 -3.612965E+001  1.723875E+002 -3.612576E+001  1.723955E+002 -1.047821E+000  4.601487E+000
 685.0000     -1.072685E+000  1.500557E+002 -3.633751E+001  1.712276E+002 -3.633912E+001  1.712791E+002 -1.013655E+000  2.045787E+000
 690.0000     -1.044739E+000  1.476745E+002 -3.663371E+001  1.701742E+002 -3.663010E+001  1.701555E+002 -9.834021E-001 -4.305725E-001
 695.0000     -1.018834E+000  1.453631E+002 -3.699463E+001  1.690559E+002 -3.699398E+001  1.691012E+002 -9.558251E-001 -2.827844E+000
 700.0000     -9.922745E-001  1.431605E+002 -3.742677E+001  1.682282E+002 -3.742843E+001  1.682273E+002 -9.277838E-001 -5.140427E+000
 705.0000     -9.654788E-001  1.410508E+002 -3.793287E+001  1.674583E+002 -3.792690E+001  1.674404E+002 -8.988791E-001 -7.395344E+000
 710.0000     -9.398410E-001  1.390060E+002 -3.850637E+001  1.668108E+002 -3.850503E+001  1.667520E+002 -8.701680E-001 -9.602820E+000
 715.0000     -9.174905E-001  1.370066E+002 -3.915893E+001  1.663643E+002 -3.916829E+001  1.662668E+002 -8.420102E-001 -1.177061E+001
 720.0000     -8.972477E-001  1.350627E+002 -3.990469E+001  1.660898E+002 -3.991559E+001  1.660759E+002 -8.166872E-001 -1.388715E+001
 725.0000     -8.808401E-001  1.331760E+002 -4.075594E+001  1.661960E+002 -4.074693E+001  1.662029E+002 -7.971073E-001 -1.592482E+001
 730.0000     -8.669401E-001  1.313587E+002 -4.169476E+001  1.667699E+002 -4.168354E+001  1.667707E+002 -7.792481E-001 -1.789993E+001
 735.0000     -8.525445E-001  1.295946E+002 -4.275169E+001  1.679257E+002 -4.274909E+001  1.679317E+002 -7.594170E-001 -1.983146E+001
 740.0000     -8.390020E-001  1.278857E+002 -4.393046E+001  1.698307E+002 -4.393211E+001  1.698903E+002 -7.338473E-001 -2.173118E+001
 745.0000     -8.230284E-001  1.262321E+002 -4.524078E+001  1.728616E+002 -4.525717E+001  1.729733E+002 -7.079889E-001 -2.359170E+001
 750.0000     -8.064213E-001  1.246396E+002 -4.672381E+001  1.778819E+002 -4.671794E+001  1.777523E+002 -6.866071E-001 -2.539591E+001
 755.0000     -7.900684E-001  1.230933E+002 -4.828305E+001 -1.746779E+002 -4.827787E+001 -1.746877E+002 -6.695411E-001 -2.713955E+001
 760.0000     -7.762662E-001  1.215667E+002 -4.985801E+001 -1.631372E+002 -4.984204E+001 -1.633071E+002 -6.530412E-001 -2.884490E+001
 765.0000     -7.663209E-001  1.200432E+002 -5.096389E+001 -1.477493E+002 -5.096905E+001 -1.478947E+002 -6.356676E-001 -3.050797E+001
 770.0000     -7.588028E-001  1.185454E+002 -5.125420E+001 -1.293268E+002 -5.123211E+001 -1.292189E+002 -6.181044E-001 -3.213361E+001
 775.0000     -7.488992E-001  1.171048E+002 -5.060604E+001 -1.122374E+002 -5.054928E+001 -1.120492E+002 -6.027869E-001 -3.373655E+001
 780.0000     -7.369688E-001  1.157126E+002 -4.929356E+001 -9.919593E+001 -4.931778E+001 -9.913306E+001 -5.906730E-001 -3.531195E+001
 785.0000     -7.221857E-001  1.143503E+002 -4.791079E+001 -9.029003E+001 -4.789431E+001 -9.009747E+001 -5.763903E-001 -3.682925E+001
 790.0000     -7.050834E-001  1.129993E+002 -4.654714E+001 -8.419547E+001 -4.653528E+001 -8.409176E+001 -5.625057E-001 -3.830851E+001
 795.0000     -6.891269E-001  1.116676E+002 -4.531263E+001 -8.019194E+001 -4.530046E+001 -8.025289E+001 -5.472421E-001 -3.974495E+001
 800.0000     -6.790094E-001  1.103567E+002 -4.424551E+001 -7.747716E+001 -4.422584E+001 -7.757455E+001 -5.338896E-001 -4.115599E+001
 805.0000     -6.736542E-001  1.090788E+002 -4.328507E+001 -7.585885E+001 -4.326869E+001 -7.582085E+001 -5.228082E-001 -4.254283E+001
 810.0000     -6.681976E-001  1.078484E+002 -4.242368E+001 -7.457439E+001 -4.242682E+001 -7.456030E+001 -5.131883E-001 -4.390467E+001
 815.0000     -6.580332E-001  1.066658E+002 -4.166577E+001 -7.383595E+001 -4.166398E+001 -7.386913E+001 -5.024409E-001 -4.524111E+001
 820.0000     -6.472417E-001  1.055070E+002 -4.099263E+001 -7.341181E+001 -4.098870E+001 -7.346127E+001 -4.929465E-001 -4.655562E+001
 825.0000     -6.379796E-001  1.043142E+002 -4.038401E+001 -7.336700E+001 -4.037283E+001 -7.335336E+001 -4.853203E-001 -4.783570E+001
 830.0000     -6.306083E-001  1.031227E+002 -3.983762E+001 -7.338455E+001 -3.983561E+001 -7.335919E+001 -4.773803E-001 -4.909564E+001
 835.0000     -6.242968E-001  1.019713E+002 -3.933691E+001 -7.365688E+001 -3.933699E+001 -7.358007E+001 -4.684745E-001 -5.031932E+001
 840.0000     -6.156117E-001  1.009062E+002 -3.889394E+001 -7.381701E+001 -3.889503E+001 -7.385131E+001 -4.576347E-001 -5.151564E+001
 845.0000     -6.078240E-001  9.986819E+001 -3.848540E+001 -7.418531E+001 -3.848337E+001 -7.413765E+001 -4.451802E-001 -5.269130E+001
 850.0000     -5.991536E-001  9.881842E+001 -3.811674E+001 -7.454393E+001 -3.811324E+001 -7.456847E+001 -4.349276E-001 -5.385328E+001
 855.0000     -5.920501E-001  9.774642E+001 -3.777340E+001 -7.512756E+001 -3.777058E+001 -7.511005E+001 -4.256594E-001 -5.499569E+001
 860.0000     -5.850577E-001  9.669030E+001 -3.746588E+001 -7.559149E+001 -3.746935E+001 -7.564029E+001 -4.172033E-001 -5.612179E+001
 865.0000     -5.765757E-001  9.566802E+001 -3.717833E+001 -7.621162E+001 -3.717966E+001 -7.619981E+001 -4.109854E-001 -5.722437E+001
 870.0000     -5.707225E-001  9.467241E+001 -3.692380E+001 -7.672063E+001 -3.692749E+001 -7.674859E+001 -4.032904E-001 -5.829766E+001
 875.0000     -5.683429E-001  9.368658E+001 -3.669274E+001 -7.733684E+001 -3.669319E+001 -7.735410E+001 -3.950573E-001 -5.935109E+001
 880.0000     -5.688667E-001  9.271762E+001 -3.647383E+001 -7.799140E+001 -3.648314E+001 -7.795512E+001 -3.870531E-001 -6.038440E+001
 885.0000     -5.655414E-001  9.174445E+001 -3.628736E+001 -7.860176E+001 -3.628506E+001 -7.859138E+001 -3.776647E-001 -6.139197E+001
 890.0000     -5.541891E-001  9.079076E+001 -3.609830E+001 -7.924152E+001 -3.610214E+001 -7.928838E+001 -3.692902E-001 -6.238258E+001
 895.0000     -5.417909E-001  8.986068E+001 -3.592345E+001 -7.989330E+001 -3.592745E+001 -7.988327E+001 -3.619871E-001 -6.334746E+001
 900.0000     -5.316988E-001  8.897506E+001 -3.577983E+001 -8.048809E+001 -3.577663E+001 -8.051324E+001 -3.578360E-001 -6.429384E+001
 905.0000     -5.255328E-001  8.811987E+001 -3.564418E+001 -8.110217E+001 -3.563811E+001 -8.110791E+001 -3.547971E-001 -6.521748E+001
 910.0000     -5.224413E-001  8.725353E+001 -3.552764E+001 -8.175525E+001 -3.552341E+001 -8.175442E+001 -3.512495E-001 -6.614765E+001
 915.0000     -5.181494E-001  8.636870E+001 -3.541599E+001 -8.241342E+001 -3.541716E+001 -8.243086E+001 -3.449176E-001 -6.706866E+001
 920.0000     -5.139339E-001  8.547440E+001 -3.530468E+001 -8.310665E+001 -3.530819E+001 -8.313815E+001 -3.369462E-001 -6.798504E+001
 925.0000     -5.098559E-001  8.459292E+001 -3.522300E+001 -8.382691E+001 -3.521867E+001 -8.386491E+001 -3.301534E-001 -6.887308E+001
 930.0000     -5.047342E-001  8.373886E+001 -3.514144E+001 -8.449539E+001 -3.514170E+001 -8.452711E+001 -3.254979E-001 -6.972998E+001
 935.0000     -5.006493E-001  8.291080E+001 -3.507187E+001 -8.516087E+001 -3.507400E+001 -8.516963E+001 -3.222297E-001 -7.057346E+001
 940.0000     -4.958569E-001  8.209649E+001 -3.501818E+001 -8.580634E+001 -3.501318E+001 -8.580119E+001 -3.196540E-001 -7.140479E+001
 945.0000     -4.914825E-001  8.129714E+001 -3.496943E+001 -8.642692E+001 -3.496672E+001 -8.641958E+001 -3.169259E-001 -7.223180E+001
 950.0000     -4.865021E-001  8.051286E+001 -3.492303E+001 -8.702571E+001 -3.492523E+001 -8.707439E+001 -3.115265E-001 -7.305352E+001
 955.0000     -4.808110E-001  7.973660E+001 -3.488674E+001 -8.768819E+001 -3.488626E+001 -8.769022E+001 -3.041632E-001 -7.386419E+001
 960.0000     -4.740698E-001  7.897705E+001 -3.486716E+001 -8.830962E+001 -3.486044E+001 -8.832856E+001 -2.981761E-001 -7.466558E+001
 980.0000     -4.578245E-001  7.598199E+001 -3.482553E+001 -9.075463E+001 -3.481667E+001 -9.080817E+001 -2.856478E-001 -7.775945E+001
1000.0000     -4.450848E-001  7.306508E+001 -3.487998E+001 -9.317576E+001 -3.487560E+001 -9.317604E+001 -2.655870E-001 -8.060371E+001
1020.0000     -4.263465E-001  7.028899E+001 -3.501182E+001 -9.545081E+001 -3.501739E+001 -9.545840E+001 -2.552153E-001 -8.330312E+001
1040.0000     -3.996279E-001  6.764577E+001 -3.521607E+001 -9.764831E+001 -3.521509E+001 -9.761759E+001 -2.451758E-001 -8.585020E+001
1060.0000     -4.007670E-001  6.517946E+001 -3.551971E+001 -9.967206E+001 -3.551535E+001 -9.972139E+001 -2.395105E-001 -8.831909E+001
1080.0000     -3.829525E-001  6.269344E+001 -3.585565E+001 -1.017417E+002 -3.585999E+001 -1.017670E+002 -2.277277E-001 -9.064703E+001
1100.0000     -3.700311E-001  6.031224E+001 -3.627634E+001 -1.036388E+002 -3.627510E+001 -1.036599E+002 -2.221996E-001 -9.284674E+001
1120.0000     -3.629242E-001  5.804403E+001 -3.676158E+001 -1.054523E+002 -3.676231E+001 -1.054490E+002 -2.144413E-001 -9.494219E+001
1140.0000     -3.435100E-001  5.582487E+001 -3.728976E+001 -1.071350E+002 -3.729191E+001 -1.070623E+002 -2.021622E-001 -9.688989E+001
1160.0000     -3.331788E-001  5.367509E+001 -3.790605E+001 -1.087435E+002 -3.790768E+001 -1.086814E+002 -1.979553E-001 -9.878446E+001
1180.0000     -3.226576E-001  5.170205E+001 -3.858519E+001 -1.100631E+002 -3.857695E+001 -1.100830E+002 -1.921847E-001 -1.005919E+002
1200.0000     -3.122686E-001  4.960942E+001 -3.934809E+001 -1.115742E+002 -3.933467E+001 -1.116349E+002 -1.825915E-001 -1.023939E+002
1220.0000     -3.048665E-001  4.773581E+001 -4.019366E+001 -1.126555E+002 -4.018835E+001 -1.126585E+002 -1.826481E-001 -1.040794E+002
1240.0000     -2.912070E-001  4.580149E+001 -4.113574E+001 -1.137369E+002 -4.114240E+001 -1.136693E+002 -1.764844E-001 -1.056466E+002
1260.0000     -2.867492E-001  4.399289E+001 -4.222062E+001 -1.144115E+002 -4.223592E+001 -1.144323E+002 -1.716197E-001 -1.071628E+002
1280.0000     -2.761884E-001  4.219689E+001 -4.344762E+001 -1.149487E+002 -4.346608E+001 -1.148499E+002 -1.704618E-001 -1.086303E+002
1300.0000     -2.701123E-001  4.044893E+001 -4.487542E+001 -1.149999E+002 -4.488707E+001 -1.149866E+002 -1.642421E-001 -1.100629E+002
1320.0000     -2.641333E-001  3.877348E+001 -4.654671E+001 -1.142771E+002 -4.657063E+001 -1.143659E+002 -1.676966E-001 -1.114831E+002
1340.0000     -2.543336E-001  3.702697E+001 -4.863406E+001 -1.126708E+002 -4.859887E+001 -1.126214E+002 -1.593234E-001 -1.127985E+002
1360.0000     -2.421625E-001  3.540432E+001 -5.119965E+001 -1.087673E+002 -5.123219E+001 -1.084421E+002 -1.523565E-001 -1.140438E+002
1380.0000     -2.379793E-001  3.382774E+001 -5.462130E+001 -9.950153E+001 -5.460266E+001 -9.957294E+001 -1.538451E-001 -1.152637E+002
1400.0000     -2.243184E-001  3.229092E+001 -5.894068E+001 -7.412321E+001 -5.891761E+001 -7.448694E+001 -1.524828E-001 -1.164837E+002
1420.0000     -2.283850E-001  3.073421E+001 -6.000446E+001 -2.267779E+001 -5.988264E+001 -2.257824E+001 -1.521160E-001 -1.176419E+002
1440.0000     -2.252717E-001  2.928856E+001 -5.593407E+001  9.363603E+000 -5.599936E+001  9.482571E+000 -1.543079E-001 -1.187392E+002
1460.0000     -2.078447E-001  2.772188E+001 -5.236346E+001  2.142171E+001 -5.244145E+001  2.144703E+001 -1.487902E-001 -1.198300E+002
1480.0000     -2.093739E-001  2.627931E+001 -4.976435E+001  2.668518E+001 -4.974146E+001  2.659169E+001 -1.464498E-001 -1.207923E+002
1500.0000     -2.045052E-001  2.492139E+001 -4.772301E+001  2.908402E+001 -4.773854E+001  2.903334E+001 -1.405466E-001 -1.218189E+002
1520.0000     -1.951193E-001  2.350612E+001 -4.612340E+001  3.023808E+001 -4.613649E+001  3.021063E+001 -1.397002E-001 -1.228025E+002
1540.0000     -1.923933E-001  2.214982E+001 -4.477578E+001  3.070986E+001 -4.475332E+001  3.066076E+001 -1.361689E-001 -1.237976E+002
1560.0000     -1.928797E-001  2.083836E+001 -4.363857E+001  3.076983E+001 -4.361961E+001  3.076858E+001 -1.348109E-001 -1.247008E+002
1580.0000     -1.835162E-001  1.953495E+001 -4.264648E+001  3.062858E+001 -4.263769E+001  3.058801E+001 -1.331819E-001 -1.255829E+002
1600.0000     -1.729161E-001  1.827462E+001 -4.176912E+001  3.026232E+001 -4.176994E+001  3.018801E+001 -1.293659E-001 -1.264336E+002
1620.0000     -1.713596E-001  1.706632E+001 -4.099808E+001  2.982115E+001 -4.099349E+001  2.991326E+001 -1.287247E-001 -1.272753E+002
1640.0000     -1.675808E-001  1.578420E+001 -4.030661E+001  2.922295E+001 -4.030759E+001  2.908995E+001 -1.337300E-001 -1.281884E+002
1660.0000     -1.641265E-001  1.452436E+001 -3.968264E+001  2.853790E+001 -3.969001E+001  2.846813E+001 -1.273877E-001 -1.289827E+002
1680.0000     -1.602895E-001  1.335210E+001 -3.912561E+001  2.796105E+001 -3.912299E+001  2.795249E+001 -1.304996E-001 -1.297692E+002
1700.0000     -1.597691E-001  1.211407E+001 -3.861057E+001  2.722432E+001 -3.862006E+001  2.726391E+001 -1.204672E-001 -1.304793E+002
1720.0000     -1.481794E-001  1.097870E+001 -3.814613E+001  2.660732E+001 -3.814433E+001  2.659003E+001 -1.287038E-001 -1.312180E+002
1740.0000     -1.473973E-001  9.813839E+000 -3.769976E+001  2.584661E+001 -3.770316E+001  2.584081E+001 -1.180361E-001 -1.320148E+002
1760.0000     -1.461063E-001  8.714737E+000 -3.730479E+001  2.518301E+001 -3.730113E+001  2.515776E+001 -1.289470E-001 -1.326848E+002
1780.0000     -1.454872E-001  7.517658E+000 -3.693660E+001  2.439211E+001 -3.693915E+001  2.428959E+001 -1.215828E-001 -1.334054E+002
1800.0000     -1.303664E-001  6.406521E+000 -3.658245E+001  2.374825E+001 -3.658064E+001  2.369544E+001 -1.147196E-001 -1.340743E+002
1820.0000     -1.278532E-001  5.324682E+000 -3.625538E+001  2.299670E+001 -3.625724E+001  2.293375E+001 -1.247285E-001 -1.347268E+002
1840.0000     -1.254019E-001  4.245759E+000 -3.595146E+001  2.227651E+001 -3.594696E+001  2.222880E+001 -1.202292E-001 -1.353376E+002
1860.0000     -1.338347E-001  3.133228E+000 -3.568274E+001  2.153564E+001 -3.568027E+001  2.148730E+001 -1.146203E-001 -1.359352E+002
1880.0000     -1.221385E-001  2.067245E+000 -3.540625E+001  2.084489E+001 -3.541251E+001  2.077085E+001 -1.171013E-001 -1.365412E+002
1900.0000     -1.094435E-001  9.847394E-001 -3.514888E+001  2.004037E+001 -3.514585E+001  2.001439E+001 -1.175028E-001 -1.371619E+002
1920.0000     -1.099043E-001  1.334171E-003 -3.493449E+001  1.937026E+001 -3.492577E+001  1.933203E+001 -1.219862E-001 -1.377580E+002
1940.0000     -1.135747E-001 -1.009249E+000 -3.470787E+001  1.870010E+001 -3.471193E+001  1.862672E+001 -1.180094E-001 -1.382805E+002
1960.0000     -1.082735E-001 -2.041569E+000 -3.450312E+001  1.790641E+001 -3.450468E+001  1.788584E+001 -1.079682E-001 -1.388852E+002
1980.0000     -1.180627E-001 -3.114164E+000 -3.431565E+001  1.720514E+001 -3.431522E+001  1.719530E+001 -1.109719E-001 -1.393905E+002
2000.0000     -1.076927E-001 -4.065621E+000 -3.412613E+001  1.664708E+001 -3.412656E+001  1.659289E+001 -1.158369E-001 -1.399057E+002
2020.0000     -1.084757E-001 -5.108249E+000 -3.395318E+001  1.586832E+001 -3.394934E+001  1.579943E+001 -1.147312E-001 -1.404910E+002
2040.0000     -9.743003E-002 -6.014406E+000 -3.378307E+001  1.525991E+001 -3.377604E+001  1.525317E+001 -1.172446E-001 -1.409708E+002
2060.0000     -1.014910E-001 -6.962020E+000 -3.363838E+001  1.457292E+001 -3.363195E+001  1.455927E+001 -1.176487E-001 -1.414679E+002
2080.0000     -1.045808E-001 -7.878548E+000 -3.346883E+001  1.393764E+001 -3.347050E+001  1.390517E+001 -9.862211E-002 -1.419216E+002
2100.0000     -1.071676E-001 -8.824782E+000 -3.334630E+001  1.328429E+001 -3.333990E+001  1.319786E+001 -1.073061E-001 -1.424462E+002
2120.0000     -1.015879E-001 -9.804320E+000 -3.320169E+001  1.262074E+001 -3.320256E+001  1.259719E+001 -1.084686E-001 -1.428854E+002
2140.0000     -9.410883E-002 -1.067780E+001 -3.307948E+001  1.200387E+001 -3.307706E+001  1.196927E+001 -1.129688E-001 -1.433495E+002
2160.0000     -9.898862E-002 -1.157922E+001 -3.296051E+001  1.137786E+001 -3.296223E+001  1.131530E+001 -1.121026E-001 -1.438153E+002
2180.0000     -1.060516E-001 -1.252334E+001 -3.284446E+001  1.064712E+001 -3.284097E+001  1.062327E+001 -1.054726E-001 -1.442231E+002
2200.0000     -8.776829E-002 -1.344619E+001 -3.273199E+001  1.002683E+001 -3.273340E+001  9.958517E+000 -1.093290E-001 -1.446852E+002
2220.0000     -9.353056E-002 -1.435044E+001 -3.263408E+001  9.349143E+000 -3.263193E+001  9.334142E+000 -1.089003E-001 -1.451241E+002
2240.0000     -8.248157E-002 -1.523195E+001 -3.253487E+001  8.731123E+000 -3.253075E+001  8.708051E+000 -1.068352E-001 -1.455462E+002
2260.0000     -8.154140E-002 -1.601862E+001 -3.245023E+001  8.282455E+000 -3.244582E+001  8.217649E+000 -1.119237E-001 -1.459432E+002
2280.0000     -8.760509E-002 -1.693308E+001 -3.237049E+001  7.574545E+000 -3.236506E+001  7.492511E+000 -1.066440E-001 -1.463639E+002
2300.0000     -9.357141E-002 -1.779551E+001 -3.228925E+001  7.034480E+000 -3.228784E+001  6.987303E+000 -1.044928E-001 -1.467327E+002
2320.0000     -8.737577E-002 -1.867706E+001 -3.218993E+001  6.384413E+000 -3.219100E+001  6.334877E+000 -9.359264E-002 -1.470966E+002
2340.0000     -8.285806E-002 -1.949327E+001 -3.211449E+001  5.802387E+000 -3.211814E+001  5.760919E+000 -1.071251E-001 -1.474442E+002
2360.0000     -8.322714E-002 -2.039849E+001 -3.206350E+001  5.140681E+000 -3.205872E+001  5.097617E+000 -1.057520E-001 -1.478573E+002
2380.0000     -7.712761E-002 -2.116008E+001 -3.199033E+001  4.618537E+000 -3.198636E+001  4.559497E+000 -1.060773E-001 -1.482264E+002
2400.0000     -8.924421E-002 -2.196550E+001 -3.192499E+001  4.052306E+000 -3.192543E+001  4.030219E+000 -9.075675E-002 -1.486056E+002
2420.0000     -8.643468E-002 -2.279468E+001 -3.188665E+001  3.546729E+000 -3.188117E+001  3.487170E+000 -1.038935E-001 -1.488733E+002
2440.0000     -7.661435E-002 -2.364057E+001 -3.181106E+001  2.967736E+000 -3.181265E+001  2.893972E+000 -9.932868E-002 -1.492818E+002
2460.0000     -7.870011E-002 -2.440988E+001 -3.176834E+001  2.391241E+000 -3.176788E+001  2.370472E+000 -1.019921E-001 -1.496160E+002
2480.0000     -8.316424E-002 -2.520824E+001 -3.171740E+001  1.849944E+000 -3.171639E+001  1.803577E+000 -1.009021E-001 -1.499917E+002
2500.0000     -7.339489E-002 -2.596617E+001 -3.165449E+001  1.301950E+000 -3.165004E+001  1.251965E+000 -9.465057E-002 -1.503116E+002
2520.0000     -8.441076E-002 -2.678769E+001 -3.163306E+001  8.265132E-001 -3.162964E+001  7.454541E-001 -9.108508E-002 -1.506362E+002
2540.0000     -7.964201E-002 -2.758909E+001 -3.157085E+001  1.995261E-001 -3.156988E+001  1.481434E-001 -9.223710E-002 -1.509880E+002
2560.0000     -7.286785E-002 -2.833499E+001 -3.154140E+001 -3.623376E-001 -3.154313E+001 -4.096465E-001 -1.040367E-001 -1.513238E+002
2580.0000     -7.280593E-002 -2.907518E+001 -3.151864E+001 -8.641338E-001 -3.150756E+001 -9.020497E-001 -1.001203E-001 -1.515999E+002
2600.0000     -7.142939E-002 -2.977340E+001 -3.146867E+001 -1.263490E+000 -3.146827E+001 -1.306964E+000 -9.041080E-002 -1.519457E+002
2620.0000     -7.109661E-002 -3.054712E+001 -3.144313E+001 -1.782547E+000 -3.143468E+001 -1.826606E+000 -8.883585E-002 -1.522172E+002
2640.0000     -7.295965E-002 -3.127869E+001 -3.141269E+001 -2.361480E+000 -3.141381E+001 -2.432645E+000 -9.470627E-002 -1.525269E+002
2660.0000     -7.711743E-002 -3.197836E+001 -3.138424E+001 -2.692675E+000 -3.138279E+001 -2.759650E+000 -8.265197E-002 -1.527882E+002
2680.0000     -7.483505E-002 -3.272627E+001 -3.136406E+001 -3.222757E+000 -3.136590E+001 -3.293201E+000 -9.452746E-002 -1.531347E+002
2700.0000     -7.645199E-002 -3.350897E+001 -3.133068E+001 -3.735132E+000 -3.133198E+001 -3.805295E+000 -9.006473E-002 -1.533917E+002
2720.0000     -7.970005E-002 -3.418525E+001 -3.131510E+001 -4.138206E+000 -3.131858E+001 -4.192119E+000 -9.031416E-002 -1.536441E+002
2740.0000     -7.439657E-002 -3.487399E+001 -3.128009E+001 -4.584574E+000 -3.127853E+001 -4.664225E+000 -8.019228E-002 -1.539032E+002
2760.0000     -7.104752E-002 -3.558841E+001 -3.125456E+001 -5.082458E+000 -3.125606E+001 -5.136597E+000 -8.415742E-002 -1.541906E+002
2780.0000     -7.071363E-002 -3.628947E+001 -3.124258E+001 -5.594370E+000 -3.124151E+001 -5.667222E+000 -9.048265E-002 -1.545115E+002
2800.0000     -6.892414E-002 -3.699085E+001 -3.121660E+001 -6.035666E+000 -3.121308E+001 -6.095892E+000 -7.969595E-002 -1.547603E+002
2820.0000     -6.820743E-002 -3.769044E+001 -3.119702E+001 -6.473020E+000 -3.119582E+001 -6.555464E+000 -7.907934E-002 -1.549949E+002
2840.0000     -7.155088E-002 -3.832935E+001 -3.118330E+001 -6.942689E+000 -3.118617E+001 -7.007835E+000 -8.310089E-002 -1.552443E+002
2860.0000     -6.986702E-002 -3.906036E+001 -3.117023E+001 -7.509272E+000 -3.117204E+001 -7.513472E+000 -7.923159E-002 -1.555156E+002
2880.0000     -6.753677E-002 -3.971067E+001 -3.113756E+001 -7.900959E+000 -3.113944E+001 -7.931367E+000 -7.828977E-002 -1.557754E+002
2900.0000     -7.666126E-002 -4.038881E+001 -3.114792E+001 -8.412333E+000 -3.114858E+001 -8.468556E+000 -7.637717E-002 -1.560296E+002
2920.0000     -6.336183E-002 -4.101635E+001 -3.114076E+001 -8.737261E+000 -3.114042E+001 -8.812827E+000 -7.777399E-002 -1.562768E+002
2940.0000     -6.454726E-002 -4.166885E+001 -3.112598E+001 -9.165735E+000 -3.112586E+001 -9.240297E+000 -7.796948E-002 -1.564895E+002
2960.0000     -6.805576E-002 -4.232725E+001 -3.110710E+001 -9.613864E+000 -3.110559E+001 -9.659142E+000 -7.315107E-002 -1.566961E+002
2980.0000     -7.136039E-002 -4.296322E+001 -3.111153E+001 -1.003089E+001 -3.111003E+001 -1.008545E+001 -7.530200E-002 -1.568992E+002
3000.0000     -6.782189E-002 -4.365523E+001 -3.107902E+001 -1.054579E+001 -3.107657E+001 -1.060845E+001 -6.628610E-002 -1.572090E+002
3025.0000     -6.768484E-002 -4.443282E+001 -3.108216E+001 -1.126100E+001 -3.108307E+001 -1.132497E+001 -7.445775E-002 -1.575066E+002
3050.0000     -7.411917E-002 -4.520135E+001 -3.108636E+001 -1.158805E+001 -3.108862E+001 -1.165768E+001 -6.681994E-002 -1.577703E+002
3075.0000     -7.445681E-002 -4.595019E+001 -3.107375E+001 -1.210348E+001 -3.106913E+001 -1.214044E+001 -6.572727E-002 -1.580390E+002
3100.0000     -6.160430E-002 -4.676009E+001 -3.105260E+001 -1.256791E+001 -3.105608E+001 -1.265147E+001 -6.566264E-002 -1.583470E+002
3125.0000     -6.786932E-002 -4.746227E+001 -3.104858E+001 -1.311513E+001 -3.104417E+001 -1.318516E+001 -6.093206E-002 -1.586644E+002
3150.0000     -7.353780E-002 -4.820704E+001 -3.103284E+001 -1.366181E+001 -3.103198E+001 -1.372309E+001 -6.521184E-002 -1.589285E+002
3175.0000     -7.525263E-002 -4.899974E+001 -3.104105E+001 -1.434438E+001 -3.104121E+001 -1.438308E+001 -6.892426E-002 -1.591868E+002
3200.0000     -6.598689E-002 -4.972868E+001 -3.101857E+001 -1.479173E+001 -3.101543E+001 -1.482599E+001 -6.166995E-002 -1.594164E+002
3225.0000     -6.871950E-002 -5.049097E+001 -3.100690E+001 -1.558343E+001 -3.100702E+001 -1.565006E+001 -5.722233E-002 -1.597001E+002
3250.0000     -7.413648E-002 -5.121010E+001 -3.103875E+001 -1.598870E+001 -3.104332E+001 -1.606198E+001 -6.077071E-002 -1.599452E+002
3275.0000     -6.396490E-002 -5.195917E+001 -3.105460E+001 -1.631808E+001 -3.105319E+001 -1.639490E+001 -5.415459E-002 -1.601644E+002
3300.0000     -7.677792E-002 -5.270839E+001 -3.102781E+001 -1.683311E+001 -3.102959E+001 -1.687611E+001 -5.336244E-002 -1.604389E+002
3325.0000     -7.252654E-002 -5.338022E+001 -3.098048E+001 -1.712285E+001 -3.098158E+001 -1.720300E+001 -4.891752E-002 -1.606221E+002
3350.0000     -6.930214E-002 -5.410736E+001 -3.097999E+001 -1.766372E+001 -3.097924E+001 -1.769402E+001 -4.932124E-002 -1.608691E+002
3375.0000     -7.667424E-002 -5.485099E+001 -3.096659E+001 -1.816423E+001 -3.096534E+001 -1.824220E+001 -4.815358E-002 -1.611599E+002
3400.0000     -6.461872E-002 -5.552290E+001 -3.090132E+001 -1.859821E+001 -3.090259E+001 -1.864306E+001 -4.851293E-002 -1.614203E+002
3425.0000     -7.265804E-002 -5.629544E+001 -3.085414E+001 -1.923632E+001 -3.085346E+001 -1.932464E+001 -4.387089E-002 -1.616356E+002
3450.0000     -6.950989E-002 -5.697287E+001 -3.081535E+001 -1.976841E+001 -3.081750E+001 -1.983888E+001 -4.493931E-002 -1.618510E+002
3475.0000     -7.522239E-002 -5.772165E+001 -3.076639E+001 -2.039222E+001 -3.076346E+001 -2.045611E+001 -4.685754E-002 -1.621223E+002
3500.0000     -8.333137E-002 -5.836873E+001 -3.070346E+001 -2.089472E+001 -3.070222E+001 -2.096258E+001 -4.322060E-002 -1.624151E+002
3525.0000     -8.322647E-002 -5.910594E+001 -3.062594E+001 -2.157767E+001 -3.062752E+001 -2.163238E+001 -4.083106E-002 -1.626550E+002
3550.0000     -8.750159E-002 -5.980783E+001 -3.053387E+001 -2.227030E+001 -3.053457E+001 -2.235914E+001 -3.483735E-002 -1.628294E+002
3575.0000     -9.196776E-002 -6.051637E+001 -3.046819E+001 -2.292681E+001 -3.046638E+001 -2.300179E+001 -4.120190E-002 -1.630409E+002
3600.0000     -1.005184E-001 -6.124232E+001 -3.032228E+001 -2.362924E+001 -3.031323E+001 -2.369292E+001 -3.696427E-002 -1.633405E+002
3625.0000     -1.022754E-001 -6.194370E+001 -3.016194E+001 -2.447350E+001 -3.016269E+001 -2.451909E+001 -4.235851E-002 -1.635591E+002
3650.0000     -1.070726E-001 -6.274458E+001 -2.993545E+001 -2.532979E+001 -2.993381E+001 -2.539910E+001 -2.871922E-002 -1.637888E+002
3675.0000     -1.362824E-001 -6.357748E+001 -2.974373E+001 -2.659812E+001 -2.973763E+001 -2.663107E+001 -3.659285E-002 -1.639864E+002
3700.0000     -1.388403E-001 -6.444603E+001 -2.941961E+001 -2.790407E+001 -2.941919E+001 -2.798228E+001 -3.887616E-002 -1.642702E+002
3725.0000     -1.788073E-001 -6.528722E+001 -2.900919E+001 -2.977450E+001 -2.900617E+001 -2.983054E+001 -4.013133E-002 -1.645648E+002
3750.0000     -2.190520E-001 -6.633441E+001 -2.851559E+001 -3.237899E+001 -2.851736E+001 -3.244794E+001 -4.479944E-002 -1.648235E+002
3775.0000     -3.005944E-001 -6.748727E+001 -2.786180E+001 -3.596619E+001 -2.786182E+001 -3.603130E+001 -4.553040E-002 -1.650629E+002
3800.0000     -4.463729E-001 -6.873995E+001 -2.703886E+001 -4.167771E+001 -2.703656E+001 -4.172974E+001 -6.130049E-002 -1.653963E+002
3825.0000     -7.186854E-001 -6.999220E+001 -2.605219E+001 -5.151125E+001 -2.605040E+001 -5.155484E+001 -8.632850E-002 -1.655592E+002
3850.0000     -1.230363E+000 -6.980100E+001 -2.526939E+001 -6.850814E+001 -2.526912E+001 -6.856160E+001 -1.205777E-001 -1.656809E+002
3875.0000     -1.610623E+000 -6.561678E+001 -2.593680E+001 -9.402123E+001 -2.593080E+001 -9.406790E+001 -1.434084E-001 -1.655872E+002
3900.0000     -1.144019E+000 -6.196495E+001 -2.922240E+001 -1.167688E+002 -2.922111E+001 -1.168523E+002 -1.185154E-001 -1.654486E+002
3925.0000     -6.681108E-001 -6.220646E+001 -3.390264E+001 -1.254355E+002 -3.389362E+001 -1.255181E+002 -7.585903E-002 -1.656161E+002
3950.0000     -4.174460E-001 -6.341134E+001 -3.863506E+001 -1.193716E+002 -3.863239E+001 -1.194965E+002 -5.865175E-002 -1.659244E+002
3975.0000     -2.845224E-001 -6.462080E+001 -4.222091E+001 -9.872514E+001 -4.222300E+001 -9.885610E+001 -4.363377E-002 -1.661412E+002
4000.0000     -2.219204E-001 -6.566805E+001 -4.325785E+001 -7.328004E+001 -4.325221E+001 -7.335331E+001 -3.762631E-002 -1.664496E+002
4025.0000     -1.797285E-001 -6.665520E+001 -4.251219E+001 -5.509203E+001 -4.249810E+001 -5.530843E+001 -2.966379E-002 -1.666609E+002
4050.0000     -1.531725E-001 -6.750883E+001 -4.152402E+001 -4.583922E+001 -4.152036E+001 -4.591157E+001 -3.267938E-002 -1.669490E+002
4075.0000     -1.284585E-001 -6.821016E+001 -4.068255E+001 -4.056124E+001 -4.066892E+001 -4.062029E+001 -2.929363E-002 -1.671996E+002
4100.0000     -1.232999E-001 -6.891908E+001 -4.002278E+001 -3.758428E+001 -4.000951E+001 -3.764915E+001 -3.368559E-002 -1.674137E+002
4125.0000     -1.124272E-001 -6.964009E+001 -3.971341E+001 -3.527520E+001 -3.971550E+001 -3.533385E+001 -2.740729E-002 -1.675983E+002
4150.0000     -1.076984E-001 -7.031426E+001 -3.932704E+001 -3.412699E+001 -3.931129E+001 -3.414957E+001 -2.407265E-002 -1.678430E+002
4175.0000     -9.645486E-002 -7.086760E+001 -3.908274E+001 -3.305500E+001 -3.908721E+001 -3.317788E+001 -2.412549E-002 -1.680657E+002
4200.0000     -1.042800E-001 -7.144479E+001 -3.887898E+001 -3.228123E+001 -3.888176E+001 -3.235603E+001 -2.337320E-002 -1.683616E+002
4225.0000     -1.029963E-001 -7.208030E+001 -3.869620E+001 -3.193580E+001 -3.869864E+001 -3.197437E+001 -2.018774E-002 -1.685101E+002
4250.0000     -9.839587E-002 -7.263979E+001 -3.861272E+001 -3.172571E+001 -3.861687E+001 -3.187134E+001 -2.260199E-002 -1.687555E+002
4275.0000     -9.134661E-002 -7.320229E+001 -3.858118E+001 -3.186201E+001 -3.858188E+001 -3.194834E+001 -1.683827E-002 -1.690226E+002
4300.0000     -9.731548E-002 -7.373454E+001 -3.854723E+001 -3.163763E+001 -3.853633E+001 -3.169357E+001 -1.566688E-002 -1.693286E+002
4325.0000     -9.566042E-002 -7.424336E+001 -3.853482E+001 -3.199992E+001 -3.853072E+001 -3.208515E+001 -2.445276E-002 -1.696095E+002
4350.0000     -9.851903E-002 -7.478316E+001 -3.858159E+001 -3.207030E+001 -3.857608E+001 -3.209765E+001 -2.201292E-002 -1.697864E+002
4375.0000     -9.172640E-002 -7.526571E+001 -3.873033E+001 -3.217259E+001 -3.872918E+001 -3.220366E+001 -2.486912E-002 -1.700313E+002
4400.0000     -9.494004E-002 -7.575521E+001 -3.881833E+001 -3.222976E+001 -3.881261E+001 -3.231154E+001 -2.591158E-002 -1.703384E+002
4425.0000     -9.452430E-002 -7.621938E+001 -3.899441E+001 -3.194827E+001 -3.898965E+001 -3.205839E+001 -2.969159E-002 -1.705560E+002
4450.0000     -9.906311E-002 -7.676897E+001 -3.915333E+001 -3.172714E+001 -3.916310E+001 -3.182695E+001 -2.392575E-002 -1.708676E+002
4475.0000     -9.862380E-002 -7.726469E+001 -3.927561E+001 -3.162819E+001 -3.926628E+001 -3.174066E+001 -1.828921E-002 -1.711009E+002
4500.0000     -9.839936E-002 -7.771549E+001 -3.944648E+001 -3.150215E+001 -3.944690E+001 -3.166665E+001 -2.411386E-002 -1.712969E+002
4525.0000     -9.723329E-002 -7.822513E+001 -3.972831E+001 -3.163045E+001 -3.972223E+001 -3.169575E+001 -3.484169E-002 -1.717003E+002
4550.0000     -9.849606E-002 -7.868443E+001 -3.998306E+001 -3.113917E+001 -3.997842E+001 -3.127050E+001 -3.328298E-002 -1.720423E+002
4575.0000     -9.842337E-002 -7.915564E+001 -4.033181E+001 -3.054473E+001 -4.032261E+001 -3.061486E+001 -3.575487E-002 -1.723079E+002
4600.0000     -1.062207E-001 -7.965743E+001 -4.057882E+001 -3.029555E+001 -4.057109E+001 -3.039496E+001 -4.258575E-002 -1.726121E+002
4625.0000     -1.020292E-001 -8.006051E+001 -4.129338E+001 -3.145698E+001 -4.127599E+001 -3.157058E+001 -5.482696E-002 -1.729206E+002
4650.0000     -1.024013E-001 -8.057070E+001 -4.168027E+001 -2.795921E+001 -4.167859E+001 -2.808803E+001 -5.398937E-002 -1.733188E+002
4675.0000     -1.000190E-001 -8.103558E+001 -4.220684E+001 -2.590121E+001 -4.219698E+001 -2.602094E+001 -6.873047E-002 -1.737242E+002
4700.0000     -1.068017E-001 -8.154939E+001 -4.298226E+001 -2.284259E+001 -4.297499E+001 -2.296054E+001 -6.599582E-002 -1.741827E+002
4725.0000     -1.117852E-001 -8.200024E+001 -4.371003E+001 -1.859170E+001 -4.369668E+001 -1.864827E+001 -8.951769E-002 -1.745617E+002
4750.0000     -1.095506E-001 -8.242184E+001 -4.477287E+001 -1.217805E+001 -4.474817E+001 -1.229732E+001 -1.098675E-001 -1.750834E+002
4775.0000     -1.056675E-001 -8.289597E+001 -4.558516E+001 -3.346748E-001 -4.556707E+001 -2.706337E-001 -1.351133E-001 -1.756344E+002
4800.0000     -1.154347E-001 -8.337576E+001 -4.595879E+001  1.796174E+001 -4.597009E+001  1.801215E+001 -1.896489E-001 -1.763067E+002
4825.0000     -1.225716E-001 -8.390388E+001 -4.443331E+001  3.901728E+001 -4.442559E+001  3.903690E+001 -2.610447E-001 -1.770322E+002
4850.0000     -1.280544E-001 -8.435243E+001 -4.134779E+001  5.299131E+001 -4.133727E+001  5.295962E+001 -3.889574E-001 -1.778691E+002
4875.0000     -1.361846E-001 -8.477338E+001 -3.755080E+001  5.836333E+001 -3.755317E+001  5.822982E+001 -6.147866E-001 -1.786239E+002
4900.0000     -1.498294E-001 -8.518734E+001 -3.405816E+001  5.207948E+001 -3.405822E+001  5.202839E+001 -9.788400E-001 -1.786727E+002
4925.0000     -1.612197E-001 -8.556674E+001 -3.100673E+001  3.617447E+001 -3.100707E+001  3.607986E+001 -1.384668E+000 -1.765340E+002
4950.0000     -1.623479E-001 -8.595393E+001 -2.979750E+001  1.464743E+001 -2.979122E+001  1.458997E+001 -1.372337E+000 -1.724616E+002
4975.0000     -1.529442E-001 -8.627521E+001 -3.011261E+001 -2.987345E+000 -3.010551E+001 -3.105922E+000 -9.498486E-001 -1.704164E+002
5000.0000     -1.381056E-001 -8.665753E+001 -3.089248E+001 -1.495122E+001 -3.088787E+001 -1.505457E+001 -6.053752E-001 -1.705616E+002
5025.0000     -1.394034E-001 -8.716337E+001 -3.183063E+001 -2.336934E+001 -3.182950E+001 -2.346087E+001 -4.028715E-001 -1.712936E+002
5050.0000     -1.407194E-001 -8.766686E+001 -3.277379E+001 -2.966962E+001 -3.277099E+001 -2.974384E+001 -2.776759E-001 -1.720915E+002
5075.0000     -1.389576E-001 -8.816259E+001 -3.355487E+001 -3.249515E+001 -3.354897E+001 -3.260258E+001 -2.079564E-001 -1.727184E+002
5100.0000     -1.473613E-001 -8.860690E+001 -3.417634E+001 -3.594986E+001 -3.417728E+001 -3.606232E+001 -1.605331E-001 -1.733192E+002
5125.0000     -1.377448E-001 -8.898798E+001 -3.509151E+001 -3.858434E+001 -3.509386E+001 -3.867613E+001 -1.309757E-001 -1.738976E+002
5150.0000     -1.405578E-001 -8.951450E+001 -3.567237E+001 -3.884409E+001 -3.566734E+001 -3.899009E+001 -1.040576E-001 -1.744350E+002
5175.0000     -1.349490E-001 -8.996057E+001 -3.588094E+001 -3.919481E+001 -3.587997E+001 -3.925400E+001 -7.649899E-002 -1.749638E+002
5200.0000     -1.401321E-001 -9.049408E+001 -3.623701E+001 -4.084362E+001 -3.623703E+001 -4.099902E+001 -6.886483E-002 -1.754050E+002
5225.0000     -1.465796E-001 -9.085646E+001 -3.671278E+001 -4.284924E+001 -3.671455E+001 -4.297834E+001 -6.344417E-002 -1.758678E+002
5250.0000     -1.465751E-001 -9.132930E+001 -3.715155E+001 -4.318214E+001 -3.713929E+001 -4.329948E+001 -6.104878E-002 -1.762293E+002
5275.0000     -1.508640E-001 -9.181288E+001 -3.782457E+001 -4.400389E+001 -3.782044E+001 -4.408846E+001 -4.800660E-002 -1.765573E+002
5300.0000     -1.405997E-001 -9.229597E+001 -3.807533E+001 -4.410798E+001 -3.807117E+001 -4.426038E+001 -4.232098E-002 -1.769485E+002
5325.0000     -1.592542E-001 -9.275549E+001 -3.830476E+001 -4.584845E+001 -3.829896E+001 -4.597549E+001 -4.282126E-002 -1.772924E+002
5350.0000     -1.596804E-001 -9.312065E+001 -3.893064E+001 -4.570111E+001 -3.893520E+001 -4.574783E+001 -3.244832E-002 -1.776249E+002
5375.0000     -1.498124E-001 -9.360605E+001 -3.913797E+001 -4.401974E+001 -3.913069E+001 -4.410981E+001 -2.694073E-002 -1.779890E+002
5400.0000     -1.650929E-001 -9.408812E+001 -3.940710E+001 -4.711229E+001 -3.940408E+001 -4.723738E+001 -2.814100E-002 -1.783755E+002
5425.0000     -1.563188E-001 -9.458283E+001 -3.989190E+001 -4.603065E+001 -3.988631E+001 -4.609915E+001 -2.389079E-002 -1.786714E+002
5450.0000     -1.613744E-001 -9.504519E+001 -4.026938E+001 -4.487356E+001 -4.026823E+001 -4.488915E+001 -2.495059E-002 -1.789941E+002
5475.0000     -1.614028E-001 -9.554617E+001 -4.029372E+001 -4.565023E+001 -4.028766E+001 -4.576718E+001 -2.144716E-002 -1.793549E+002
5500.0000     -1.615001E-001 -9.606396E+001 -4.034395E+001 -4.760194E+001 -4.035868E+001 -4.770609E+001 -1.712612E-002 -1.797160E+002
5525.0000     -1.674300E-001 -9.651829E+001 -4.094199E+001 -4.866627E+001 -4.093725E+001 -4.879494E+001 -3.331502E-002  1.799488E+002
5550.0000     -1.619222E-001 -9.701963E+001 -4.116453E+001 -4.935345E+001 -4.116948E+001 -4.944118E+001 -2.100514E-002  1.795833E+002
5575.0000     -1.795109E-001 -9.750867E+001 -4.194341E+001 -5.201832E+001 -4.194744E+001 -5.194992E+001 -2.772234E-002  1.792983E+002
5600.0000     -1.683295E-001 -9.800349E+001 -4.192784E+001 -4.811537E+001 -4.194429E+001 -4.831900E+001 -8.659235E-003  1.789985E+002
5625.0000     -1.788350E-001 -9.862632E+001 -4.222184E+001 -5.208524E+001 -4.222282E+001 -5.215262E+001 -1.212118E-002  1.786109E+002
5650.0000     -1.834565E-001 -9.909457E+001 -4.248950E+001 -5.183853E+001 -4.249886E+001 -5.199060E+001 -1.956565E-002  1.782621E+002
5675.0000     -1.907147E-001 -9.959761E+001 -4.286645E+001 -5.304053E+001 -4.289527E+001 -5.315506E+001 -1.272321E-002  1.779499E+002
5700.0000     -1.980770E-001 -1.001005E+002 -4.334387E+001 -5.804952E+001 -4.335823E+001 -5.847020E+001 -2.160645E-002  1.776127E+002
5725.0000     -1.932979E-001 -1.006352E+002 -4.416073E+001 -5.348164E+001 -4.415612E+001 -5.358017E+001 -1.499729E-002  1.772917E+002
5750.0000     -1.955779E-001 -1.012411E+002 -4.388900E+001 -5.584148E+001 -4.389017E+001 -5.606699E+001 -2.080122E-002  1.769454E+002
5775.0000     -1.948031E-001 -1.017374E+002 -4.441986E+001 -5.512262E+001 -4.441255E+001 -5.514437E+001 -2.221927E-002  1.766700E+002
5800.0000     -2.050496E-001 -1.023121E+002 -4.458846E+001 -5.844085E+001 -4.456934E+001 -5.847354E+001 -1.905265E-002  1.762456E+002
5825.0000     -2.094200E-001 -1.028564E+002 -4.531536E+001 -5.979980E+001 -4.531278E+001 -5.991692E+001 -1.995783E-002  1.759763E+002
5850.0000     -2.067464E-001 -1.034756E+002 -4.555982E+001 -5.819698E+001 -4.554551E+001 -5.834740E+001 -1.785567E-002  1.756482E+002
5875.0000     -2.274841E-001 -1.039898E+002 -4.603438E+001 -6.371348E+001 -4.602190E+001 -6.386335E+001 -2.124951E-002  1.752589E+002
5900.0000     -2.211212E-001 -1.045661E+002 -4.710782E+001 -6.786337E+001 -4.712456E+001 -6.796145E+001 -2.095216E-002  1.749219E+002
5925.0000     -2.232658E-001 -1.051369E+002 -4.730871E+001 -6.856226E+001 -4.726589E+001 -6.847183E+001 -1.430212E-002  1.746406E+002
5950.0000     -2.353992E-001 -1.058125E+002 -4.856812E+001 -6.907737E+001 -4.858663E+001 -6.889219E+001 -1.975697E-002  1.742774E+002
5975.0000     -2.459204E-001 -1.063829E+002 -4.906067E+001 -6.556763E+001 -4.904850E+001 -6.540536E+001 -1.323161E-002  1.739694E+002
6000.0000     -2.419586E-001 -1.070707E+002 -4.851132E+001 -6.941860E+001 -4.851334E+001 -6.933986E+001 -1.802475E-002  1.736198E+002
6025.0000     -2.510948E-001 -1.076963E+002 -4.909200E+001 -7.136082E+001 -4.905182E+001 -7.194964E+001 -1.635196E-002  1.732320E+002
6050.0000     -2.582026E-001 -1.083930E+002 -4.974176E+001 -7.773883E+001 -4.973022E+001 -7.802105E+001 -1.246893E-002  1.729277E+002
6075.0000     -2.709216E-001 -1.090343E+002 -5.011434E+001 -8.033510E+001 -5.008391E+001 -8.020148E+001 -1.847200E-002  1.725808E+002
6100.0000     -2.741474E-001 -1.098245E+002 -4.989474E+001 -8.431074E+001 -4.986393E+001 -8.422829E+001 -1.778311E-002  1.721672E+002
6125.0000     -2.878618E-001 -1.104772E+002 -5.156407E+001 -8.796813E+001 -5.151453E+001 -8.785294E+001 -1.603302E-002  1.717664E+002
6150.0000     -3.021384E-001 -1.111907E+002 -5.163522E+001 -9.050192E+001 -5.163032E+001 -9.050481E+001 -1.238015E-002  1.714316E+002
6175.0000     -3.041455E-001 -1.119590E+002 -5.293062E+001 -8.754977E+001 -5.292270E+001 -8.728649E+001 -1.629476E-002  1.710876E+002
6200.0000     -3.113184E-001 -1.127676E+002 -5.123122E+001 -9.140100E+001 -5.126321E+001 -9.166499E+001 -1.002626E-002  1.707280E+002
6225.0000     -3.240539E-001 -1.136013E+002 -5.193071E+001 -9.305960E+001 -5.189607E+001 -9.317676E+001 -1.958947E-002  1.703970E+002
6250.0000     -3.363540E-001 -1.143539E+002 -5.305906E+001 -9.106342E+001 -5.306428E+001 -9.085080E+001 -7.399124E-003  1.700572E+002
6275.0000     -3.584869E-001 -1.152371E+002 -5.024669E+001 -9.708138E+001 -5.028757E+001 -9.699786E+001 -1.164231E-002  1.696922E+002
6300.0000     -3.760062E-001 -1.161059E+002 -5.064153E+001 -9.969991E+001 -5.063029E+001 -1.002460E+002 -1.333389E-002  1.693982E+002
6325.0000     -3.762122E-001 -1.170112E+002 -5.060166E+001 -1.016402E+002 -5.056721E+001 -1.019150E+002 -1.322754E-002  1.690136E+002
6350.0000     -4.081324E-001 -1.179048E+002 -4.918796E+001 -1.077973E+002 -4.918773E+001 -1.076381E+002 -1.582997E-002  1.685975E+002
6375.0000     -4.342920E-001 -1.188898E+002 -4.871631E+001 -1.034137E+002 -4.873038E+001 -1.036747E+002 -2.025452E-002  1.681935E+002
6400.0000     -4.592919E-001 -1.199129E+002 -4.691066E+001 -1.041073E+002 -4.694096E+001 -1.039865E+002 -2.740173E-002  1.678024E+002
6425.0000     -4.802883E-001 -1.210348E+002 -4.621376E+001 -1.080722E+002 -4.618382E+001 -1.080369E+002 -1.735396E-002  1.674361E+002
6450.0000     -5.172925E-001 -1.220353E+002 -4.518831E+001 -1.112705E+002 -4.520118E+001 -1.115282E+002 -2.832722E-002  1.670423E+002
6475.0000     -5.626339E-001 -1.232208E+002 -4.425684E+001 -1.121901E+002 -4.425834E+001 -1.122428E+002 -2.559481E-002  1.666373E+002
6500.0000     -6.090922E-001 -1.243969E+002 -4.297615E+001 -1.159195E+002 -4.298394E+001 -1.160551E+002 -2.655478E-002  1.663337E+002
6525.0000     -6.397142E-001 -1.257143E+002 -4.235130E+001 -1.147584E+002 -4.236130E+001 -1.149504E+002 -2.403031E-002  1.659661E+002
6550.0000     -7.113802E-001 -1.270163E+002 -4.105443E+001 -1.157490E+002 -4.106381E+001 -1.160675E+002 -2.864324E-002  1.655908E+002
6575.0000     -7.844598E-001 -1.284495E+002 -3.982937E+001 -1.156149E+002 -3.982687E+001 -1.158092E+002 -3.317679E-002  1.651508E+002
6600.0000     -8.747292E-001 -1.300391E+002 -3.822663E+001 -1.188925E+002 -3.822550E+001 -1.189650E+002 -4.073207E-002  1.647409E+002
6625.0000     -9.763706E-001 -1.316868E+002 -3.712303E+001 -1.216634E+002 -3.712025E+001 -1.216834E+002 -4.430617E-002  1.643434E+002
6650.0000     -1.095622E+000 -1.334236E+002 -3.579193E+001 -1.220049E+002 -3.579744E+001 -1.221672E+002 -4.474221E-002  1.639171E+002
6675.0000     -1.259466E+000 -1.351482E+002 -3.446291E+001 -1.250094E+002 -3.445552E+001 -1.252060E+002 -5.069256E-002  1.635013E+002
6700.0000     -1.464788E+000 -1.371460E+002 -3.309111E+001 -1.284451E+002 -3.308875E+001 -1.285631E+002 -5.141118E-002  1.630954E+002
6725.0000     -1.726047E+000 -1.392023E+002 -3.161175E+001 -1.319033E+002 -3.161140E+001 -1.320358E+002 -6.094988E-002  1.626442E+002
6750.0000     -2.061259E+000 -1.410270E+002 -3.022788E+001 -1.375688E+002 -3.022282E+001 -1.376800E+002 -7.467524E-002  1.623122E+002
6775.0000     -2.502590E+000 -1.426018E+002 -2.887261E+001 -1.430691E+002 -2.887620E+001 -1.431807E+002 -7.465155E-002  1.619806E+002
6800.0000     -3.053875E+000 -1.434999E+002 -2.756199E+001 -1.506648E+002 -2.756030E+001 -1.507647E+002 -9.004144E-002  1.616166E+002
6825.0000     -3.669104E+000 -1.431537E+002 -2.635902E+001 -1.591794E+002 -2.635846E+001 -1.592979E+002 -1.001543E-001  1.612106E+002
6850.0000     -4.218664E+000 -1.409632E+002 -2.544900E+001 -1.696075E+002 -2.544460E+001 -1.696928E+002 -1.098184E-001  1.608723E+002
6875.0000     -4.485448E+000 -1.373468E+002 -2.492419E+001  1.796793E+002 -2.492867E+001  1.795973E+002 -1.129458E-001  1.605165E+002
6900.0000     -4.391022E+000 -1.338835E+002 -2.468471E+001  1.695611E+002 -2.468661E+001  1.694409E+002 -1.158992E-001  1.601825E+002
6925.0000     -4.036325E+000 -1.320546E+002 -2.477668E+001  1.597380E+002 -2.477397E+001  1.596256E+002 -1.186096E-001  1.599062E+002
6950.0000     -3.617820E+000 -1.322500E+002 -2.513425E+001  1.516332E+002 -2.513584E+001  1.515477E+002 -1.103119E-001  1.594552E+002
6975.0000     -3.284550E+000 -1.339771E+002 -2.564728E+001  1.454755E+002 -2.564569E+001  1.453886E+002 -1.055541E-001  1.590399E+002
7000.0000     -3.070962E+000 -1.365185E+002 -2.626581E+001  1.408819E+002 -2.626438E+001  1.407533E+002 -9.965952E-002  1.586842E+002
7025.0000     -2.983766E+000 -1.397260E+002 -2.684212E+001  1.379111E+002 -2.684060E+001  1.378428E+002 -9.767506E-002  1.582448E+002
7050.0000     -3.016938E+000 -1.432352E+002 -2.741471E+001  1.363365E+002 -2.741548E+001  1.362288E+002 -1.020864E-001  1.577756E+002
7075.0000     -3.143871E+000 -1.472328E+002 -2.803043E+001  1.370678E+002 -2.803343E+001  1.369244E+002 -9.689829E-002  1.572501E+002
7100.0000     -3.432050E+000 -1.513572E+002 -2.830140E+001  1.400841E+002 -2.829871E+001  1.399080E+002 -1.082303E-001  1.567492E+002
7125.0000     -3.835275E+000 -1.556684E+002 -2.842588E+001  1.437172E+002 -2.841792E+001  1.435901E+002 -1.007522E-001  1.563146E+002
7150.0000     -4.420050E+000 -1.599762E+002 -2.799722E+001  1.478162E+002 -2.799277E+001  1.477206E+002 -1.196596E-001  1.558062E+002
7175.0000     -5.204948E+000 -1.640946E+002 -2.720417E+001  1.519512E+002 -2.720457E+001  1.518367E+002 -1.294573E-001  1.552779E+002
7200.0000     -6.190505E+000 -1.673722E+002 -2.606140E+001  1.527873E+002 -2.606478E+001  1.526479E+002 -1.556519E-001  1.548749E+002
7225.0000     -7.348510E+000 -1.691569E+002 -2.489555E+001  1.507672E+002 -2.489086E+001  1.506519E+002 -1.683419E-001  1.544370E+002
7250.0000     -8.497513E+000 -1.690974E+002 -2.387703E+001  1.462079E+002 -2.387656E+001  1.460882E+002 -1.961958E-001  1.539313E+002
7275.0000     -9.449995E+000 -1.683665E+002 -2.319987E+001  1.403543E+002 -2.319557E+001  1.402413E+002 -2.210711E-001  1.534384E+002
7300.0000     -1.028758E+001 -1.690881E+002 -2.280409E+001  1.345782E+002 -2.280630E+001  1.344662E+002 -2.422466E-001  1.529728E+002
7325.0000     -1.130759E+001 -1.725159E+002 -2.264917E+001  1.297115E+002 -2.264604E+001  1.296129E+002 -2.628363E-001  1.525884E+002
7350.0000     -1.300932E+001 -1.786221E+002 -2.246640E+001  1.262212E+002 -2.246610E+001  1.261118E+002 -2.994977E-001  1.520639E+002
7375.0000     -1.605051E+001  1.730564E+002 -2.222272E+001  1.229974E+002 -2.222116E+001  1.228820E+002 -3.488133E-001  1.515428E+002
7400.0000     -2.215342E+001  1.604017E+002 -2.176764E+001  1.197040E+002 -2.176665E+001  1.196040E+002 -3.890418E-001  1.511044E+002
7425.0000     -3.593557E+001  3.491694E+001 -2.117821E+001  1.148445E+002 -2.117399E+001  1.147223E+002 -4.578031E-001  1.509751E+002
7450.0000     -2.032185E+001 -1.772188E+001 -2.072211E+001  1.073770E+002 -2.071965E+001  1.072696E+002 -5.011622E-001  1.510782E+002
7475.0000     -1.497423E+001 -2.708777E+001 -2.062918E+001  9.830272E+001 -2.062850E+001  9.819581E+001 -5.504543E-001  1.511585E+002
7500.0000     -1.174663E+001 -3.323632E+001 -2.101183E+001  8.899531E+001 -2.100641E+001  8.889539E+001 -5.481362E-001  1.512596E+002
7525.0000     -9.438469E+000 -3.875478E+001 -2.184397E+001  8.068581E+001 -2.184277E+001  8.058474E+001 -5.138649E-001  1.513050E+002
7550.0000     -7.656360E+000 -4.421024E+001 -2.300842E+001  7.537909E+001 -2.300514E+001  7.527067E+001 -4.535975E-001  1.512063E+002
7575.0000     -6.269866E+000 -4.994294E+001 -2.436549E+001  7.236596E+001 -2.436008E+001  7.227808E+001 -3.971067E-001  1.509380E+002
7600.0000     -5.186691E+000 -5.538969E+001 -2.569610E+001  7.314149E+001 -2.569312E+001  7.304652E+001 -3.363924E-001  1.503972E+002
7625.0000     -4.350602E+000 -6.052418E+001 -2.672423E+001  7.674539E+001 -2.671505E+001  7.662985E+001 -2.958765E-001  1.498813E+002
7650.0000     -3.713226E+000 -6.526012E+001 -2.750904E+001  8.233319E+001 -2.750485E+001  8.220809E+001 -2.671776E-001  1.493073E+002
7675.0000     -3.196090E+000 -6.966946E+001 -2.770199E+001  8.887333E+001 -2.769525E+001  8.872076E+001 -2.485495E-001  1.488284E+002
7700.0000     -2.796995E+000 -7.366448E+001 -2.758592E+001  9.398215E+001 -2.757807E+001  9.393687E+001 -2.380583E-001  1.483093E+002
7725.0000     -2.460303E+000 -7.725948E+001 -2.716576E+001  9.805344E+001 -2.716652E+001  9.792001E+001 -2.237384E-001  1.477340E+002
7750.0000     -2.192629E+000 -8.058852E+001 -2.682211E+001  1.001199E+002 -2.682241E+001  9.997125E+001 -2.332059E-001  1.470597E+002
7775.0000     -1.969400E+000 -8.368967E+001 -2.635689E+001  1.010541E+002 -2.635397E+001  1.009496E+002 -2.285983E-001  1.464838E+002
7800.0000     -1.791791E+000 -8.652964E+001 -2.598281E+001  1.019344E+002 -2.598027E+001  1.017941E+002 -2.382848E-001  1.459120E+002
7825.0000     -1.633151E+000 -8.912180E+001 -2.551987E+001  1.013371E+002 -2.552015E+001  1.012011E+002 -2.620654E-001  1.453434E+002
7850.0000     -1.504041E+000 -9.160701E+001 -2.523947E+001  1.003382E+002 -2.523276E+001  1.001975E+002 -2.793638E-001  1.447611E+002
7875.0000     -1.407202E+000 -9.379850E+001 -2.508208E+001  9.937621E+001 -2.508526E+001  9.928624E+001 -3.107794E-001  1.443367E+002
7900.0000     -1.306496E+000 -9.594261E+001 -2.498409E+001  9.824131E+001 -2.497659E+001  9.811523E+001 -3.327522E-001  1.440281E+002
7925.0000     -1.230879E+000 -9.784225E+001 -2.490302E+001  9.794499E+001 -2.490135E+001  9.784165E+001 -3.401995E-001  1.437843E+002
7950.0000     -1.139879E+000 -9.968050E+001 -2.485828E+001  9.728667E+001 -2.485274E+001  9.719151E+001 -3.319348E-001  1.435497E+002
7975.0000     -1.078645E+000 -1.014781E+002 -2.491288E+001  9.823238E+001 -2.490625E+001  9.811473E+001 -3.216744E-001  1.431357E+002
8000.0000     -1.025290E+000 -1.031061E+002 -2.468455E+001  9.901369E+001 -2.467625E+001  9.896033E+001 -2.820481E-001  1.427184E+002
8025.0000     -9.601554E-001 -1.048021E+002 -2.440559E+001  9.944883E+001 -2.440351E+001  9.935435E+001 -2.594492E-001  1.422556E+002
8050.0000     -9.117397E-001 -1.063327E+002 -2.414456E+001  9.943336E+001 -2.413566E+001  9.931484E+001 -2.361913E-001  1.415538E+002
8075.0000     -8.696072E-001 -1.078623E+002 -2.393683E+001  9.928111E+001 -2.393001E+001  9.916802E+001 -2.354090E-001  1.408379E+002
8100.0000     -8.370494E-001 -1.094143E+002 -2.372010E+001  9.875379E+001 -2.371014E+001  9.862225E+001 -2.084180E-001  1.402721E+002
8125.0000     -8.179618E-001 -1.107638E+002 -2.342042E+001  9.922043E+001 -2.341513E+001  9.911205E+001 -2.194383E-001  1.396944E+002
8150.0000     -7.788036E-001 -1.121979E+002 -2.311965E+001  9.838288E+001 -2.311559E+001  9.828815E+001 -2.000334E-001  1.390883E+002
8175.0000     -7.672341E-001 -1.134790E+002 -2.297963E+001  9.790154E+001 -2.297316E+001  9.779900E+001 -2.249772E-001  1.384068E+002
8200.0000     -7.341797E-001 -1.146650E+002 -2.261980E+001  9.718620E+001 -2.261557E+001  9.705858E+001 -2.142575E-001  1.377216E+002
8225.0000     -7.309527E-001 -1.158341E+002 -2.240121E+001  9.625454E+001 -2.239279E+001  9.613797E+001 -2.261194E-001  1.371077E+002
8250.0000     -7.227974E-001 -1.172101E+002 -2.218408E+001  9.555030E+001 -2.218086E+001  9.545319E+001 -2.282769E-001  1.364275E+002
8275.0000     -6.809854E-001 -1.183683E+002 -2.193375E+001  9.444108E+001 -2.192614E+001  9.431091E+001 -2.422531E-001  1.357358E+002
8300.0000     -6.820270E-001 -1.194947E+002 -2.174459E+001  9.359106E+001 -2.174502E+001  9.350818E+001 -2.526631E-001  1.349660E+002
8325.0000     -6.628965E-001 -1.206624E+002 -2.156589E+001  9.266298E+001 -2.155616E+001  9.252399E+001 -2.724333E-001  1.342371E+002
8350.0000     -6.598734E-001 -1.217208E+002 -2.133076E+001  9.174362E+001 -2.132871E+001  9.166907E+001 -2.818485E-001  1.336415E+002
8375.0000     -6.547686E-001 -1.230467E+002 -2.115243E+001  9.058370E+001 -2.114680E+001  9.046802E+001 -2.945884E-001  1.329368E+002
8400.0000     -6.519209E-001 -1.240772E+002 -2.095737E+001  8.991441E+001 -2.094735E+001  8.979832E+001 -3.409240E-001  1.321394E+002
8425.0000     -6.359380E-001 -1.250779E+002 -2.069629E+001  8.872912E+001 -2.069031E+001  8.859280E+001 -3.556465E-001  1.313396E+002
8450.0000     -6.367909E-001 -1.260405E+002 -2.044609E+001  8.730930E+001 -2.044030E+001  8.720833E+001 -3.932030E-001  1.304188E+002
8475.0000     -6.147849E-001 -1.272648E+002 -2.026739E+001  8.587105E+001 -2.025861E+001  8.573077E+001 -4.431397E-001  1.296629E+002
8500.0000     -6.214731E-001 -1.283496E+002 -2.006997E+001  8.443385E+001 -2.006434E+001  8.432713E+001 -4.712232E-001  1.285927E+002
