! Mini-Circuits								
! S2P DATA File Format								
! Type: BAND PASS FILTER								
! Model: SXBP-425+								
! All S Parameters are in dB deg format								
! TEST CONDITIONS: INPUT POWER = 0 dBm @ Temperature = - 40 deg C								
! 401 Frequency points								
!								
# MHz S DB R 50								
!								
!FREQMAG(S11)PHS(S11)MAG(S12)PHS(S12)MAG(S21)PHS(S21)MAG(S22)PHS(S22) 
0.5	-0.13	179.23	-93.45	-26.65	-97.6	169.09	-0.12	179.24
5	-0.14	172.54	-93.69	33.91	-89.72	28.13	-0.14	172.7
10	-0.15	165.24	-86.33	51.88	-85.92	60.7	-0.15	165.48
20	-0.2	151.03	-83.43	56.26	-77.89	42.23	-0.2	151.38
30	-0.23	137.44	-80	32.64	-79.77	46.99	-0.23	137.93
40	-0.24	124.74	-79.97	16.38	-77.07	21.2	-0.25	125.23
50	-0.26	112.95	-74.55	29.35	-80.54	25.89	-0.25	113.61
60	-0.25	102.21	-75.44	6.44	-77	-2.89	-0.25	102.82
70	-0.25	92.44	-82.81	5.98	-75.58	-18.03	-0.25	93.23
80	-0.23	83.79	-77.52	-16.48	-77.55	-20.14	-0.23	84.5
90	-0.22	75.89	-81.55	-23.71	-78.82	-36.39	-0.23	76.57
100	-0.2	68.78	-77.03	-18.87	-78.22	-13.97	-0.2	69.44
110	-0.19	62.17	-79.39	-22.32	-78.88	-42.69	-0.19	62.89
120	-0.17	56.11	-77.14	-45.95	-79.5	-51.32	-0.17	56.79
130	-0.16	50.51	-78.74	-17.87	-76.95	-52.18	-0.15	51.17
140	-0.14	45.17	-80.24	-71.4	-84.88	-25.91	-0.14	45.77
150	-0.14	40.24	-81.85	-58.22	-81.78	-77.25	-0.14	40.9
160	-0.13	35.6	-78.35	-70.26	-81.07	-49.23	-0.13	36.24
170	-0.12	31.22	-78.88	-64.76	-81.63	-49.72	-0.12	31.8
180	-0.11	27.13	-87.07	-106.64	-83.28	-96.69	-0.12	27.72
190	-0.1	23.16	-80.79	-79.57	-80.27	-64.07	-0.1	23.87
200	-0.09	19.56	-84.36	-68.53	-79.48	-63.41	-0.09	20.17
210	-0.09	16.06	-80.14	-86.52	-84.36	-66.62	-0.07	16.64
220	-0.08	12.62	-84.86	-54.09	-84.47	-78.75	-0.07	13.19
230	-0.06	9.36	-90.2	-54.98	-86.86	-76.35	-0.07	9.78
240	-0.06	6.06	-84.46	-45.02	-89.45	-72.73	-0.06	6.5
250	-0.06	2.78	-83.57	-89.19	-90.26	-76.54	-0.05	3.22
260	-0.06	-0.47	-89.03	-31.15	-90	-161.16	-0.05	-0.16
270	-0.05	-3.79	-85.3	-31.87	-104.76	-25.39	-0.05	-3.53
280	-0.05	-7.14	-89.65	-151.23	-95.55	-168.53	-0.05	-6.85
290	-0.05	-10.66	-85.12	41.78	-88.75	76.27	-0.04	-10.32
300	-0.04	-14.13	-76.16	64.43	-78.72	76.09	-0.05	-13.79
310	-0.05	-17.93	-74.5	75.3	-74.67	67.68	-0.04	-17.59
320	-0.07	-21.88	-69.36	81.18	-68.66	70.8	-0.06	-21.52
330	-0.07	-26.19	-64.13	69.9	-64.62	70.56	-0.06	-25.72
340	-0.08	-30.98	-58.54	66.2	-58.21	62.61	-0.09	-30.5
350	-0.11	-36.54	-53.12	57.92	-52.83	57.2	-0.09	-36.22
360	-0.15	-43.35	-47.13	50.24	-47.04	50.44	-0.14	-43.07
361	-0.14	-43.92	-46.65	50.39	-46.56	50.28	-0.13	-43.85
362	-0.15	-44.72	-45.96	49.71	-45.97	49.6	-0.14	-44.58
363	-0.15	-45.5	-45.21	49.3	-45.32	47.93	-0.15	-45.44
364	-0.16	-46.31	-44.63	47.71	-44.63	47.84	-0.15	-46.24
365	-0.17	-47.17	-43.98	47.07	-43.94	46.65	-0.16	-47.14
366	-0.18	-48.13	-43.41	46.07	-43.28	45.56	-0.16	-48.01
367	-0.18	-49.01	-42.63	45.09	-42.59	44.4	-0.18	-48.92
368	-0.19	-49.96	-41.95	43.4	-41.89	43.66	-0.19	-49.92
369	-0.2	-50.92	-41.19	42.74	-41.21	42.36	-0.2	-50.8
370	-0.21	-51.91	-40.49	41.47	-40.48	41.38	-0.2	-51.8
371	-0.22	-52.94	-39.77	40.64	-39.76	40.45	-0.21	-52.86
372	-0.23	-53.99	-38.99	39.36	-39	39.29	-0.22	-53.94
373	-0.24	-55.16	-38.22	37.93	-38.2	37.82	-0.24	-55.11
374	-0.26	-56.27	-37.47	36.64	-37.46	36.65	-0.25	-56.26
375	-0.27	-57.49	-36.69	35.31	-36.69	35.09	-0.25	-57.45
376	-0.3	-58.77	-35.88	33.77	-35.88	33.95	-0.28	-58.7
377	-0.3	-60.02	-35.05	32.46	-35.04	32.4	-0.29	-60.06
378	-0.32	-61.38	-34.21	31.12	-34.22	30.9	-0.31	-61.36
379	-0.34	-62.78	-33.37	29.3	-33.37	29.25	-0.33	-62.75
380	-0.36	-64.33	-32.5	27.62	-32.5	27.61	-0.34	-64.23
381	-0.39	-65.84	-31.61	25.83	-31.6	25.79	-0.36	-65.82
382	-0.4	-67.53	-30.69	23.99	-30.7	23.94	-0.4	-67.42
383	-0.44	-69.26	-29.78	21.96	-29.75	22.05	-0.42	-69.16
384	-0.46	-71.02	-28.81	19.89	-28.82	19.91	-0.46	-70.92
385	-0.5	-73.01	-27.85	17.58	-27.84	17.73	-0.48	-72.81
386	-0.55	-75	-26.86	15.23	-26.82	15.25	-0.52	-74.91
387	-0.59	-77.25	-25.84	12.55	-25.81	12.68	-0.56	-76.98
388	-0.64	-79.6	-24.8	9.93	-24.76	9.96	-0.62	-79.32
389	-0.71	-82.09	-23.75	6.95	-23.7	7.04	-0.68	-81.73
390	-0.77	-84.82	-22.63	3.8	-22.59	3.92	-0.73	-84.34
391	-0.85	-87.62	-21.52	0.43	-21.47	0.49	-0.83	-87.13
392	-0.95	-90.7	-20.37	-3.17	-20.31	-3.14	-0.9	-90.11
393	-1.06	-94.18	-19.19	-7.07	-19.14	-7.22	-1	-93.39
394	-1.19	-97.83	-17.97	-11.44	-17.92	-11.5	-1.13	-96.93
395	-1.35	-101.86	-16.73	-16.31	-16.69	-16.21	-1.28	-100.79
396	-1.56	-106.35	-15.5	-21.5	-15.43	-21.55	-1.46	-105.02
397	-1.8	-111.39	-14.21	-27.26	-14.16	-27.29	-1.69	-109.76
398	-2.11	-116.81	-12.93	-33.61	-12.87	-33.66	-1.97	-114.79
399	-2.51	-122.86	-11.64	-40.62	-11.58	-40.76	-2.34	-120.38
400	-3.03	-129.65	-10.38	-48.34	-10.32	-48.51	-2.8	-126.5
401	-3.71	-137.09	-9.14	-56.8	-9.07	-57.12	-3.4	-133.2
402	-4.59	-145.19	-7.97	-66.23	-7.92	-66.49	-4.18	-140.3
403	-5.73	-153.95	-6.88	-76.22	-6.83	-76.59	-5.18	-147.64
404	-7.24	-163.1	-5.92	-87.04	-5.88	-87.38	-6.45	-155.04
405	-9.16	-172.44	-5.11	-98.17	-5.06	-98.59	-8.02	-161.98
406	-11.66	178.34	-4.43	-109.66	-4.39	-109.99	-9.93	-167.7
407	-14.94	169.73	-3.91	-120.95	-3.88	-121.38	-12.16	-171.62
408	-19.47	162.57	-3.51	-132.05	-3.49	-132.38	-14.64	-172.3
409	-26.81	160.08	-3.22	-142.77	-3.2	-143.22	-17.15	-169.2
410	-41.94	-103.37	-3.02	-153	-2.99	-153.44	-19.33	-162.09
411	-28.01	-53.5	-2.85	-162.95	-2.84	-163.2	-20.86	-153.3
412	-23.79	-54.34	-2.75	-172.32	-2.73	-172.71	-21.85	-146.38
413	-21.86	-57.13	-2.65	178.58	-2.64	178.23	-22.66	-142.91
414	-20.96	-59.49	-2.58	169.8	-2.56	169.48	-23.76	-143.02
415	-20.59	-61.03	-2.51	161.27	-2.51	160.87	-25.36	-145.85
416	-20.56	-61.49	-2.46	152.85	-2.47	152.57	-27.72	-152.09
417	-20.7	-60.89	-2.42	144.71	-2.42	144.4	-31.39	-163.12
418	-20.87	-59.35	-2.39	136.75	-2.38	136.38	-37.39	168.09
419	-21.06	-57.67	-2.35	128.83	-2.36	128.51	-38.67	88.2
420	-21.23	-56.02	-2.33	121.08	-2.34	120.79	-32.62	52.05
421	-21.4	-54.72	-2.31	113.39	-2.31	113.11	-28.9	39.5
422	-21.62	-54.37	-2.29	105.79	-2.29	105.53	-26.6	32.74
423	-22.01	-54.9	-2.28	98.24	-2.28	97.98	-25.12	28.06
424	-22.63	-56.4	-2.28	90.77	-2.29	90.48	-24.18	25.18
425	-23.6	-58.65	-2.27	83.34	-2.27	83.07	-23.62	24.09
426	-25.14	-61.72	-2.27	75.95	-2.28	75.77	-23.3	24.71
427	-27.56	-65.35	-2.27	68.52	-2.27	68.36	-23.06	27.27
428	-31.78	-70.31	-2.28	61.16	-2.28	60.94	-22.8	31.75
429	-42.98	-81.26	-2.29	53.74	-2.3	53.52	-22.32	37.48
430	-37.24	107.8	-2.32	46.32	-2.31	46.06	-21.53	43.34
431	-28.9	100.23	-2.34	38.91	-2.33	38.68	-20.52	47.97
432	-24.57	94.8	-2.37	31.43	-2.37	31.2	-19.38	50.84
433	-21.7	89.48	-2.42	23.97	-2.4	23.73	-18.26	52.04
434	-19.6	84.47	-2.45	16.46	-2.44	16.23	-17.24	51.64
435	-18.05	79.36	-2.5	8.85	-2.5	8.65	-16.37	49.96
436	-16.87	74.75	-2.56	1.26	-2.56	1.04	-15.71	47.41
437	-16.06	70.23	-2.62	-6.34	-2.61	-6.64	-15.25	44.19
438	-15.54	66.29	-2.67	-14.14	-2.65	-14.49	-15.07	40.62
439	-15.31	63.01	-2.73	-22.18	-2.72	-22.45	-15.18	36.94
440	-15.37	61.01	-2.79	-30.28	-2.79	-30.63	-15.65	33.42
441	-15.69	61.09	-2.86	-38.73	-2.86	-39.15	-16.67	31.03
442	-16.24	64.42	-2.95	-47.53	-2.95	-47.92	-18.39	31.42
443	-16.6	72.75	-3.07	-56.69	-3.07	-57.11	-21.07	39.97
444	-16.27	85.45	-3.26	-66.32	-3.26	-66.73	-23.49	71.46
445	-14.76	97.48	-3.5	-76.35	-3.51	-76.78	-20.52	109.46
446	-12.58	104.25	-3.86	-86.7	-3.87	-87.17	-15.92	121.09
447	-10.36	105.56	-4.34	-97.32	-4.36	-97.73	-12.35	120.69
448	-8.4	103.13	-4.98	-107.84	-4.99	-108.26	-9.7	115.89
449	-6.8	98.58	-5.73	-118.14	-5.77	-118.51	-7.68	109.35
450	-5.51	93.2	-6.63	-127.87	-6.66	-128.19	-6.15	102.29
451	-4.5	87.29	-7.62	-136.92	-7.67	-137.26	-4.97	95.25
452	-3.72	81.57	-8.69	-145.21	-8.74	-145.53	-4.09	88.48
453	-3.1	76	-9.79	-152.84	-9.83	-153.08	-3.39	82.15
454	-2.63	70.89	-10.93	-159.63	-10.97	-159.8	-2.87	76.42
455	-2.27	66.09	-12.06	-165.76	-12.11	-165.93	-2.45	71.17
456	-1.98	61.77	-13.19	-171.36	-13.23	-171.53	-2.13	66.37
457	-1.74	57.83	-14.29	-176.34	-14.34	-176.58	-1.88	62.02
458	-1.55	54.21	-15.38	179.15	-15.42	179.05	-1.66	58.15
459	-1.4	50.86	-16.43	174.97	-16.48	174.91	-1.48	54.58
460	-1.26	47.74	-17.46	171.12	-17.49	171.05	-1.34	51.27
461	-1.16	44.92	-18.47	167.59	-18.5	167.51	-1.22	48.23
462	-1.05	42.32	-19.43	164.5	-19.47	164.32	-1.12	45.42
463	-0.97	39.82	-20.38	161.28	-20.4	161.31	-1.03	42.82
464	-0.91	37.59	-21.31	158.49	-21.36	158.63	-0.96	40.42
465	-0.84	35.44	-22.21	155.87	-22.24	156.07	-0.9	38.21
466	-0.79	33.41	-23.09	153.3	-23.11	153.48	-0.83	36.09
467	-0.74	31.61	-23.88	151.01	-23.95	151.33	-0.77	34.15
468	-0.71	29.79	-24.76	148.9	-24.75	148.94	-0.74	32.27
469	-0.66	28.11	-25.56	146.83	-25.56	146.95	-0.68	30.5
470	-0.63	26.49	-26.34	144.88	-26.35	144.95	-0.66	28.87
471	-0.59	25.11	-27.1	143.12	-27.12	143.1	-0.63	27.27
472	-0.57	23.63	-27.86	141.34	-27.88	141.31	-0.59	25.78
473	-0.55	22.28	-28.6	139.56	-28.62	139.63	-0.57	24.39
474	-0.51	20.92	-29.3	137.95	-29.31	138.11	-0.54	23
475	-0.5	19.7	-30.01	136.52	-30.02	136.5	-0.51	21.72
476	-0.48	18.48	-30.69	135.09	-30.7	135.06	-0.5	20.51
477	-0.45	17.34	-31.36	133.61	-31.35	133.64	-0.47	19.36
478	-0.43	16.21	-32.01	132.33	-32.02	132.38	-0.45	18.18
479	-0.43	15.19	-32.67	131.09	-32.67	131.19	-0.43	17.05
480	-0.41	14.16	-33.31	129.91	-33.31	129.8	-0.43	15.99
481	-0.38	13.24	-33.94	128.8	-33.9	128.71	-0.39	15.04
482	-0.37	12.27	-34.5	127.72	-34.52	127.53	-0.38	13.99
483	-0.37	11.35	-35.09	126.64	-35.13	126.46	-0.37	13.04
484	-0.35	10.49	-35.72	125.64	-35.71	125.65	-0.36	12.15
485	-0.34	9.58	-36.28	124.77	-36.29	124.36	-0.35	11.28
486	-0.32	8.77	-36.83	123.6	-36.86	123.4	-0.34	10.45
487	-0.33	7.97	-37.4	122.55	-37.4	122.7	-0.33	9.61
488	-0.31	7.13	-37.94	121.87	-37.95	121.61	-0.32	8.77
489	-0.31	6.43	-38.45	121.07	-38.46	120.82	-0.31	8.01
490	-0.29	5.68	-38.96	120.38	-39.02	120.27	-0.3	7.24
491	-0.28	4.96	-39.5	119.49	-39.52	119.37	-0.29	6.45
492	-0.27	4.21	-39.95	119.03	-40.03	118.5	-0.29	5.73
493	-0.27	3.54	-40.44	118.19	-40.55	117.99	-0.27	5.05
494	-0.26	2.92	-40.97	117.52	-41.02	117.25	-0.27	4.4
495	-0.25	2.26	-41.43	116.41	-41.48	116.64	-0.26	3.74
496	-0.24	1.61	-41.89	116.3	-41.99	115.89	-0.25	3.07
497	-0.24	0.96	-42.36	115.15	-42.43	115.4	-0.24	2.47
498	-0.23	0.37	-42.77	114.5	-42.89	114.61	-0.24	1.83
499	-0.23	-0.18	-43.19	114.47	-43.3	113.97	-0.23	1.18
500	-0.23	-0.78	-43.75	113.5	-43.79	113.5	-0.23	0.56
501	-0.22	-1.35	-44.06	112.83	-44.19	113.28	-0.22	0.03
502	-0.22	-1.93	-44.52	112.25	-44.61	112.26	-0.22	-0.53
503	-0.21	-2.43	-44.98	111.8	-45.09	111.71	-0.22	-1.08
504	-0.2	-2.98	-45.39	111.48	-45.35	111.48	-0.2	-1.63
505	-0.19	-3.55	-45.75	110.75	-45.8	111.14	-0.2	-2.18
506	-0.2	-4.01	-46.13	110.1	-46.21	110.19	-0.19	-2.7
507	-0.19	-4.54	-46.56	109.32	-46.71	109.06	-0.19	-3.21
508	-0.19	-5.07	-46.99	109.44	-46.98	109.06	-0.18	-3.68
509	-0.19	-5.49	-47.24	107.85	-47.38	109.01	-0.19	-4.22
510	-0.17	-5.89	-47.72	107.88	-47.77	108.01	-0.18	-4.72
515	-0.17	-8.23	-49.57	105.34	-49.67	105.54	-0.17	-7.03
520	-0.16	-10.38	-51.23	103.32	-51.42	103.02	-0.16	-9.12
525	-0.14	-12.26	-52.84	100.64	-53.01	101.8	-0.14	-11.15
530	-0.14	-14.14	-54.46	99.43	-54.68	97.63	-0.13	-12.95
535	-0.12	-15.82	-56.18	95.92	-55.85	95.12	-0.11	-14.75
540	-0.11	-17.47	-57.3	94.36	-57.27	93.57	-0.11	-16.37
545	-0.1	-18.94	-59.26	93.07	-59	92.07	-0.1	-17.82
550	-0.1	-20.48	-60.35	90.95	-60.68	93.45	-0.1	-19.4
560	-0.11	-23.13	-62.68	89.21	-63.25	91.23	-0.09	-22.24
570	-0.09	-25.73	-65.16	88.06	-65.26	86.09	-0.08	-24.8
580	-0.08	-28.08	-66.16	82.14	-66.55	79.2	-0.06	-27.09
590	-0.06	-30.43	-67.89	76.88	-68.57	87.02	-0.06	-29.42
600	-0.06	-32.61	-72.36	77.61	-69.79	73.83	-0.05	-31.55
610	-0.05	-34.62	-72.16	76.95	-74.91	78.27	-0.04	-33.62
620	-0.04	-36.65	-75.96	77.09	-74.85	72.16	-0.04	-35.63
630	-0.04	-38.61	-82.08	47.81	-75.02	81.3	-0.03	-37.54
640	-0.04	-40.45	-81.01	70.22	-80.8	66.99	-0.04	-39.42
650	-0.03	-42.17	-80.63	92.43	-79.38	61.92	-0.02	-41.27
660	-0.05	-43.9	-79.11	73.01	-86.34	77.78	-0.03	-42.94
670	-0.04	-45.63	-85.83	42.81	-84.77	49.7	-0.02	-44.68
680	-0.03	-47.25	-87.8	43.57	-86.92	47.16	-0.01	-46.41
690	-0.02	-48.87	-91.62	91.93	-88.48	58.67	-0.02	-48.01
700	-0.02	-50.39	-82.9	100.61	-81.94	64.97	0	-49.61
710	-0.02	-51.94	-85.68	75.54	-88.34	81.67	-0.02	-51.17
720	-0.02	-53.55	-84.14	79.03	-84.76	-4.72	-0.01	-52.71
730	-0.02	-55.12	-86.71	22.72	-84.67	1.62	-0.01	-54.3
740	-0.02	-56.64	-87.75	116.62	-88.33	86.3	0	-55.79
750	-0.02	-58.23	-83.73	111.44	-89.9	-159.47	-0.01	-57.3
760	-0.02	-59.65	-89	28.13	-91.88	90.34	0	-58.87
770	-0.02	-61.14	-97.57	-146.59	-87.59	171.01	0	-60.25
780	-0.01	-62.6	-85.61	75.24	-96.11	-98.84	0	-61.73
790	-0.02	-63.94	-93.66	75.04	-81.1	89.63	0	-63.07
800	-0.01	-65.36	-90.82	-35.88	-91.05	6.89	-0.01	-64.52
810	0	-66.71	-92.7	-23.26	-93.39	-132.97	0.01	-65.86
820	-0.01	-68.06	-95.36	-95.66	-89.35	80.79	0.01	-67.13
830	-0.01	-69.39	-85.5	-124.52	-88.31	-38.01	-0.01	-68.59
840	0	-70.78	-90.05	-84.91	-85.48	-126.91	0	-69.85
850	-0.01	-72.09	-90.52	-119.97	-94.34	-42.44	0	-71.23
860	-0.02	-73.41	-90.52	-146.46	-98.88	178.94	0	-72.54
870	-0.02	-74.89	-90.16	23.71	-95.29	-106.22	-0.01	-73.95
880	-0.01	-76.15	-91.8	-91.53	-100.57	117.31	0.01	-75.33
890	-0.01	-77.55	-90.88	64.25	-89.83	-46.88	0.02	-76.55
900	-0.01	-78.83	-88.03	25.46	-92.77	114.32	0	-77.92
910	-0.01	-80.18	-80.63	96.7	-93.28	-101.3	0	-79.24
920	-0.02	-81.44	-85.2	88.6	-89.84	61.4	0.01	-80.53
930	-0.02	-82.75	-89.13	71.3	-95.29	-133.05	0	-81.69
940	-0.02	-84.05	-90.22	16.73	-92.02	-115.02	0	-83.02
950	0	-85.3	-89.64	81.35	-99.29	-83.05	0	-84.35
960	-0.01	-86.45	-92.84	143.39	-87.77	-54.93	0.01	-85.38
970	-0.01	-87.66	-99.55	-137.03	-84.41	-111.67	0.01	-86.76
980	-0.01	-88.94	-98.51	-32.52	-94.8	-144.23	0.01	-88.09
990	-0.01	-90.28	-91.88	85.5	-95.08	41.03	0.01	-89.29
1000	-0.01	-91.52	-85.7	-55.49	-96.69	20.35	0	-90.5
1025	-0.01	-94.65	-91.18	-62.76	-90.59	31.96	0.02	-93.75
1050	-0.01	-97.88	-83.09	107.39	-88.79	-149.07	0	-96.81
1075	-0.03	-100.87	-88.49	53.66	-86.37	-112.36	-0.02	-99.7
1100	0	-103.85	-85.27	-92.69	-85.51	49.06	0	-102.72
1125	-0.01	-107.14	-86.21	-33.01	-85.69	11.04	0	-105.87
1150	-0.04	-110.16	-83.29	-158.27	-99.46	146.73	-0.01	-108.88
1175	-0.02	-112.93	-81.9	66.31	-89.23	-167.92	0	-111.74
1200	-0.02	-116.29	-82.64	-97.95	-79.89	-93.23	0	-114.82
1225	-0.01	-119.18	-82.41	62.86	-85.94	-160.71	-0.01	-117.86
1250	-0.02	-122.04	-92.67	158.52	-87.3	-123.32	-0.02	-120.57
1275	0	-125.06	-80.18	-48.78	-82.03	-50.58	0	-123.63
1300	-0.02	-127.9	-82.31	-145.24	-78.35	-125.7	-0.01	-126.51
1325	-0.04	-130.92	-96.81	162.41	-88.43	-94.75	-0.03	-129.25
1350	-0.02	-133.91	-79.83	-108.57	-94.46	-38.42	0	-132.25
1375	-0.02	-136.92	-80.59	-86.83	-87.63	-133.48	-0.02	-135.27
1400	-0.04	-139.71	-82.88	-59.53	-81.27	-71.75	-0.01	-138.07
1425	-0.01	-142.52	-81.3	-112.36	-81.19	-109.1	-0.01	-140.91
1450	-0.03	-145.3	-82.37	-93.28	-80.06	-106.84	-0.02	-143.91
1475	-0.04	-148.2	-92.69	80.25	-89.43	-74.55	-0.02	-146.71
1500	-0.03	-150.9	-82.34	-97.17	-82.99	-125.43	-0.02	-149.5
1525	-0.05	-154	-74.14	-103.38	-75.86	-105.19	-0.02	-152.37
1550	-0.05	-156.98	-77.4	-134.77	-76.32	-135.94	-0.02	-155.23
1575	-0.02	-159.8	-83.81	-87.79	-78.65	-125.71	-0.02	-157.99
1600	-0.04	-162.83	-74.24	-118.73	-77.31	-105.1	-0.02	-160.86
1625	-0.06	-165.48	-71.98	-145.36	-71.81	-132.87	-0.05	-163.57
1650	-0.08	-168.16	-75.11	-120.57	-79.53	-85.92	-0.03	-166.37
1675	-0.05	-170.91	-75.51	-117.52	-73.44	-142.24	-0.03	-169.15
1700	-0.06	-173.82	-64.01	-89.53	-62.26	-92.32	-0.05	-172.2
1725	-0.06	-176.63	-62.83	-172.2	-63.45	-173.5	-0.04	-174.65
1750	-0.01	-179.7	-63.33	179.68	-64.5	-177.43	-0.02	-177.51
1775	-0.06	177.31	-66.61	-174.91	-65.98	-176.02	-0.05	179.63
1800	-0.06	174.7	-69.93	-156.55	-69.21	-160.55	-0.05	176.88
1825	-0.06	172.12	-66.39	-127.41	-66.29	-124.67	-0.04	174.12
1850	-0.06	169.58	-71.23	155.09	-68.61	151.48	-0.06	171.2
1875	-0.09	166.88	-73.64	111.75	-71.43	132.64	-0.06	168.48
1900	-0.05	164.05	-77.68	-143.88	-78.75	-163.98	-0.06	165.88
1925	-0.07	161.07	-65.36	-146.6	-65.98	-170.58	-0.06	162.94
1950	-0.06	158.28	-65.57	155.2	-66.55	153.84	-0.05	160.21
1975	-0.06	155.52	-77.33	168.44	-75.32	152.86	-0.05	157.46
2000	-0.05	152.7	-63.72	-139.16	-65.1	-145.81	-0.06	154.71
2025	-0.07	149.95	-66.8	-165.69	-65.59	-172.76	-0.07	151.98
2050	-0.07	147.23	-67.5	-139.4	-66.2	-136.56	-0.08	149.35
2075	-0.09	144.38	-65.55	-105.37	-65.04	-109.69	-0.05	146.55
2100	-0.09	141.57	-58.15	-130.98	-57.55	-128.87	-0.09	144.02
2125	-0.09	138.83	-63.03	-166.71	-63.13	-174.94	-0.09	141.2
2150	-0.1	136.14	-53.98	-176.02	-56.34	177.77	-0.09	138.39
2175	-0.08	133.25	-57.07	169.82	-55.96	169.04	-0.08	135.62
2200	-0.09	130.66	-57.38	-153.96	-57.7	-158.73	-0.08	132.82
2225	-0.08	127.92	-54.98	132.72	-54.9	135.94	-0.08	130.27
2250	-0.07	125.34	-64.24	171.2	-62.14	164.99	-0.08	127.46
2275	-0.08	122.58	-56.27	163.27	-56.93	165.99	-0.08	124.64
2300	-0.12	120.01	-50.57	146.35	-49.63	151.47	-0.09	122.14
2325	-0.1	117.22	-56.7	140.8	-57.68	136.27	-0.09	119.54
2350	-0.1	114.64	-58.21	121.03	-58.34	129.28	-0.1	116.7
2375	-0.09	111.74	-55.83	136.88	-55.87	132.86	-0.08	114.15
2400	-0.11	109.3	-56.61	130.94	-56.6	130.34	-0.1	111.29
2425	-0.06	106.34	-59.44	114.92	-58.67	109.81	-0.07	108.75
2450	-0.09	103.52	-58.55	-158.04	-57.73	-167.13	-0.1	105.97
2475	-0.06	100.82	-59.9	104.68	-61.16	109.57	-0.11	103.39
2500	-0.08	98.27	-60.33	-153.1	-59.61	-159.18	-0.1	100.48
2525	-0.07	95.25	-50.03	-175.7	-49.91	178.91	-0.13	97.8
2550	-0.11	92.63	-50.63	142.38	-50.84	151.07	-0.12	95.24
2575	-0.09	89.88	-53.5	125.47	-53.71	122.89	-0.13	92.9
2600	-0.12	86.92	-48.49	159.89	-48.68	162.77	-0.11	89.89
2625	-0.1	84.5	-50.72	110.43	-50.09	107.19	-0.13	87.5
2650	-0.13	81.56	-45.69	166.29	-46.42	159.8	-0.15	84.74
2675	-0.09	79.03	-50.94	90.71	-49.6	95.22	-0.08	82.34
2700	-0.1	76.32	-54.95	127.52	-55.43	128.07	-0.09	79.46
2725	-0.08	73.86	-48.88	110.23	-49.1	111.84	-0.13	76.95
2750	-0.13	71.07	-43.28	155.27	-43.38	151.63	-0.14	74.16
2775	-0.1	68.77	-46.27	98.54	-47.16	102.31	-0.12	71.62
2800	-0.17	65.86	-49.39	126.44	-48.34	133.27	-0.12	69.01
2825	-0.1	63.57	-42.48	92.8	-42.5	95.26	-0.14	66.56
2850	-0.12	60.46	-44.23	67.13	-44.17	66.27	-0.1	63.66
2875	-0.12	58.15	-45.95	61.6	-46.38	63.29	-0.14	60.92
2900	-0.12	55.55	-53.01	100.09	-53.15	103.47	-0.13	58.29
2925	-0.15	53.4	-43.71	83.11	-43.22	75.57	-0.12	55.46
2950	-0.16	50.98	-46.39	98.88	-46.16	94.82	-0.16	52.54
2975	-0.07	48.42	-45.21	94.79	-44.34	88.5	-0.15	50.27
3000	-0.1	45.35	-44.67	62.06	-45.58	52.12	-0.17	47.68
3025	-0.13	42.64	-47.44	79.78	-49.03	106.8	-0.17	44.82
3050	-0.08	39.97	-44.99	72.95	-42.16	67.64	-0.16	42.5
3075	-0.1	37	-49.62	60.65	-50.58	37.56	-0.12	39.65
3100	-0.18	34.55	-42.27	121.72	-41.98	134.87	-0.23	36.87
3125	-0.13	32.66	-38.48	70.78	-39.42	67.97	-0.21	34.49
3150	-0.08	29.5	-42.92	37.38	-42.97	42.75	-0.23	32.16
3175	-0.14	26.73	-41.07	66.16	-41.92	67.21	-0.19	29.36
3200	-0.1	24.26	-47.56	115.83	-46.73	105.96	-0.24	26.38
3225	-0.14	21.24	-38.06	67.4	-38.32	66.23	-0.18	24.72
3250	-0.14	18.32	-40.46	57.55	-41.06	56.96	-0.14	21.19
3275	-0.2	15.71	-38.13	50.04	-37.91	43.3	-0.21	18.75
3300	-0.13	13.66	-39.21	32.77	-38.84	37.62	-0.14	16.19
3325	-0.14	10.82	-39.56	30.68	-40.8	21.78	-0.11	13.1
3350	-0.14	8.08	-42.49	28.06	-42.46	33.3	-0.15	10.26
3375	-0.18	5.34	-40.05	44.9	-40.85	49.85	-0.19	7.66
3400	-0.18	2.42	-36.36	31.24	-37.78	38.47	-0.14	5.1
3425	-0.26	0.11	-37.86	31.93	-38.81	35.89	-0.17	2.13
3450	-0.16	-2.31	-37.31	18.12	-37.49	20.34	-0.22	-0.64
3475	-0.14	-5.83	-39.01	13	-41.8	17.19	-0.26	-3.44
3500	-0.19	-7.95	-33.52	18.6	-32.61	23.94	-0.27	-5.92
3525	-0.34	-10.74	-37.23	32.25	-37.34	22.36	-0.26	-8.46
3550	-0.21	-13.22	-32.99	26.54	-32.77	23.9	-0.27	-11.62
3575	-0.22	-16.16	-33.82	-29.74	-34.24	-27.96	-0.29	-13.75
3600	-0.15	-18.25	-41.17	-13.19	-43.52	1.94	-0.24	-16.37
3625	-0.17	-21.97	-38.63	26.33	-38.35	13.01	-0.22	-19.57
3650	-0.2	-24.33	-35.05	11.48	-35.75	10.69	-0.22	-22.02
3675	-0.23	-26.42	-35.69	-15.29	-35	-8.57	-0.28	-25.29
3700	-0.13	-29.36	-36.38	5.27	-36.08	10.04	-0.25	-27.59
3725	-0.17	-32.71	-32.43	-6.71	-31.72	2.85	-0.26	-29.8
3750	-0.24	-35.08	-31.02	-25.87	-32.1	-31.19	-0.21	-33.47
3775	-0.18	-38.08	-34.76	-42.91	-36.19	-30.01	-0.17	-36.23
3800	-0.19	-40.94	-37.25	-23.49	-38.96	-4.24	-0.27	-39.77
3825	-0.21	-44.36	-35.99	-11.23	-34.72	-7.8	-0.26	-42.36
3850	-0.27	-46.5	-33.52	-12.82	-33.68	-15.66	-0.46	-44.53
3875	-0.29	-49.1	-33.24	-34.68	-32.24	-26.39	-0.3	-46.61
3900	-0.32	-51.76	-34.9	-22.73	-34.09	-34.63	-0.25	-50.08
3925	-0.31	-54.75	-33.9	-29.01	-33.18	-25.15	-0.26	-53.09
3950	-0.25	-57.93	-31.01	-33.55	-29.96	-24.33	-0.24	-56.48
3975	-0.32	-61.45	-29.23	-35.6	-30.36	-36.93	-0.28	-59.68
4000	-0.4	-63.58	-30.73	-69.38	-29.6	-59.24	-0.37	-62.69
4025	-0.47	-67.3	-32.34	-35.72	-30.45	-43.32	-0.32	-65.98
4050	-0.59	-70.6	-26.72	-61.48	-27.25	-51.75	-0.39	-68.6
4075	-0.5	-71.36	-33.94	-74.54	-32.05	-61.79	-0.45	-70.8
4100	-0.46	-74.53	-36.17	-31.83	-33.41	-37.28	-0.42	-74.78
4125	-0.42	-77.33	-28.17	-57.5	-27.66	-50.82	-0.29	-77.67
4150	-0.39	-79.94	-30.01	-65.63	-27.27	-65.84	-0.47	-81.38
4175	-0.35	-83.29	-29.77	-72.27	-30.03	-77.13	-0.59	-83.48
4200	-0.44	-87.18	-27.69	-75.68	-26.8	-80.43	-0.54	-85.98
4225	-0.43	-89.93	-31.59	-92.81	-31.03	-92.66	-0.56	-88.88
4250	-0.54	-92.43	-29.76	-87.26	-29.85	-91.84	-0.56	-91.23
4275	-0.49	-95.22	-30.21	-71.22	-29.24	-69.15	-0.37	-94.39
4300	-0.4	-98.71	-29.35	-81.56	-29.11	-80.55	-0.72	-98.81
4325	-0.42	-102.64	-26.97	-81.78	-27.72	-95.96	-0.59	-99.41
4350	-0.43	-107.02	-28.48	-87.03	-29.88	-93.65	-0.32	-103.16
4375	-0.7	-110.28	-28.95	-82.55	-30.17	-68.2	-0.4	-107.27
4400	-0.9	-110.36	-26.08	-80.63	-25.15	-86.95	-0.41	-111.01
4425	-0.89	-116.25	-24.79	-74.46	-25.46	-78.76	-0.35	-115.07
4450	-1.49	-117.01	-21.97	-109.77	-23.17	-113	-0.89	-120
4475	-0.99	-119.49	-29.21	-115.61	-28.61	-111.55	-0.6	-119.73
4500	-0.98	-123.22	-24.74	-100.15	-24	-116.55	-1.2	-123.4
4525	-1.11	-125.2	-25.73	-89.52	-25.25	-88.1	-0.81	-126.29
4550	-1.12	-129.91	-20.38	-112.21	-21.31	-106.41	-1.01	-128.37
4575	-1.12	-128.56	-24.29	-150.45	-20.83	-149.75	-1.39	-129.88
4600	-0.94	-134.54	-24.48	-131.5	-25.99	-136.93	-0.96	-132.27
4625	-1.1	-135.97	-21.2	-137.83	-21.16	-140.01	-1.13	-136.88
4650	-1.06	-140.25	-23.21	-148.55	-22.73	-153.91	-0.87	-138.73
4675	-1.3	-144.02	-22.68	-157.81	-24.69	-159.06	-0.75	-143.13
4700	-0.85	-146.27	-23.34	-138.82	-24.51	-134.69	-1.22	-147.7
4725	-0.8	-152.45	-24.68	-152.94	-25.08	-159.6	-1.48	-148.76
4750	-1.1	-157.06	-21.2	-136.91	-22.24	-137.92	-1.26	-152.52
4775	-1.87	-158.98	-19.09	-173.09	-19.63	-173.21	-1.55	-155.17
4800	-1.68	-161.9	-21.81	169.46	-21.2	162.46	-1.91	-156.45
4825	-2.12	-166.98	-23.08	-171.79	-23.83	-170.15	-1.54	-160.82
4850	-2.67	-169.9	-22.48	175.02	-23.57	157.6	-1.75	-163.81
4875	-3.47	-170.52	-24.05	174.29	-24.5	173.62	-2.48	-167.95
4900	-3.46	-163.49	-30.2	-129.6	-27.35	-139.45	-2.53	-166.92
4925	-2.6	-159.41	-25.33	-164.2	-26.73	-165.48	-2.38	-164.99
4950	-1.77	-167.3	-22.09	-151.51	-21.56	-146.23	-1.54	-167.56
4975	-1.9	-169.83	-18.83	-177.32	-18.88	-176.39	-1.89	-172.75
5000	-1.93	-175.76	-18.5	176.77	-17.03	-174.13	-1.99	-175.44
