! Mini-Circuits								
! S2P DATA File Format								
! Type: BAND PASS FILTER								
! Model: SXBP-425+								
! All S Parameters are in dB deg format								
! TEST CONDITIONS: INPUT POWER = 0 dBm @ Temperature = + 25 deg C								
! 401 Frequency points								
!								
# MHz S DB R 50								
!								
!FREQMAG(S11)PHS(S11)MAG(S12)PHS(S12)MAG(S21)PHS(S21)MAG(S22)PHS(S22) 
0.5	-0.17	179.21	-97.93	45.46	-106.12	-127.5	-0.16	179.21
5	-0.19	172.47	-90.91	70.3	-89.86	98.85	-0.19	172.57
10	-0.2	165.06	-85.92	46.38	-86.87	53.12	-0.2	165.23
20	-0.24	150.84	-78.63	57.57	-82.4	104.92	-0.25	151.18
30	-0.28	137.34	-88.08	38.38	-78.66	39.76	-0.28	137.78
40	-0.28	124.8	-81	51.12	-79.44	19.28	-0.29	125.3
50	-0.31	113.21	-78.34	13.01	-78.91	27.17	-0.29	113.82
60	-0.29	102.67	-79.41	-1.11	-77.18	6.59	-0.3	103.29
70	-0.29	92.95	-75.64	-19.86	-79.97	18	-0.29	93.73
80	-0.27	84.31	-78.3	-35.3	-76.93	-8.71	-0.28	84.97
90	-0.26	76.3	-77.82	-8.32	-81.24	-16.77	-0.27	77.05
100	-0.24	69.15	-77.73	-30.51	-77.46	-35.46	-0.25	69.84
110	-0.23	62.51	-76.9	-6.87	-77.11	-29.3	-0.24	63.19
120	-0.22	56.38	-80.51	-27.83	-79.83	-52.84	-0.22	57.1
130	-0.2	50.84	-80.06	-59.29	-78.77	-37.92	-0.21	51.52
140	-0.19	45.66	-83.67	-0.84	-79.48	-29.33	-0.19	46.27
150	-0.18	40.86	-93.67	-33.15	-82.9	-51.48	-0.18	41.48
160	-0.18	36.28	-79.98	-55.12	-83.43	-59.39	-0.17	36.98
170	-0.16	32.05	-81.56	-51.91	-80.07	-55.83	-0.16	32.65
180	-0.16	28.03	-79.42	-46.24	-81.53	-66.08	-0.16	28.65
190	-0.15	24.2	-80.82	-68.22	-77.88	-73.38	-0.14	24.77
200	-0.13	20.48	-80.65	-55.99	-77.77	-71.91	-0.14	21.05
210	-0.13	16.97	-84.05	-92.03	-84.25	-89.53	-0.13	17.52
220	-0.13	13.55	-83.64	-72.51	-81.8	-97.27	-0.12	14.05
230	-0.11	10.19	-84.09	-98.71	-87.57	-65.31	-0.12	10.67
240	-0.1	6.87	-84.34	-58.09	-81.46	-69.12	-0.11	7.4
250	-0.11	3.7	-83.7	-35.63	-99	-32.15	-0.11	4.13
260	-0.11	0.41	-82.11	-93.5	-84.66	-62.68	-0.11	0.89
270	-0.11	-2.83	-93.77	63.16	-85.08	-99.4	-0.11	-2.42
280	-0.1	-6.06	-94.07	178.66	-94.83	-155.64	-0.11	-5.69
290	-0.11	-9.49	-81.3	76.45	-83.63	106.6	-0.1	-9.09
300	-0.11	-12.98	-78.77	81.94	-77.07	73.84	-0.11	-12.64
310	-0.13	-16.78	-72.71	75.71	-74	72.01	-0.12	-16.4
320	-0.14	-20.68	-67.71	68.01	-68.66	83.38	-0.13	-20.32
330	-0.15	-25.04	-63.58	72.03	-63.48	67.28	-0.14	-24.65
340	-0.17	-29.96	-57.94	64.14	-57.97	61.74	-0.16	-29.57
350	-0.2	-35.67	-52.62	57.16	-52.32	58.25	-0.19	-35.33
360	-0.26	-42.66	-46.46	49.62	-46.24	49.95	-0.25	-42.41
361	-0.25	-43.2	-45.93	49.38	-45.91	49.24	-0.24	-43.19
362	-0.25	-44.05	-45.28	48.7	-45.2	48.5	-0.25	-43.97
363	-0.26	-44.88	-44.62	47.11	-44.58	47.35	-0.26	-44.8
364	-0.27	-45.77	-43.95	46.47	-43.88	46.5	-0.26	-45.7
365	-0.28	-46.61	-43.28	45.66	-43.19	45.44	-0.27	-46.56
366	-0.3	-47.57	-42.56	44.59	-42.59	44.9	-0.28	-47.49
367	-0.31	-48.53	-41.83	43.46	-41.86	43.33	-0.29	-48.41
368	-0.32	-49.53	-41.17	41.96	-41.15	42	-0.31	-49.46
369	-0.33	-50.58	-40.4	41.22	-40.44	41.26	-0.33	-50.41
370	-0.35	-51.58	-39.72	39.86	-39.67	40	-0.33	-51.46
371	-0.36	-52.68	-38.94	38.79	-38.94	38.39	-0.35	-52.53
372	-0.38	-53.82	-38.16	37.34	-38.2	37.21	-0.36	-53.65
373	-0.38	-55.01	-37.41	35.94	-37.42	35.74	-0.37	-54.86
374	-0.41	-56.22	-36.62	34.66	-36.59	34.43	-0.39	-56.07
375	-0.43	-57.5	-35.8	33.29	-35.8	33.09	-0.41	-57.36
376	-0.45	-58.85	-35.01	31.56	-35	31.4	-0.44	-58.64
377	-0.48	-60.19	-34.16	30.03	-34.17	29.94	-0.46	-60.04
378	-0.5	-61.63	-33.34	28.21	-33.31	28.21	-0.48	-61.51
379	-0.52	-63.19	-32.45	26.36	-32.44	26.5	-0.51	-62.96
380	-0.55	-64.79	-31.54	24.46	-31.55	24.59	-0.54	-64.51
381	-0.58	-66.43	-30.67	22.55	-30.64	22.55	-0.57	-66.25
382	-0.61	-68.19	-29.71	20.55	-29.7	20.54	-0.61	-67.91
383	-0.67	-70.11	-28.78	18.17	-28.76	18.34	-0.65	-69.8
384	-0.7	-72.03	-27.79	15.91	-27.78	15.99	-0.69	-71.69
385	-0.76	-74.13	-26.81	13.4	-26.78	13.53	-0.73	-73.73
386	-0.81	-76.36	-25.79	10.69	-25.75	10.84	-0.78	-75.96
387	-0.87	-78.74	-24.75	7.83	-24.71	7.91	-0.83	-78.19
388	-0.95	-81.33	-23.68	4.83	-23.64	4.84	-0.91	-80.77
389	-1.03	-84	-22.6	1.5	-22.56	1.56	-1	-83.33
390	-1.13	-87	-21.47	-2.07	-21.44	-2.06	-1.09	-86.27
391	-1.26	-90.16	-20.34	-5.94	-20.29	-5.89	-1.2	-89.31
392	-1.39	-93.61	-19.16	-10.03	-19.13	-10.16	-1.32	-92.59
393	-1.55	-97.43	-17.97	-14.7	-17.93	-14.7	-1.47	-96.19
394	-1.75	-101.5	-16.76	-19.56	-16.72	-19.72	-1.67	-100.13
395	-2	-106.05	-15.54	-25.12	-15.48	-25.17	-1.88	-104.41
396	-2.29	-111.04	-14.3	-31.08	-14.23	-30.99	-2.14	-109.02
397	-2.66	-116.51	-13.06	-37.67	-12.99	-37.71	-2.49	-114.18
398	-3.14	-122.54	-11.81	-44.87	-11.77	-44.96	-2.91	-119.64
399	-3.73	-129.13	-10.59	-52.67	-10.53	-52.96	-3.44	-125.7
400	-4.5	-136.4	-9.42	-61.33	-9.37	-61.66	-4.11	-132.14
401	-5.48	-144.11	-8.32	-70.75	-8.27	-71.06	-4.97	-138.95
402	-6.73	-152.3	-7.31	-80.75	-7.28	-81.12	-6.04	-145.89
403	-8.32	-160.74	-6.41	-91.32	-6.38	-91.64	-7.37	-152.59
404	-10.38	-169.09	-5.66	-102.27	-5.63	-102.56	-8.98	-158.76
405	-12.97	-176.9	-5.04	-113.29	-5	-113.57	-10.9	-163.75
406	-16.36	176.59	-4.54	-124.21	-4.52	-124.56	-13.09	-166.75
407	-21	172.83	-4.15	-134.91	-4.14	-135.3	-15.48	-166.94
408	-28.33	179.99	-3.86	-145.33	-3.85	-145.6	-17.87	-163.61
409	-35.27	-96.85	-3.64	-155.39	-3.63	-155.73	-20.01	-157.45
410	-27.71	-58.54	-3.48	-164.94	-3.47	-165.33	-21.69	-149.64
411	-24.17	-55.17	-3.35	-174.36	-3.35	-174.63	-22.9	-143
412	-22.43	-55.74	-3.26	176.73	-3.24	176.39	-24.13	-138.59
413	-21.57	-56.76	-3.17	168.05	-3.17	167.67	-25.54	-136.74
414	-21.22	-57.37	-3.09	159.52	-3.09	159.25	-27.58	-136.97
415	-21.15	-57.24	-3.04	151.29	-3.03	150.88	-30.62	-138.26
416	-21.26	-56.53	-2.99	143.09	-2.99	142.88	-35.84	-140.3
417	-21.43	-55.23	-2.95	135.16	-2.95	134.86	-52.41	-145
418	-21.66	-53.69	-2.91	127.36	-2.92	126.96	-39.17	34.05
419	-21.94	-52.38	-2.89	119.52	-2.9	119.29	-32.69	31.5
420	-22.28	-51.52	-2.88	111.85	-2.88	111.57	-29.36	29.34
421	-22.79	-50.9	-2.85	104.26	-2.86	104.01	-27.31	27.82
422	-23.48	-51.08	-2.84	96.69	-2.84	96.47	-25.98	27.36
423	-24.55	-51.19	-2.83	89.16	-2.84	88.93	-25.12	27.61
424	-26.12	-51.31	-2.84	81.77	-2.84	81.48	-24.49	29.54
425	-28.61	-50.18	-2.84	74.28	-2.84	74.05	-23.98	33.02
426	-32.82	-43.44	-2.85	66.89	-2.85	66.7	-23.44	37.76
427	-39.63	-0.45	-2.86	59.46	-2.86	59.28	-22.71	43.12
428	-34.51	72.32	-2.89	52.01	-2.88	51.82	-21.77	48.21
429	-28.33	84.75	-2.91	44.55	-2.9	44.35	-20.68	52.27
430	-24.47	85.82	-2.95	37.12	-2.94	36.89	-19.52	54.79
431	-21.76	83.82	-2.99	29.68	-2.98	29.4	-18.4	55.47
432	-19.73	80.88	-3.04	22.13	-3.04	21.91	-17.37	55.14
433	-18.18	77.33	-3.1	14.68	-3.08	14.34	-16.48	53.77
434	-17	73.63	-3.15	7.07	-3.14	6.79	-15.8	51.52
435	-16.14	70	-3.21	-0.67	-3.21	-0.9	-15.29	48.73
436	-15.54	66.64	-3.28	-8.37	-3.28	-8.63	-15.04	45.66
437	-15.21	63.87	-3.35	-16.25	-3.35	-16.59	-15.04	42.36
438	-15.12	62.06	-3.43	-24.33	-3.42	-24.73	-15.33	39.63
439	-15.27	61.61	-3.51	-32.72	-3.5	-33.07	-16	37.9
440	-15.59	63.77	-3.62	-41.39	-3.62	-41.7	-17.18	38.27
441	-15.88	69.54	-3.74	-50.29	-3.75	-50.74	-18.89	44.21
442	-15.77	78.96	-3.92	-59.66	-3.95	-60.07	-20.6	61.53
443	-14.85	89.69	-4.18	-69.31	-4.18	-69.84	-20.03	89.57
444	-13.16	97.57	-4.53	-79.42	-4.54	-79.87	-16.93	108.2
445	-11.21	100.99	-4.97	-89.59	-5	-90.05	-13.62	113.64
446	-9.33	100.59	-5.55	-99.88	-5.57	-100.29	-10.93	112.5
447	-7.71	97.72	-6.26	-109.92	-6.29	-110.32	-8.82	108.26
448	-6.37	93.4	-7.09	-119.52	-7.12	-119.84	-7.17	102.65
449	-5.29	88.41	-8.02	-128.59	-8.05	-128.91	-5.88	96.52
450	-4.43	83.25	-9.04	-137.03	-9.07	-137.28	-4.89	90.39
451	-3.75	78.1	-10.08	-144.7	-10.14	-144.87	-4.12	84.6
452	-3.21	73.27	-11.17	-151.61	-11.22	-151.91	-3.51	79.06
453	-2.77	68.69	-12.26	-157.99	-12.31	-158.21	-3.02	74.02
454	-2.43	64.48	-13.37	-163.69	-13.41	-163.94	-2.64	69.34
455	-2.17	60.57	-14.44	-168.91	-14.51	-169.09	-2.33	65.09
456	-1.94	56.96	-15.52	-173.7	-15.56	-173.76	-2.08	61.16
457	-1.74	53.68	-16.54	-178.02	-16.6	-178.09	-1.88	57.6
458	-1.59	50.62	-17.57	178.06	-17.63	177.94	-1.7	54.34
459	-1.46	47.83	-18.56	174.53	-18.62	174.38	-1.55	51.3
460	-1.35	45.17	-19.53	170.98	-19.57	171	-1.44	48.52
461	-1.26	42.73	-20.48	167.88	-20.52	167.8	-1.33	45.96
462	-1.17	40.4	-21.44	164.95	-21.44	164.9	-1.24	43.5
463	-1.1	38.31	-22.29	162.21	-22.29	162.27	-1.16	41.21
464	-1.02	36.37	-23.13	159.65	-23.17	159.63	-1.09	39.17
465	-0.97	34.43	-24	157.19	-24.03	157.25	-1.02	37.16
466	-0.92	32.65	-24.83	155.01	-24.85	155.03	-0.97	35.29
467	-0.88	31.02	-25.63	152.79	-25.64	152.87	-0.9	33.52
468	-0.83	29.4	-26.43	150.82	-26.42	150.81	-0.87	31.88
469	-0.78	27.89	-27.17	148.9	-27.19	148.88	-0.83	30.22
470	-0.76	26.39	-27.93	146.98	-27.94	146.98	-0.79	28.76
471	-0.73	25.13	-28.66	145.2	-28.67	145.34	-0.76	27.33
472	-0.7	23.74	-29.37	143.64	-29.38	143.66	-0.72	25.98
473	-0.68	22.57	-30.07	142.03	-30.08	142.09	-0.7	24.67
474	-0.64	21.33	-30.77	140.5	-30.75	140.5	-0.67	23.37
475	-0.62	20.18	-31.42	139.01	-31.44	139.02	-0.64	22.22
476	-0.61	19.07	-32.07	137.7	-32.09	137.64	-0.62	21.13
477	-0.59	18.01	-32.72	136.38	-32.74	136.41	-0.59	20.04
478	-0.56	16.94	-33.38	134.88	-33.36	135.01	-0.58	18.91
479	-0.55	16.03	-34	133.98	-33.99	133.84	-0.57	17.89
480	-0.53	15.13	-34.62	132.81	-34.61	132.57	-0.55	16.88
481	-0.51	14.14	-35.16	131.55	-35.21	131.52	-0.52	16.04
482	-0.5	13.27	-35.74	130.56	-35.78	130.35	-0.51	14.99
483	-0.49	12.39	-36.34	129.5	-36.35	129.55	-0.5	14.11
484	-0.47	11.6	-36.91	128.68	-36.94	128.21	-0.48	13.23
485	-0.46	10.74	-37.45	127.57	-37.47	127.3	-0.47	12.43
486	-0.44	10.03	-38.01	126.57	-38.02	126.59	-0.46	11.64
487	-0.44	9.24	-38.51	126.11	-38.53	125.59	-0.44	10.85
488	-0.43	8.47	-39.02	125.03	-39.11	124.79	-0.44	10.1
489	-0.42	7.79	-39.62	124.23	-39.62	123.88	-0.43	9.36
490	-0.41	7.09	-40.05	123.58	-40.09	123.41	-0.42	8.62
491	-0.4	6.43	-40.55	122.73	-40.57	122.7	-0.41	7.94
492	-0.39	5.72	-41.03	121.77	-41.07	121.57	-0.4	7.23
493	-0.38	5.05	-41.53	121.43	-41.59	121.07	-0.39	6.55
494	-0.37	4.45	-42.04	120.68	-42.06	120.58	-0.38	5.99
495	-0.37	3.81	-42.5	119.84	-42.55	119.64	-0.38	5.32
496	-0.36	3.24	-42.95	119.54	-42.99	119.12	-0.36	4.63
497	-0.35	2.64	-43.38	118.51	-43.45	118.42	-0.35	4.13
498	-0.34	2.1	-43.84	118.28	-43.88	117.8	-0.35	3.52
499	-0.33	1.52	-44.23	117.45	-44.29	116.91	-0.34	2.91
500	-0.34	0.92	-44.63	116.57	-44.69	116.88	-0.34	2.33
501	-0.33	0.38	-45.07	116.28	-45.21	116.3	-0.33	1.82
502	-0.32	-0.16	-45.49	115.87	-45.59	116.28	-0.32	1.24
503	-0.31	-0.61	-45.89	115.14	-45.92	114.93	-0.32	0.73
504	-0.31	-1.15	-46.26	114.55	-46.32	114.68	-0.31	0.24
505	-0.31	-1.62	-46.78	114.3	-46.81	113.95	-0.31	-0.3
506	-0.3	-2.09	-47.13	113.59	-47.19	113.4	-0.3	-0.79
507	-0.29	-2.61	-47.52	112.61	-47.47	113.13	-0.3	-1.25
508	-0.29	-3.07	-47.85	112.5	-47.88	112.78	-0.29	-1.79
509	-0.29	-3.58	-48.2	111.58	-48.29	112.29	-0.29	-2.23
510	-0.28	-3.99	-48.53	111.86	-48.63	111.34	-0.29	-2.71
515	-0.27	-6.23	-50.42	108.86	-50.39	109.35	-0.27	-5
520	-0.25	-8.25	-51.96	107.03	-52.08	106.89	-0.25	-7.01
525	-0.24	-10.08	-53.52	103.71	-53.9	103.59	-0.24	-8.92
530	-0.23	-11.85	-55.26	101.73	-55.34	102.15	-0.23	-10.68
535	-0.22	-13.46	-56.7	101	-56.94	100.05	-0.22	-12.39
540	-0.21	-15.08	-58.16	98.36	-58.22	98.33	-0.2	-13.97
545	-0.2	-16.57	-59.74	94.86	-59.68	96.51	-0.2	-15.42
550	-0.19	-18	-60.69	96.77	-60.95	95.23	-0.19	-16.93
560	-0.19	-20.63	-64.15	88.5	-64.02	91.68	-0.18	-19.54
570	-0.18	-23.16	-66.25	87.75	-66.01	93.15	-0.17	-22.05
580	-0.17	-25.41	-66.63	91.02	-67.6	96.61	-0.16	-24.4
590	-0.16	-27.68	-68.73	92.04	-70.62	82.97	-0.16	-26.63
600	-0.15	-29.74	-72.57	88.11	-71.86	88.89	-0.15	-28.67
610	-0.15	-31.66	-71.73	89.53	-72.36	91.42	-0.14	-30.7
620	-0.14	-33.61	-79.77	99.27	-73.93	82.9	-0.14	-32.59
630	-0.14	-35.43	-78.33	87.21	-78.98	91.21	-0.13	-34.43
640	-0.14	-37.2	-77.1	89.26	-79.59	85.04	-0.13	-36.26
650	-0.14	-38.88	-77.38	86.51	-79.52	79.36	-0.12	-38.02
660	-0.15	-40.58	-84.1	71.78	-87.88	86.84	-0.13	-39.64
670	-0.13	-42.26	-83.16	104.68	-82.8	62.75	-0.12	-41.34
680	-0.14	-43.86	-82.71	80.98	-88.89	32.79	-0.12	-42.95
690	-0.14	-45.45	-81.84	107.26	-85.22	78.43	-0.12	-44.57
700	-0.13	-46.97	-87.97	-12.01	-83.97	82.89	-0.1	-46.16
710	-0.13	-48.45	-87.14	85.89	-88.46	39.79	-0.12	-47.59
720	-0.13	-49.96	-83.71	107.62	-107.39	-106.3	-0.11	-49.08
730	-0.13	-51.43	-91.33	-66.16	-88.61	16.03	-0.12	-50.59
740	-0.13	-52.89	-85.66	57.81	-94.26	74.39	-0.1	-52.01
750	-0.14	-54.37	-88.02	150.95	-91.7	-168.41	-0.12	-53.47
760	-0.13	-55.66	-82.6	38.41	-81.7	-112.32	-0.12	-54.89
770	-0.13	-57.06	-106.36	151.61	-94.23	66.55	-0.11	-56.25
780	-0.13	-58.49	-95.27	94.22	-87.95	-172.48	-0.12	-57.61
790	-0.13	-59.77	-83.69	41.41	-101.73	10.8	-0.11	-58.97
800	-0.13	-61.18	-86.97	80.32	-88.23	-83.41	-0.12	-60.33
810	-0.12	-62.49	-96.41	-39.11	-95.27	155.36	-0.11	-61.77
820	-0.13	-63.87	-92.46	-120.04	-92.11	-69.57	-0.12	-62.99
830	-0.13	-65.16	-91.41	114.45	-90.23	145.4	-0.12	-64.4
840	-0.13	-66.51	-86.45	61.01	-94.18	-84.4	-0.12	-65.56
850	-0.13	-67.75	-87.06	81.06	-93.88	168.09	-0.12	-66.87
860	-0.13	-68.98	-85.34	36.52	-92.18	-100.11	-0.13	-68.13
870	-0.14	-70.42	-85.61	-102.37	-94.47	-151.88	-0.13	-69.45
880	-0.13	-71.61	-97.77	171.23	-89.2	-150.39	-0.12	-70.75
890	-0.13	-72.9	-94.59	121.64	-102.02	-177.3	-0.11	-71.88
900	-0.13	-74.06	-100.79	102.55	-93.25	-117.73	-0.12	-73.11
910	-0.14	-75.28	-92.71	-125.48	-85.28	-61.37	-0.12	-74.43
920	-0.15	-76.61	-85.81	175.66	-89.7	-20.77	-0.12	-75.66
930	-0.15	-77.79	-87.68	159.64	-99.9	87.36	-0.13	-76.82
940	-0.14	-79.07	-86.5	120.15	-90.73	154.67	-0.13	-78.13
950	-0.14	-80.43	-94.67	-70.29	-86.29	-19.44	-0.12	-79.39
960	-0.14	-81.42	-91.67	-53.42	-84.21	-31.34	-0.13	-80.48
970	-0.15	-82.64	-84.57	127.31	-89.19	2.8	-0.12	-81.71
980	-0.15	-83.88	-91.68	-68.95	-92.23	-15.21	-0.13	-83.04
990	-0.15	-85.16	-84.37	175.08	-86.13	149.2	-0.12	-84.16
1000	-0.15	-86.24	-87.77	-159.61	-87.37	-96.59	-0.13	-85.23
1025	-0.13	-89.31	-86.45	128.59	-87.65	-140.23	-0.12	-88.28
1050	-0.14	-92.38	-96.16	18.11	-85.51	-76.3	-0.13	-91.34
1075	-0.17	-95.19	-86.12	99.34	-86.79	-140.23	-0.15	-94.09
1100	-0.14	-97.95	-86.49	66.46	-95.68	-9.85	-0.13	-96.91
1125	-0.16	-101.01	-106.78	157.04	-89.93	-42.95	-0.14	-99.83
1150	-0.17	-103.88	-84.54	-96.44	-85.02	-134.91	-0.17	-102.73
1175	-0.17	-106.45	-86.48	14.17	-85.31	143.7	-0.15	-105.46
1200	-0.16	-109.56	-83.21	-177.2	-83.83	-100.99	-0.14	-108.3
1225	-0.16	-112.31	-87.11	142.65	-81.45	-123.61	-0.16	-111.18
1250	-0.18	-115.07	-89.45	1.92	-84.97	-13.84	-0.17	-113.75
1275	-0.16	-117.95	-86.96	-36.16	-81.34	-50	-0.17	-116.57
1300	-0.17	-120.63	-77.72	-150.06	-76.98	-137.46	-0.18	-119.25
1325	-0.2	-123.41	-94.93	-84.52	-89.2	-149.52	-0.19	-121.9
1350	-0.17	-126.1	-84.86	-118.36	-77.98	-130.61	-0.16	-124.71
1375	-0.19	-128.91	-95.28	-98.58	-85.68	-177.01	-0.18	-127.55
1400	-0.21	-131.61	-91.91	-76.65	-84.04	3.49	-0.18	-130.19
1425	-0.19	-134.34	-79.88	-114.74	-76.67	-94.94	-0.18	-132.77
1450	-0.2	-137.06	-80.85	-101.11	-80.93	-110.32	-0.17	-135.66
1475	-0.22	-139.8	-84.08	-116.25	-85.77	-62.27	-0.19	-138.27
1500	-0.2	-142.38	-79.85	-98.5	-80.51	-101.39	-0.18	-140.95
1525	-0.23	-145.21	-72.24	-99.68	-73.24	-103.36	-0.2	-143.59
1550	-0.22	-147.84	-77.94	-125.2	-79.01	-108.74	-0.2	-146.31
1575	-0.2	-150.42	-78.86	-92.15	-77.38	-110.59	-0.2	-148.84
1600	-0.23	-153.2	-79.28	-139.03	-76.5	-101.68	-0.19	-151.5
1625	-0.24	-155.73	-81.71	-164.75	-79.84	-155.2	-0.22	-154.03
1650	-0.27	-158.37	-78.94	-51.54	-75.78	-85.02	-0.22	-156.64
1675	-0.22	-161.18	-74.84	-68.21	-73.71	-70.98	-0.21	-159.32
1700	-0.24	-163.73	-66.06	-89.07	-65.59	-97.09	-0.23	-162.11
1725	-0.24	-166.26	-64.49	-156	-64.57	-154.4	-0.23	-164.37
1750	-0.22	-168.87	-64.31	177.71	-64.82	175.1	-0.22	-167.05
1775	-0.26	-171.68	-66.4	-175.7	-67.04	177.2	-0.23	-169.82
1800	-0.25	-174.17	-70.15	-169.48	-70.12	-165.55	-0.24	-172.32
1825	-0.24	-176.8	-65.02	-142.05	-64.98	-138.16	-0.22	-174.98
1850	-0.26	-179.47	-68.43	-174.67	-67.35	-175.48	-0.25	-177.66
1875	-0.27	178.02	-77.05	150.11	-73.4	155.96	-0.26	179.78
1900	-0.25	175.43	-77.25	-129.84	-74.79	-120.24	-0.26	177.38
1925	-0.25	172.83	-66.65	-174.05	-67.8	179.18	-0.25	174.77
1950	-0.26	170.13	-70.96	172.55	-69.71	175.55	-0.25	172.25
1975	-0.25	167.64	-88.92	-159.14	-88.3	-55.11	-0.24	169.66
2000	-0.25	164.87	-63.68	-138.7	-61.98	-142.19	-0.25	167.11
2025	-0.27	162.42	-67.11	-156.8	-66.4	-157.9	-0.26	164.44
2050	-0.27	159.93	-66.72	-135.95	-66.89	-136.92	-0.27	161.98
2075	-0.27	157.21	-65.48	-108.62	-64.3	-109.18	-0.26	159.28
2100	-0.29	154.65	-58.01	-140.45	-57.61	-139.56	-0.29	156.88
2125	-0.27	152.2	-63.74	-117.66	-64.57	-123.18	-0.29	154.26
2150	-0.29	149.76	-54.56	-171.26	-55.17	-173.55	-0.27	151.79
2175	-0.28	147.03	-58.26	165.95	-58.35	164.39	-0.27	149.16
2200	-0.29	144.61	-55.28	-152.97	-55.8	-154.84	-0.3	146.66
2225	-0.28	141.99	-58.5	150.47	-58.02	152.41	-0.27	144.3
2250	-0.29	139.38	-58.18	-166.37	-57.68	-169.32	-0.28	141.63
2275	-0.32	136.74	-49.68	-157.07	-49.87	-160.48	-0.31	138.98
2300	-0.32	134.47	-53.84	137.59	-53.66	138.14	-0.27	136.69
2325	-0.31	131.8	-58.08	162.43	-58.37	161.58	-0.3	134.15
2350	-0.31	129.45	-59.86	139.77	-59.34	145.88	-0.3	131.5
2375	-0.31	126.82	-55.98	136.63	-56.19	130.87	-0.3	129.1
2400	-0.31	124.52	-56.63	161.8	-56.66	157.26	-0.3	126.42
2425	-0.28	121.75	-57.59	135.2	-58.42	139.84	-0.3	123.94
2450	-0.3	119.29	-56.07	-179.28	-55.81	174.57	-0.33	121.45
2475	-0.29	116.61	-61.96	122.25	-63.02	120.13	-0.32	118.88
2500	-0.3	114.17	-58.64	-143.43	-57.57	-142.68	-0.32	116.28
2525	-0.32	111.32	-52.7	-164.46	-52.35	-165.45	-0.34	113.87
2550	-0.33	109.04	-53.66	165.66	-53.89	175.18	-0.33	111.34
2575	-0.32	106.62	-54.96	162.72	-54.23	162.45	-0.35	109.02
2600	-0.35	104.03	-46.47	164.02	-47.07	163.27	-0.35	106.41
2625	-0.33	101.57	-53.4	117.82	-53.32	119.94	-0.36	103.88
2650	-0.38	98.97	-45.4	166.09	-45.92	160.65	-0.38	101.53
2675	-0.32	96.7	-50.27	115.56	-50.23	118.59	-0.31	99.01
2700	-0.35	94.01	-51.82	158.32	-51.63	152.08	-0.34	96.29
2725	-0.32	91.49	-52.03	121.03	-52.31	126.45	-0.36	93.93
2750	-0.39	89.07	-41.28	151.93	-41.37	144.88	-0.39	91.46
2775	-0.34	86.54	-47.02	111.6	-47.4	113.86	-0.36	88.89
2800	-0.43	83.85	-45.86	163.64	-45.03	160.65	-0.37	86.21
2825	-0.36	81.78	-41.22	111.21	-41.79	110.32	-0.39	84.01
2850	-0.36	79.09	-46.54	84.18	-46.41	84.07	-0.35	81.36
2875	-0.37	76.65	-47.26	81.64	-47.58	80.34	-0.38	78.8
2900	-0.41	74.04	-48.05	129.54	-47.85	129.05	-0.39	76.21
2925	-0.4	71.67	-45.59	83.32	-46.1	82.18	-0.35	73.58
2950	-0.4	69.39	-45.72	97.28	-45.8	97.51	-0.39	71.13
2975	-0.36	66.75	-46.35	90.16	-46.58	86.07	-0.39	68.7
3000	-0.36	64.12	-47.78	82.73	-48.28	86.17	-0.36	66.15
3025	-0.41	61.51	-47.1	113.05	-46.66	109.94	-0.46	63.4
3050	-0.35	59.08	-43	73.23	-43.42	74.39	-0.4	60.96
3075	-0.41	56.39	-58.25	49.51	-59.11	54.12	-0.4	58.38
3100	-0.47	54.14	-39.27	138.52	-39.82	137.71	-0.49	55.63
3125	-0.39	51.9	-39.27	77.15	-39.06	77.77	-0.5	53.14
3150	-0.38	48.96	-46.97	70.2	-47.68	74.56	-0.47	51.42
3175	-0.42	46.31	-43.37	71.11	-43.31	73.55	-0.43	48.52
3200	-0.43	44.07	-40.17	128.05	-40.13	122.32	-0.55	45.85
3225	-0.42	41.28	-38.4	75.69	-38.69	79.19	-0.43	43.99
3250	-0.44	38.58	-40.26	84.67	-40.01	82.51	-0.44	40.65
3275	-0.53	36.33	-37.89	67.2	-38.49	68.91	-0.49	38.36
3300	-0.46	33.99	-40.2	47.94	-40.12	48.29	-0.43	35.89
3325	-0.47	31.33	-42.35	57.51	-42.93	60.59	-0.4	33.1
3350	-0.48	28.61	-42.08	63.39	-41.42	66.2	-0.47	30.27
3375	-0.48	26.12	-40.67	76.09	-41.01	77.16	-0.53	27.84
3400	-0.54	23.5	-37.92	52.96	-37.87	55.39	-0.45	25.3
3425	-0.57	21.6	-37.28	62.66	-37.45	62.19	-0.48	22.24
3450	-0.44	19.01	-37.32	32.67	-37.52	36.21	-0.57	19.78
3475	-0.55	15.87	-40.08	64.13	-40.07	64.91	-0.56	17.3
3500	-0.57	13.44	-34.88	27.23	-35.18	31.17	-0.58	15.1
3525	-0.59	11.22	-36.04	39.86	-36.05	38.27	-0.51	12.21
3550	-0.57	8.76	-31.78	33.46	-32.15	35.32	-0.66	9.6
3575	-0.61	6.05	-36.1	-10.67	-35.98	-9.52	-0.59	7.87
3600	-0.5	4.11	-40.29	16.17	-40.91	18.65	-0.56	4.93
3625	-0.54	0.92	-37.57	23.39	-37.28	27.3	-0.57	1.95
3650	-0.61	-1.88	-35.67	27.5	-35.97	25.85	-0.58	-0.8
3675	-0.52	-3.79	-36.73	17.35	-36.88	21.83	-0.67	-3.29
3700	-0.53	-6.72	-34.63	26.13	-34.7	26.1	-0.62	-5.71
3725	-0.55	-10.1	-32.14	16.5	-32.12	20.36	-0.55	-8.31
3750	-0.64	-12.05	-31.22	-26.08	-31.57	-28	-0.66	-11.41
3775	-0.54	-14.83	-38.11	-17.57	-38.26	-12.73	-0.55	-14.11
3800	-0.55	-17.77	-34.1	12.48	-34.18	10.27	-0.71	-16.91
3825	-0.69	-20.71	-34.19	15.86	-34.09	20.63	-0.69	-19.5
3850	-0.73	-23.01	-32.23	2.17	-31.92	0.54	-0.8	-21.4
3875	-0.7	-25.41	-34.98	-18.55	-35.69	-13.78	-0.62	-23.88
3900	-0.76	-28.08	-34.12	2.67	-33.33	4.74	-0.64	-26.96
3925	-0.73	-30.94	-33.65	6.45	-34.1	7.84	-0.63	-29.72
3950	-0.69	-33.55	-30.03	-1.91	-29.52	4.97	-0.73	-32.78
3975	-0.88	-37.03	-28.46	-27.09	-28.44	-32.23	-0.66	-35.88
4000	-0.79	-39.32	-33.22	-37.21	-33.61	-29.9	-0.71	-38.42
4025	-1.11	-41.48	-31.64	-15.45	-30.68	-16.47	-0.7	-40.87
4050	-1.02	-43.93	-30.07	-46.58	-30.8	-44.22	-0.74	-43.77
4075	-0.84	-46.39	-30.83	-36.39	-30.18	-33.98	-0.7	-46.18
4100	-0.85	-49.12	-31.08	-13.76	-31	-13.57	-0.91	-49.76
4125	-0.89	-52	-29.97	-32.48	-29.55	-29.17	-0.78	-52.63
4150	-0.86	-54.55	-28.22	-42.91	-27.95	-43.56	-1.02	-55.47
4175	-0.83	-57.08	-30.95	-53.74	-30.88	-51.32	-0.96	-56.93
4200	-0.91	-60.69	-27.45	-59.91	-27.34	-59.1	-0.97	-60.25
4225	-0.99	-63.43	-31.4	-51.91	-30.88	-50.96	-1.06	-62.44
4250	-1	-65.88	-32.82	-50.19	-32.54	-48.78	-0.95	-64.39
4275	-0.91	-68.05	-29.02	-43.38	-28.51	-41.72	-0.95	-69.33
4300	-0.79	-71.73	-30.08	-46.81	-29.77	-48.44	-1.25	-71.16
4325	-0.98	-75.46	-28.26	-63.02	-28.28	-60.82	-0.89	-72.23
4350	-0.97	-79.32	-30.31	-58.75	-29.75	-60.33	-0.79	-76.33
4375	-1.35	-82.39	-28.95	-45.52	-29.19	-43.46	-0.9	-79.44
4400	-1.13	-83.92	-27.39	-56.59	-26.73	-56.02	-0.9	-83
4425	-1.51	-87.96	-23.63	-50.76	-23.81	-53.07	-0.95	-88.58
4450	-1.68	-87.43	-22.72	-79.29	-22.32	-79.07	-1.7	-89.38
4475	-1.74	-89.91	-24.08	-74.8	-23.96	-78.38	-1.42	-91.14
4500	-1.57	-92.67	-24.79	-98.8	-24.98	-98	-1.44	-92.25
4525	-1.37	-96.06	-23.56	-64.43	-23.07	-66.77	-1.47	-98.03
4550	-2.07	-100.3	-21.03	-102.21	-21.1	-103.1	-1.74	-98.64
4575	-1.49	-99.49	-23.97	-104.98	-23.68	-106.27	-1.59	-101.99
4600	-1.6	-103.41	-25.62	-107.17	-25.64	-107.55	-1.41	-102.85
4625	-1.48	-106.49	-22.51	-115.07	-22.39	-115.82	-1.62	-105.5
4650	-1.61	-110.75	-22.78	-125.27	-22.91	-127.32	-1.55	-108.91
4675	-1.66	-111.89	-26.89	-116.03	-26.69	-115.98	-1.34	-113.71
4700	-1.42	-117	-21.47	-117.43	-21.69	-119.87	-2.17	-117.84
4725	-1.58	-122.95	-26.61	-112.3	-26.25	-111.45	-1.61	-117.31
4750	-2.36	-129.19	-20.3	-111.36	-20.34	-113.87	-2.01	-122.59
4775	-2.38	-127.8	-22.43	-149.74	-22.27	-149.27	-2.09	-123.79
4800	-3	-130.68	-24.54	-139.56	-24.54	-142.16	-2.4	-125.85
4825	-3.46	-129.08	-23.35	-161.18	-23.63	-161.84	-2.7	-126.74
4850	-3.73	-128.5	-27.14	-154.42	-27.27	-156.54	-2.57	-127.55
4875	-3.07	-125.23	-30.36	-131.25	-30.64	-128.45	-2.27	-129.12
4900	-3.03	-130.9	-20.12	-120.52	-19.87	-123.33	-2.58	-134.39
4925	-2.15	-131.56	-26.1	-121.25	-26.11	-121.29	-2.57	-132.06
4950	-2.28	-139.05	-19.97	-124.7	-19.9	-124.77	-2.08	-136.2
4975	-1.86	-139.92	-22.4	-149.3	-22.48	-149.38	-2.36	-137.55
5000	-2.26	-144.67	-20.6	-157.88	-21.11	-156.66	-1.97	-138.18
