! Mini-Circuits								
! S2P DATA File Format								
! Type: BAND PASS FILTER								
! Model: SXBP-425+								
! All S Parameters are in dB deg format								
! TEST CONDITIONS: INPUT POWER = 0 dBm @ Temperature = + 85 deg C								
! 401 Frequency points								
!								
# MHz S DB R 50								
!								
!FREQMAG(S11)PHS(S11)MAG(S12)PHS(S12)MAG(S21)PHS(S21)MAG(S22)PHS(S22) 
0.5	-0.21	179.18	-104.03	-3.2	-94.88	-94.44	-0.2	179.18
5	-0.23	172.37	-95.22	68.04	-102.48	89.38	-0.23	172.45
10	-0.25	164.91	-86.19	73.72	-91.11	108.2	-0.25	165.1
20	-0.28	150.58	-80.73	58.12	-83.88	85.79	-0.29	150.91
30	-0.31	137.13	-76.01	62.26	-78.96	38.16	-0.32	137.58
40	-0.33	124.67	-84.06	31.84	-82.2	11.51	-0.33	125.17
50	-0.33	113.2	-80.1	23.53	-78.21	24.65	-0.32	113.92
60	-0.32	102.8	-78.64	12.1	-75.66	10.73	-0.32	103.4
70	-0.31	93.15	-77.13	21.64	-78.51	-3.14	-0.32	93.92
80	-0.3	84.43	-78.36	-5.72	-77.14	-20.63	-0.31	85.19
90	-0.29	76.39	-76.61	-11.17	-76.94	-37.32	-0.3	77.15
100	-0.28	69.09	-76.32	-17.79	-81.02	-14.13	-0.29	69.83
110	-0.26	62.4	-80.7	-54.3	-77.31	-39.55	-0.27	63.05
120	-0.25	56.27	-76.63	-65.48	-78.52	-47.02	-0.26	56.91
130	-0.24	50.62	-75.55	-45.27	-83.09	-52.39	-0.24	51.36
140	-0.22	45.53	-82	-57.49	-77.51	-52.76	-0.22	46.13
150	-0.21	40.8	-81.97	-72.07	-80.64	-54.3	-0.21	41.43
160	-0.2	36.35	-83.2	-76.11	-80.19	-43.84	-0.2	36.94
170	-0.19	32.16	-80.15	-74.35	-77.84	-62.3	-0.19	32.69
180	-0.19	28.15	-80.27	-81.25	-78.57	-56.48	-0.19	28.69
190	-0.17	24.3	-80.46	-96.93	-81.81	-74.02	-0.17	24.82
200	-0.16	20.61	-82.54	-79.84	-81.32	-111.59	-0.17	21.06
210	-0.16	16.96	-81.22	-88.52	-82.06	-67.38	-0.15	17.5
220	-0.16	13.48	-80.71	-91.7	-80.32	-50.67	-0.15	13.92
230	-0.14	10.04	-80.04	-68.37	-85.73	-31.64	-0.16	10.51
240	-0.14	6.68	-89.16	-87.75	-84.84	-39.52	-0.15	7.2
250	-0.15	3.49	-81.28	-100.2	-84.14	-107.66	-0.14	3.92
260	-0.13	0.23	-85.27	-147.69	-88.63	-81.24	-0.14	0.63
270	-0.13	-2.98	-89.08	27.84	-95.14	-104.98	-0.15	-2.64
280	-0.14	-6.28	-92.82	12.26	-104.45	-80.76	-0.15	-5.93
290	-0.14	-9.67	-89.37	44.62	-82.9	88.78	-0.15	-9.33
300	-0.14	-13.17	-77.15	110.97	-79.41	98.38	-0.14	-12.83
310	-0.16	-16.97	-73.27	80.37	-72.42	88.86	-0.16	-16.66
320	-0.17	-20.93	-68.64	67.49	-67.89	70.74	-0.16	-20.72
330	-0.18	-25.43	-62.61	65.59	-63.06	67.91	-0.18	-25.14
340	-0.21	-30.46	-57.46	61.33	-57.38	60.15	-0.21	-30.13
350	-0.26	-36.38	-51.92	55.55	-51.89	55.88	-0.24	-36.05
360	-0.32	-43.62	-45.97	47.03	-45.66	46.99	-0.32	-43.34
361	-0.32	-44.19	-45.28	47.57	-45.32	47.21	-0.31	-44.15
362	-0.33	-45.05	-44.63	46.34	-44.62	46.17	-0.33	-44.98
363	-0.33	-45.93	-43.95	45.34	-43.98	44.87	-0.32	-45.86
364	-0.34	-46.79	-43.34	44.59	-43.27	44.06	-0.33	-46.75
365	-0.35	-47.81	-42.61	43.06	-42.52	42.82	-0.35	-47.68
366	-0.37	-48.76	-41.88	42.11	-41.84	42.02	-0.36	-48.66
367	-0.38	-49.78	-41.17	40.84	-41.15	40.35	-0.37	-49.64
368	-0.39	-50.73	-40.46	39.82	-40.42	39.42	-0.39	-50.7
369	-0.41	-51.88	-39.68	38.24	-39.67	38.24	-0.41	-51.7
370	-0.43	-52.96	-38.96	37.13	-38.96	37.1	-0.42	-52.79
371	-0.44	-54.11	-38.19	35.62	-38.2	35.63	-0.44	-53.95
372	-0.46	-55.29	-37.43	34.15	-37.42	34.31	-0.45	-55.09
373	-0.48	-56.56	-36.6	32.73	-36.6	32.92	-0.48	-56.38
374	-0.51	-57.82	-35.8	31.51	-35.83	31.42	-0.49	-57.58
375	-0.53	-59.14	-35.03	29.7	-35	29.57	-0.52	-58.97
376	-0.56	-60.6	-34.19	28.14	-34.15	27.96	-0.54	-60.37
377	-0.58	-62.05	-33.32	26.51	-33.31	26.45	-0.57	-61.78
378	-0.61	-63.56	-32.44	24.55	-32.44	24.42	-0.6	-63.31
379	-0.64	-65.21	-31.54	22.51	-31.56	22.6	-0.63	-64.86
380	-0.68	-66.95	-30.63	20.49	-30.64	20.57	-0.67	-66.55
381	-0.73	-68.66	-29.71	18.34	-29.69	18.26	-0.71	-68.34
382	-0.77	-70.59	-28.75	16.13	-28.75	16.12	-0.76	-70.15
383	-0.82	-72.63	-27.79	13.57	-27.77	13.69	-0.81	-72.15
384	-0.88	-74.7	-26.8	11.06	-26.77	10.99	-0.86	-74.26
385	-0.95	-76.97	-25.79	8.28	-25.76	8.38	-0.9	-76.38
386	-1.02	-79.37	-24.75	5.31	-24.72	5.4	-0.99	-78.79
387	-1.11	-81.98	-23.69	2.07	-23.65	2.25	-1.06	-81.21
388	-1.2	-84.75	-22.6	-1.25	-22.56	-1.25	-1.15	-83.97
389	-1.31	-87.73	-21.5	-4.97	-21.46	-4.97	-1.26	-86.86
390	-1.44	-91.02	-20.35	-8.96	-20.31	-8.86	-1.37	-89.92
391	-1.6	-94.46	-19.21	-13.28	-19.13	-13.21	-1.52	-93.24
392	-1.79	-98.22	-18.03	-17.83	-17.96	-17.84	-1.69	-96.86
393	-2	-102.43	-16.82	-23	-16.77	-23.04	-1.89	-100.79
394	-2.27	-106.95	-15.6	-28.54	-15.55	-28.64	-2.13	-105.11
395	-2.61	-111.91	-14.39	-34.69	-14.32	-34.74	-2.44	-109.71
396	-3.01	-117.41	-13.17	-41.39	-13.11	-41.51	-2.8	-114.85
397	-3.52	-123.39	-11.96	-48.69	-11.9	-48.76	-3.26	-120.39
398	-4.16	-129.94	-10.78	-56.7	-10.73	-56.86	-3.83	-126.25
399	-4.98	-136.92	-9.64	-65.29	-9.6	-65.67	-4.55	-132.56
400	-6.03	-144.45	-8.58	-74.71	-8.54	-75.06	-5.44	-139.09
401	-7.33	-152.34	-7.61	-84.67	-7.57	-85.04	-6.55	-145.78
402	-8.98	-160.26	-6.77	-95.11	-6.73	-95.48	-7.91	-152.16
403	-11.06	-167.95	-6.03	-105.77	-5.99	-106.13	-9.55	-157.87
404	-13.69	-174.97	-5.43	-116.64	-5.4	-116.97	-11.46	-162.38
405	-17.08	179.73	-4.95	-127.37	-4.92	-127.73	-13.62	-165.1
406	-21.72	177.84	-4.57	-137.96	-4.55	-138.27	-15.97	-165.16
407	-28.75	-170.85	-4.27	-148.16	-4.25	-148.51	-18.33	-162.2
408	-33.89	-98.05	-4.05	-158.08	-4.04	-158.35	-20.56	-156.22
409	-27.86	-61.37	-3.87	-167.56	-3.86	-167.95	-22.33	-148.56
410	-24.63	-55.81	-3.74	-176.8	-3.73	-177.11	-23.82	-141.31
411	-22.94	-55.34	-3.63	174.22	-3.62	173.95	-25.22	-135.77
412	-22.12	-55.71	-3.54	165.63	-3.53	165.28	-26.86	-132
413	-21.74	-55.81	-3.47	157.16	-3.47	156.76	-29.08	-129.01
414	-21.66	-55.29	-3.41	148.83	-3.39	148.55	-32.46	-124.36
415	-21.77	-54.44	-3.36	140.73	-3.35	140.34	-38	-110.78
416	-21.98	-53.12	-3.31	132.69	-3.32	132.41	-43.77	-40.61
417	-22.25	-51.69	-3.28	124.86	-3.28	124.57	-36.76	9.38
418	-22.62	-50.16	-3.25	117.11	-3.25	116.76	-32.16	18.93
419	-23.09	-48.95	-3.22	109.38	-3.24	109.14	-29.5	21.71
420	-23.78	-48.06	-3.22	101.8	-3.22	101.49	-27.72	23.53
421	-24.75	-47.03	-3.2	94.19	-3.21	93.96	-26.59	25.78
422	-26.18	-45.51	-3.19	86.7	-3.2	86.45	-25.71	28.78
423	-28.3	-41.74	-3.2	79.19	-3.2	78.92	-25	32.76
424	-31.46	-31.28	-3.21	71.73	-3.21	71.44	-24.31	37.88
425	-35.27	0.94	-3.22	64.24	-3.22	64.04	-23.45	43.57
426	-33.43	52.44	-3.24	56.84	-3.24	56.64	-22.42	48.94
427	-28.61	73.27	-3.26	49.38	-3.27	49.18	-21.27	53.06
428	-24.93	78.86	-3.3	41.86	-3.3	41.7	-20.05	55.82
429	-22.22	79.47	-3.34	34.38	-3.34	34.14	-18.86	56.95
430	-20.14	77.92	-3.4	26.86	-3.38	26.62	-17.77	56.89
431	-18.5	75.4	-3.44	19.37	-3.45	19.11	-16.83	55.66
432	-17.24	72.5	-3.5	11.76	-3.5	11.57	-16.03	53.74
433	-16.28	69.23	-3.57	4.14	-3.57	3.86	-15.43	51.19
434	-15.58	66.08	-3.65	-3.59	-3.63	-3.85	-15.03	48.23
435	-15.13	63.4	-3.71	-11.47	-3.71	-11.78	-14.89	45.32
436	-14.91	61.36	-3.8	-19.44	-3.79	-19.76	-14.99	42.65
437	-14.9	60.34	-3.89	-27.64	-3.88	-27.92	-15.4	40.55
438	-15.08	61.23	-3.99	-36.13	-3.98	-36.46	-16.17	39.98
439	-15.35	64.72	-4.12	-44.88	-4.11	-45.25	-17.36	42.84
440	-15.42	71.38	-4.29	-54.04	-4.29	-54.34	-18.79	52.44
441	-14.99	80.63	-4.52	-63.44	-4.52	-63.85	-19.45	71.86
442	-13.84	89.54	-4.82	-73.19	-4.83	-73.64	-17.95	93.43
443	-12.15	95.18	-5.22	-83.21	-5.23	-83.64	-15.13	105.44
444	-10.35	97.09	-5.75	-93.29	-5.77	-93.67	-12.38	108.43
445	-8.69	96	-6.39	-103.21	-6.41	-103.63	-10.09	106.55
446	-7.25	92.88	-7.14	-112.92	-7.17	-113.31	-8.25	102.41
447	-6.06	88.69	-8.01	-122.2	-8.05	-122.55	-6.81	97.2
448	-5.1	84.02	-8.96	-130.8	-9	-131.16	-5.67	91.58
449	-4.33	79.19	-9.97	-138.79	-10.01	-139.03	-4.78	86
450	-3.71	74.48	-11.03	-146.05	-11.08	-146.3	-4.08	80.65
451	-3.22	70.03	-12.11	-152.69	-12.16	-152.95	-3.52	75.63
452	-2.83	65.79	-13.19	-158.7	-13.24	-159.05	-3.08	70.92
453	-2.51	61.88	-14.26	-164.09	-14.31	-164.3	-2.72	66.65
454	-2.24	58.25	-15.33	-169.2	-15.38	-169.3	-2.43	62.69
455	-2.03	54.91	-16.36	-173.73	-16.41	-173.76	-2.18	59.09
456	-1.85	51.76	-17.39	-177.92	-17.44	-178.05	-1.98	55.68
457	-1.69	48.91	-18.4	178.19	-18.42	178.28	-1.82	52.61
458	-1.56	46.22	-19.37	174.74	-19.41	174.8	-1.67	49.76
459	-1.45	43.78	-20.29	171.37	-20.33	171.47	-1.54	47.14
460	-1.35	41.41	-21.22	168.28	-21.26	168.44	-1.44	44.65
461	-1.27	39.27	-22.12	165.59	-22.16	165.63	-1.34	42.33
462	-1.19	37.28	-22.97	163.09	-23	162.73	-1.27	40.15
463	-1.12	35.35	-23.84	160.4	-23.87	160.38	-1.19	38.11
464	-1.06	33.54	-24.66	157.97	-24.7	158.04	-1.13	36.26
465	-1.01	31.86	-25.48	155.84	-25.51	155.8	-1.07	34.42
466	-0.97	30.2	-26.28	153.71	-26.29	153.8	-1.01	32.74
467	-0.92	28.7	-27.04	151.64	-27.07	151.73	-0.97	31.14
468	-0.88	27.23	-27.8	149.71	-27.8	149.76	-0.93	29.58
469	-0.83	25.82	-28.52	148.01	-28.54	147.97	-0.89	28.12
470	-0.8	24.45	-29.22	146.15	-29.25	146.24	-0.85	26.77
471	-0.78	23.3	-29.95	144.59	-29.96	144.53	-0.82	25.38
472	-0.75	21.98	-30.65	142.88	-30.63	143.11	-0.78	24.16
473	-0.72	20.91	-31.31	141.39	-31.32	141.39	-0.76	22.91
474	-0.7	19.79	-31.99	139.97	-31.95	139.99	-0.73	21.74
475	-0.67	18.74	-32.6	138.58	-32.61	138.77	-0.7	20.65
476	-0.66	17.61	-33.25	137.16	-33.27	137.38	-0.69	19.57
477	-0.63	16.64	-33.88	136.12	-33.88	135.94	-0.67	18.6
478	-0.61	15.66	-34.47	134.88	-34.48	134.7	-0.65	17.55
479	-0.61	14.75	-35.09	133.6	-35.09	133.57	-0.63	16.56
480	-0.58	13.86	-35.67	132.55	-35.7	132.42	-0.61	15.62
481	-0.56	12.98	-36.25	131.44	-36.28	131.37	-0.59	14.78
482	-0.55	12.17	-36.83	130.4	-36.82	130.4	-0.57	13.85
483	-0.54	11.35	-37.37	129.63	-37.36	129.49	-0.56	12.99
484	-0.52	10.53	-37.93	128.57	-37.98	128.55	-0.55	12.21
485	-0.51	9.75	-38.45	127.44	-38.5	127.25	-0.52	11.38
486	-0.5	9.07	-39.01	126.68	-39	126.6	-0.52	10.62
487	-0.49	8.35	-39.52	125.64	-39.55	125.6	-0.51	9.86
488	-0.48	7.59	-40	124.98	-40.03	124.96	-0.5	9.15
489	-0.47	6.92	-40.49	124.07	-40.57	124.09	-0.49	8.41
490	-0.45	6.25	-41.02	123.37	-41.03	123.4	-0.47	7.71
491	-0.45	5.61	-41.5	122.86	-41.48	122.35	-0.47	7.01
492	-0.44	4.93	-41.97	122.09	-42.04	121.94	-0.46	6.34
493	-0.43	4.32	-42.44	121.09	-42.53	121.11	-0.45	5.74
494	-0.42	3.72	-42.87	120.64	-42.93	120.65	-0.44	5.11
495	-0.41	3.11	-43.36	120.09	-43.43	120.09	-0.44	4.55
496	-0.41	2.56	-43.79	119.41	-43.83	119.34	-0.43	3.93
497	-0.4	1.94	-44.3	118.79	-44.29	118.89	-0.41	3.36
498	-0.39	1.4	-44.62	118.15	-44.74	117.9	-0.41	2.78
499	-0.38	0.87	-44.99	117.8	-45.12	117.3	-0.4	2.18
500	-0.38	0.31	-45.44	117.1	-45.53	116.79	-0.4	1.63
501	-0.37	-0.15	-45.87	116.51	-45.91	116.28	-0.39	1.15
502	-0.37	-0.7	-46.33	116	-46.37	115.87	-0.39	0.55
503	-0.37	-1.15	-46.73	115.15	-46.73	115.35	-0.38	0.1
504	-0.36	-1.68	-47.02	114.72	-47.1	114.97	-0.37	-0.39
505	-0.35	-2.12	-47.45	113.76	-47.58	114.47	-0.37	-0.91
506	-0.35	-2.62	-47.89	114.34	-47.98	114.45	-0.36	-1.42
507	-0.35	-3.14	-48.22	113.16	-48.31	113.37	-0.36	-1.83
508	-0.34	-3.53	-48.6	112.68	-48.68	113.16	-0.35	-2.35
509	-0.34	-4.03	-48.98	111.92	-48.97	112.61	-0.35	-2.77
510	-0.33	-4.42	-49.34	112.16	-49.44	111.75	-0.34	-3.27
515	-0.32	-6.56	-51.12	108.98	-51.12	109.42	-0.32	-5.45
520	-0.3	-8.6	-52.82	105.36	-52.79	105.99	-0.3	-7.39
525	-0.29	-10.34	-54.34	104.09	-54.32	104.58	-0.29	-9.32
530	-0.28	-12.14	-55.78	101.74	-55.67	103.2	-0.28	-11.03
535	-0.27	-13.69	-57.03	99.46	-57.6	101.18	-0.27	-12.73
540	-0.26	-15.36	-58.81	99.17	-58.86	98.61	-0.25	-14.26
545	-0.24	-16.75	-60.27	94.74	-60.21	97.33	-0.25	-15.74
550	-0.24	-18.21	-61.58	96.19	-61.38	98.18	-0.24	-17.12
560	-0.24	-20.83	-64.1	96.96	-63.89	90.82	-0.23	-19.84
570	-0.23	-23.27	-65.11	96.29	-66.79	91.75	-0.23	-22.3
580	-0.22	-25.44	-68.22	87.8	-67.72	94.74	-0.22	-24.56
590	-0.2	-27.75	-70.33	84.09	-70.18	81.77	-0.22	-26.79
600	-0.2	-29.79	-71	68.91	-70.96	90.33	-0.21	-28.84
610	-0.2	-31.65	-73.77	76.69	-75.24	84.96	-0.19	-30.82
620	-0.18	-33.62	-73.92	87.66	-79.33	67.89	-0.19	-32.72
630	-0.18	-35.42	-78.43	83.91	-78.47	80.88	-0.19	-34.59
640	-0.18	-37.15	-77.15	83.92	-78.27	87.02	-0.18	-36.37
650	-0.17	-38.83	-79.5	90.26	-84	99.32	-0.17	-38.1
660	-0.18	-40.52	-78.69	77.98	-78.54	73.91	-0.19	-39.79
670	-0.18	-42.17	-82.6	91.97	-82.25	110.34	-0.17	-41.39
680	-0.18	-43.77	-79.8	82.66	-89.86	93.18	-0.17	-43.01
690	-0.17	-45.38	-84.09	97.86	-91.09	91.01	-0.18	-44.65
700	-0.17	-46.89	-87.49	129.3	-83.43	40.95	-0.17	-46.19
710	-0.17	-48.38	-82.43	109.45	-93.92	44.46	-0.18	-47.64
720	-0.17	-49.86	-83.81	85.88	-83.56	48.66	-0.17	-49.14
730	-0.17	-51.31	-85.13	50.13	-93.45	106.76	-0.17	-50.54
740	-0.17	-52.83	-88.29	38.58	-90.93	168.97	-0.18	-51.98
750	-0.17	-54.27	-99.93	99.45	-84.67	73.11	-0.17	-53.48
760	-0.18	-55.53	-94.82	108.9	-109.87	-27.13	-0.18	-54.83
770	-0.17	-56.98	-92.58	-80.37	-94.29	170.08	-0.17	-56.19
780	-0.17	-58.37	-92.55	42.35	-89.03	16.43	-0.17	-57.62
790	-0.18	-59.68	-86.02	-3.09	-91.48	-55.96	-0.17	-58.89
800	-0.18	-61.03	-89.56	134.49	-85.29	-9.71	-0.18	-60.37
810	-0.17	-62.43	-91.57	-129.52	-84.37	-92.5	-0.17	-61.69
820	-0.17	-63.77	-87.13	-148.57	-84.56	14.93	-0.18	-63
830	-0.17	-65.08	-89.28	38.54	-101.75	-73.76	-0.19	-64.34
840	-0.18	-66.38	-102.27	68.39	-93.85	1.19	-0.19	-65.6
850	-0.18	-67.65	-86.99	-96.34	-79.7	157.66	-0.19	-66.86
860	-0.18	-68.93	-103.78	158.29	-84.22	107.35	-0.19	-68.11
870	-0.18	-70.28	-93.01	166.3	-96.18	-45.13	-0.19	-69.44
880	-0.18	-71.44	-89.19	-131.91	-93.04	-94.42	-0.18	-70.73
890	-0.18	-72.76	-102.1	-122.17	-92.05	12.51	-0.17	-71.86
900	-0.17	-73.95	-96.97	-70.19	-93.26	-154.8	-0.2	-73.03
910	-0.2	-75.18	-83.18	127.71	-96.35	120.54	-0.18	-74.36
920	-0.2	-76.41	-91.59	-62.86	-89.54	88.39	-0.19	-75.6
930	-0.2	-77.61	-93.37	112.39	-92.66	163.08	-0.2	-76.73
940	-0.19	-78.95	-88.46	40.38	-87.99	107.82	-0.19	-78.04
950	-0.2	-80.12	-91.53	-78.74	-91.68	-172.22	-0.18	-79.33
960	-0.2	-81.23	-84.77	89.32	-97.22	-148.11	-0.2	-80.4
970	-0.21	-82.45	-87.68	-86.62	-86.12	93.11	-0.2	-81.59
980	-0.2	-83.68	-99.45	32.6	-96.58	-95.21	-0.19	-82.89
990	-0.2	-84.91	-93.14	82.88	-87.7	-73.3	-0.2	-84.03
1000	-0.19	-86.03	-89.61	-0.3	-91.71	-10.72	-0.21	-85.13
1025	-0.21	-89.05	-98.94	-77.79	-89.97	142.59	-0.19	-88.12
1050	-0.21	-92.09	-87.06	72.02	-94.11	-173.38	-0.21	-91.07
1075	-0.22	-94.86	-99.38	-78.69	-91.17	64.14	-0.22	-93.8
1100	-0.21	-97.59	-86.18	-151.97	-91.57	88.39	-0.2	-96.64
1125	-0.22	-100.68	-93.72	8.99	-81.01	-2	-0.21	-99.54
1150	-0.24	-103.47	-108.81	-105.42	-83.5	-76.91	-0.24	-102.35
1175	-0.23	-106.02	-94.59	-22.1	-97.52	174.83	-0.21	-105.01
1200	-0.23	-109.13	-79.38	-111.08	-90.21	-110.08	-0.23	-107.86
1225	-0.23	-111.83	-95.84	53.8	-87.33	-85.59	-0.24	-110.76
1250	-0.25	-114.51	-98.16	-11.97	-93.04	-89.56	-0.25	-113.32
1275	-0.23	-117.33	-84.04	-88.46	-91.63	-129.64	-0.24	-116.1
1300	-0.26	-120.05	-80.48	-134.61	-89.97	163.55	-0.26	-118.89
1325	-0.29	-122.71	-85.16	170.88	-88.96	-95.64	-0.27	-121.33
1350	-0.25	-125.51	-82.61	-92.3	-88.45	-104.43	-0.25	-124.02
1375	-0.26	-128.21	-84.44	-173.63	-79.91	-92.29	-0.27	-126.8
1400	-0.28	-130.88	-90.2	-23.4	-81.91	-71.72	-0.28	-129.33
1425	-0.26	-133.59	-84.97	-85.23	-86.64	-115.31	-0.26	-131.99
1450	-0.27	-136.34	-83.62	-82.94	-81.94	-133.06	-0.27	-134.77
1475	-0.29	-139.02	-79.68	-63.37	-76.46	-51.06	-0.28	-137.35
1500	-0.28	-141.53	-85.38	-70.71	-81.8	-92.79	-0.27	-139.98
1525	-0.3	-144.33	-77.02	-104.54	-74.71	-112.75	-0.29	-142.61
1550	-0.31	-146.94	-74.55	-125.59	-73.49	-127.53	-0.3	-145.21
1575	-0.29	-149.48	-83.5	-93.52	-88.71	-97.55	-0.3	-147.76
1600	-0.31	-152.21	-74.46	-68.9	-73.12	-71.22	-0.29	-150.35
1625	-0.34	-154.74	-78.52	-128.77	-76.82	-140.96	-0.32	-152.84
1650	-0.35	-157.31	-75.45	-96.8	-71.74	-91.85	-0.32	-155.51
1675	-0.33	-159.91	-69.7	-69.52	-68.74	-75.47	-0.29	-158.09
1700	-0.33	-162.61	-69.1	-87.62	-68.25	-82.57	-0.35	-160.88
1725	-0.34	-164.98	-62.68	-156.28	-62.52	-155.94	-0.33	-163.02
1750	-0.3	-167.55	-67.82	175.34	-67.59	-178.59	-0.32	-165.73
1775	-0.35	-170.44	-70.79	-179.16	-72.18	-164.05	-0.34	-168.36
1800	-0.33	-172.89	-69.98	-172.48	-69.95	177.94	-0.36	-170.79
1825	-0.35	-175.54	-67.24	-166.44	-66.05	-162.93	-0.32	-173.34
1850	-0.35	-178.12	-67.38	-171.51	-66.34	178.39	-0.34	-176.1
1875	-0.38	179.2	-75.95	-169.59	-74.71	158.4	-0.36	-178.48
1900	-0.35	176.82	-73.3	-86.61	-69.84	-117.57	-0.36	178.95
1925	-0.37	174.11	-74.66	-161.19	-73	-133.8	-0.35	176.45
1950	-0.36	171.67	-69.43	156.05	-70.96	157.36	-0.37	173.84
1975	-0.36	169.08	-74.23	-45.27	-76.65	-31.88	-0.36	171.56
2000	-0.35	166.48	-62.34	-142.23	-63.1	-141.52	-0.37	168.87
2025	-0.37	163.83	-64.84	-170.33	-65.32	-168.86	-0.38	166.3
2050	-0.38	161.38	-67.63	-120.49	-67.16	-128.13	-0.39	163.85
2075	-0.39	158.57	-59.52	-118.27	-60.54	-122.27	-0.36	161.37
2100	-0.41	156.21	-59.61	-126.69	-58.81	-134.66	-0.39	158.77
2125	-0.4	153.67	-59.92	-121.46	-56.89	-117.81	-0.41	156.29
2150	-0.42	151.37	-52.58	-169.05	-57.79	-175.5	-0.38	153.73
2175	-0.4	148.66	-60.85	157.98	-61.37	160.79	-0.39	151.16
2200	-0.41	146.31	-56.17	-177.86	-56.81	179.86	-0.41	148.78
2225	-0.39	143.56	-56.66	-172.09	-58.87	-174.84	-0.42	146.39
2250	-0.42	141.13	-60.97	-174.88	-60.88	-170.31	-0.41	143.73
2275	-0.43	138.49	-53.09	-176.38	-53.12	175.23	-0.43	141.21
2300	-0.43	136.2	-52.98	130.8	-53.07	130.91	-0.4	138.91
2325	-0.42	133.45	-57.01	132.45	-57.31	136.46	-0.42	136.24
2350	-0.45	130.95	-64.07	179.17	-60.81	-173.81	-0.41	133.7
2375	-0.43	128.53	-57.2	125.43	-57.8	124.56	-0.42	131.16
2400	-0.45	126.19	-56.61	141.59	-55.27	146.02	-0.43	128.63
2425	-0.42	123.47	-59.16	127.75	-59.89	127.66	-0.43	126.11
2450	-0.44	121.09	-57.83	170.41	-57.63	163.36	-0.46	123.63
2475	-0.41	118.4	-61.43	144.11	-62.53	147.56	-0.46	121.03
2500	-0.44	115.82	-57.44	-144.91	-58.15	-146.6	-0.48	118.72
2525	-0.44	113.24	-49.88	175.47	-50.02	167.29	-0.49	116.18
2550	-0.47	110.74	-54.86	-172.21	-54.59	-162.41	-0.48	113.57
2575	-0.45	108.31	-54.68	-170.19	-53.78	-178.99	-0.48	111.17
2600	-0.49	105.58	-47.63	153.98	-47.93	156.2	-0.47	108.76
2625	-0.48	103.29	-54.14	141.28	-54.43	136.8	-0.47	106.11
2650	-0.5	100.6	-45.72	159.88	-46.59	161.11	-0.52	103.68
2675	-0.49	98.36	-48.64	119.04	-48.47	115.93	-0.46	101.2
2700	-0.5	95.7	-48.82	154.08	-49.2	148.38	-0.51	98.59
2725	-0.49	93.29	-51.9	143.37	-52.27	149.88	-0.5	96.05
2750	-0.51	90.73	-42.83	144.63	-43.14	143.97	-0.55	93.61
2775	-0.5	88.18	-49.02	106.69	-49.42	112.07	-0.5	91.05
2800	-0.58	85.69	-42.65	157.66	-41.72	151.28	-0.53	88.35
2825	-0.48	83.36	-42.36	83.45	-42.85	82	-0.5	86.18
2850	-0.53	80.48	-48.42	90.43	-47.91	92.8	-0.5	83.45
2875	-0.55	78.29	-51.48	72.71	-51.98	76.62	-0.54	80.97
2900	-0.58	75.98	-42.08	109.62	-42.07	105.74	-0.55	78.54
2925	-0.56	73.36	-48.11	100.05	-47.91	98.4	-0.54	75.75
2950	-0.55	70.88	-44.41	98.77	-45.33	101.36	-0.57	73.15
2975	-0.53	68.38	-47.81	78.13	-50.52	81.57	-0.59	71.05
3000	-0.53	65.6	-48.61	117.26	-47.71	117.71	-0.52	68.13
3025	-0.56	63.22	-45.28	94.47	-44.84	94.15	-0.6	65.53
3050	-0.56	60.68	-45.63	73.72	-47.11	70.13	-0.6	62.77
3075	-0.56	58.37	-50.81	128.67	-49.89	133.3	-0.6	60.04
3100	-0.61	55.69	-39.6	107.02	-39.93	111.36	-0.67	58.13
3125	-0.56	53.4	-42.46	60.88	-41.69	63.54	-0.66	55.23
3150	-0.55	50.63	-42.93	86.14	-43.33	86.03	-0.65	53.46
3175	-0.63	47.92	-49.57	114.77	-47.54	97.71	-0.64	50.19
3200	-0.58	45.82	-40.29	94.91	-39.2	90.25	-0.69	48.33
3225	-0.59	42.76	-40.82	75.41	-40.97	80.26	-0.6	45.68
3250	-0.63	40.13	-39.27	89.71	-38.7	89.05	-0.65	42.46
3275	-0.64	38.24	-38	56.78	-38.55	57.61	-0.66	40.37
3300	-0.61	35.52	-41.87	61.36	-41.88	61.51	-0.62	37.87
3325	-0.67	33.04	-39.44	70.69	-40.08	68.77	-0.62	34.75
3350	-0.7	30.5	-41.41	69.71	-40.58	72.64	-0.68	32.13
3375	-0.65	27.83	-38.49	69.94	-39.54	69.71	-0.69	29.96
3400	-0.73	25.38	-36.23	67.18	-35.84	71.38	-0.67	27.02
3425	-0.72	23.45	-35.36	50.54	-35.9	50.78	-0.72	24.25
3450	-0.62	20.32	-37.25	41.67	-37.2	45.23	-0.8	21.94
3475	-0.74	17.83	-38.6	44.65	-40.2	38.38	-0.74	19.36
3500	-0.81	15.25	-37.09	48.34	-37.9	51.8	-0.78	16.97
3525	-0.73	12.94	-34.43	44.24	-35.01	40.35	-0.76	13.88
3550	-0.82	10.72	-31.42	17.75	-32.13	19.74	-0.83	12.11
3575	-0.72	8.62	-40.35	-9.4	-40.19	-3.13	-0.78	9.55
3600	-0.7	5.41	-37.48	19.78	-38.02	23.25	-0.82	6.66
3625	-0.79	2.81	-37.46	29.15	-36.7	27.74	-0.82	3.77
3650	-0.79	0.23	-37.55	14.07	-38.74	18.84	-0.77	1.44
3675	-0.69	-1.92	-35.47	40.25	-35.21	43.38	-0.9	-1.41
3700	-0.7	-5.08	-34.11	31.76	-33.99	32.63	-0.86	-3.64
3725	-0.81	-7.99	-31.97	19.01	-32	20.48	-0.78	-6.55
3750	-0.78	-9.98	-34.29	-16.33	-34.48	-13.82	-0.82	-9.07
3775	-0.79	-12.81	-36.43	-11.83	-36.07	-10.09	-0.86	-12.23
3800	-0.83	-15.69	-40.13	21.08	-39.82	27.31	-0.85	-14.65
3825	-0.96	-18.83	-33.03	6.16	-32.7	12.44	-0.97	-17.79
3850	-0.93	-20.28	-34.16	0.88	-34.27	0.29	-0.97	-18.62
3875	-0.9	-23.5	-34.33	21.6	-34.92	24.35	-0.9	-22.16
3900	-0.96	-25.25	-34.69	-11.22	-34.12	-7.57	-0.84	-25.03
3925	-0.89	-28.53	-31	9.47	-31.56	8.12	-0.9	-27.79
3950	-0.9	-31.27	-31.15	-16.01	-30.78	-10.94	-0.9	-30.58
3975	-1.02	-34.01	-32.62	-18.44	-32.39	-22.26	-0.85	-33.43
4000	-1.2	-37.24	-31.7	-16.41	-31.74	-9.27	-1	-35.48
4025	-1.06	-38.5	-30.55	-23.84	-29.88	-24.34	-0.94	-38.53
4050	-1.27	-41.52	-31.92	-25.01	-32.02	-16.89	-0.94	-41.12
4075	-1.09	-43.39	-29.07	-38.74	-28.66	-41.33	-1	-45.2
4100	-1.09	-46.33	-30.61	-32.84	-29.74	-25.73	-1.3	-47.75
4125	-1.21	-47.81	-29.84	-44.35	-29.75	-41.35	-1.24	-49.8
4150	-1.06	-50.92	-30.73	-39.95	-30.71	-39.91	-1.11	-52.33
4175	-1	-54.9	-29.04	-43.03	-28.92	-39.91	-1.31	-55.14
4200	-1.14	-57.9	-30.08	-51.8	-29.61	-52.67	-1.28	-57.18
4225	-1.25	-59.97	-30.56	-65.12	-30.66	-65.08	-1.24	-59.69
4250	-1.34	-62.7	-31.13	-53.62	-31.76	-52.29	-1.16	-63.01
4275	-1	-65.25	-32	-44.16	-31.62	-42.7	-1.31	-65.05
4300	-1.08	-69.18	-30.78	-40.68	-30.99	-45.02	-1.26	-66.33
4325	-1.22	-72.61	-29.11	-55.29	-28.97	-53.62	-1.15	-70.03
4350	-1.34	-75.62	-29.18	-54.65	-28.65	-62.54	-1.21	-73.6
4375	-1.67	-78.14	-29.07	-45.28	-29.58	-39.22	-1.19	-77.01
4400	-1.65	-81.62	-26.7	-35.57	-26.16	-35.54	-1.16	-80.51
4425	-1.69	-81.43	-24.06	-52.32	-24.16	-53.18	-1.76	-84.73
4450	-1.86	-86.1	-24.06	-73.51	-24.03	-74.09	-1.85	-84.76
4475	-1.76	-86.75	-23.32	-64.68	-23.11	-71.57	-1.51	-88.15
4500	-1.59	-90.25	-23.5	-74.48	-23.16	-70.18	-1.69	-90.67
4525	-2.08	-94.25	-21.43	-90.68	-20.84	-96.91	-2.03	-92.86
4550	-1.89	-92.29	-24.2	-104.31	-24.38	-98.38	-1.75	-95.43
4575	-1.67	-96.54	-27.5	-108.01	-27.13	-103.54	-1.74	-96.45
4600	-1.79	-100.86	-23.52	-94.22	-23.98	-94.84	-1.86	-100.71
4625	-1.81	-104.4	-23.06	-101.61	-22.66	-100.69	-1.93	-103.62
4650	-2.17	-106.41	-22.04	-137.98	-22.75	-137.47	-1.88	-104.03
4675	-1.78	-108.38	-24.98	-113.24	-25.28	-113.72	-2	-111.01
4700	-1.86	-113.36	-23.47	-130.47	-23.36	-130.4	-2.5	-110.64
4725	-2.46	-119.17	-21.98	-123.8	-22	-130.32	-2.54	-114.08
4750	-2.42	-123.08	-22.7	-111.88	-22.55	-114.06	-2.29	-116.55
4775	-3.07	-122.13	-25.43	-156.37	-25.26	-154.48	-2.56	-116.91
4800	-3.66	-123.5	-23.58	-137.92	-23.82	-140.52	-3.14	-120.52
4825	-3.58	-122.83	-25.15	-128.11	-23.77	-118.98	-2.59	-120.42
4850	-3.32	-120.44	-28.26	-148.63	-29.05	-148.79	-2.38	-121.27
4875	-2.76	-125.34	-25.28	-99.47	-25.23	-96.07	-2.24	-127.05
4900	-2.95	-123.87	-22.91	-143.29	-23.12	-143.89	-2.72	-130.26
4925	-2.46	-129.87	-22.67	-139.72	-22.52	-141.01	-2.71	-126.5
4950	-2.48	-134.16	-23.53	-132.79	-23.81	-131.31	-2.31	-131.43
4975	-2.44	-139.56	-20.41	-124.94	-20.38	-132.51	-2.32	-134.11
5000	-2.99	-139.5	-18.76	-155.42	-18.84	-153.02	-2.28	-135.98
